 Entering Gaussian System, Link 0=g16
 Input=../../g16_g16_C17-a_55.com
 Output=../../g16_g16_C17-a_55.log
 Initial command:
 /lrz/sys/applications/gaussian/g16.C.01/x86_64_legacy/exe/l1.exe "/dss/lxclscratch/0D/go29tiz2/Gau-6574.inp" -scrdir="/dss/lxclscratch/0D/go29tiz2/"
 Entering Link 1 = /lrz/sys/applications/gaussian/g16.C.01/x86_64_legacy/exe/l1.exe PID=      6575.
  
 Copyright (c) 1988-2019, Gaussian, Inc.  All Rights Reserved.
  
 This is part of the Gaussian(R) 16 program.  It is based on
 the Gaussian(R) 09 system (copyright 2009, Gaussian, Inc.),
 the Gaussian(R) 03 system (copyright 2003, Gaussian, Inc.),
 the Gaussian(R) 98 system (copyright 1998, Gaussian, Inc.),
 the Gaussian(R) 94 system (copyright 1995, Gaussian, Inc.),
 the Gaussian 92(TM) system (copyright 1992, Gaussian, Inc.),
 the Gaussian 90(TM) system (copyright 1990, Gaussian, Inc.),
 the Gaussian 88(TM) system (copyright 1988, Gaussian, Inc.),
 the Gaussian 86(TM) system (copyright 1986, Carnegie Mellon
 University), and the Gaussian 82(TM) system (copyright 1983,
 Carnegie Mellon University). Gaussian is a federally registered
 trademark of Gaussian, Inc.
  
 This software contains proprietary and confidential information,
 including trade secrets, belonging to Gaussian, Inc.
  
 This software is provided under written license and may be
 used, copied, transmitted, or stored only in accord with that
 written license.
  
 The following legend is applicable only to US Government
 contracts under FAR:
  
                    RESTRICTED RIGHTS LEGEND
  
 Use, reproduction and disclosure by the US Government is
 subject to restrictions as set forth in subparagraphs (a)
 and (c) of the Commercial Computer Software - Restricted
 Rights clause in FAR 52.227-19.
  
 Gaussian, Inc.
 340 Quinnipiac St., Bldg. 40, Wallingford CT 06492
  
  
 ---------------------------------------------------------------
 Warning -- This program may not be used in any manner that
 competes with the business of Gaussian, Inc. or will provide
 assistance to any competitor of Gaussian, Inc.  The licensee
 of this program is prohibited from giving any competitor of
 Gaussian, Inc. access to this program.  By using this program,
 the user acknowledges that Gaussian, Inc. is engaged in the
 business of creating and licensing software in the field of
 computational chemistry and represents and warrants to the
 licensee that it is not a competitor of Gaussian, Inc. and that
 it will not use this program in any manner prohibited above.
 ---------------------------------------------------------------
  

 Cite this work as:
 Gaussian 16, Revision C.01,
 M. J. Frisch, G. W. Trucks, H. B. Schlegel, G. E. Scuseria, 
 M. A. Robb, J. R. Cheeseman, G. Scalmani, V. Barone, 
 G. A. Petersson, H. Nakatsuji, X. Li, M. Caricato, A. V. Marenich, 
 J. Bloino, B. G. Janesko, R. Gomperts, B. Mennucci, H. P. Hratchian, 
 J. V. Ortiz, A. F. Izmaylov, J. L. Sonnenberg, D. Williams-Young, 
 F. Ding, F. Lipparini, F. Egidi, J. Goings, B. Peng, A. Petrone, 
 T. Henderson, D. Ranasinghe, V. G. Zakrzewski, J. Gao, N. Rega, 
 G. Zheng, W. Liang, M. Hada, M. Ehara, K. Toyota, R. Fukuda, 
 J. Hasegawa, M. Ishida, T. Nakajima, Y. Honda, O. Kitao, H. Nakai, 
 T. Vreven, K. Throssell, J. A. Montgomery, Jr., J. E. Peralta, 
 F. Ogliaro, M. J. Bearpark, J. J. Heyd, E. N. Brothers, K. N. Kudin, 
 V. N. Staroverov, T. A. Keith, R. Kobayashi, J. Normand, 
 K. Raghavachari, A. P. Rendell, J. C. Burant, S. S. Iyengar, 
 J. Tomasi, M. Cossi, J. M. Millam, M. Klene, C. Adamo, R. Cammi, 
 J. W. Ochterski, R. L. Martin, K. Morokuma, O. Farkas, 
 J. B. Foresman, and D. J. Fox, Gaussian, Inc., Wallingford CT, 2019.
 
 ******************************************
 Gaussian 16:  EM64L-G16RevC.01  3-Jul-2019
                22-Oct-2025 
 ******************************************
 %chk=g16_g16_C17-a_55.chk
 %nprocshared=8
 Will use up to    8 processors via shared memory.
 %mem=32GB
 -------------------------------------------
 #p wb97xd scrf=(smd,solvent=water) def2tzvp
 -------------------------------------------
 1/38=1,172=1/1;
 2/12=2,17=6,18=5,40=1/2;
 3/5=44,7=101,11=2,25=1,30=1,70=32201,72=1,74=-58/1,2,3;
 4//1;
 5/5=2,38=5,53=1/2;
 6/7=2,8=2,9=2,10=2,28=1/1;
 99/5=1,9=1/99;
 Leave Link    1 at Wed Oct 22 13:42:05 2025, MaxMem=  4294967296 cpu:               5.2 elap:               0.7
 (Enter /lrz/sys/applications/gaussian/g16.C.01/x86_64_legacy/exe/l101.exe)
 ----------------
 g16_g16_C17-a_55
 ----------------
 Symbolic Z-matrix:
 Charge =  0 Multiplicity = 1
 O                     2.27622  -0.42384   0.0544 
 C                     0.98984   0.03145  -0.33077 
 N                     0.82529   1.43463  -0.00808 
 C                    -0.07078  -0.9022    0.25452 
 C                    -1.49448  -0.74937  -0.28742 
 C                    -2.27013   0.47936   0.17999 
 H                     2.29866  -0.43747   1.01999 
 H                     0.97641  -0.05966  -1.42815 
 H                     0.33971   1.53518   0.88317 
 H                     0.23549   1.8871   -0.70271 
 H                    -0.06989  -0.77501   1.35425 
 H                     0.27024  -1.93118   0.05969 
 H                    -2.05908  -1.64737   0.01158 
 H                    -1.46256  -0.7706   -1.39086 
 H                    -3.32055   0.42106  -0.1444 
 H                    -2.26562   0.55467   1.27962 
 H                    -1.85642   1.41608  -0.21877 
 
 ITRead=  0  0  0  0  0  0  0  0  0  0  0  0  0  0  0  0  0
 MicOpt= -1 -1 -1 -1 -1 -1 -1 -1 -1 -1 -1 -1 -1 -1 -1 -1 -1
 NAtoms=     17 NQM=       17 NQMF=       0 NMMI=      0 NMMIF=      0
                NMic=       0 NMicF=      0.
                    Isotopes and Nuclear Properties:
 (Nuclear quadrupole moments (NQMom) in fm**2, nuclear magnetic moments (NMagM)
  in nuclear magnetons)

  Atom         1           2           3           4           5           6           7           8           9          10
 IAtWgt=          16          12          14          12          12          12           1           1           1           1
 AtmWgt=  15.9949146  12.0000000  14.0030740  12.0000000  12.0000000  12.0000000   1.0078250   1.0078250   1.0078250   1.0078250
 NucSpn=           0           0           2           0           0           0           1           1           1           1
 AtZEff=  -0.0000000  -0.0000000  -0.0000000  -0.0000000  -0.0000000  -0.0000000  -0.0000000  -0.0000000  -0.0000000  -0.0000000
 NQMom=    0.0000000   0.0000000   2.0440000   0.0000000   0.0000000   0.0000000   0.0000000   0.0000000   0.0000000   0.0000000
 NMagM=    0.0000000   0.0000000   0.4037610   0.0000000   0.0000000   0.0000000   2.7928460   2.7928460   2.7928460   2.7928460
 AtZNuc=   8.0000000   6.0000000   7.0000000   6.0000000   6.0000000   6.0000000   1.0000000   1.0000000   1.0000000   1.0000000

  Atom        11          12          13          14          15          16          17
 IAtWgt=           1           1           1           1           1           1           1
 AtmWgt=   1.0078250   1.0078250   1.0078250   1.0078250   1.0078250   1.0078250   1.0078250
 NucSpn=           1           1           1           1           1           1           1
 AtZEff=  -0.0000000  -0.0000000  -0.0000000  -0.0000000  -0.0000000  -0.0000000  -0.0000000
 NQMom=    0.0000000   0.0000000   0.0000000   0.0000000   0.0000000   0.0000000   0.0000000
 NMagM=    2.7928460   2.7928460   2.7928460   2.7928460   2.7928460   2.7928460   2.7928460
 AtZNuc=   1.0000000   1.0000000   1.0000000   1.0000000   1.0000000   1.0000000   1.0000000
 Leave Link  101 at Wed Oct 22 13:42:05 2025, MaxMem=  4294967296 cpu:               1.2 elap:               0.2
 (Enter /lrz/sys/applications/gaussian/g16.C.01/x86_64_legacy/exe/l202.exe)
                          Input orientation:                          
 ---------------------------------------------------------------------
 Center     Atomic      Atomic             Coordinates (Angstroms)
 Number     Number       Type             X           Y           Z
 ---------------------------------------------------------------------
      1          8           0        2.276223   -0.423836    0.054398
      2          6           0        0.989842    0.031450   -0.330765
      3          7           0        0.825293    1.434634   -0.008081
      4          6           0       -0.070775   -0.902196    0.254518
      5          6           0       -1.494477   -0.749372   -0.287416
      6          6           0       -2.270127    0.479356    0.179994
      7          1           0        2.298657   -0.437467    1.019987
      8          1           0        0.976408   -0.059659   -1.428149
      9          1           0        0.339705    1.535176    0.883168
     10          1           0        0.235489    1.887104   -0.702709
     11          1           0       -0.069885   -0.775008    1.354251
     12          1           0        0.270244   -1.931177    0.059688
     13          1           0       -2.059080   -1.647373    0.011577
     14          1           0       -1.462562   -0.770597   -1.390861
     15          1           0       -3.320549    0.421063   -0.144404
     16          1           0       -2.265617    0.554672    1.279616
     17          1           0       -1.856418    1.416084   -0.218767
 ---------------------------------------------------------------------
                    Distance matrix (angstroms):
                    1          2          3          4          5
     1  O    0.000000
     2  C    1.417890   0.000000
     3  N    2.358604   1.449181   0.000000
     4  C    2.403596   1.529431   2.516480   0.000000
     5  C    3.800130   2.604497   3.198319   1.531005   0.000000
     6  C    4.636899   3.329999   3.244927   2.598344   1.526394
     7  H    0.965946   1.938404   2.594704   2.533007   4.024233
     8  H    2.005016   1.101242   2.066964   2.153562   2.807534
     9  H    2.876576   2.038996   1.019916   2.550388   3.154941
    10  H    3.174626   2.037362   1.017402   2.964840   3.180606
    11  H    2.705025   2.147714   2.745871   1.107064   2.173750
    12  H    2.509194   2.126542   3.411943   1.101388   2.152065
    13  H    4.504856   3.497366   4.221227   2.137210   1.102079
    14  H    4.023373   2.789510   3.465459   2.159088   1.104110
    15  H    5.663677   4.331974   4.270119   3.531456   2.173686
    16  H    4.804888   3.669482   3.462112   2.826769   2.179628
    17  H    4.531958   3.167168   2.690038   2.964278   2.196569
                    6          7          8          9         10
     6  C    0.000000
     7  H    4.734970   0.000000
     8  H    3.662875   2.807926   0.000000
     9  H    2.901798   2.783439   2.879423   0.000000
    10  H    3.006498   3.553586   2.205700   1.627796   0.000000
    11  H    2.791661   2.415711   3.057483   2.393039   3.378044
    12  H    3.504087   2.695886   2.492971   3.563502   3.893806
    13  H    2.143801   4.633642   3.715889   4.079517   4.274082
    14  H    2.163823   4.479948   2.540748   3.706206   3.228050
    15  H    1.100917   5.802444   4.510314   3.961643   3.886694
    16  H    1.102208   4.678071   4.268503   2.811808   3.458398
    17  H    1.098920   4.715380   3.415454   2.459959   2.198212
                   11         12         13         14         15
    11  H    0.000000
    12  H    1.768702   0.000000
    13  H    2.553564   2.347043   0.000000
    14  H    3.078183   2.540404   1.758238   0.000000
    15  H    3.774039   4.297497   2.427769   2.534921   0.000000
    16  H    2.568046   3.754765   2.549428   3.087504   1.777235
    17  H    3.235270   3.975473   3.078782   2.512071   1.771800
                   16         17
    16  H    0.000000
    17  H    1.776127   0.000000
 Stoichiometry    C4H11NO
 Framework group  C1[X(C4H11NO)]
 Deg. of freedom    45
 Full point group                 C1      NOp   1
 Largest Abelian subgroup         C1      NOp   1
 Largest concise Abelian subgroup C1      NOp   1
                         Standard orientation:                         
 ---------------------------------------------------------------------
 Center     Atomic      Atomic             Coordinates (Angstroms)
 Number     Number       Type             X           Y           Z
 ---------------------------------------------------------------------
      1          8           0        2.276223   -0.423836    0.054398
      2          6           0        0.989842    0.031450   -0.330765
      3          7           0        0.825293    1.434634   -0.008081
      4          6           0       -0.070775   -0.902196    0.254518
      5          6           0       -1.494477   -0.749372   -0.287416
      6          6           0       -2.270127    0.479356    0.179994
      7          1           0        2.298657   -0.437467    1.019987
      8          1           0        0.976408   -0.059659   -1.428149
      9          1           0        0.339705    1.535176    0.883168
     10          1           0        0.235489    1.887104   -0.702709
     11          1           0       -0.069885   -0.775008    1.354251
     12          1           0        0.270244   -1.931177    0.059688
     13          1           0       -2.059080   -1.647373    0.011577
     14          1           0       -1.462562   -0.770597   -1.390861
     15          1           0       -3.320549    0.421063   -0.144404
     16          1           0       -2.265617    0.554672    1.279616
     17          1           0       -1.856418    1.416084   -0.218767
 ---------------------------------------------------------------------
 Rotational constants (GHZ):           6.2590891           2.1189753           1.7283228
 Leave Link  202 at Wed Oct 22 13:42:05 2025, MaxMem=  4294967296 cpu:               0.1 elap:               0.0
 (Enter /lrz/sys/applications/gaussian/g16.C.01/x86_64_legacy/exe/l301.exe)
 Standard basis: def2TZVP (5D, 7F)
 Ernie: Thresh=  0.10000D-02 Tol=  0.10000D-05 Strict=F.
 There are   282 symmetry adapted cartesian basis functions of A   symmetry.
 There are   252 symmetry adapted basis functions of A   symmetry.
   252 basis functions,   394 primitive gaussians,   282 cartesian basis functions
    25 alpha electrons       25 beta electrons
       nuclear repulsion energy       260.6927288267 Hartrees.
 IExCor= 4639 DFT=T Ex+Corr=wB97XD ExCW=0 ScaHFX=  1.000000
 ScaDFX=  1.000000  1.000000  1.000000  1.000000 ScalE2=  1.000000  1.000000
 IRadAn=      5 IRanWt=     -1 IRanGd=            0 ICorTp=0 IEmpDi=121
 HFx  wShort=  0.000000 wLong=  0.200000 cFull=  0.222036 cShort=  0.000000 cLong=  0.777964
 DFx  wShort=  0.000000 wLong=  0.200000 cFull=  0.000000 cShort=  0.000000 cLong=  1.000000
 NAtoms=   17 NActive=   17 NUniq=   17 SFac= 1.00D+00 NAtFMM=   60 NAOKFM=F Big=F
 Integral buffers will be    131072 words long.
 Raffenetti 2 integral format.
 Two-electron integral symmetry is turned on.
 R6Disp:  Grimme-D2 Dispersion energy=       -0.0101275160 Hartrees.
 Nuclear repulsion after empirical dispersion term =      260.6826013107 Hartrees.
 ------------------------------------------------------------------------------
 Polarizable Continuum Model (PCM)
 =================================
 Model                : PCM.
 Atomic radii         : SMD-Coulomb.
 Polarization charges : Total charges.
 Charge compensation  : None.
 Solution method      : On-the-fly selection.
 Cavity type          : VdW (van der Waals Surface) (Alpha=1.000).
 Cavity algorithm     : GePol (No added spheres)
                        Default sphere list used, NSphG=   17.
                        Lebedev-Laikov grids with approx.  5.0 points / Ang**2.
                        Smoothing algorithm: York/Karplus (Gamma=1.0000).
                        Polarization charges: spherical gaussians, with
                                              point-specific exponents (IZeta= 3).
                        Self-potential: point-specific (ISelfS= 7).
                        Self-field    : sphere-specific E.n sum rule (ISelfD= 2).
 Solvent              : Water, Eps=  78.355300 Eps(inf)=   1.777849
 ------------------------------------------------------------------------------
 Spheres list:
 ISph  on   Nord     Re0    Alpha      Xe            Ye            Ze
    1   O      1    1.5200  1.000      2.276223     -0.423836      0.054398
    2   C      2    1.8500  1.000      0.989842      0.031450     -0.330765
    3   N      3    1.8900  1.000      0.825293      1.434634     -0.008081
    4   C      4    1.8500  1.000     -0.070775     -0.902196      0.254518
    5   C      5    1.8500  1.000     -1.494477     -0.749372     -0.287416
    6   C      6    1.8500  1.000     -2.270127      0.479356      0.179994
    7   H      7    1.2000  1.000      2.298657     -0.437467      1.019987
    8   H      8    1.2000  1.000      0.976408     -0.059659     -1.428149
    9   H      9    1.2000  1.000      0.339705      1.535176      0.883168
   10   H     10    1.2000  1.000      0.235489      1.887104     -0.702709
   11   H     11    1.2000  1.000     -0.069885     -0.775008      1.354251
   12   H     12    1.2000  1.000      0.270244     -1.931177      0.059688
   13   H     13    1.2000  1.000     -2.059080     -1.647373      0.011577
   14   H     14    1.2000  1.000     -1.462562     -0.770597     -1.390861
   15   H     15    1.2000  1.000     -3.320549      0.421063     -0.144404
   16   H     16    1.2000  1.000     -2.265617      0.554672      1.279616
   17   H     17    1.2000  1.000     -1.856418      1.416084     -0.218767
 ------------------------------------------------------------------------------
 GePol: Number of generator spheres                  =      17
 GePol: Total number of spheres                      =      17
 GePol: Number of exposed spheres                    =      17 (100.00%)
 GePol: Number of points                             =    1169
 GePol: Average weight of points                     =       0.12
 GePol: Minimum weight of points                     =   0.64D-07
 GePol: Maximum weight of points                     =    0.21991
 GePol: Number of points with low weight             =      54
 GePol: Fraction of low-weight points (<1% of avg)   =       4.62%
 GePol: Cavity surface area                          =    135.782 Ang**2
 GePol: Cavity volume                                =    108.088 Ang**3
 ------------------------------------------------------------------------------
 Atomic radii for non-electrostatic terms: SMD-CDS.
 ------------------------------------------------------------------------------
 PCM non-electrostatic energy =         0.0027904820 Hartrees.
 Nuclear repulsion after PCM non-electrostatic terms =      260.6853917927 Hartrees.
 Leave Link  301 at Wed Oct 22 13:42:05 2025, MaxMem=  4294967296 cpu:               0.6 elap:               0.1
 (Enter /lrz/sys/applications/gaussian/g16.C.01/x86_64_legacy/exe/l302.exe)
 NPDir=0 NMtPBC=     1 NCelOv=     1 NCel=       1 NClECP=     1 NCelD=      1
         NCelK=      1 NCelE2=     1 NClLst=     1 CellRange=     0.0.
 One-electron integrals computed using PRISM.
 One-electron integral symmetry used in STVInt
   1 Symmetry operations used in ECPInt.
 ECPInt:  NShTT=    6105 NPrTT=   17556 LenC2=    6033 LenP2D=   14399.
 LDataN:  DoStor=T MaxTD1= 6 Len=  172
 NBasis=   252 RedAO= T EigKep=  2.13D-04  NBF=   252
 NBsUse=   252 1.00D-06 EigRej= -1.00D+00 NBFU=   252
 Precomputing XC quadrature grid using
 IXCGrd= 4 IRadAn=           5 IRanWt=          -1 IRanGd=           0 AccXCQ= 0.00D+00.
 Generated NRdTot=       0 NPtTot=           0 NUsed=           0 NTot=          32
 NSgBfM=   281   281   281   281   281 MxSgAt=    17 MxSgA2=    17.
 Leave Link  302 at Wed Oct 22 13:42:05 2025, MaxMem=  4294967296 cpu:               2.5 elap:               0.3
 (Enter /lrz/sys/applications/gaussian/g16.C.01/x86_64_legacy/exe/l303.exe)
 DipDrv:  MaxL=1.
 Leave Link  303 at Wed Oct 22 13:42:05 2025, MaxMem=  4294967296 cpu:               0.3 elap:               0.1
 (Enter /lrz/sys/applications/gaussian/g16.C.01/x86_64_legacy/exe/l401.exe)
 ExpMin= 9.52D-02 ExpMax= 2.70D+04 ExpMxC= 9.22D+02 IAcc=3 IRadAn=         5 AccDes= 0.00D+00
 Harris functional with IExCor= 4639 and IRadAn=       5 diagonalized for initial guess.
 HarFok:  IExCor= 4639 AccDes= 0.00D+00 IRadAn=         5 IDoV= 1 UseB2=F ITyADJ=14
 ICtDFT=  3500011 ScaDFX=  1.000000  1.000000  1.000000  1.000000
 FoFCou: FMM=F IPFlag=           0 FMFlag=      100000 FMFlg1=           0
         NFxFlg=           0 DoJE=T BraDBF=F KetDBF=T FulRan=T
         wScrn=  0.000000 ICntrl=       500 IOpCl=  0 I1Cent=   200000004 NGrid=           0
         NMat0=    1 NMatS0=      1 NMatT0=    0 NMatD0=    1 NMtDS0=    0 NMtDT0=    0
 Petite list used in FoFCou.
 Harris En= -276.196868856908    
 JPrj=0 DoOrth=F DoCkMO=F.
 Leave Link  401 at Wed Oct 22 13:42:08 2025, MaxMem=  4294967296 cpu:              17.7 elap:               2.2
 (Enter /lrz/sys/applications/gaussian/g16.C.01/x86_64_legacy/exe/l502.exe)
 Integral symmetry usage will be decided dynamically.
 Closed shell SCF:
 Using DIIS extrapolation, IDIIS=  1040.
 NGot=  4294967296 LenX=  4294802854 LenY=  4294722889
 Requested convergence on RMS density matrix=1.00D-08 within 128 cycles.
 Requested convergence on MAX density matrix=1.00D-06.
 Requested convergence on             energy=1.00D-06.
 No special actions if energy rises.
 Fock matrices will be formed incrementally for  20 cycles.

 Cycle   1  Pass 1  IDiag  1:
 FoFJK:  IHMeth= 1 ICntrl=       0 DoSepK=T KAlg= 0 I1Cent=           0 FoldK=F
 IRaf=         1 NMat=       1 IRICut=       1 DoRegI=T DoRafI=F ISym2E= 0 IDoP0=0 IntGTp=1.
 FoFCou: FMM=F IPFlag=           0 FMFlag=      100000 FMFlg1=           0
         NFxFlg=           0 DoJE=T BraDBF=F KetDBF=F FulRan=T
         wScrn=  0.000000 ICntrl=       500 IOpCl=  0 I1Cent=           0 NGrid=           0
         NMat0=    1 NMatS0=      1 NMatT0=    0 NMatD0=    1 NMtDS0=    0 NMtDT0=    0
 Symmetry not used in FoFCou.
 Inv3:  Mode=1 IEnd=     4099683.
 Iteration    1 A*A^-1 deviation from unit magnitude is 5.33D-15 for    659.
 Iteration    1 A*A^-1 deviation from orthogonality  is 4.14D-15 for    602    126.
 Iteration    1 A^-1*A deviation from unit magnitude is 5.55D-15 for    317.
 Iteration    1 A^-1*A deviation from orthogonality  is 9.27D-14 for    650    602.
 E= -288.986057918531    
 DIIS: error= 4.08D-02 at cycle   1 NSaved=   1.
 NSaved= 1 IEnMin= 1 EnMin= -288.986057918531     IErMin= 1 ErrMin= 4.08D-02
 ErrMax= 4.08D-02  0.00D+00 EMaxC= 1.00D-01 BMatC= 6.09D-01 BMatP= 6.09D-01
 IDIUse=3 WtCom= 5.92D-01 WtEn= 4.08D-01
 Coeff-Com:  0.100D+01
 Coeff-En:   0.100D+01
 Coeff:      0.100D+01
 Gap=     0.478 Goal=   None    Shift=    0.000
 GapD=    0.478 DampG=2.000 DampE=0.500 DampFc=1.0000 IDamp=-1.
 RMSDP=1.85D-03 MaxDP=6.61D-02              OVMax= 5.67D-02

 Cycle   2  Pass 1  IDiag  1:
 RMSU=  1.78D-03    CP:  9.48D-01
 E= -289.040670416050     Delta-E=       -0.054612497519 Rises=F Damp=F
 DIIS: error= 6.21D-03 at cycle   2 NSaved=   2.
 NSaved= 2 IEnMin= 2 EnMin= -289.040670416050     IErMin= 2 ErrMin= 6.21D-03
 ErrMax= 6.21D-03  0.00D+00 EMaxC= 1.00D-01 BMatC= 3.09D-02 BMatP= 6.09D-01
 IDIUse=3 WtCom= 9.38D-01 WtEn= 6.21D-02
 Coeff-Com:  0.117D+00 0.883D+00
 Coeff-En:   0.000D+00 0.100D+01
 Coeff:      0.110D+00 0.890D+00
 Gap=     0.459 Goal=   None    Shift=    0.000
 RMSDP=7.26D-04 MaxDP=2.89D-02 DE=-5.46D-02 OVMax= 4.91D-02

 Cycle   3  Pass 1  IDiag  1:
 RMSU=  6.00D-04    CP:  9.59D-01  7.76D-01
 E= -289.049552019147     Delta-E=       -0.008881603097 Rises=F Damp=F
 DIIS: error= 6.36D-03 at cycle   3 NSaved=   3.
 NSaved= 3 IEnMin= 3 EnMin= -289.049552019147     IErMin= 2 ErrMin= 6.21D-03
 ErrMax= 6.36D-03  0.00D+00 EMaxC= 1.00D-01 BMatC= 1.90D-02 BMatP= 3.09D-02
 IDIUse=3 WtCom= 9.36D-01 WtEn= 6.36D-02
 Coeff-Com:  0.242D-01 0.447D+00 0.529D+00
 Coeff-En:   0.000D+00 0.371D+00 0.629D+00
 Coeff:      0.227D-01 0.442D+00 0.535D+00
 Gap=     0.463 Goal=   None    Shift=    0.000
 RMSDP=4.12D-04 MaxDP=1.51D-02 DE=-8.88D-03 OVMax= 2.55D-02

 Cycle   4  Pass 1  IDiag  1:
 RMSU=  1.54D-04    CP:  9.50D-01  9.48D-01  6.44D-01
 E= -289.062922454796     Delta-E=       -0.013370435649 Rises=F Damp=F
 DIIS: error= 6.60D-04 at cycle   4 NSaved=   4.
 NSaved= 4 IEnMin= 4 EnMin= -289.062922454796     IErMin= 4 ErrMin= 6.60D-04
 ErrMax= 6.60D-04  0.00D+00 EMaxC= 1.00D-01 BMatC= 2.13D-04 BMatP= 1.90D-02
 IDIUse=3 WtCom= 9.93D-01 WtEn= 6.60D-03
 Coeff-Com:  0.876D-02 0.165D+00 0.221D+00 0.605D+00
 Coeff-En:   0.000D+00 0.000D+00 0.000D+00 0.100D+01
 Coeff:      0.870D-02 0.164D+00 0.219D+00 0.608D+00
 Gap=     0.450 Goal=   None    Shift=    0.000
 RMSDP=3.96D-05 MaxDP=1.51D-03 DE=-1.34D-02 OVMax= 2.18D-03

 Cycle   5  Pass 1  IDiag  1:
 RMSU=  3.51D-05    CP:  9.49D-01  9.54D-01  6.67D-01  9.78D-01
 E= -289.063073130687     Delta-E=       -0.000150675891 Rises=F Damp=F
 DIIS: error= 1.06D-04 at cycle   5 NSaved=   5.
 NSaved= 5 IEnMin= 5 EnMin= -289.063073130687     IErMin= 5 ErrMin= 1.06D-04
 ErrMax= 1.06D-04  0.00D+00 EMaxC= 1.00D-01 BMatC= 8.80D-06 BMatP= 2.13D-04
 IDIUse=3 WtCom= 9.99D-01 WtEn= 1.06D-03
 Coeff-Com: -0.200D-02-0.345D-01-0.333D-01 0.111D+00 0.959D+00
 Coeff-En:   0.000D+00 0.000D+00 0.000D+00 0.000D+00 0.100D+01
 Coeff:     -0.199D-02-0.344D-01-0.332D-01 0.111D+00 0.959D+00
 Gap=     0.449 Goal=   None    Shift=    0.000
 RMSDP=3.54D-05 MaxDP=1.10D-03 DE=-1.51D-04 OVMax= 7.75D-04

 Cycle   6  Pass 1  IDiag  1:
 RMSU=  1.01D-05    CP:  9.48D-01  9.64D-01  6.88D-01  1.13D+00  1.22D+00
 E= -289.063084481133     Delta-E=       -0.000011350446 Rises=F Damp=F
 DIIS: error= 2.22D-05 at cycle   6 NSaved=   6.
 NSaved= 6 IEnMin= 6 EnMin= -289.063084481133     IErMin= 6 ErrMin= 2.22D-05
 ErrMax= 2.22D-05  0.00D+00 EMaxC= 1.00D-01 BMatC= 3.36D-07 BMatP= 8.80D-06
 IDIUse=1 WtCom= 1.00D+00 WtEn= 0.00D+00
 Coeff-Com: -0.721D-03-0.123D-01-0.138D-01 0.621D-02 0.177D+00 0.844D+00
 Coeff:     -0.721D-03-0.123D-01-0.138D-01 0.621D-02 0.177D+00 0.844D+00
 Gap=     0.450 Goal=   None    Shift=    0.000
 RMSDP=7.15D-06 MaxDP=1.75D-04 DE=-1.14D-05 OVMax= 2.47D-04

 Cycle   7  Pass 1  IDiag  1:
 RMSU=  2.63D-06    CP:  9.48D-01  9.66D-01  6.91D-01  1.15D+00  1.30D+00
                    CP:  1.19D+00
 E= -289.063084921075     Delta-E=       -0.000000439942 Rises=F Damp=F
 DIIS: error= 1.36D-05 at cycle   7 NSaved=   7.
 NSaved= 7 IEnMin= 7 EnMin= -289.063084921075     IErMin= 7 ErrMin= 1.36D-05
 ErrMax= 1.36D-05  0.00D+00 EMaxC= 1.00D-01 BMatC= 8.43D-08 BMatP= 3.36D-07
 IDIUse=1 WtCom= 1.00D+00 WtEn= 0.00D+00
 Coeff-Com: -0.243D-04-0.710D-03-0.148D-02-0.105D-01-0.520D-01 0.312D+00
 Coeff-Com:  0.753D+00
 Coeff:     -0.243D-04-0.710D-03-0.148D-02-0.105D-01-0.520D-01 0.312D+00
 Coeff:      0.753D+00
 Gap=     0.449 Goal=   None    Shift=    0.000
 RMSDP=2.74D-06 MaxDP=6.39D-05 DE=-4.40D-07 OVMax= 1.10D-04

 Cycle   8  Pass 1  IDiag  1:
 RMSU=  1.02D-06    CP:  9.48D-01  9.67D-01  6.91D-01  1.16D+00  1.33D+00
                    CP:  1.34D+00  1.19D+00
 E= -289.063085016327     Delta-E=       -0.000000095253 Rises=F Damp=F
 DIIS: error= 2.42D-06 at cycle   8 NSaved=   8.
 NSaved= 8 IEnMin= 8 EnMin= -289.063085016327     IErMin= 8 ErrMin= 2.42D-06
 ErrMax= 2.42D-06  0.00D+00 EMaxC= 1.00D-01 BMatC= 4.29D-09 BMatP= 8.43D-08
 IDIUse=1 WtCom= 1.00D+00 WtEn= 0.00D+00
 Coeff-Com:  0.516D-04 0.870D-03 0.893D-03-0.232D-02-0.243D-01-0.110D-01
 Coeff-Com:  0.160D+00 0.876D+00
 Coeff:      0.516D-04 0.870D-03 0.893D-03-0.232D-02-0.243D-01-0.110D-01
 Coeff:      0.160D+00 0.876D+00
 Gap=     0.449 Goal=   None    Shift=    0.000
 RMSDP=8.32D-07 MaxDP=2.06D-05 DE=-9.53D-08 OVMax= 3.91D-05

 Cycle   9  Pass 1  IDiag  1:
 RMSU=  2.41D-07    CP:  9.48D-01  9.67D-01  6.92D-01  1.16D+00  1.34D+00
                    CP:  1.39D+00  1.34D+00  1.20D+00
 E= -289.063085023127     Delta-E=       -0.000000006800 Rises=F Damp=F
 DIIS: error= 9.48D-07 at cycle   9 NSaved=   9.
 NSaved= 9 IEnMin= 9 EnMin= -289.063085023127     IErMin= 9 ErrMin= 9.48D-07
 ErrMax= 9.48D-07  0.00D+00 EMaxC= 1.00D-01 BMatC= 5.06D-10 BMatP= 4.29D-09
 IDIUse=1 WtCom= 1.00D+00 WtEn= 0.00D+00
 Coeff-Com:  0.140D-04 0.277D-03 0.361D-03 0.265D-03-0.138D-02-0.312D-01
 Coeff-Com: -0.287D-01 0.229D+00 0.832D+00
 Coeff:      0.140D-04 0.277D-03 0.361D-03 0.265D-03-0.138D-02-0.312D-01
 Coeff:     -0.287D-01 0.229D+00 0.832D+00
 Gap=     0.449 Goal=   None    Shift=    0.000
 RMSDP=2.57D-07 MaxDP=7.96D-06 DE=-6.80D-09 OVMax= 1.32D-05

 Cycle  10  Pass 1  IDiag  1:
 RMSU=  8.50D-08    CP:  9.48D-01  9.67D-01  6.92D-01  1.16D+00  1.34D+00
                    CP:  1.40D+00  1.39D+00  1.32D+00  1.24D+00
 E= -289.063085023926     Delta-E=       -0.000000000799 Rises=F Damp=F
 DIIS: error= 2.89D-07 at cycle  10 NSaved=  10.
 NSaved=10 IEnMin=10 EnMin= -289.063085023926     IErMin=10 ErrMin= 2.89D-07
 ErrMax= 2.89D-07  0.00D+00 EMaxC= 1.00D-01 BMatC= 6.49D-11 BMatP= 5.06D-10
 IDIUse=1 WtCom= 1.00D+00 WtEn= 0.00D+00
 Coeff-Com: -0.260D-05-0.309D-04-0.396D-05 0.439D-03 0.317D-02-0.926D-02
 Coeff-Com: -0.335D-01-0.455D-01 0.255D+00 0.829D+00
 Coeff:     -0.260D-05-0.309D-04-0.396D-05 0.439D-03 0.317D-02-0.926D-02
 Coeff:     -0.335D-01-0.455D-01 0.255D+00 0.829D+00
 Gap=     0.449 Goal=   None    Shift=    0.000
 RMSDP=9.30D-08 MaxDP=3.04D-06 DE=-7.99D-10 OVMax= 5.42D-06

 Cycle  11  Pass 1  IDiag  1:
 RMSU=  2.84D-08    CP:  9.48D-01  9.67D-01  6.92D-01  1.16D+00  1.34D+00
                    CP:  1.40D+00  1.40D+00  1.36D+00  1.42D+00  1.21D+00
 E= -289.063085024035     Delta-E=       -0.000000000109 Rises=F Damp=F
 DIIS: error= 3.51D-08 at cycle  11 NSaved=  11.
 NSaved=11 IEnMin=11 EnMin= -289.063085024035     IErMin=11 ErrMin= 3.51D-08
 ErrMax= 3.51D-08  0.00D+00 EMaxC= 1.00D-01 BMatC= 1.14D-12 BMatP= 6.49D-11
 IDIUse=1 WtCom= 1.00D+00 WtEn= 0.00D+00
 Coeff-Com: -0.345D-06-0.983D-05-0.168D-04-0.334D-04-0.180D-03 0.201D-02
 Coeff-Com:  0.369D-02-0.651D-02-0.621D-01-0.589D-01 0.112D+01
 Coeff:     -0.345D-06-0.983D-05-0.168D-04-0.334D-04-0.180D-03 0.201D-02
 Coeff:      0.369D-02-0.651D-02-0.621D-01-0.589D-01 0.112D+01
 Gap=     0.449 Goal=   None    Shift=    0.000
 RMSDP=2.49D-08 MaxDP=1.03D-06 DE=-1.09D-10 OVMax= 1.64D-06

 Cycle  12  Pass 1  IDiag  1:
 RMSU=  6.30D-09    CP:  9.48D-01  9.67D-01  6.92D-01  1.16D+00  1.34D+00
                    CP:  1.40D+00  1.40D+00  1.37D+00  1.48D+00  1.38D+00
                    CP:  1.34D+00
 E= -289.063085024034     Delta-E=        0.000000000001 Rises=F Damp=F
 DIIS: error= 1.03D-08 at cycle  12 NSaved=  12.
 NSaved=12 IEnMin=11 EnMin= -289.063085024035     IErMin=12 ErrMin= 1.03D-08
 ErrMax= 1.03D-08  0.00D+00 EMaxC= 1.00D-01 BMatC= 6.19D-14 BMatP= 1.14D-12
 IDIUse=1 WtCom= 1.00D+00 WtEn= 0.00D+00
 Coeff-Com:  0.105D-06 0.128D-05-0.119D-06-0.227D-04-0.160D-03 0.493D-03
 Coeff-Com:  0.184D-02 0.252D-02-0.135D-01-0.467D-01 0.385D-01 0.102D+01
 Coeff:      0.105D-06 0.128D-05-0.119D-06-0.227D-04-0.160D-03 0.493D-03
 Coeff:      0.184D-02 0.252D-02-0.135D-01-0.467D-01 0.385D-01 0.102D+01
 Gap=     0.449 Goal=   None    Shift=    0.000
 RMSDP=5.59D-09 MaxDP=1.77D-07 DE= 1.14D-12 OVMax= 3.41D-07

 Error on total polarization charges =  0.04446
 SCF Done:  E(RwB97XD) =  -289.063085024     A.U. after   12 cycles
            NFock= 12  Conv=0.56D-08     -V/T= 2.0055
 KE= 2.874799115104D+02 PE=-1.195306324478D+03 EE= 3.580779361514D+02
 SMD-CDS (non-electrostatic) energy       (kcal/mol) =       1.75
 (included in total energy above)
 Leave Link  502 at Wed Oct 22 13:43:47 2025, MaxMem=  4294967296 cpu:             794.7 elap:              99.5
 (Enter /lrz/sys/applications/gaussian/g16.C.01/x86_64_legacy/exe/l601.exe)
 Copying SCF densities to generalized density rwf, IOpCl= 0 IROHF=0.

 **********************************************************************

            Population analysis using the SCF Density.

 **********************************************************************

 Orbital symmetries:
       Occupied  (A) (A) (A) (A) (A) (A) (A) (A) (A) (A) (A) (A)
                 (A) (A) (A) (A) (A) (A) (A) (A) (A) (A) (A) (A)
                 (A)
       Virtual   (A) (A) (A) (A) (A) (A) (A) (A) (A) (A) (A) (A)
                 (A) (A) (A) (A) (A) (A) (A) (A) (A) (A) (A) (A)
                 (A) (A) (A) (A) (A) (A) (A) (A) (A) (A) (A) (A)
                 (A) (A) (A) (A) (A) (A) (A) (A) (A) (A) (A) (A)
                 (A) (A) (A) (A) (A) (A) (A) (A) (A) (A) (A) (A)
                 (A) (A) (A) (A) (A) (A) (A) (A) (A) (A) (A) (A)
                 (A) (A) (A) (A) (A) (A) (A) (A) (A) (A) (A) (A)
                 (A) (A) (A) (A) (A) (A) (A) (A) (A) (A) (A) (A)
                 (A) (A) (A) (A) (A) (A) (A) (A) (A) (A) (A) (A)
                 (A) (A) (A) (A) (A) (A) (A) (A) (A) (A) (A) (A)
                 (A) (A) (A) (A) (A) (A) (A) (A) (A) (A) (A) (A)
                 (A) (A) (A) (A) (A) (A) (A) (A) (A) (A) (A) (A)
                 (A) (A) (A) (A) (A) (A) (A) (A) (A) (A) (A) (A)
                 (A) (A) (A) (A) (A) (A) (A) (A) (A) (A) (A) (A)
                 (A) (A) (A) (A) (A) (A) (A) (A) (A) (A) (A) (A)
                 (A) (A) (A) (A) (A) (A) (A) (A) (A) (A) (A) (A)
                 (A) (A) (A) (A) (A) (A) (A) (A) (A) (A) (A) (A)
                 (A) (A) (A) (A) (A) (A) (A) (A) (A) (A) (A) (A)
                 (A) (A) (A) (A) (A) (A) (A) (A) (A) (A) (A)
 The electronic state is 1-A.
 Alpha  occ. eigenvalues --  -19.24561 -14.40771 -10.35042 -10.27323 -10.26980
 Alpha  occ. eigenvalues --  -10.26298  -1.12964  -0.97176  -0.87569  -0.79567
 Alpha  occ. eigenvalues --   -0.71792  -0.67090  -0.58852  -0.57676  -0.54894
 Alpha  occ. eigenvalues --   -0.52075  -0.49581  -0.49340  -0.46679  -0.42425
 Alpha  occ. eigenvalues --   -0.41854  -0.41157  -0.40280  -0.36927  -0.33181
 Alpha virt. eigenvalues --    0.11768   0.13744   0.14665   0.15023   0.18178
 Alpha virt. eigenvalues --    0.18653   0.19392   0.20250   0.21133   0.23124
 Alpha virt. eigenvalues --    0.24695   0.25359   0.27880   0.29984   0.30154
 Alpha virt. eigenvalues --    0.31360   0.32104   0.33091   0.34086   0.36154
 Alpha virt. eigenvalues --    0.37145   0.38914   0.39585   0.42436   0.43608
 Alpha virt. eigenvalues --    0.46477   0.46663   0.48810   0.49352   0.51247
 Alpha virt. eigenvalues --    0.51582   0.52309   0.52899   0.53922   0.54746
 Alpha virt. eigenvalues --    0.55408   0.57066   0.57710   0.58798   0.58976
 Alpha virt. eigenvalues --    0.61312   0.63291   0.64643   0.66270   0.67524
 Alpha virt. eigenvalues --    0.70056   0.71256   0.73802   0.78498   0.80289
 Alpha virt. eigenvalues --    0.82410   0.84610   0.89909   0.92524   0.93658
 Alpha virt. eigenvalues --    0.96399   0.98286   1.01432   1.03157   1.08370
 Alpha virt. eigenvalues --    1.10893   1.12198   1.13407   1.18968   1.20923
 Alpha virt. eigenvalues --    1.21847   1.24350   1.26535   1.29441   1.32422
 Alpha virt. eigenvalues --    1.36014   1.39855   1.41428   1.44010   1.48158
 Alpha virt. eigenvalues --    1.51626   1.56208   1.58807   1.61653   1.61838
 Alpha virt. eigenvalues --    1.63733   1.66320   1.67103   1.68930   1.71380
 Alpha virt. eigenvalues --    1.72192   1.74298   1.76730   1.77969   1.80470
 Alpha virt. eigenvalues --    1.82541   1.86251   1.88775   1.89178   1.91588
 Alpha virt. eigenvalues --    1.94462   1.97036   2.00178   2.03070   2.04334
 Alpha virt. eigenvalues --    2.07317   2.08315   2.11054   2.12772   2.15300
 Alpha virt. eigenvalues --    2.18899   2.20141   2.23672   2.25160   2.26800
 Alpha virt. eigenvalues --    2.33819   2.35102   2.37008   2.39161   2.41753
 Alpha virt. eigenvalues --    2.42532   2.45440   2.47459   2.49041   2.50606
 Alpha virt. eigenvalues --    2.53589   2.55768   2.56052   2.58624   2.60989
 Alpha virt. eigenvalues --    2.64041   2.65666   2.68287   2.70268   2.71691
 Alpha virt. eigenvalues --    2.73378   2.76056   2.77302   2.79099   2.80732
 Alpha virt. eigenvalues --    2.83220   2.84313   2.86784   2.91527   2.94065
 Alpha virt. eigenvalues --    2.98527   2.99517   3.04050   3.08030   3.11953
 Alpha virt. eigenvalues --    3.12822   3.15586   3.16816   3.19448   3.21088
 Alpha virt. eigenvalues --    3.22686   3.26776   3.30004   3.30883   3.33127
 Alpha virt. eigenvalues --    3.36405   3.38219   3.40847   3.42737   3.43171
 Alpha virt. eigenvalues --    3.46223   3.48757   3.49058   3.52470   3.53688
 Alpha virt. eigenvalues --    3.57118   3.60914   3.61320   3.63630   3.66440
 Alpha virt. eigenvalues --    3.77291   3.78233   3.82475   3.86397   3.90519
 Alpha virt. eigenvalues --    3.92033   3.95981   4.00171   4.02752   4.03527
 Alpha virt. eigenvalues --    4.09921   4.14615   4.16573   4.22434   4.24548
 Alpha virt. eigenvalues --    4.30663   4.37772   4.43049   4.47679   4.49252
 Alpha virt. eigenvalues --    4.52819   4.60041   4.63174   4.66591   4.72762
 Alpha virt. eigenvalues --    4.75082   4.81487   4.87121   4.91353   4.95495
 Alpha virt. eigenvalues --    4.99075   5.04002   5.06913   5.17296   5.22432
 Alpha virt. eigenvalues --    5.31007   5.36928   5.42881   5.48886   5.60165
 Alpha virt. eigenvalues --    5.62982   5.81843   5.85465   5.96632   6.10420
 Alpha virt. eigenvalues --    6.39827   6.56577   6.80560   6.94155   7.07291
 Alpha virt. eigenvalues --    7.24786  22.42123  22.56220  22.59580  22.71761
 Alpha virt. eigenvalues --   32.10062  43.95958
          Condensed to atoms (all electrons):
               1          2          3          4          5          6
     1  O    8.166654   0.262073  -0.088310  -0.077240   0.014029  -0.000250
     2  C    0.262073   4.716566   0.261876   0.417545  -0.059309   0.004284
     3  N   -0.088310   0.261876   6.776200  -0.088874   0.023130   0.002844
     4  C   -0.077240   0.417545  -0.088874   5.089278   0.252309  -0.032461
     5  C    0.014029  -0.059309   0.023130   0.252309   5.015040   0.288368
     6  C   -0.000250   0.004284   0.002844  -0.032461   0.288368   4.997768
     7  H    0.302951  -0.031722  -0.000509  -0.007278   0.000540  -0.000057
     8  H   -0.031756   0.418852  -0.047190  -0.048552  -0.007339   0.000292
     9  H    0.002579  -0.032222   0.365061  -0.006793  -0.006190   0.001155
    10  H    0.003462  -0.018578   0.372043   0.000102   0.000764  -0.002786
    11  H   -0.000526  -0.032963  -0.007906   0.409166  -0.036149  -0.004682
    12  H    0.008835  -0.051331   0.010811   0.405817  -0.020417   0.007044
    13  H   -0.000507   0.008519  -0.000407  -0.033641   0.408994  -0.032437
    14  H    0.000047  -0.000675  -0.001798  -0.041490   0.413143  -0.036137
    15  H    0.000016  -0.000115   0.001373   0.007171  -0.037459   0.408523
    16  H    0.000016  -0.000883  -0.001277   0.001940  -0.044845   0.412807
    17  H    0.000052   0.002325   0.005511  -0.009995  -0.032726   0.410209
               7          8          9         10         11         12
     1  O    0.302951  -0.031756   0.002579   0.003462  -0.000526   0.008835
     2  C   -0.031722   0.418852  -0.032222  -0.018578  -0.032963  -0.051331
     3  N   -0.000509  -0.047190   0.365061   0.372043  -0.007906   0.010811
     4  C   -0.007278  -0.048552  -0.006793   0.000102   0.409166   0.405817
     5  C    0.000540  -0.007339  -0.006190   0.000764  -0.036149  -0.020417
     6  C   -0.000057   0.000292   0.001155  -0.002786  -0.004682   0.007044
     7  H    0.357704   0.008605   0.002454  -0.000496   0.004933  -0.001190
     8  H    0.008605   0.584004   0.007986  -0.008141   0.007283  -0.004656
     9  H    0.002454   0.007986   0.431462  -0.030026   0.005905  -0.000010
    10  H   -0.000496  -0.008141  -0.030026   0.410519   0.000120  -0.000527
    11  H    0.004933   0.007283   0.005905   0.000120   0.550270  -0.024080
    12  H   -0.001190  -0.004656  -0.000010  -0.000527  -0.024080   0.565362
    13  H   -0.000058  -0.000410  -0.000157   0.000114  -0.003252  -0.008906
    14  H    0.000044   0.003487   0.000434  -0.000028   0.006228  -0.001884
    15  H   -0.000002  -0.000010   0.000228   0.000142  -0.000054  -0.000141
    16  H    0.000007   0.000040   0.000319   0.000116   0.002559   0.000267
    17  H   -0.000019   0.000298  -0.000980   0.002172   0.000901  -0.000421
              13         14         15         16         17
     1  O   -0.000507   0.000047   0.000016   0.000016   0.000052
     2  C    0.008519  -0.000675  -0.000115  -0.000883   0.002325
     3  N   -0.000407  -0.001798   0.001373  -0.001277   0.005511
     4  C   -0.033641  -0.041490   0.007171   0.001940  -0.009995
     5  C    0.408994   0.413143  -0.037459  -0.044845  -0.032726
     6  C   -0.032437  -0.036137   0.408523   0.412807   0.410209
     7  H   -0.000058   0.000044  -0.000002   0.000007  -0.000019
     8  H   -0.000410   0.003487  -0.000010   0.000040   0.000298
     9  H   -0.000157   0.000434   0.000228   0.000319  -0.000980
    10  H    0.000114  -0.000028   0.000142   0.000116   0.002172
    11  H   -0.003252   0.006228  -0.000054   0.002559   0.000901
    12  H   -0.008906  -0.001884  -0.000141   0.000267  -0.000421
    13  H    0.581547  -0.029480  -0.006642  -0.004244   0.006625
    14  H   -0.029480   0.584392  -0.003012   0.006834  -0.005193
    15  H   -0.006642  -0.003012   0.538720  -0.021704  -0.020412
    16  H   -0.004244   0.006834  -0.021704   0.551338  -0.030031
    17  H    0.006625  -0.005193  -0.020412  -0.030031   0.557715
 Mulliken charges:
               1
     1  O   -0.562127
     2  C    0.135759
     3  N   -0.582578
     4  C   -0.237004
     5  C   -0.171883
     6  C   -0.424484
     7  H    0.364095
     8  H    0.117208
     9  H    0.258797
    10  H    0.271029
    11  H    0.122246
    12  H    0.115428
    13  H    0.114341
    14  H    0.105087
    15  H    0.133379
    16  H    0.126739
    17  H    0.113969
 Sum of Mulliken charges =  -0.00000
 Mulliken charges with hydrogens summed into heavy atoms:
               1
     1  O   -0.198033
     2  C    0.252967
     3  N   -0.052753
     4  C    0.000670
     5  C    0.047545
     6  C   -0.050397
 Electronic spatial extent (au):  <R**2>=            743.0507
 Charge=             -0.0000 electrons
 Dipole moment (field-independent basis, Debye):
    X=             -3.6550    Y=             -0.1573    Z=              1.3227  Tot=              3.8902
 Quadrupole moment (field-independent basis, Debye-Ang):
   XX=            -48.8824   YY=            -40.7521   ZZ=            -34.4958
   XY=             -2.2672   XZ=              3.8012   YZ=             -1.1122
 Traceless Quadrupole moment (field-independent basis, Debye-Ang):
   XX=             -7.5057   YY=              0.6247   ZZ=              6.8810
   XY=             -2.2672   XZ=              3.8012   YZ=             -1.1122
 Octapole moment (field-independent basis, Debye-Ang**2):
  XXX=            -14.3053  YYY=             -1.0788  ZZZ=              3.1311  XYY=             -5.9427
  XXY=             -4.7864  XXZ=              9.5449  XZZ=              9.0844  YZZ=              2.0381
  YYZ=             -0.7035  XYZ=             -1.4463
 Hexadecapole moment (field-independent basis, Debye-Ang**3):
 XXXX=           -698.9567 YYYY=           -238.0639 ZZZZ=            -79.7716 XXXY=             -1.8547
 XXXZ=             30.7374 YYYX=            -14.7210 YYYZ=             -4.4359 ZZZX=              6.6657
 ZZZY=             -0.8139 XXYY=           -165.6424 XXZZ=           -110.9870 YYZZ=            -50.8955
 XXYZ=             -6.4268 YYXZ=              1.6245 ZZXY=             -3.2894
 N-N= 2.606853917927D+02 E-N=-1.195306325872D+03  KE= 2.874799115104D+02
 No NMR shielding tensors so no spin-rotation constants.
 Leave Link  601 at Wed Oct 22 13:43:47 2025, MaxMem=  4294967296 cpu:               1.2 elap:               0.2
 (Enter /lrz/sys/applications/gaussian/g16.C.01/x86_64_legacy/exe/l9999.exe)
 Unable to Open any file for archive entry.
 1\1\GINC-CM4R13C05S08\SP\RwB97XD\def2TZVP\C4H11N1O1\GO29TIZ2\22-Oct-20
 25\0\\#p wb97xd scrf=(smd,solvent=water) def2tzvp\\g16_g16_C17-a_55\\0
 ,1\O,0,2.276223,-0.423836,0.054398\C,0,0.989842,0.03145,-0.330765\N,0,
 0.825293,1.434634,-0.008081\C,0,-0.070775,-0.902196,0.254518\C,0,-1.49
 4477,-0.749372,-0.287416\C,0,-2.270127,0.479356,0.179994\H,0,2.298657,
 -0.437467,1.019987\H,0,0.976408,-0.059659,-1.428149\H,0,0.339705,1.535
 176,0.883168\H,0,0.235489,1.887104,-0.702709\H,0,-0.069885,-0.775008,1
 .354251\H,0,0.270244,-1.931177,0.059688\H,0,-2.05908,-1.647373,0.01157
 7\H,0,-1.462562,-0.770597,-1.390861\H,0,-3.320549,0.421063,-0.144404\H
 ,0,-2.265617,0.554672,1.279616\H,0,-1.856418,1.416084,-0.218767\\Versi
 on=EM64L-G16RevC.01\State=1-A\HF=-289.063085\RMSD=5.591e-09\Dipole=-1.
 4380037,-0.0618956,0.5203973\Quadrupole=-5.5802942,0.4644545,5.1158396
 ,-1.685611,2.8260943,-0.8269294\PG=C01 [X(C4H11N1O1)]\\@
 The archive entry for this job was punched.


 THE SOLUTION TO A PROBLEM CHANGES THE PROBLEM.

                                 -- JOHN PEERS
           PAUL DICKSON'S "THE OFFICIAL RULES"
 Job cpu time:       0 days  0 hours 13 minutes 44.0 seconds.
 Elapsed time:       0 days  0 hours  1 minutes 43.4 seconds.
 File lengths (MBytes):  RWF=    288 Int=      0 D2E=      0 Chk=     12 Scr=     32
 Normal termination of Gaussian 16 at Wed Oct 22 13:43:47 2025.
