 Entering Gaussian System, Link 0=g16
 Input=../../g16_g16_C17_2.com
 Output=../../g16_g16_C17_2.log
 Initial command:
 /lrz/sys/applications/gaussian/g16.C.01/x86_64_legacy/exe/l1.exe "/dss/lxclscratch/0D/go29tiz2/Gau-219346.inp" -scrdir="/dss/lxclscratch/0D/go29tiz2/"
 Entering Link 1 = /lrz/sys/applications/gaussian/g16.C.01/x86_64_legacy/exe/l1.exe PID=    219347.
  
 Copyright (c) 1988-2019, Gaussian, Inc.  All Rights Reserved.
  
 This is part of the Gaussian(R) 16 program.  It is based on
 the Gaussian(R) 09 system (copyright 2009, Gaussian, Inc.),
 the Gaussian(R) 03 system (copyright 2003, Gaussian, Inc.),
 the Gaussian(R) 98 system (copyright 1998, Gaussian, Inc.),
 the Gaussian(R) 94 system (copyright 1995, Gaussian, Inc.),
 the Gaussian 92(TM) system (copyright 1992, Gaussian, Inc.),
 the Gaussian 90(TM) system (copyright 1990, Gaussian, Inc.),
 the Gaussian 88(TM) system (copyright 1988, Gaussian, Inc.),
 the Gaussian 86(TM) system (copyright 1986, Carnegie Mellon
 University), and the Gaussian 82(TM) system (copyright 1983,
 Carnegie Mellon University). Gaussian is a federally registered
 trademark of Gaussian, Inc.
  
 This software contains proprietary and confidential information,
 including trade secrets, belonging to Gaussian, Inc.
  
 This software is provided under written license and may be
 used, copied, transmitted, or stored only in accord with that
 written license.
  
 The following legend is applicable only to US Government
 contracts under FAR:
  
                    RESTRICTED RIGHTS LEGEND
  
 Use, reproduction and disclosure by the US Government is
 subject to restrictions as set forth in subparagraphs (a)
 and (c) of the Commercial Computer Software - Restricted
 Rights clause in FAR 52.227-19.
  
 Gaussian, Inc.
 340 Quinnipiac St., Bldg. 40, Wallingford CT 06492
  
  
 ---------------------------------------------------------------
 Warning -- This program may not be used in any manner that
 competes with the business of Gaussian, Inc. or will provide
 assistance to any competitor of Gaussian, Inc.  The licensee
 of this program is prohibited from giving any competitor of
 Gaussian, Inc. access to this program.  By using this program,
 the user acknowledges that Gaussian, Inc. is engaged in the
 business of creating and licensing software in the field of
 computational chemistry and represents and warrants to the
 licensee that it is not a competitor of Gaussian, Inc. and that
 it will not use this program in any manner prohibited above.
 ---------------------------------------------------------------
  

 Cite this work as:
 Gaussian 16, Revision C.01,
 M. J. Frisch, G. W. Trucks, H. B. Schlegel, G. E. Scuseria, 
 M. A. Robb, J. R. Cheeseman, G. Scalmani, V. Barone, 
 G. A. Petersson, H. Nakatsuji, X. Li, M. Caricato, A. V. Marenich, 
 J. Bloino, B. G. Janesko, R. Gomperts, B. Mennucci, H. P. Hratchian, 
 J. V. Ortiz, A. F. Izmaylov, J. L. Sonnenberg, D. Williams-Young, 
 F. Ding, F. Lipparini, F. Egidi, J. Goings, B. Peng, A. Petrone, 
 T. Henderson, D. Ranasinghe, V. G. Zakrzewski, J. Gao, N. Rega, 
 G. Zheng, W. Liang, M. Hada, M. Ehara, K. Toyota, R. Fukuda, 
 J. Hasegawa, M. Ishida, T. Nakajima, Y. Honda, O. Kitao, H. Nakai, 
 T. Vreven, K. Throssell, J. A. Montgomery, Jr., J. E. Peralta, 
 F. Ogliaro, M. J. Bearpark, J. J. Heyd, E. N. Brothers, K. N. Kudin, 
 V. N. Staroverov, T. A. Keith, R. Kobayashi, J. Normand, 
 K. Raghavachari, A. P. Rendell, J. C. Burant, S. S. Iyengar, 
 J. Tomasi, M. Cossi, J. M. Millam, M. Klene, C. Adamo, R. Cammi, 
 J. W. Ochterski, R. L. Martin, K. Morokuma, O. Farkas, 
 J. B. Foresman, and D. J. Fox, Gaussian, Inc., Wallingford CT, 2019.
 
 ******************************************
 Gaussian 16:  EM64L-G16RevC.01  3-Jul-2019
                22-Oct-2025 
 ******************************************
 %chk=g16_g16_C17_2.chk
 %nprocshared=8
 Will use up to    8 processors via shared memory.
 %mem=32GB
 -------------------------------------------
 #p wb97xd scrf=(smd,solvent=water) def2tzvp
 -------------------------------------------
 1/38=1,172=1/1;
 2/12=2,17=6,18=5,40=1/2;
 3/5=44,7=101,11=2,25=1,30=1,70=32201,72=1,74=-58/1,2,3;
 4//1;
 5/5=2,38=5,53=1/2;
 6/7=2,8=2,9=2,10=2,28=1/1;
 99/5=1,9=1/99;
 Leave Link    1 at Wed Oct 22 09:14:21 2025, MaxMem=  4294967296 cpu:               6.0 elap:               0.8
 (Enter /lrz/sys/applications/gaussian/g16.C.01/x86_64_legacy/exe/l101.exe)
 -------------
 g16_g16_C17_2
 -------------
 Symbolic Z-matrix:
 Charge =  0 Multiplicity = 1
 O                    -2.45177  -0.17348  -0.29341 
 C                    -1.44785   0.27059   0.221 
 C                    -0.12082  -0.41899   0.24126 
 C                     1.03386   0.50533  -0.1508 
 C                     2.38793  -0.18485  -0.05956 
 H                    -1.4759    1.26096   0.7371 
 H                    -0.17149  -1.3111   -0.40189 
 H                     0.02788  -0.76304   1.28204 
 H                     1.02302   1.39399   0.50223 
 H                     0.87088   0.87243  -1.17759 
 H                     3.20152   0.49693  -0.34908 
 H                     2.5874   -0.53229   0.96659 
 H                     2.43209  -1.06252  -0.72355 
 
 ITRead=  0  0  0  0  0  0  0  0  0  0  0  0  0
 MicOpt= -1 -1 -1 -1 -1 -1 -1 -1 -1 -1 -1 -1 -1
 NAtoms=     13 NQM=       13 NQMF=       0 NMMI=      0 NMMIF=      0
                NMic=       0 NMicF=      0.
                    Isotopes and Nuclear Properties:
 (Nuclear quadrupole moments (NQMom) in fm**2, nuclear magnetic moments (NMagM)
  in nuclear magnetons)

  Atom         1           2           3           4           5           6           7           8           9          10
 IAtWgt=          16          12          12          12          12           1           1           1           1           1
 AtmWgt=  15.9949146  12.0000000  12.0000000  12.0000000  12.0000000   1.0078250   1.0078250   1.0078250   1.0078250   1.0078250
 NucSpn=           0           0           0           0           0           1           1           1           1           1
 AtZEff=  -0.0000000  -0.0000000  -0.0000000  -0.0000000  -0.0000000  -0.0000000  -0.0000000  -0.0000000  -0.0000000  -0.0000000
 NQMom=    0.0000000   0.0000000   0.0000000   0.0000000   0.0000000   0.0000000   0.0000000   0.0000000   0.0000000   0.0000000
 NMagM=    0.0000000   0.0000000   0.0000000   0.0000000   0.0000000   2.7928460   2.7928460   2.7928460   2.7928460   2.7928460
 AtZNuc=   8.0000000   6.0000000   6.0000000   6.0000000   6.0000000   1.0000000   1.0000000   1.0000000   1.0000000   1.0000000

  Atom        11          12          13
 IAtWgt=           1           1           1
 AtmWgt=   1.0078250   1.0078250   1.0078250
 NucSpn=           1           1           1
 AtZEff=  -0.0000000  -0.0000000  -0.0000000
 NQMom=    0.0000000   0.0000000   0.0000000
 NMagM=    2.7928460   2.7928460   2.7928460
 AtZNuc=   1.0000000   1.0000000   1.0000000
 Leave Link  101 at Wed Oct 22 09:14:21 2025, MaxMem=  4294967296 cpu:               0.9 elap:               0.1
 (Enter /lrz/sys/applications/gaussian/g16.C.01/x86_64_legacy/exe/l202.exe)
                          Input orientation:                          
 ---------------------------------------------------------------------
 Center     Atomic      Atomic             Coordinates (Angstroms)
 Number     Number       Type             X           Y           Z
 ---------------------------------------------------------------------
      1          8           0       -2.451770   -0.173484   -0.293406
      2          6           0       -1.447848    0.270590    0.221000
      3          6           0       -0.120817   -0.418991    0.241260
      4          6           0        1.033858    0.505334   -0.150801
      5          6           0        2.387934   -0.184847   -0.059563
      6          1           0       -1.475904    1.260962    0.737102
      7          1           0       -0.171488   -1.311100   -0.401887
      8          1           0        0.027875   -0.763044    1.282043
      9          1           0        1.023017    1.393985    0.502233
     10          1           0        0.870880    0.872434   -1.177585
     11          1           0        3.201523    0.496929   -0.349077
     12          1           0        2.587401   -0.532288    0.966594
     13          1           0        2.432094   -1.062519   -0.723554
 ---------------------------------------------------------------------
                    Distance matrix (angstroms):
                    1          2          3          4          5
     1  O    0.000000
     2  C    1.212301   0.000000
     3  C    2.404056   1.495642   0.000000
     4  C    3.553974   2.520358   1.530151   0.000000
     5  C    4.845363   3.872901   2.537548   1.522562   0.000000
     6  H    2.017894   1.117133   2.214579   2.767354   4.201700
     7  H    2.550613   2.125753   1.100938   2.194387   2.817139
     8  H    2.996374   2.090926   1.106215   2.161903   2.775625
     9  H    3.894117   2.728788   2.159478   1.102847   2.161325
    10  H    3.593845   2.773942   2.159714   1.102547   2.160849
    11  H    5.693178   4.689655   3.496477   2.176730   1.100256
    12  H    5.206687   4.181358   2.805956   2.176862   1.101590
    13  H    4.982724   4.209906   2.803988   2.177446   1.101427
                    6          7          8          9         10
     6  H    0.000000
     7  H    3.100693   0.000000
     8  H    2.579712   1.782058   0.000000
     9  H    2.513457   3.092210   2.500237   0.000000
    10  H    3.053584   2.540878   3.071680   1.765488   0.000000
    11  H    4.862289   3.827396   3.784194   2.505060   2.501865
    12  H    4.447343   3.176595   2.589195   2.524570   3.084995
    13  H    4.775409   2.635128   3.145214   3.085849   2.527366
                   11         12         13
    11  H    0.000000
    12  H    1.779726   0.000000
    13  H    1.778801   1.778164   0.000000
 Stoichiometry    C4H8O
 Framework group  C1[X(C4H8O)]
 Deg. of freedom    33
 Full point group                 C1      NOp   1
 Largest Abelian subgroup         C1      NOp   1
 Largest concise Abelian subgroup C1      NOp   1
                         Standard orientation:                         
 ---------------------------------------------------------------------
 Center     Atomic      Atomic             Coordinates (Angstroms)
 Number     Number       Type             X           Y           Z
 ---------------------------------------------------------------------
      1          8           0       -2.451770   -0.173484   -0.293406
      2          6           0       -1.447848    0.270590    0.221000
      3          6           0       -0.120817   -0.418991    0.241260
      4          6           0        1.033858    0.505334   -0.150801
      5          6           0        2.387934   -0.184847   -0.059563
      6          1           0       -1.475904    1.260962    0.737102
      7          1           0       -0.171488   -1.311100   -0.401887
      8          1           0        0.027875   -0.763044    1.282043
      9          1           0        1.023017    1.393985    0.502233
     10          1           0        0.870880    0.872434   -1.177585
     11          1           0        3.201523    0.496929   -0.349077
     12          1           0        2.587401   -0.532288    0.966594
     13          1           0        2.432094   -1.062519   -0.723554
 ---------------------------------------------------------------------
 Rotational constants (GHZ):          21.2273055           2.1286678           2.0702601
 Leave Link  202 at Wed Oct 22 09:14:21 2025, MaxMem=  4294967296 cpu:               0.0 elap:               0.0
 (Enter /lrz/sys/applications/gaussian/g16.C.01/x86_64_legacy/exe/l301.exe)
 Standard basis: def2TZVP (5D, 7F)
 Ernie: Thresh=  0.10000D-02 Tol=  0.10000D-05 Strict=F.
 There are   228 symmetry adapted cartesian basis functions of A   symmetry.
 There are   203 symmetry adapted basis functions of A   symmetry.
   203 basis functions,   319 primitive gaussians,   228 cartesian basis functions
    20 alpha electrons       20 beta electrons
       nuclear repulsion energy       169.4528970589 Hartrees.
 IExCor= 4639 DFT=T Ex+Corr=wB97XD ExCW=0 ScaHFX=  1.000000
 ScaDFX=  1.000000  1.000000  1.000000  1.000000 ScalE2=  1.000000  1.000000
 IRadAn=      5 IRanWt=     -1 IRanGd=            0 ICorTp=0 IEmpDi=121
 HFx  wShort=  0.000000 wLong=  0.200000 cFull=  0.222036 cShort=  0.000000 cLong=  0.777964
 DFx  wShort=  0.000000 wLong=  0.200000 cFull=  0.000000 cShort=  0.000000 cLong=  1.000000
 NAtoms=   13 NActive=   13 NUniq=   13 SFac= 1.00D+00 NAtFMM=   60 NAOKFM=F Big=F
 Integral buffers will be    131072 words long.
 Raffenetti 2 integral format.
 Two-electron integral symmetry is turned on.
 R6Disp:  Grimme-D2 Dispersion energy=       -0.0055418458 Hartrees.
 Nuclear repulsion after empirical dispersion term =      169.4473552131 Hartrees.
 ------------------------------------------------------------------------------
 Polarizable Continuum Model (PCM)
 =================================
 Model                : PCM.
 Atomic radii         : SMD-Coulomb.
 Polarization charges : Total charges.
 Charge compensation  : None.
 Solution method      : On-the-fly selection.
 Cavity type          : VdW (van der Waals Surface) (Alpha=1.000).
 Cavity algorithm     : GePol (No added spheres)
                        Default sphere list used, NSphG=   13.
                        Lebedev-Laikov grids with approx.  5.0 points / Ang**2.
                        Smoothing algorithm: York/Karplus (Gamma=1.0000).
                        Polarization charges: spherical gaussians, with
                                              point-specific exponents (IZeta= 3).
                        Self-potential: point-specific (ISelfS= 7).
                        Self-field    : sphere-specific E.n sum rule (ISelfD= 2).
 Solvent              : Water, Eps=  78.355300 Eps(inf)=   1.777849
 ------------------------------------------------------------------------------
 Spheres list:
 ISph  on   Nord     Re0    Alpha      Xe            Ye            Ze
    1   O      1    1.5200  1.000     -2.451770     -0.173484     -0.293406
    2   C      2    1.8500  1.000     -1.447848      0.270590      0.221000
    3   C      3    1.8500  1.000     -0.120817     -0.418991      0.241260
    4   C      4    1.8500  1.000      1.033858      0.505334     -0.150801
    5   C      5    1.8500  1.000      2.387934     -0.184847     -0.059563
    6   H      6    1.2000  1.000     -1.475904      1.260962      0.737102
    7   H      7    1.2000  1.000     -0.171488     -1.311100     -0.401887
    8   H      8    1.2000  1.000      0.027875     -0.763044      1.282043
    9   H      9    1.2000  1.000      1.023017      1.393985      0.502233
   10   H     10    1.2000  1.000      0.870880      0.872434     -1.177585
   11   H     11    1.2000  1.000      3.201523      0.496929     -0.349077
   12   H     12    1.2000  1.000      2.587401     -0.532288      0.966594
   13   H     13    1.2000  1.000      2.432094     -1.062519     -0.723554
 ------------------------------------------------------------------------------
 GePol: Number of generator spheres                  =      13
 GePol: Total number of spheres                      =      13
 GePol: Number of exposed spheres                    =      13 (100.00%)
 GePol: Number of points                             =     993
 GePol: Average weight of points                     =       0.12
 GePol: Minimum weight of points                     =   0.14D-10
 GePol: Maximum weight of points                     =    0.21991
 GePol: Number of points with low weight             =      54
 GePol: Fraction of low-weight points (<1% of avg)   =       5.44%
 GePol: Cavity surface area                          =    115.252 Ang**2
 GePol: Cavity volume                                =     87.331 Ang**3
 ------------------------------------------------------------------------------
 Atomic radii for non-electrostatic terms: SMD-CDS.
 ------------------------------------------------------------------------------
 PCM non-electrostatic energy =         0.0063308526 Hartrees.
 Nuclear repulsion after PCM non-electrostatic terms =      169.4536860657 Hartrees.
 Leave Link  301 at Wed Oct 22 09:14:21 2025, MaxMem=  4294967296 cpu:               0.8 elap:               0.1
 (Enter /lrz/sys/applications/gaussian/g16.C.01/x86_64_legacy/exe/l302.exe)
 NPDir=0 NMtPBC=     1 NCelOv=     1 NCel=       1 NClECP=     1 NCelD=      1
         NCelK=      1 NCelE2=     1 NClLst=     1 CellRange=     0.0.
 One-electron integrals computed using PRISM.
 One-electron integral symmetry used in STVInt
   1 Symmetry operations used in ECPInt.
 ECPInt:  NShTT=    3828 NPrTT=   11160 LenC2=    3765 LenP2D=    9211.
 LDataN:  DoStor=T MaxTD1= 6 Len=  172
 NBasis=   203 RedAO= T EigKep=  2.32D-04  NBF=   203
 NBsUse=   203 1.00D-06 EigRej= -1.00D+00 NBFU=   203
 Precomputing XC quadrature grid using
 IXCGrd= 4 IRadAn=           5 IRanWt=          -1 IRanGd=           0 AccXCQ= 0.00D+00.
 Generated NRdTot=       0 NPtTot=           0 NUsed=           0 NTot=          32
 NSgBfM=   227   227   227   227   227 MxSgAt=    13 MxSgA2=    13.
 Leave Link  302 at Wed Oct 22 09:14:21 2025, MaxMem=  4294967296 cpu:               1.8 elap:               0.2
 (Enter /lrz/sys/applications/gaussian/g16.C.01/x86_64_legacy/exe/l303.exe)
 DipDrv:  MaxL=1.
 Leave Link  303 at Wed Oct 22 09:14:21 2025, MaxMem=  4294967296 cpu:               0.3 elap:               0.0
 (Enter /lrz/sys/applications/gaussian/g16.C.01/x86_64_legacy/exe/l401.exe)
 ExpMin= 9.52D-02 ExpMax= 2.70D+04 ExpMxC= 9.22D+02 IAcc=3 IRadAn=         5 AccDes= 0.00D+00
 Harris functional with IExCor= 4639 and IRadAn=       5 diagonalized for initial guess.
 HarFok:  IExCor= 4639 AccDes= 0.00D+00 IRadAn=         5 IDoV= 1 UseB2=F ITyADJ=14
 ICtDFT=  3500011 ScaDFX=  1.000000  1.000000  1.000000  1.000000
 FoFCou: FMM=F IPFlag=           0 FMFlag=      100000 FMFlg1=           0
         NFxFlg=           0 DoJE=T BraDBF=F KetDBF=T FulRan=T
         wScrn=  0.000000 ICntrl=       500 IOpCl=  0 I1Cent=   200000004 NGrid=           0
         NMat0=    1 NMatS0=      1 NMatT0=    0 NMatD0=    1 NMtDS0=    0 NMtDT0=    0
 Petite list used in FoFCou.
 Harris En= -222.154088667340    
 JPrj=0 DoOrth=F DoCkMO=F.
 Leave Link  401 at Wed Oct 22 09:14:22 2025, MaxMem=  4294967296 cpu:              10.3 elap:               1.3
 (Enter /lrz/sys/applications/gaussian/g16.C.01/x86_64_legacy/exe/l502.exe)
 Integral symmetry usage will be decided dynamically.
 Closed shell SCF:
 Using DIIS extrapolation, IDIIS=  1040.
 NGot=  4294967296 LenX=  4294858978 LenY=  4294806553
 Requested convergence on RMS density matrix=1.00D-08 within 128 cycles.
 Requested convergence on MAX density matrix=1.00D-06.
 Requested convergence on             energy=1.00D-06.
 No special actions if energy rises.
 Fock matrices will be formed incrementally for  20 cycles.

 Cycle   1  Pass 1  IDiag  1:
 FoFJK:  IHMeth= 1 ICntrl=       0 DoSepK=T KAlg= 0 I1Cent=           0 FoldK=F
 IRaf=         1 NMat=       1 IRICut=       1 DoRegI=T DoRafI=F ISym2E= 0 IDoP0=0 IntGTp=1.
 FoFCou: FMM=F IPFlag=           0 FMFlag=      100000 FMFlg1=           0
         NFxFlg=           0 DoJE=T BraDBF=F KetDBF=F FulRan=T
         wScrn=  0.000000 ICntrl=       500 IOpCl=  0 I1Cent=           0 NGrid=           0
         NMat0=    1 NMatS0=      1 NMatT0=    0 NMatD0=    1 NMtDS0=    0 NMtDT0=    0
 Symmetry not used in FoFCou.
 Inv3:  Mode=1 IEnd=     2958147.
 Iteration    1 A*A^-1 deviation from unit magnitude is 5.66D-15 for    544.
 Iteration    1 A*A^-1 deviation from orthogonality  is 4.16D-15 for    671    117.
 Iteration    1 A^-1*A deviation from unit magnitude is 4.77D-15 for    260.
 Iteration    1 A^-1*A deviation from orthogonality  is 9.82D-12 for    843    838.
 E= -232.407519614591    
 DIIS: error= 5.55D-02 at cycle   1 NSaved=   1.
 NSaved= 1 IEnMin= 1 EnMin= -232.407519614591     IErMin= 1 ErrMin= 5.55D-02
 ErrMax= 5.55D-02  0.00D+00 EMaxC= 1.00D-01 BMatC= 4.97D-01 BMatP= 4.97D-01
 IDIUse=3 WtCom= 4.45D-01 WtEn= 5.55D-01
 Coeff-Com:  0.100D+01
 Coeff-En:   0.100D+01
 Coeff:      0.100D+01
 Gap=     0.408 Goal=   None    Shift=    0.000
 GapD=    0.408 DampG=2.000 DampE=0.500 DampFc=1.0000 IDamp=-1.
 RMSDP=2.70D-03 MaxDP=1.94D-01              OVMax= 7.08D-02

 Cycle   2  Pass 1  IDiag  1:
 RMSU=  2.54D-03    CP:  9.19D-01
 E= -232.449184066288     Delta-E=       -0.041664451696 Rises=F Damp=F
 DIIS: error= 9.11D-03 at cycle   2 NSaved=   2.
 NSaved= 2 IEnMin= 2 EnMin= -232.449184066288     IErMin= 2 ErrMin= 9.11D-03
 ErrMax= 9.11D-03  0.00D+00 EMaxC= 1.00D-01 BMatC= 4.25D-02 BMatP= 4.97D-01
 IDIUse=3 WtCom= 9.09D-01 WtEn= 9.11D-02
 Coeff-Com:  0.156D+00 0.844D+00
 Coeff-En:   0.137D+00 0.863D+00
 Coeff:      0.154D+00 0.846D+00
 Gap=     0.441 Goal=   None    Shift=    0.000
 RMSDP=9.92D-04 MaxDP=3.79D-02 DE=-4.17D-02 OVMax= 7.67D-02

 Cycle   3  Pass 1  IDiag  1:
 RMSU=  7.08D-04    CP:  9.37D-01  7.38D-01
 E= -232.458305199683     Delta-E=       -0.009121133396 Rises=F Damp=F
 DIIS: error= 6.90D-03 at cycle   3 NSaved=   3.
 NSaved= 3 IEnMin= 3 EnMin= -232.458305199683     IErMin= 3 ErrMin= 6.90D-03
 ErrMax= 6.90D-03  0.00D+00 EMaxC= 1.00D-01 BMatC= 2.97D-02 BMatP= 4.25D-02
 IDIUse=3 WtCom= 9.31D-01 WtEn= 6.90D-02
 Coeff-Com:  0.300D-01 0.459D+00 0.511D+00
 Coeff-En:   0.000D+00 0.411D+00 0.589D+00
 Coeff:      0.279D-01 0.456D+00 0.516D+00
 Gap=     0.399 Goal=   None    Shift=    0.000
 RMSDP=6.32D-04 MaxDP=3.65D-02 DE=-9.12D-03 OVMax= 3.10D-02

 Cycle   4  Pass 1  IDiag  1:
 RMSU=  2.03D-04    CP:  9.22D-01  9.38D-01  6.27D-01
 E= -232.478203230146     Delta-E=       -0.019898030462 Rises=F Damp=F
 DIIS: error= 1.24D-03 at cycle   4 NSaved=   4.
 NSaved= 4 IEnMin= 4 EnMin= -232.478203230146     IErMin= 4 ErrMin= 1.24D-03
 ErrMax= 1.24D-03  0.00D+00 EMaxC= 1.00D-01 BMatC= 6.66D-04 BMatP= 2.97D-02
 IDIUse=3 WtCom= 9.88D-01 WtEn= 1.24D-02
 Coeff-Com:  0.108D-01 0.191D+00 0.252D+00 0.546D+00
 Coeff-En:   0.000D+00 0.000D+00 0.000D+00 0.100D+01
 Coeff:      0.106D-01 0.189D+00 0.248D+00 0.552D+00
 Gap=     0.391 Goal=   None    Shift=    0.000
 RMSDP=7.18D-05 MaxDP=2.77D-03 DE=-1.99D-02 OVMax= 4.70D-03

 Cycle   5  Pass 1  IDiag  1:
 RMSU=  5.63D-05    CP:  9.21D-01  9.49D-01  6.57D-01  8.75D-01
 E= -232.478699708380     Delta-E=       -0.000496478235 Rises=F Damp=F
 DIIS: error= 1.66D-04 at cycle   5 NSaved=   5.
 NSaved= 5 IEnMin= 5 EnMin= -232.478699708380     IErMin= 5 ErrMin= 1.66D-04
 ErrMax= 1.66D-04  0.00D+00 EMaxC= 1.00D-01 BMatC= 7.80D-06 BMatP= 6.66D-04
 IDIUse=3 WtCom= 9.98D-01 WtEn= 1.66D-03
 Coeff-Com: -0.208D-02-0.275D-01-0.223D-01 0.193D-01 0.103D+01
 Coeff-En:   0.000D+00 0.000D+00 0.000D+00 0.000D+00 0.100D+01
 Coeff:     -0.207D-02-0.275D-01-0.222D-01 0.193D-01 0.103D+01
 Gap=     0.391 Goal=   None    Shift=    0.000
 RMSDP=5.84D-05 MaxDP=3.13D-03 DE=-4.96D-04 OVMax= 1.68D-03

 Cycle   6  Pass 1  IDiag  1:
 RMSU=  1.30D-05    CP:  9.19D-01  9.64D-01  6.83D-01  1.01D+00  1.35D+00
 E= -232.478714791882     Delta-E=       -0.000015083502 Rises=F Damp=F
 DIIS: error= 5.41D-05 at cycle   6 NSaved=   6.
 NSaved= 6 IEnMin= 6 EnMin= -232.478714791882     IErMin= 6 ErrMin= 5.41D-05
 ErrMax= 5.41D-05  0.00D+00 EMaxC= 1.00D-01 BMatC= 6.88D-07 BMatP= 7.80D-06
 IDIUse=1 WtCom= 1.00D+00 WtEn= 0.00D+00
 Coeff-Com: -0.742D-03-0.140D-01-0.164D-01-0.253D-01 0.165D+00 0.892D+00
 Coeff:     -0.742D-03-0.140D-01-0.164D-01-0.253D-01 0.165D+00 0.892D+00
 Gap=     0.391 Goal=   None    Shift=    0.000
 RMSDP=1.28D-05 MaxDP=4.83D-04 DE=-1.51D-05 OVMax= 4.89D-04

 Cycle   7  Pass 1  IDiag  1:
 RMSU=  5.56D-06    CP:  9.19D-01  9.67D-01  6.87D-01  1.03D+00  1.46D+00
                    CP:  1.28D+00
 E= -232.478716042640     Delta-E=       -0.000001250758 Rises=F Damp=F
 DIIS: error= 2.06D-05 at cycle   7 NSaved=   7.
 NSaved= 7 IEnMin= 7 EnMin= -232.478716042640     IErMin= 7 ErrMin= 2.06D-05
 ErrMax= 2.06D-05  0.00D+00 EMaxC= 1.00D-01 BMatC= 1.02D-07 BMatP= 6.88D-07
 IDIUse=1 WtCom= 1.00D+00 WtEn= 0.00D+00
 Coeff-Com:  0.925D-04 0.109D-02 0.203D-03-0.741D-02-0.100D+00 0.208D+00
 Coeff-Com:  0.899D+00
 Coeff:      0.925D-04 0.109D-02 0.203D-03-0.741D-02-0.100D+00 0.208D+00
 Coeff:      0.899D+00
 Gap=     0.391 Goal=   None    Shift=    0.000
 RMSDP=4.92D-06 MaxDP=1.74D-04 DE=-1.25D-06 OVMax= 2.33D-04

 Cycle   8  Pass 1  IDiag  1:
 RMSU=  1.60D-06    CP:  9.19D-01  9.68D-01  6.89D-01  1.04D+00  1.50D+00
                    CP:  1.46D+00  1.25D+00
 E= -232.478716224663     Delta-E=       -0.000000182023 Rises=F Damp=F
 DIIS: error= 3.38D-06 at cycle   8 NSaved=   8.
 NSaved= 8 IEnMin= 8 EnMin= -232.478716224663     IErMin= 8 ErrMin= 3.38D-06
 ErrMax= 3.38D-06  0.00D+00 EMaxC= 1.00D-01 BMatC= 5.73D-09 BMatP= 1.02D-07
 IDIUse=1 WtCom= 1.00D+00 WtEn= 0.00D+00
 Coeff-Com:  0.588D-04 0.107D-02 0.125D-02 0.215D-03-0.219D-01-0.347D-01
 Coeff-Com:  0.106D+00 0.948D+00
 Coeff:      0.588D-04 0.107D-02 0.125D-02 0.215D-03-0.219D-01-0.347D-01
 Coeff:      0.106D+00 0.948D+00
 Gap=     0.391 Goal=   None    Shift=    0.000
 RMSDP=1.27D-06 MaxDP=3.71D-05 DE=-1.82D-07 OVMax= 6.35D-05

 Cycle   9  Pass 1  IDiag  1:
 RMSU=  3.63D-07    CP:  9.19D-01  9.67D-01  6.89D-01  1.04D+00  1.51D+00
                    CP:  1.51D+00  1.38D+00  1.29D+00
 E= -232.478716235834     Delta-E=       -0.000000011171 Rises=F Damp=F
 DIIS: error= 1.20D-06 at cycle   9 NSaved=   9.
 NSaved= 9 IEnMin= 9 EnMin= -232.478716235834     IErMin= 9 ErrMin= 1.20D-06
 ErrMax= 1.20D-06  0.00D+00 EMaxC= 1.00D-01 BMatC= 7.71D-10 BMatP= 5.73D-09
 IDIUse=1 WtCom= 1.00D+00 WtEn= 0.00D+00
 Coeff-Com:  0.894D-05 0.189D-03 0.355D-03 0.767D-03 0.504D-02-0.332D-01
 Coeff-Com: -0.650D-01 0.248D+00 0.843D+00
 Coeff:      0.894D-05 0.189D-03 0.355D-03 0.767D-03 0.504D-02-0.332D-01
 Coeff:     -0.650D-01 0.248D+00 0.843D+00
 Gap=     0.391 Goal=   None    Shift=    0.000
 RMSDP=5.11D-07 MaxDP=2.48D-05 DE=-1.12D-08 OVMax= 2.10D-05

 Cycle  10  Pass 1  IDiag  1:
 RMSU=  1.56D-07    CP:  9.19D-01  9.67D-01  6.89D-01  1.04D+00  1.51D+00
                    CP:  1.53D+00  1.42D+00  1.40D+00  1.29D+00
 E= -232.478716237188     Delta-E=       -0.000000001354 Rises=F Damp=F
 DIIS: error= 3.42D-07 at cycle  10 NSaved=  10.
 NSaved=10 IEnMin=10 EnMin= -232.478716237188     IErMin=10 ErrMin= 3.42D-07
 ErrMax= 3.42D-07  0.00D+00 EMaxC= 1.00D-01 BMatC= 4.53D-11 BMatP= 7.71D-10
 IDIUse=1 WtCom= 1.00D+00 WtEn= 0.00D+00
 Coeff-Com: -0.268D-05-0.389D-04-0.239D-04 0.145D-03 0.249D-02-0.321D-02
 Coeff-Com: -0.202D-01-0.468D-01 0.143D+00 0.925D+00
 Coeff:     -0.268D-05-0.389D-04-0.239D-04 0.145D-03 0.249D-02-0.321D-02
 Coeff:     -0.202D-01-0.468D-01 0.143D+00 0.925D+00
 Gap=     0.391 Goal=   None    Shift=    0.000
 RMSDP=1.65D-07 MaxDP=8.33D-06 DE=-1.35D-09 OVMax= 8.62D-06

 Cycle  11  Pass 1  IDiag  1:
 RMSU=  3.43D-08    CP:  9.19D-01  9.67D-01  6.89D-01  1.04D+00  1.51D+00
                    CP:  1.53D+00  1.43D+00  1.44D+00  1.49D+00  1.35D+00
 E= -232.478716237321     Delta-E=       -0.000000000133 Rises=F Damp=F
 DIIS: error= 1.38D-07 at cycle  11 NSaved=  11.
 NSaved=11 IEnMin=11 EnMin= -232.478716237321     IErMin=11 ErrMin= 1.38D-07
 ErrMax= 1.38D-07  0.00D+00 EMaxC= 1.00D-01 BMatC= 2.85D-12 BMatP= 4.53D-11
 IDIUse=1 WtCom= 1.00D+00 WtEn= 0.00D+00
 Coeff-Com:  0.235D-06-0.834D-06-0.145D-04-0.647D-04-0.798D-03 0.275D-02
 Coeff-Com:  0.763D-02-0.559D-02-0.768D-01-0.182D+00 0.125D+01
 Coeff:      0.235D-06-0.834D-06-0.145D-04-0.647D-04-0.798D-03 0.275D-02
 Coeff:      0.763D-02-0.559D-02-0.768D-01-0.182D+00 0.125D+01
 Gap=     0.391 Goal=   None    Shift=    0.000
 RMSDP=5.85D-08 MaxDP=2.74D-06 DE=-1.33D-10 OVMax= 4.38D-06

 Cycle  12  Pass 1  IDiag  1:
 RMSU=  1.20D-08    CP:  9.19D-01  9.67D-01  6.89D-01  1.04D+00  1.51D+00
                    CP:  1.53D+00  1.43D+00  1.44D+00  1.57D+00  1.54D+00
                    CP:  1.52D+00
 E= -232.478716237334     Delta-E=       -0.000000000013 Rises=F Damp=F
 DIIS: error= 5.23D-08 at cycle  12 NSaved=  12.
 NSaved=12 IEnMin=12 EnMin= -232.478716237334     IErMin=12 ErrMin= 5.23D-08
 ErrMax= 5.23D-08  0.00D+00 EMaxC= 1.00D-01 BMatC= 3.88D-13 BMatP= 2.85D-12
 IDIUse=1 WtCom= 1.00D+00 WtEn= 0.00D+00
 Coeff-Com:  0.144D-07 0.838D-06 0.239D-05-0.546D-05-0.256D-04-0.225D-03
 Coeff-Com:  0.310D-03 0.354D-02 0.100D-02-0.349D-01-0.200D+00 0.123D+01
 Coeff:      0.144D-07 0.838D-06 0.239D-05-0.546D-05-0.256D-04-0.225D-03
 Coeff:      0.310D-03 0.354D-02 0.100D-02-0.349D-01-0.200D+00 0.123D+01
 Gap=     0.391 Goal=   None    Shift=    0.000
 RMSDP=1.17D-08 MaxDP=2.31D-07 DE=-1.26D-11 OVMax= 1.87D-06

 Cycle  13  Pass 1  IDiag  1:
 RMSU=  4.40D-09    CP:  9.19D-01  9.67D-01  6.89D-01  1.04D+00  1.51D+00
                    CP:  1.53D+00  1.43D+00  1.44D+00  1.58D+00  1.57D+00
                    CP:  1.68D+00  1.59D+00
 E= -232.478716237345     Delta-E=       -0.000000000011 Rises=F Damp=F
 DIIS: error= 2.30D-08 at cycle  13 NSaved=  13.
 NSaved=13 IEnMin=13 EnMin= -232.478716237345     IErMin=13 ErrMin= 2.30D-08
 ErrMax= 2.30D-08  0.00D+00 EMaxC= 1.00D-01 BMatC= 9.58D-14 BMatP= 3.88D-13
 IDIUse=1 WtCom= 1.00D+00 WtEn= 0.00D+00
 Coeff-Com: -0.285D-07 0.603D-06 0.340D-05 0.984D-05 0.127D-03-0.547D-03
 Coeff-Com: -0.117D-02 0.205D-02 0.135D-01 0.206D-01-0.273D+00 0.350D+00
 Coeff-Com:  0.888D+00
 Coeff:     -0.285D-07 0.603D-06 0.340D-05 0.984D-05 0.127D-03-0.547D-03
 Coeff:     -0.117D-02 0.205D-02 0.135D-01 0.206D-01-0.273D+00 0.350D+00
 Coeff:      0.888D+00
 Gap=     0.391 Goal=   None    Shift=    0.000
 RMSDP=4.73D-09 MaxDP=1.57D-07 DE=-1.07D-11 OVMax= 7.34D-07

 Error on total polarization charges =  0.04424
 SCF Done:  E(RwB97XD) =  -232.478716237     A.U. after   13 cycles
            NFock= 13  Conv=0.47D-08     -V/T= 2.0055
 KE= 2.312125216965D+02 PE=-8.805213812926D+02 EE= 2.473764572931D+02
 SMD-CDS (non-electrostatic) energy       (kcal/mol) =       3.97
 (included in total energy above)
 Leave Link  502 at Wed Oct 22 09:15:20 2025, MaxMem=  4294967296 cpu:             461.7 elap:              57.9
 (Enter /lrz/sys/applications/gaussian/g16.C.01/x86_64_legacy/exe/l601.exe)
 Copying SCF densities to generalized density rwf, IOpCl= 0 IROHF=0.

 **********************************************************************

            Population analysis using the SCF Density.

 **********************************************************************

 Orbital symmetries:
       Occupied  (A) (A) (A) (A) (A) (A) (A) (A) (A) (A) (A) (A)
                 (A) (A) (A) (A) (A) (A) (A) (A)
       Virtual   (A) (A) (A) (A) (A) (A) (A) (A) (A) (A) (A) (A)
                 (A) (A) (A) (A) (A) (A) (A) (A) (A) (A) (A) (A)
                 (A) (A) (A) (A) (A) (A) (A) (A) (A) (A) (A) (A)
                 (A) (A) (A) (A) (A) (A) (A) (A) (A) (A) (A) (A)
                 (A) (A) (A) (A) (A) (A) (A) (A) (A) (A) (A) (A)
                 (A) (A) (A) (A) (A) (A) (A) (A) (A) (A) (A) (A)
                 (A) (A) (A) (A) (A) (A) (A) (A) (A) (A) (A) (A)
                 (A) (A) (A) (A) (A) (A) (A) (A) (A) (A) (A) (A)
                 (A) (A) (A) (A) (A) (A) (A) (A) (A) (A) (A) (A)
                 (A) (A) (A) (A) (A) (A) (A) (A) (A) (A) (A) (A)
                 (A) (A) (A) (A) (A) (A) (A) (A) (A) (A) (A) (A)
                 (A) (A) (A) (A) (A) (A) (A) (A) (A) (A) (A) (A)
                 (A) (A) (A) (A) (A) (A) (A) (A) (A) (A) (A) (A)
                 (A) (A) (A) (A) (A) (A) (A) (A) (A) (A) (A) (A)
                 (A) (A) (A) (A) (A) (A) (A) (A) (A) (A) (A) (A)
                 (A) (A) (A)
 The electronic state is 1-A.
 Alpha  occ. eigenvalues --  -19.25529 -10.37855 -10.28394 -10.28176 -10.26716
 Alpha  occ. eigenvalues --   -1.15784  -0.89614  -0.80702  -0.69279  -0.66533
 Alpha  occ. eigenvalues --   -0.57345  -0.54531  -0.53870  -0.50719  -0.47744
 Alpha  occ. eigenvalues --   -0.45336  -0.44374  -0.41744  -0.40720  -0.34694
 Alpha virt. eigenvalues --    0.04411   0.12548   0.15260   0.16089   0.16978
 Alpha virt. eigenvalues --    0.19165   0.19998   0.20845   0.22534   0.23648
 Alpha virt. eigenvalues --    0.25047   0.26423   0.28478   0.31286   0.32566
 Alpha virt. eigenvalues --    0.33751   0.35053   0.37509   0.39398   0.40378
 Alpha virt. eigenvalues --    0.43740   0.45830   0.46385   0.47998   0.49197
 Alpha virt. eigenvalues --    0.50169   0.51938   0.52311   0.54153   0.54566
 Alpha virt. eigenvalues --    0.55620   0.56743   0.57021   0.59822   0.61496
 Alpha virt. eigenvalues --    0.64874   0.67355   0.68909   0.69427   0.71322
 Alpha virt. eigenvalues --    0.77072   0.83590   0.86474   0.89355   0.91714
 Alpha virt. eigenvalues --    0.92893   0.94203   1.01111   1.05675   1.06446
 Alpha virt. eigenvalues --    1.07307   1.08570   1.15498   1.18320   1.20257
 Alpha virt. eigenvalues --    1.22148   1.24605   1.26191   1.28752   1.33635
 Alpha virt. eigenvalues --    1.37510   1.50079   1.52994   1.55881   1.58726
 Alpha virt. eigenvalues --    1.59420   1.61412   1.64548   1.65499   1.66545
 Alpha virt. eigenvalues --    1.68724   1.69744   1.71095   1.72746   1.78333
 Alpha virt. eigenvalues --    1.85059   1.86900   1.90512   1.92398   1.96208
 Alpha virt. eigenvalues --    1.97690   1.99531   2.00981   2.03855   2.05663
 Alpha virt. eigenvalues --    2.14849   2.17416   2.18725   2.22461   2.26659
 Alpha virt. eigenvalues --    2.31503   2.36459   2.39737   2.41709   2.44907
 Alpha virt. eigenvalues --    2.45579   2.48466   2.48889   2.50964   2.56332
 Alpha virt. eigenvalues --    2.60502   2.62464   2.63954   2.65343   2.68806
 Alpha virt. eigenvalues --    2.70999   2.72502   2.73644   2.76023   2.76860
 Alpha virt. eigenvalues --    2.79671   2.83434   2.88158   2.89093   2.94037
 Alpha virt. eigenvalues --    3.01424   3.04807   3.05830   3.08235   3.10891
 Alpha virt. eigenvalues --    3.14355   3.16482   3.18494   3.21201   3.26159
 Alpha virt. eigenvalues --    3.27117   3.29994   3.33192   3.34069   3.35380
 Alpha virt. eigenvalues --    3.37833   3.40720   3.42207   3.45278   3.48178
 Alpha virt. eigenvalues --    3.51352   3.56169   3.58307   3.59769   3.63827
 Alpha virt. eigenvalues --    3.65569   3.68196   3.77755   3.78944   3.84021
 Alpha virt. eigenvalues --    3.93149   3.95006   3.96590   3.99178   4.04505
 Alpha virt. eigenvalues --    4.08472   4.14860   4.20147   4.24191   4.28971
 Alpha virt. eigenvalues --    4.44088   4.46609   4.51174   4.60337   4.63485
 Alpha virt. eigenvalues --    4.64315   4.68581   4.72800   4.77470   4.93506
 Alpha virt. eigenvalues --    5.07903   5.26133   5.26464   5.62866   5.72624
 Alpha virt. eigenvalues --    6.17944   6.38647   6.41823   6.46214   6.53359
 Alpha virt. eigenvalues --    6.86484   6.99429   7.11596  22.38755  22.47948
 Alpha virt. eigenvalues --   22.55586  22.84321  43.83202
          Condensed to atoms (all electrons):
               1          2          3          4          5          6
     1  O    8.013817   0.580604  -0.115913   0.005672  -0.000624  -0.061179
     2  C    0.580604   4.540991   0.281501  -0.011610   0.004669   0.433569
     3  C   -0.115913   0.281501   5.242509   0.256514  -0.029969  -0.130846
     4  C    0.005672  -0.011610   0.256514   4.982745   0.293355   0.014344
     5  C   -0.000624   0.004669  -0.029969   0.293355   4.953846  -0.000971
     6  H   -0.061179   0.433569  -0.130846   0.014344  -0.000971   0.616639
     7  H    0.011754  -0.020826   0.370087  -0.018843  -0.003732   0.009309
     8  H    0.002379  -0.008488   0.373104  -0.029287  -0.006056   0.003370
     9  H   -0.000046  -0.003522  -0.037147   0.416240  -0.027960   0.002341
    10  H    0.001137  -0.002204  -0.041095   0.413934  -0.031513   0.001071
    11  H    0.000011  -0.000174   0.008695  -0.040421   0.415279   0.000070
    12  H    0.000004  -0.000338  -0.004150  -0.036782   0.413213   0.000097
    13  H   -0.000044  -0.000265  -0.004496  -0.034862   0.412222  -0.000102
               7          8          9         10         11         12
     1  O    0.011754   0.002379  -0.000046   0.001137   0.000011   0.000004
     2  C   -0.020826  -0.008488  -0.003522  -0.002204  -0.000174  -0.000338
     3  C    0.370087   0.373104  -0.037147  -0.041095   0.008695  -0.004150
     4  C   -0.018843  -0.029287   0.416240   0.413934  -0.040421  -0.036782
     5  C   -0.003732  -0.006056  -0.027960  -0.031513   0.415279   0.413213
     6  H    0.009309   0.003370   0.002341   0.001071   0.000070   0.000097
     7  H    0.550275  -0.020672   0.005759  -0.004340   0.000063   0.000142
     8  H   -0.020672   0.536158  -0.005244   0.007098   0.000025   0.003136
     9  H    0.005759  -0.005244   0.567489  -0.031687  -0.004337  -0.005431
    10  H   -0.004340   0.007098  -0.031687   0.573163  -0.004046   0.006290
    11  H    0.000063   0.000025  -0.004337  -0.004046   0.531889  -0.022076
    12  H    0.000142   0.003136  -0.005431   0.006290  -0.022076   0.547457
    13  H    0.001572  -0.000344   0.006411  -0.005469  -0.022467  -0.028080
              13
     1  O   -0.000044
     2  C   -0.000265
     3  C   -0.004496
     4  C   -0.034862
     5  C    0.412222
     6  H   -0.000102
     7  H    0.001572
     8  H   -0.000344
     9  H    0.006411
    10  H   -0.005469
    11  H   -0.022467
    12  H   -0.028080
    13  H    0.548259
 Mulliken charges:
               1
     1  O   -0.437573
     2  C    0.206093
     3  C   -0.168796
     4  C   -0.211000
     5  C   -0.391758
     6  H    0.112288
     7  H    0.119452
     8  H    0.144823
     9  H    0.117135
    10  H    0.117663
    11  H    0.137489
    12  H    0.126519
    13  H    0.127665
 Sum of Mulliken charges =  -0.00000
 Mulliken charges with hydrogens summed into heavy atoms:
               1
     1  O   -0.437573
     2  C    0.318380
     3  C    0.095479
     4  C    0.023798
     5  C   -0.000084
 Electronic spatial extent (au):  <R**2>=            602.8101
 Charge=             -0.0000 electrons
 Dipole moment (field-independent basis, Debye):
    X=              3.7442    Y=              1.0641    Z=              1.5428  Tot=              4.1871
 Quadrupole moment (field-independent basis, Debye-Ang):
   XX=            -43.3232   YY=            -30.7549   ZZ=            -30.4817
   XY=             -1.9505   XZ=             -2.9144   YZ=              0.0485
 Traceless Quadrupole moment (field-independent basis, Debye-Ang):
   XX=             -8.4699   YY=              4.0983   ZZ=              4.3716
   XY=             -1.9505   XZ=             -2.9144   YZ=              0.0485
 Octapole moment (field-independent basis, Debye-Ang**2):
  XXX=             26.5475  YYY=              0.8338  ZZZ=              1.1287  XYY=             -2.5923
  XXY=              5.6047  XXZ=              6.1230  XZZ=             -1.9749  YZZ=             -0.2446
  YYZ=              0.3396  XYZ=             -0.0218
 Hexadecapole moment (field-independent basis, Debye-Ang**3):
 XXXX=           -734.6936 YYYY=            -86.3687 ZZZZ=            -60.4031 XXXY=             -1.1013
 XXXZ=            -15.0670 YYYX=             -0.6685 YYYZ=              3.1940 ZZZX=              1.8432
 ZZZY=             -1.4839 XXYY=           -119.9178 XXZZ=           -116.4307 YYZZ=            -23.2306
 XXYZ=             -1.2591 YYXZ=             -1.5076 ZZXY=             -1.2244
 N-N= 1.694536860657D+02 E-N=-8.805213816352D+02  KE= 2.312125216965D+02
 No NMR shielding tensors so no spin-rotation constants.
 Leave Link  601 at Wed Oct 22 09:15:21 2025, MaxMem=  4294967296 cpu:               1.2 elap:               0.2
 (Enter /lrz/sys/applications/gaussian/g16.C.01/x86_64_legacy/exe/l9999.exe)
 Unable to Open any file for archive entry.
 1\1\GINC-CM4R15C05S03\SP\RwB97XD\def2TZVP\C4H8O1\GO29TIZ2\22-Oct-2025\
 0\\#p wb97xd scrf=(smd,solvent=water) def2tzvp\\g16_g16_C17_2\\0,1\O,0
 ,-2.45177,-0.173484,-0.293406\C,0,-1.447848,0.27059,0.221\C,0,-0.12081
 7,-0.418991,0.24126\C,0,1.033858,0.505334,-0.150801\C,0,2.387934,-0.18
 4847,-0.059563\H,0,-1.475904,1.260962,0.737102\H,0,-0.171488,-1.3111,-
 0.401887\H,0,0.027875,-0.763044,1.282043\H,0,1.023017,1.393985,0.50223
 3\H,0,0.87088,0.872434,-1.177585\H,0,3.201523,0.496929,-0.349077\H,0,2
 .587401,-0.532288,0.966594\H,0,2.432094,-1.062519,-0.723554\\Version=E
 M64L-G16RevC.01\State=1-A\HF=-232.4787162\RMSD=4.731e-09\Dipole=1.4730
 761,0.4186653,0.6069922\Quadrupole=-6.2971819,3.0470214,3.2501605,-1.4
 501696,-2.1667641,0.0360455\PG=C01 [X(C4H8O1)]\\@
 The archive entry for this job was punched.


 IT IS A CAPITAL MISTAKE TO THEORIZE BEFORE ONE HAS
 DATA.  INSENSIBLY ONE BEGINS TO TWIST FACTS TO SUIT
 THEORIES RATHER THAN THEORIES TO SUIT FACTS.

                                         -- SHERLOCK HOLMES
 Job cpu time:       0 days  0 hours  8 minutes  3.1 seconds.
 Elapsed time:       0 days  0 hours  1 minutes  0.8 seconds.
 File lengths (MBytes):  RWF=    288 Int=      0 D2E=      0 Chk=      8 Scr=     32
 Normal termination of Gaussian 16 at Wed Oct 22 09:15:21 2025.
