 Entering Gaussian System, Link 0=g16
 Input=../../g16_g16_C17-a_36.com
 Output=../../g16_g16_C17-a_36.log
 Initial command:
 /lrz/sys/applications/gaussian/g16.C.01/x86_64_legacy/exe/l1.exe "/dss/lxclscratch/0D/go29tiz2/Gau-3937.inp" -scrdir="/dss/lxclscratch/0D/go29tiz2/"
 Entering Link 1 = /lrz/sys/applications/gaussian/g16.C.01/x86_64_legacy/exe/l1.exe PID=      3946.
  
 Copyright (c) 1988-2019, Gaussian, Inc.  All Rights Reserved.
  
 This is part of the Gaussian(R) 16 program.  It is based on
 the Gaussian(R) 09 system (copyright 2009, Gaussian, Inc.),
 the Gaussian(R) 03 system (copyright 2003, Gaussian, Inc.),
 the Gaussian(R) 98 system (copyright 1998, Gaussian, Inc.),
 the Gaussian(R) 94 system (copyright 1995, Gaussian, Inc.),
 the Gaussian 92(TM) system (copyright 1992, Gaussian, Inc.),
 the Gaussian 90(TM) system (copyright 1990, Gaussian, Inc.),
 the Gaussian 88(TM) system (copyright 1988, Gaussian, Inc.),
 the Gaussian 86(TM) system (copyright 1986, Carnegie Mellon
 University), and the Gaussian 82(TM) system (copyright 1983,
 Carnegie Mellon University). Gaussian is a federally registered
 trademark of Gaussian, Inc.
  
 This software contains proprietary and confidential information,
 including trade secrets, belonging to Gaussian, Inc.
  
 This software is provided under written license and may be
 used, copied, transmitted, or stored only in accord with that
 written license.
  
 The following legend is applicable only to US Government
 contracts under FAR:
  
                    RESTRICTED RIGHTS LEGEND
  
 Use, reproduction and disclosure by the US Government is
 subject to restrictions as set forth in subparagraphs (a)
 and (c) of the Commercial Computer Software - Restricted
 Rights clause in FAR 52.227-19.
  
 Gaussian, Inc.
 340 Quinnipiac St., Bldg. 40, Wallingford CT 06492
  
  
 ---------------------------------------------------------------
 Warning -- This program may not be used in any manner that
 competes with the business of Gaussian, Inc. or will provide
 assistance to any competitor of Gaussian, Inc.  The licensee
 of this program is prohibited from giving any competitor of
 Gaussian, Inc. access to this program.  By using this program,
 the user acknowledges that Gaussian, Inc. is engaged in the
 business of creating and licensing software in the field of
 computational chemistry and represents and warrants to the
 licensee that it is not a competitor of Gaussian, Inc. and that
 it will not use this program in any manner prohibited above.
 ---------------------------------------------------------------
  

 Cite this work as:
 Gaussian 16, Revision C.01,
 M. J. Frisch, G. W. Trucks, H. B. Schlegel, G. E. Scuseria, 
 M. A. Robb, J. R. Cheeseman, G. Scalmani, V. Barone, 
 G. A. Petersson, H. Nakatsuji, X. Li, M. Caricato, A. V. Marenich, 
 J. Bloino, B. G. Janesko, R. Gomperts, B. Mennucci, H. P. Hratchian, 
 J. V. Ortiz, A. F. Izmaylov, J. L. Sonnenberg, D. Williams-Young, 
 F. Ding, F. Lipparini, F. Egidi, J. Goings, B. Peng, A. Petrone, 
 T. Henderson, D. Ranasinghe, V. G. Zakrzewski, J. Gao, N. Rega, 
 G. Zheng, W. Liang, M. Hada, M. Ehara, K. Toyota, R. Fukuda, 
 J. Hasegawa, M. Ishida, T. Nakajima, Y. Honda, O. Kitao, H. Nakai, 
 T. Vreven, K. Throssell, J. A. Montgomery, Jr., J. E. Peralta, 
 F. Ogliaro, M. J. Bearpark, J. J. Heyd, E. N. Brothers, K. N. Kudin, 
 V. N. Staroverov, T. A. Keith, R. Kobayashi, J. Normand, 
 K. Raghavachari, A. P. Rendell, J. C. Burant, S. S. Iyengar, 
 J. Tomasi, M. Cossi, J. M. Millam, M. Klene, C. Adamo, R. Cammi, 
 J. W. Ochterski, R. L. Martin, K. Morokuma, O. Farkas, 
 J. B. Foresman, and D. J. Fox, Gaussian, Inc., Wallingford CT, 2019.
 
 ******************************************
 Gaussian 16:  EM64L-G16RevC.01  3-Jul-2019
                22-Oct-2025 
 ******************************************
 %chk=g16_g16_C17-a_36.chk
 %nprocshared=8
 Will use up to    8 processors via shared memory.
 %mem=32GB
 -------------------------------------------
 #p wb97xd scrf=(smd,solvent=water) def2tzvp
 -------------------------------------------
 1/38=1,172=1/1;
 2/12=2,17=6,18=5,40=1/2;
 3/5=44,7=101,11=2,25=1,30=1,70=32201,72=1,74=-58/1,2,3;
 4//1;
 5/5=2,38=5,53=1/2;
 6/7=2,8=2,9=2,10=2,28=1/1;
 99/5=1,9=1/99;
 Leave Link    1 at Wed Oct 22 13:39:57 2025, MaxMem=  4294967296 cpu:               4.1 elap:               0.6
 (Enter /lrz/sys/applications/gaussian/g16.C.01/x86_64_legacy/exe/l101.exe)
 ----------------
 g16_g16_C17-a_36
 ----------------
 Symbolic Z-matrix:
 Charge =  0 Multiplicity = 1
 O                     1.10978   1.31785   0.36849 
 C                     1.10729  -0.09754   0.3366 
 N                     1.35905  -0.55079  -1.01387 
 C                    -0.18095  -0.7059    0.89585 
 C                    -1.42356  -0.6818    0.00224 
 C                    -1.90123   0.69875  -0.44023 
 H                     0.50392   1.61994  -0.31928 
 H                     1.92099  -0.36949   1.03449 
 H                     2.34353  -0.41911  -1.24081 
 H                     1.17569  -1.55099  -1.08163 
 H                    -0.39262  -0.18603   1.84487 
 H                     0.0368   -1.75425   1.16126 
 H                    -2.2357   -1.17672   0.55979 
 H                    -1.2507   -1.30785  -0.8885 
 H                    -1.96977   1.39636   0.40974 
 H                    -1.2343    1.14306  -1.19607 
 H                    -2.89885   0.63675  -0.90145 
 
 ITRead=  0  0  0  0  0  0  0  0  0  0  0  0  0  0  0  0  0
 MicOpt= -1 -1 -1 -1 -1 -1 -1 -1 -1 -1 -1 -1 -1 -1 -1 -1 -1
 NAtoms=     17 NQM=       17 NQMF=       0 NMMI=      0 NMMIF=      0
                NMic=       0 NMicF=      0.
                    Isotopes and Nuclear Properties:
 (Nuclear quadrupole moments (NQMom) in fm**2, nuclear magnetic moments (NMagM)
  in nuclear magnetons)

  Atom         1           2           3           4           5           6           7           8           9          10
 IAtWgt=          16          12          14          12          12          12           1           1           1           1
 AtmWgt=  15.9949146  12.0000000  14.0030740  12.0000000  12.0000000  12.0000000   1.0078250   1.0078250   1.0078250   1.0078250
 NucSpn=           0           0           2           0           0           0           1           1           1           1
 AtZEff=  -0.0000000  -0.0000000  -0.0000000  -0.0000000  -0.0000000  -0.0000000  -0.0000000  -0.0000000  -0.0000000  -0.0000000
 NQMom=    0.0000000   0.0000000   2.0440000   0.0000000   0.0000000   0.0000000   0.0000000   0.0000000   0.0000000   0.0000000
 NMagM=    0.0000000   0.0000000   0.4037610   0.0000000   0.0000000   0.0000000   2.7928460   2.7928460   2.7928460   2.7928460
 AtZNuc=   8.0000000   6.0000000   7.0000000   6.0000000   6.0000000   6.0000000   1.0000000   1.0000000   1.0000000   1.0000000

  Atom        11          12          13          14          15          16          17
 IAtWgt=           1           1           1           1           1           1           1
 AtmWgt=   1.0078250   1.0078250   1.0078250   1.0078250   1.0078250   1.0078250   1.0078250
 NucSpn=           1           1           1           1           1           1           1
 AtZEff=  -0.0000000  -0.0000000  -0.0000000  -0.0000000  -0.0000000  -0.0000000  -0.0000000
 NQMom=    0.0000000   0.0000000   0.0000000   0.0000000   0.0000000   0.0000000   0.0000000
 NMagM=    2.7928460   2.7928460   2.7928460   2.7928460   2.7928460   2.7928460   2.7928460
 AtZNuc=   1.0000000   1.0000000   1.0000000   1.0000000   1.0000000   1.0000000   1.0000000
 Leave Link  101 at Wed Oct 22 13:39:57 2025, MaxMem=  4294967296 cpu:               1.1 elap:               0.2
 (Enter /lrz/sys/applications/gaussian/g16.C.01/x86_64_legacy/exe/l202.exe)
                          Input orientation:                          
 ---------------------------------------------------------------------
 Center     Atomic      Atomic             Coordinates (Angstroms)
 Number     Number       Type             X           Y           Z
 ---------------------------------------------------------------------
      1          8           0        1.109784    1.317854    0.368494
      2          6           0        1.107292   -0.097541    0.336600
      3          7           0        1.359053   -0.550790   -1.013873
      4          6           0       -0.180945   -0.705903    0.895848
      5          6           0       -1.423560   -0.681801    0.002241
      6          6           0       -1.901226    0.698747   -0.440231
      7          1           0        0.503924    1.619942   -0.319283
      8          1           0        1.920991   -0.369491    1.034491
      9          1           0        2.343533   -0.419111   -1.240813
     10          1           0        1.175691   -1.550986   -1.081626
     11          1           0       -0.392622   -0.186025    1.844866
     12          1           0        0.036801   -1.754248    1.161256
     13          1           0       -2.235703   -1.176717    0.559786
     14          1           0       -1.250704   -1.307846   -0.888498
     15          1           0       -1.969774    1.396364    0.409740
     16          1           0       -1.234295    1.143059   -1.196069
     17          1           0       -2.898853    0.636752   -0.901452
 ---------------------------------------------------------------------
                    Distance matrix (angstroms):
                    1          2          3          4          5
     1  O    0.000000
     2  C    1.415756   0.000000
     3  N    2.337713   1.446581   0.000000
     4  C    2.457575   1.530496   2.458188   0.000000
     5  C    3.248168   2.618849   2.965230   1.530754   0.000000
     6  C    3.178602   3.207604   3.538337   2.591817   1.526388
     7  H    0.965070   1.934938   2.434292   2.712037   3.019370
     8  H    1.987144   1.105945   2.131769   2.133197   3.514128
     9  H    2.670029   2.029761   1.018843   3.319723   3.975573
    10  H    3.215188   2.031882   1.019119   2.542642   2.947262
    11  H    2.588156   2.128952   3.372508   1.102595   2.168846
    12  H    3.349265   2.137916   2.815643   1.103124   2.150840
    13  H    4.177530   3.519950   3.973721   2.134627   1.102440
    14  H    3.747830   2.919906   2.720236   2.165782   1.102374
    15  H    3.080835   3.421321   4.110860   2.802809   2.187047
    16  H    2.823671   3.061240   3.102865   2.984011   2.191320
    17  H    4.259793   4.256895   4.421839   3.524207   2.175255
                    6          7          8          9         10
     6  C    0.000000
     7  H    2.578367   0.000000
     8  H    4.233826   2.792602   0.000000
     9  H    4.461896   2.896742   2.314738   0.000000
    10  H    3.865243   3.329748   2.535617   1.634116   0.000000
    11  H    2.877564   2.957846   2.458287   4.130652   3.589858
    12  H    3.512534   3.714210   2.341750   3.587971   2.523669
    13  H    2.151575   4.012433   4.260876   4.978506   3.804198
    14  H    2.156511   3.460443   3.825970   3.719209   2.446182
    15  H    1.101735   2.588560   4.318172   4.962347   4.561249
    16  H    1.101590   2.004389   4.149583   3.904258   3.616491
    17  H    1.100831   3.589495   5.290680   5.358416   4.628236
                   11         12         13         14         15
    11  H    0.000000
    12  H    1.763817   0.000000
    13  H    2.455575   2.420657   0.000000
    14  H    3.076697   2.461389   1.756401   0.000000
    15  H    2.655363   3.810181   2.591134   3.084678   0.000000
    16  H    3.423765   3.945511   3.076882   2.470183   1.784297
    17  H    3.807941   4.311579   2.421498   2.549122   1.777476
                   16         17
    16  H    0.000000
    17  H    1.764624   0.000000
 Stoichiometry    C4H11NO
 Framework group  C1[X(C4H11NO)]
 Deg. of freedom    45
 Full point group                 C1      NOp   1
 Largest Abelian subgroup         C1      NOp   1
 Largest concise Abelian subgroup C1      NOp   1
                         Standard orientation:                         
 ---------------------------------------------------------------------
 Center     Atomic      Atomic             Coordinates (Angstroms)
 Number     Number       Type             X           Y           Z
 ---------------------------------------------------------------------
      1          8           0       -1.109784    1.317854   -0.368494
      2          6           0       -1.107292   -0.097541   -0.336600
      3          7           0       -1.359053   -0.550790    1.013873
      4          6           0        0.180945   -0.705903   -0.895848
      5          6           0        1.423560   -0.681801   -0.002241
      6          6           0        1.901226    0.698747    0.440231
      7          1           0       -0.503924    1.619942    0.319283
      8          1           0       -1.920991   -0.369491   -1.034491
      9          1           0       -2.343533   -0.419111    1.240813
     10          1           0       -1.175691   -1.550986    1.081626
     11          1           0        0.392622   -0.186025   -1.844866
     12          1           0       -0.036801   -1.754248   -1.161256
     13          1           0        2.235703   -1.176717   -0.559786
     14          1           0        1.250704   -1.307846    0.888498
     15          1           0        1.969774    1.396364   -0.409740
     16          1           0        1.234295    1.143059    1.196069
     17          1           0        2.898853    0.636752    0.901452
 ---------------------------------------------------------------------
 Rotational constants (GHZ):           4.7332698           2.5027693           2.2482823
 Leave Link  202 at Wed Oct 22 13:39:57 2025, MaxMem=  4294967296 cpu:               0.0 elap:               0.0
 (Enter /lrz/sys/applications/gaussian/g16.C.01/x86_64_legacy/exe/l301.exe)
 Standard basis: def2TZVP (5D, 7F)
 Ernie: Thresh=  0.10000D-02 Tol=  0.10000D-05 Strict=F.
 There are   282 symmetry adapted cartesian basis functions of A   symmetry.
 There are   252 symmetry adapted basis functions of A   symmetry.
   252 basis functions,   394 primitive gaussians,   282 cartesian basis functions
    25 alpha electrons       25 beta electrons
       nuclear repulsion energy       265.2970673795 Hartrees.
 IExCor= 4639 DFT=T Ex+Corr=wB97XD ExCW=0 ScaHFX=  1.000000
 ScaDFX=  1.000000  1.000000  1.000000  1.000000 ScalE2=  1.000000  1.000000
 IRadAn=      5 IRanWt=     -1 IRanGd=            0 ICorTp=0 IEmpDi=121
 HFx  wShort=  0.000000 wLong=  0.200000 cFull=  0.222036 cShort=  0.000000 cLong=  0.777964
 DFx  wShort=  0.000000 wLong=  0.200000 cFull=  0.000000 cShort=  0.000000 cLong=  1.000000
 NAtoms=   17 NActive=   17 NUniq=   17 SFac= 1.00D+00 NAtFMM=   60 NAOKFM=F Big=F
 Integral buffers will be    131072 words long.
 Raffenetti 2 integral format.
 Two-electron integral symmetry is turned on.
 R6Disp:  Grimme-D2 Dispersion energy=       -0.0100534231 Hartrees.
 Nuclear repulsion after empirical dispersion term =      265.2870139564 Hartrees.
 ------------------------------------------------------------------------------
 Polarizable Continuum Model (PCM)
 =================================
 Model                : PCM.
 Atomic radii         : SMD-Coulomb.
 Polarization charges : Total charges.
 Charge compensation  : None.
 Solution method      : On-the-fly selection.
 Cavity type          : VdW (van der Waals Surface) (Alpha=1.000).
 Cavity algorithm     : GePol (No added spheres)
                        Default sphere list used, NSphG=   17.
                        Lebedev-Laikov grids with approx.  5.0 points / Ang**2.
                        Smoothing algorithm: York/Karplus (Gamma=1.0000).
                        Polarization charges: spherical gaussians, with
                                              point-specific exponents (IZeta= 3).
                        Self-potential: point-specific (ISelfS= 7).
                        Self-field    : sphere-specific E.n sum rule (ISelfD= 2).
 Solvent              : Water, Eps=  78.355300 Eps(inf)=   1.777849
 ------------------------------------------------------------------------------
 Spheres list:
 ISph  on   Nord     Re0    Alpha      Xe            Ye            Ze
    1   O      1    1.5200  1.000     -1.109784      1.317854     -0.368494
    2   C      2    1.8500  1.000     -1.107292     -0.097541     -0.336600
    3   N      3    1.8900  1.000     -1.359053     -0.550790      1.013873
    4   C      4    1.8500  1.000      0.180945     -0.705903     -0.895848
    5   C      5    1.8500  1.000      1.423560     -0.681801     -0.002241
    6   C      6    1.8500  1.000      1.901226      0.698747      0.440231
    7   H      7    1.2000  1.000     -0.503924      1.619942      0.319283
    8   H      8    1.2000  1.000     -1.920991     -0.369491     -1.034491
    9   H      9    1.2000  1.000     -2.343533     -0.419111      1.240813
   10   H     10    1.2000  1.000     -1.175691     -1.550986      1.081626
   11   H     11    1.2000  1.000      0.392622     -0.186025     -1.844866
   12   H     12    1.2000  1.000     -0.036801     -1.754248     -1.161256
   13   H     13    1.2000  1.000      2.235703     -1.176717     -0.559786
   14   H     14    1.2000  1.000      1.250704     -1.307846      0.888498
   15   H     15    1.2000  1.000      1.969774      1.396364     -0.409740
   16   H     16    1.2000  1.000      1.234295      1.143059      1.196069
   17   H     17    1.2000  1.000      2.898853      0.636752      0.901452
 ------------------------------------------------------------------------------
 GePol: Number of generator spheres                  =      17
 GePol: Total number of spheres                      =      17
 GePol: Number of exposed spheres                    =      17 (100.00%)
 GePol: Number of points                             =    1172
 GePol: Average weight of points                     =       0.11
 GePol: Minimum weight of points                     =   0.24D-10
 GePol: Maximum weight of points                     =    0.21991
 GePol: Number of points with low weight             =      88
 GePol: Fraction of low-weight points (<1% of avg)   =       7.51%
 GePol: Cavity surface area                          =    133.675 Ang**2
 GePol: Cavity volume                                =    107.850 Ang**3
 ------------------------------------------------------------------------------
 Atomic radii for non-electrostatic terms: SMD-CDS.
 ------------------------------------------------------------------------------
 PCM non-electrostatic energy =         0.0032824516 Hartrees.
 Nuclear repulsion after PCM non-electrostatic terms =      265.2902964080 Hartrees.
 Leave Link  301 at Wed Oct 22 13:39:58 2025, MaxMem=  4294967296 cpu:               0.6 elap:               0.1
 (Enter /lrz/sys/applications/gaussian/g16.C.01/x86_64_legacy/exe/l302.exe)
 NPDir=0 NMtPBC=     1 NCelOv=     1 NCel=       1 NClECP=     1 NCelD=      1
         NCelK=      1 NCelE2=     1 NClLst=     1 CellRange=     0.0.
 One-electron integrals computed using PRISM.
 One-electron integral symmetry used in STVInt
   1 Symmetry operations used in ECPInt.
 ECPInt:  NShTT=    6105 NPrTT=   17556 LenC2=    6058 LenP2D=   14524.
 LDataN:  DoStor=T MaxTD1= 6 Len=  172
 NBasis=   252 RedAO= T EigKep=  1.92D-04  NBF=   252
 NBsUse=   252 1.00D-06 EigRej= -1.00D+00 NBFU=   252
 Precomputing XC quadrature grid using
 IXCGrd= 4 IRadAn=           5 IRanWt=          -1 IRanGd=           0 AccXCQ= 0.00D+00.
 Generated NRdTot=       0 NPtTot=           0 NUsed=           0 NTot=          32
 NSgBfM=   281   281   281   281   281 MxSgAt=    17 MxSgA2=    17.
 Leave Link  302 at Wed Oct 22 13:39:58 2025, MaxMem=  4294967296 cpu:               2.5 elap:               0.3
 (Enter /lrz/sys/applications/gaussian/g16.C.01/x86_64_legacy/exe/l303.exe)
 DipDrv:  MaxL=1.
 Leave Link  303 at Wed Oct 22 13:39:58 2025, MaxMem=  4294967296 cpu:               0.3 elap:               0.1
 (Enter /lrz/sys/applications/gaussian/g16.C.01/x86_64_legacy/exe/l401.exe)
 ExpMin= 9.52D-02 ExpMax= 2.70D+04 ExpMxC= 9.22D+02 IAcc=3 IRadAn=         5 AccDes= 0.00D+00
 Harris functional with IExCor= 4639 and IRadAn=       5 diagonalized for initial guess.
 HarFok:  IExCor= 4639 AccDes= 0.00D+00 IRadAn=         5 IDoV= 1 UseB2=F ITyADJ=14
 ICtDFT=  3500011 ScaDFX=  1.000000  1.000000  1.000000  1.000000
 FoFCou: FMM=F IPFlag=           0 FMFlag=      100000 FMFlg1=           0
         NFxFlg=           0 DoJE=T BraDBF=F KetDBF=T FulRan=T
         wScrn=  0.000000 ICntrl=       500 IOpCl=  0 I1Cent=   200000004 NGrid=           0
         NMat0=    1 NMatS0=      1 NMatT0=    0 NMatD0=    1 NMtDS0=    0 NMtDT0=    0
 Petite list used in FoFCou.
 Harris En= -276.196825251721    
 JPrj=0 DoOrth=F DoCkMO=F.
 Leave Link  401 at Wed Oct 22 13:40:00 2025, MaxMem=  4294967296 cpu:              17.7 elap:               2.2
 (Enter /lrz/sys/applications/gaussian/g16.C.01/x86_64_legacy/exe/l502.exe)
 Integral symmetry usage will be decided dynamically.
 Closed shell SCF:
 Using DIIS extrapolation, IDIIS=  1040.
 NGot=  4294967296 LenX=  4294802854 LenY=  4294722889
 Requested convergence on RMS density matrix=1.00D-08 within 128 cycles.
 Requested convergence on MAX density matrix=1.00D-06.
 Requested convergence on             energy=1.00D-06.
 No special actions if energy rises.
 Fock matrices will be formed incrementally for  20 cycles.

 Cycle   1  Pass 1  IDiag  1:
 FoFJK:  IHMeth= 1 ICntrl=       0 DoSepK=T KAlg= 0 I1Cent=           0 FoldK=F
 IRaf=         1 NMat=       1 IRICut=       1 DoRegI=T DoRafI=F ISym2E= 0 IDoP0=0 IntGTp=1.
 FoFCou: FMM=F IPFlag=           0 FMFlag=      100000 FMFlg1=           0
         NFxFlg=           0 DoJE=T BraDBF=F KetDBF=F FulRan=T
         wScrn=  0.000000 ICntrl=       500 IOpCl=  0 I1Cent=           0 NGrid=           0
         NMat0=    1 NMatS0=      1 NMatT0=    0 NMatD0=    1 NMtDS0=    0 NMtDT0=    0
 Symmetry not used in FoFCou.
 Inv3:  Mode=1 IEnd=     4120752.
 Iteration    1 A*A^-1 deviation from unit magnitude is 5.11D-15 for    267.
 Iteration    1 A*A^-1 deviation from orthogonality  is 3.07D-15 for    793     92.
 Iteration    1 A^-1*A deviation from unit magnitude is 4.88D-15 for    234.
 Iteration    1 A^-1*A deviation from orthogonality  is 2.47D-15 for    910    420.
 E= -288.986171808346    
 DIIS: error= 4.25D-02 at cycle   1 NSaved=   1.
 NSaved= 1 IEnMin= 1 EnMin= -288.986171808346     IErMin= 1 ErrMin= 4.25D-02
 ErrMax= 4.25D-02  0.00D+00 EMaxC= 1.00D-01 BMatC= 6.09D-01 BMatP= 6.09D-01
 IDIUse=3 WtCom= 5.75D-01 WtEn= 4.25D-01
 Coeff-Com:  0.100D+01
 Coeff-En:   0.100D+01
 Coeff:      0.100D+01
 Gap=     0.477 Goal=   None    Shift=    0.000
 GapD=    0.477 DampG=2.000 DampE=0.500 DampFc=1.0000 IDamp=-1.
 RMSDP=1.72D-03 MaxDP=4.48D-02              OVMax= 5.88D-02

 Cycle   2  Pass 1  IDiag  1:
 RMSU=  1.68D-03    CP:  9.60D-01
 E= -289.040874981398     Delta-E=       -0.054703173052 Rises=F Damp=F
 DIIS: error= 6.46D-03 at cycle   2 NSaved=   2.
 NSaved= 2 IEnMin= 2 EnMin= -289.040874981398     IErMin= 2 ErrMin= 6.46D-03
 ErrMax= 6.46D-03  0.00D+00 EMaxC= 1.00D-01 BMatC= 3.08D-02 BMatP= 6.09D-01
 IDIUse=3 WtCom= 9.35D-01 WtEn= 6.46D-02
 Coeff-Com:  0.117D+00 0.883D+00
 Coeff-En:   0.000D+00 0.100D+01
 Coeff:      0.110D+00 0.890D+00
 Gap=     0.451 Goal=   None    Shift=    0.000
 RMSDP=6.65D-04 MaxDP=2.93D-02 DE=-5.47D-02 OVMax= 4.41D-02

 Cycle   3  Pass 1  IDiag  1:
 RMSU=  5.80D-04    CP:  9.65D-01  8.09D-01
 E= -289.049741663283     Delta-E=       -0.008866681885 Rises=F Damp=F
 DIIS: error= 5.90D-03 at cycle   3 NSaved=   3.
 NSaved= 3 IEnMin= 3 EnMin= -289.049741663283     IErMin= 3 ErrMin= 5.90D-03
 ErrMax= 5.90D-03  0.00D+00 EMaxC= 1.00D-01 BMatC= 1.88D-02 BMatP= 3.08D-02
 IDIUse=3 WtCom= 9.41D-01 WtEn= 5.90D-02
 Coeff-Com:  0.242D-01 0.447D+00 0.529D+00
 Coeff-En:   0.000D+00 0.369D+00 0.631D+00
 Coeff:      0.228D-01 0.442D+00 0.535D+00
 Gap=     0.456 Goal=   None    Shift=    0.000
 RMSDP=3.45D-04 MaxDP=1.49D-02 DE=-8.87D-03 OVMax= 2.27D-02

 Cycle   4  Pass 1  IDiag  1:
 RMSU=  1.42D-04    CP:  9.60D-01  9.51D-01  6.59D-01
 E= -289.062853761578     Delta-E=       -0.013112098294 Rises=F Damp=F
 DIIS: error= 6.57D-04 at cycle   4 NSaved=   4.
 NSaved= 4 IEnMin= 4 EnMin= -289.062853761578     IErMin= 4 ErrMin= 6.57D-04
 ErrMax= 6.57D-04  0.00D+00 EMaxC= 1.00D-01 BMatC= 2.13D-04 BMatP= 1.88D-02
 IDIUse=3 WtCom= 9.93D-01 WtEn= 6.57D-03
 Coeff-Com:  0.879D-02 0.166D+00 0.222D+00 0.603D+00
 Coeff-En:   0.000D+00 0.000D+00 0.000D+00 0.100D+01
 Coeff:      0.873D-02 0.165D+00 0.221D+00 0.605D+00
 Gap=     0.445 Goal=   None    Shift=    0.000
 RMSDP=4.31D-05 MaxDP=1.49D-03 DE=-1.31D-02 OVMax= 2.06D-03

 Cycle   5  Pass 1  IDiag  1:
 RMSU=  3.70D-05    CP:  9.59D-01  9.61D-01  6.80D-01  9.79D-01
 E= -289.063004495833     Delta-E=       -0.000150734255 Rises=F Damp=F
 DIIS: error= 1.11D-04 at cycle   5 NSaved=   5.
 NSaved= 5 IEnMin= 5 EnMin= -289.063004495833     IErMin= 5 ErrMin= 1.11D-04
 ErrMax= 1.11D-04  0.00D+00 EMaxC= 1.00D-01 BMatC= 8.39D-06 BMatP= 2.13D-04
 IDIUse=3 WtCom= 9.99D-01 WtEn= 1.11D-03
 Coeff-Com: -0.193D-02-0.334D-01-0.321D-01 0.109D+00 0.958D+00
 Coeff-En:   0.000D+00 0.000D+00 0.000D+00 0.000D+00 0.100D+01
 Coeff:     -0.192D-02-0.334D-01-0.321D-01 0.109D+00 0.958D+00
 Gap=     0.444 Goal=   None    Shift=    0.000
 RMSDP=3.28D-05 MaxDP=9.31D-04 DE=-1.51D-04 OVMax= 7.88D-04

 Cycle   6  Pass 1  IDiag  1:
 RMSU=  9.76D-06    CP:  9.59D-01  9.72D-01  7.01D-01  1.13D+00  1.21D+00
 E= -289.063015006324     Delta-E=       -0.000010510492 Rises=F Damp=F
 DIIS: error= 1.95D-05 at cycle   6 NSaved=   6.
 NSaved= 6 IEnMin= 6 EnMin= -289.063015006324     IErMin= 6 ErrMin= 1.95D-05
 ErrMax= 1.95D-05  0.00D+00 EMaxC= 1.00D-01 BMatC= 2.95D-07 BMatP= 8.39D-06
 IDIUse=1 WtCom= 1.00D+00 WtEn= 0.00D+00
 Coeff-Com: -0.677D-03-0.115D-01-0.128D-01 0.656D-02 0.174D+00 0.845D+00
 Coeff:     -0.677D-03-0.115D-01-0.128D-01 0.656D-02 0.174D+00 0.845D+00
 Gap=     0.444 Goal=   None    Shift=    0.000
 RMSDP=7.01D-06 MaxDP=1.88D-04 DE=-1.05D-05 OVMax= 2.87D-04

 Cycle   7  Pass 1  IDiag  1:
 RMSU=  2.61D-06    CP:  9.59D-01  9.74D-01  7.04D-01  1.15D+00  1.30D+00
                    CP:  1.17D+00
 E= -289.063015367775     Delta-E=       -0.000000361451 Rises=F Damp=F
 DIIS: error= 1.33D-05 at cycle   7 NSaved=   7.
 NSaved= 7 IEnMin= 7 EnMin= -289.063015367775     IErMin= 7 ErrMin= 1.33D-05
 ErrMax= 1.33D-05  0.00D+00 EMaxC= 1.00D-01 BMatC= 8.14D-08 BMatP= 2.95D-07
 IDIUse=1 WtCom= 1.00D+00 WtEn= 0.00D+00
 Coeff-Com: -0.347D-04-0.874D-03-0.161D-02-0.980D-02-0.481D-01 0.327D+00
 Coeff-Com:  0.733D+00
 Coeff:     -0.347D-04-0.874D-03-0.161D-02-0.980D-02-0.481D-01 0.327D+00
 Coeff:      0.733D+00
 Gap=     0.444 Goal=   None    Shift=    0.000
 RMSDP=2.46D-06 MaxDP=6.49D-05 DE=-3.61D-07 OVMax= 8.58D-05

 Cycle   8  Pass 1  IDiag  1:
 RMSU=  9.46D-07    CP:  9.59D-01  9.74D-01  7.05D-01  1.16D+00  1.33D+00
                    CP:  1.30D+00  1.16D+00
 E= -289.063015451409     Delta-E=       -0.000000083634 Rises=F Damp=F
 DIIS: error= 2.52D-06 at cycle   8 NSaved=   8.
 NSaved= 8 IEnMin= 8 EnMin= -289.063015451409     IErMin= 8 ErrMin= 2.52D-06
 ErrMax= 2.52D-06  0.00D+00 EMaxC= 1.00D-01 BMatC= 3.29D-09 BMatP= 8.14D-08
 IDIUse=1 WtCom= 1.00D+00 WtEn= 0.00D+00
 Coeff-Com:  0.443D-04 0.736D-03 0.744D-03-0.200D-02-0.225D-01-0.385D-02
 Coeff-Com:  0.150D+00 0.876D+00
 Coeff:      0.443D-04 0.736D-03 0.744D-03-0.200D-02-0.225D-01-0.385D-02
 Coeff:      0.150D+00 0.876D+00
 Gap=     0.444 Goal=   None    Shift=    0.000
 RMSDP=7.91D-07 MaxDP=1.76D-05 DE=-8.36D-08 OVMax= 3.71D-05

 Cycle   9  Pass 1  IDiag  1:
 RMSU=  2.28D-07    CP:  9.59D-01  9.74D-01  7.05D-01  1.16D+00  1.34D+00
                    CP:  1.34D+00  1.31D+00  1.19D+00
 E= -289.063015456488     Delta-E=       -0.000000005079 Rises=F Damp=F
 DIIS: error= 8.82D-07 at cycle   9 NSaved=   9.
 NSaved= 9 IEnMin= 9 EnMin= -289.063015456488     IErMin= 9 ErrMin= 8.82D-07
 ErrMax= 8.82D-07  0.00D+00 EMaxC= 1.00D-01 BMatC= 3.74D-10 BMatP= 3.29D-09
 IDIUse=1 WtCom= 1.00D+00 WtEn= 0.00D+00
 Coeff-Com:  0.128D-04 0.246D-03 0.319D-03 0.238D-03-0.168D-02-0.275D-01
 Coeff-Com: -0.249D-01 0.217D+00 0.836D+00
 Coeff:      0.128D-04 0.246D-03 0.319D-03 0.238D-03-0.168D-02-0.275D-01
 Coeff:     -0.249D-01 0.217D+00 0.836D+00
 Gap=     0.444 Goal=   None    Shift=    0.000
 RMSDP=2.38D-07 MaxDP=6.67D-06 DE=-5.08D-09 OVMax= 1.07D-05

 Cycle  10  Pass 1  IDiag  1:
 RMSU=  7.66D-08    CP:  9.59D-01  9.74D-01  7.05D-01  1.16D+00  1.34D+00
                    CP:  1.35D+00  1.36D+00  1.30D+00  1.26D+00
 E= -289.063015457059     Delta-E=       -0.000000000571 Rises=F Damp=F
 DIIS: error= 3.39D-07 at cycle  10 NSaved=  10.
 NSaved=10 IEnMin=10 EnMin= -289.063015457059     IErMin=10 ErrMin= 3.39D-07
 ErrMax= 3.39D-07  0.00D+00 EMaxC= 1.00D-01 BMatC= 5.04D-11 BMatP= 3.74D-10
 IDIUse=1 WtCom= 1.00D+00 WtEn= 0.00D+00
 Coeff-Com: -0.218D-05-0.244D-04 0.898D-06 0.388D-03 0.279D-02-0.854D-02
 Coeff-Com: -0.310D-01-0.547D-01 0.253D+00 0.838D+00
 Coeff:     -0.218D-05-0.244D-04 0.898D-06 0.388D-03 0.279D-02-0.854D-02
 Coeff:     -0.310D-01-0.547D-01 0.253D+00 0.838D+00
 Gap=     0.444 Goal=   None    Shift=    0.000
 RMSDP=8.97D-08 MaxDP=2.81D-06 DE=-5.71D-10 OVMax= 4.60D-06

 Cycle  11  Pass 1  IDiag  1:
 RMSU=  2.54D-08    CP:  9.59D-01  9.74D-01  7.05D-01  1.16D+00  1.34D+00
                    CP:  1.35D+00  1.37D+00  1.35D+00  1.45D+00  1.23D+00
 E= -289.063015457145     Delta-E=       -0.000000000086 Rises=F Damp=F
 DIIS: error= 4.21D-08 at cycle  11 NSaved=  11.
 NSaved=11 IEnMin=11 EnMin= -289.063015457145     IErMin=11 ErrMin= 4.21D-08
 ErrMax= 4.21D-08  0.00D+00 EMaxC= 1.00D-01 BMatC= 9.73D-13 BMatP= 5.04D-11
 IDIUse=1 WtCom= 1.00D+00 WtEn= 0.00D+00
 Coeff-Com: -0.359D-06-0.958D-05-0.162D-04-0.245D-04-0.122D-03 0.192D-02
 Coeff-Com:  0.312D-02-0.774D-02-0.591D-01-0.576D-01 0.112D+01
 Coeff:     -0.359D-06-0.958D-05-0.162D-04-0.245D-04-0.122D-03 0.192D-02
 Coeff:      0.312D-02-0.774D-02-0.591D-01-0.576D-01 0.112D+01
 Gap=     0.444 Goal=   None    Shift=    0.000
 RMSDP=2.41D-08 MaxDP=8.36D-07 DE=-8.63D-11 OVMax= 1.16D-06

 Cycle  12  Pass 1  IDiag  1:
 RMSU=  5.99D-09    CP:  9.59D-01  9.74D-01  7.05D-01  1.16D+00  1.34D+00
                    CP:  1.35D+00  1.37D+00  1.35D+00  1.51D+00  1.40D+00
                    CP:  1.36D+00
 E= -289.063015457141     Delta-E=        0.000000000004 Rises=F Damp=F
 DIIS: error= 1.02D-08 at cycle  12 NSaved=  12.
 NSaved=12 IEnMin=11 EnMin= -289.063015457145     IErMin=12 ErrMin= 1.02D-08
 ErrMax= 1.02D-08  0.00D+00 EMaxC= 1.00D-01 BMatC= 4.82D-14 BMatP= 9.73D-13
 IDIUse=1 WtCom= 1.00D+00 WtEn= 0.00D+00
 Coeff-Com:  0.797D-07 0.741D-06-0.695D-06-0.206D-04-0.142D-03 0.495D-03
 Coeff-Com:  0.174D-02 0.243D-02-0.131D-01-0.455D-01 0.527D-01 0.100D+01
 Coeff:      0.797D-07 0.741D-06-0.695D-06-0.206D-04-0.142D-03 0.495D-03
 Coeff:      0.174D-02 0.243D-02-0.131D-01-0.455D-01 0.527D-01 0.100D+01
 Gap=     0.444 Goal=   None    Shift=    0.000
 RMSDP=5.31D-09 MaxDP=1.51D-07 DE= 3.87D-12 OVMax= 2.14D-07

 Error on total polarization charges =  0.04370
 SCF Done:  E(RwB97XD) =  -289.063015457     A.U. after   12 cycles
            NFock= 12  Conv=0.53D-08     -V/T= 2.0055
 KE= 2.874845015214D+02 PE=-1.204808278751D+03 EE= 3.629704653648D+02
 SMD-CDS (non-electrostatic) energy       (kcal/mol) =       2.06
 (included in total energy above)
 Leave Link  502 at Wed Oct 22 13:41:44 2025, MaxMem=  4294967296 cpu:             825.5 elap:             103.4
 (Enter /lrz/sys/applications/gaussian/g16.C.01/x86_64_legacy/exe/l601.exe)
 Copying SCF densities to generalized density rwf, IOpCl= 0 IROHF=0.

 **********************************************************************

            Population analysis using the SCF Density.

 **********************************************************************

 Orbital symmetries:
       Occupied  (A) (A) (A) (A) (A) (A) (A) (A) (A) (A) (A) (A)
                 (A) (A) (A) (A) (A) (A) (A) (A) (A) (A) (A) (A)
                 (A)
       Virtual   (A) (A) (A) (A) (A) (A) (A) (A) (A) (A) (A) (A)
                 (A) (A) (A) (A) (A) (A) (A) (A) (A) (A) (A) (A)
                 (A) (A) (A) (A) (A) (A) (A) (A) (A) (A) (A) (A)
                 (A) (A) (A) (A) (A) (A) (A) (A) (A) (A) (A) (A)
                 (A) (A) (A) (A) (A) (A) (A) (A) (A) (A) (A) (A)
                 (A) (A) (A) (A) (A) (A) (A) (A) (A) (A) (A) (A)
                 (A) (A) (A) (A) (A) (A) (A) (A) (A) (A) (A) (A)
                 (A) (A) (A) (A) (A) (A) (A) (A) (A) (A) (A) (A)
                 (A) (A) (A) (A) (A) (A) (A) (A) (A) (A) (A) (A)
                 (A) (A) (A) (A) (A) (A) (A) (A) (A) (A) (A) (A)
                 (A) (A) (A) (A) (A) (A) (A) (A) (A) (A) (A) (A)
                 (A) (A) (A) (A) (A) (A) (A) (A) (A) (A) (A) (A)
                 (A) (A) (A) (A) (A) (A) (A) (A) (A) (A) (A) (A)
                 (A) (A) (A) (A) (A) (A) (A) (A) (A) (A) (A) (A)
                 (A) (A) (A) (A) (A) (A) (A) (A) (A) (A) (A) (A)
                 (A) (A) (A) (A) (A) (A) (A) (A) (A) (A) (A) (A)
                 (A) (A) (A) (A) (A) (A) (A) (A) (A) (A) (A) (A)
                 (A) (A) (A) (A) (A) (A) (A) (A) (A) (A) (A) (A)
                 (A) (A) (A) (A) (A) (A) (A) (A) (A) (A) (A)
 The electronic state is 1-A.
 Alpha  occ. eigenvalues --  -19.24731 -14.41065 -10.35151 -10.27235 -10.26981
 Alpha  occ. eigenvalues --  -10.26527  -1.13243  -0.97267  -0.87670  -0.79964
 Alpha  occ. eigenvalues --   -0.71966  -0.66124  -0.60478  -0.56722  -0.55104
 Alpha  occ. eigenvalues --   -0.51772  -0.50763  -0.49099  -0.45608  -0.44706
 Alpha  occ. eigenvalues --   -0.41962  -0.40573  -0.40114  -0.36741  -0.33295
 Alpha virt. eigenvalues --    0.11127   0.14071   0.15420   0.15740   0.17682
 Alpha virt. eigenvalues --    0.18376   0.19172   0.20756   0.21255   0.21930
 Alpha virt. eigenvalues --    0.23570   0.25569   0.27863   0.28434   0.29282
 Alpha virt. eigenvalues --    0.30934   0.31678   0.32960   0.35535   0.36750
 Alpha virt. eigenvalues --    0.37078   0.39422   0.40847   0.41890   0.44856
 Alpha virt. eigenvalues --    0.45080   0.47548   0.48871   0.49406   0.50404
 Alpha virt. eigenvalues --    0.51719   0.52035   0.52840   0.53642   0.54508
 Alpha virt. eigenvalues --    0.55189   0.55564   0.56780   0.57996   0.59557
 Alpha virt. eigenvalues --    0.61523   0.62767   0.64051   0.66650   0.67546
 Alpha virt. eigenvalues --    0.70613   0.73442   0.77180   0.79400   0.80804
 Alpha virt. eigenvalues --    0.84692   0.88698   0.90479   0.92986   0.93782
 Alpha virt. eigenvalues --    0.97849   0.98804   1.02595   1.02869   1.08998
 Alpha virt. eigenvalues --    1.11117   1.13539   1.17271   1.18732   1.20734
 Alpha virt. eigenvalues --    1.22271   1.24334   1.25912   1.28343   1.31932
 Alpha virt. eigenvalues --    1.37410   1.38977   1.43454   1.44924   1.48873
 Alpha virt. eigenvalues --    1.53468   1.54568   1.59585   1.59965   1.62482
 Alpha virt. eigenvalues --    1.64064   1.66082   1.67258   1.68162   1.68779
 Alpha virt. eigenvalues --    1.72465   1.74059   1.76600   1.80578   1.81059
 Alpha virt. eigenvalues --    1.81842   1.87463   1.88046   1.90965   1.93194
 Alpha virt. eigenvalues --    1.94708   1.97603   1.98850   2.01476   2.05125
 Alpha virt. eigenvalues --    2.05913   2.08753   2.09504   2.11534   2.13792
 Alpha virt. eigenvalues --    2.16446   2.17721   2.21496   2.21864   2.27434
 Alpha virt. eigenvalues --    2.30687   2.34972   2.37425   2.40562   2.44413
 Alpha virt. eigenvalues --    2.46821   2.47286   2.48144   2.50831   2.52636
 Alpha virt. eigenvalues --    2.55931   2.57897   2.60088   2.62282   2.63477
 Alpha virt. eigenvalues --    2.64426   2.65656   2.68896   2.71696   2.74120
 Alpha virt. eigenvalues --    2.74719   2.75134   2.77487   2.78643   2.80817
 Alpha virt. eigenvalues --    2.82492   2.84010   2.88452   2.89994   2.93572
 Alpha virt. eigenvalues --    2.98763   2.99304   3.02362   3.06313   3.08587
 Alpha virt. eigenvalues --    3.12912   3.15019   3.16853   3.20795   3.22656
 Alpha virt. eigenvalues --    3.24320   3.27606   3.30118   3.31778   3.35552
 Alpha virt. eigenvalues --    3.36266   3.38811   3.39923   3.41128   3.42377
 Alpha virt. eigenvalues --    3.44510   3.48060   3.51607   3.52578   3.53843
 Alpha virt. eigenvalues --    3.55269   3.56489   3.62460   3.63635   3.67571
 Alpha virt. eigenvalues --    3.75234   3.80240   3.80506   3.84285   3.91143
 Alpha virt. eigenvalues --    3.91583   3.97774   4.00829   4.02044   4.08898
 Alpha virt. eigenvalues --    4.10117   4.11150   4.15874   4.20186   4.25205
 Alpha virt. eigenvalues --    4.33416   4.39704   4.43397   4.46509   4.48936
 Alpha virt. eigenvalues --    4.51691   4.59104   4.64931   4.67998   4.74994
 Alpha virt. eigenvalues --    4.76810   4.78834   4.85398   4.92080   4.95335
 Alpha virt. eigenvalues --    4.97775   5.00258   5.05186   5.17363   5.26371
 Alpha virt. eigenvalues --    5.29350   5.36769   5.41489   5.48560   5.56415
 Alpha virt. eigenvalues --    5.66474   5.81145   5.87302   5.95551   6.10309
 Alpha virt. eigenvalues --    6.40539   6.59158   6.81191   6.93964   7.08821
 Alpha virt. eigenvalues --    7.26380  22.42532  22.57734  22.58720  22.68614
 Alpha virt. eigenvalues --   32.07844  44.03139
          Condensed to atoms (all electrons):
               1          2          3          4          5          6
     1  O    8.153145   0.260355  -0.081129  -0.047759  -0.013857   0.017105
     2  C    0.260355   4.745528   0.248270   0.291278  -0.039003   0.021450
     3  N   -0.081129   0.248270   6.813528  -0.067273   0.017866  -0.016504
     4  C   -0.047759   0.291278  -0.067273   5.118026   0.299937  -0.047993
     5  C   -0.013857  -0.039003   0.017866   0.299937   4.972706   0.264569
     6  C    0.017105   0.021450  -0.016504  -0.047993   0.264569   5.060252
     7  H    0.300926  -0.015726   0.004244  -0.010658   0.003841  -0.003552
     8  H   -0.043464   0.449218  -0.044785  -0.068247   0.010796  -0.000594
     9  H    0.004685  -0.022588   0.351557   0.008218  -0.000260  -0.000043
    10  H    0.005447  -0.024239   0.360225  -0.004474  -0.000731  -0.000181
    11  H    0.006008  -0.059930   0.008283   0.431523  -0.034011  -0.002703
    12  H    0.004661  -0.022300   0.001530   0.407203  -0.046662   0.010346
    13  H   -0.000662   0.013395  -0.000055  -0.052588   0.430338  -0.035950
    14  H    0.000131  -0.025964   0.009578  -0.016409   0.412039  -0.036936
    15  H   -0.000373  -0.009807   0.001332   0.012172  -0.047377   0.409636
    16  H   -0.008022   0.022035   0.006865  -0.022994  -0.027192   0.399889
    17  H    0.000959  -0.001924   0.000517   0.008663  -0.036373   0.405761
               7          8          9         10         11         12
     1  O    0.300926  -0.043464   0.004685   0.005447   0.006008   0.004661
     2  C   -0.015726   0.449218  -0.022588  -0.024239  -0.059930  -0.022300
     3  N    0.004244  -0.044785   0.351557   0.360225   0.008283   0.001530
     4  C   -0.010658  -0.068247   0.008218  -0.004474   0.431523   0.407203
     5  C    0.003841   0.010796  -0.000260  -0.000731  -0.034011  -0.046662
     6  C   -0.003552  -0.000594  -0.000043  -0.000181  -0.002703   0.010346
     7  H    0.355004   0.008666  -0.000932  -0.000011  -0.000092  -0.000728
     8  H    0.008666   0.597617  -0.008928   0.001144  -0.003748  -0.005766
     9  H   -0.000932  -0.008928   0.429446  -0.021977  -0.000431  -0.000273
    10  H   -0.000011   0.001144  -0.021977   0.414724   0.000257  -0.000038
    11  H   -0.000092  -0.003748  -0.000431   0.000257   0.551475  -0.016911
    12  H   -0.000728  -0.005766  -0.000273  -0.000038  -0.016911   0.550957
    13  H   -0.000009  -0.000122   0.000000  -0.000272  -0.005095  -0.005742
    14  H    0.000481  -0.000131  -0.000167   0.000636   0.005533  -0.003888
    15  H   -0.000069  -0.000187   0.000001  -0.000036   0.001905  -0.000008
    16  H    0.004130   0.000527  -0.000212  -0.000128   0.000172  -0.000533
    17  H    0.000563   0.000058  -0.000016  -0.000017  -0.000056  -0.000156
              13         14         15         16         17
     1  O   -0.000662   0.000131  -0.000373  -0.008022   0.000959
     2  C    0.013395  -0.025964  -0.009807   0.022035  -0.001924
     3  N   -0.000055   0.009578   0.001332   0.006865   0.000517
     4  C   -0.052588  -0.016409   0.012172  -0.022994   0.008663
     5  C    0.430338   0.412039  -0.047377  -0.027192  -0.036373
     6  C   -0.035950  -0.036936   0.409636   0.399889   0.405761
     7  H   -0.000009   0.000481  -0.000069   0.004130   0.000563
     8  H   -0.000122  -0.000131  -0.000187   0.000527   0.000058
     9  H    0.000000  -0.000167   0.000001  -0.000212  -0.000016
    10  H   -0.000272   0.000636  -0.000036  -0.000128  -0.000017
    11  H   -0.005095   0.005533   0.001905   0.000172  -0.000056
    12  H   -0.005742  -0.003888  -0.000008  -0.000533  -0.000156
    13  H    0.569724  -0.026331  -0.001553   0.006004  -0.007438
    14  H   -0.026331   0.579360   0.006540  -0.005565  -0.002643
    15  H   -0.001553   0.006540   0.542494  -0.029758  -0.020385
    16  H    0.006004  -0.005565  -0.029758   0.556609  -0.021468
    17  H   -0.007438  -0.002643  -0.020385  -0.021468   0.536689
 Mulliken charges:
               1
     1  O   -0.558156
     2  C    0.169953
     3  N   -0.614050
     4  C   -0.238626
     5  C   -0.166627
     6  C   -0.444553
     7  H    0.353922
     8  H    0.107944
     9  H    0.261920
    10  H    0.269669
    11  H    0.117820
    12  H    0.128307
    13  H    0.116356
    14  H    0.103737
    15  H    0.135475
    16  H    0.119642
    17  H    0.137267
 Sum of Mulliken charges =  -0.00000
 Mulliken charges with hydrogens summed into heavy atoms:
               1
     1  O   -0.204234
     2  C    0.277898
     3  N   -0.082462
     4  C    0.007501
     5  C    0.053466
     6  C   -0.052169
 Electronic spatial extent (au):  <R**2>=            666.7565
 Charge=             -0.0000 electrons
 Dipole moment (field-independent basis, Debye):
    X=              0.2774    Y=             -2.6654    Z=              0.4567  Tot=              2.7184
 Quadrupole moment (field-independent basis, Debye-Ang):
   XX=            -36.7533   YY=            -38.1338   ZZ=            -40.8884
   XY=              4.9177   XZ=             -2.0562   YZ=              1.5081
 Traceless Quadrupole moment (field-independent basis, Debye-Ang):
   XX=              1.8385   YY=              0.4580   ZZ=             -2.2965
   XY=              4.9177   XZ=             -2.0562   YZ=              1.5081
 Octapole moment (field-independent basis, Debye-Ang**2):
  XXX=            -15.5876  YYY=             -4.0569  ZZZ=             -3.1937  XYY=             -0.7717
  XXY=             -7.9393  XXZ=              5.6223  XZZ=             -2.7818  YZZ=             -1.3010
  YYZ=              6.8597  XYZ=             -0.5814
 Hexadecapole moment (field-independent basis, Debye-Ang**3):
 XXXX=           -454.1746 YYYY=           -208.1324 ZZZZ=           -176.4397 XXXY=              9.1249
 XXXZ=            -16.4294 YYYX=              9.2695 YYYZ=             -0.0383 ZZZX=             -3.1415
 ZZZY=             -4.1333 XXYY=           -126.4250 XXZZ=           -102.3073 YYZZ=            -61.7784
 XXYZ=             -1.8116 YYXZ=             -9.1302 ZZXY=              3.2780
 N-N= 2.652902964080D+02 E-N=-1.204808279305D+03  KE= 2.874845015214D+02
 No NMR shielding tensors so no spin-rotation constants.
 Leave Link  601 at Wed Oct 22 13:41:44 2025, MaxMem=  4294967296 cpu:               1.2 elap:               0.2
 (Enter /lrz/sys/applications/gaussian/g16.C.01/x86_64_legacy/exe/l9999.exe)
 Unable to Open any file for archive entry.
 1\1\GINC-CM4R13C05S08\SP\RwB97XD\def2TZVP\C4H11N1O1\GO29TIZ2\22-Oct-20
 25\0\\#p wb97xd scrf=(smd,solvent=water) def2tzvp\\g16_g16_C17-a_36\\0
 ,1\O,0,1.109784,1.317854,0.368494\C,0,1.107292,-0.097541,0.3366\N,0,1.
 359053,-0.55079,-1.013873\C,0,-0.180945,-0.705903,0.895848\C,0,-1.4235
 6,-0.681801,0.002241\C,0,-1.901226,0.698747,-0.440231\H,0,0.503924,1.6
 19942,-0.319283\H,0,1.920991,-0.369491,1.034491\H,0,2.343533,-0.419111
 ,-1.240813\H,0,1.175691,-1.550986,-1.081626\H,0,-0.392622,-0.186025,1.
 844866\H,0,0.036801,-1.754248,1.161256\H,0,-2.235703,-1.176717,0.55978
 6\H,0,-1.250704,-1.307846,-0.888498\H,0,-1.969774,1.396364,0.40974\H,0
 ,-1.234295,1.143059,-1.196069\H,0,-2.898853,0.636752,-0.901452\\Versio
 n=EM64L-G16RevC.01\State=1-A\HF=-289.0630155\RMSD=5.309e-09\Dipole=-0.
 1091491,-1.048634,-0.1796777\Quadrupole=1.3668693,0.3405437,-1.707413,
 -3.6562005,-1.5287115,-1.1212247\PG=C01 [X(C4H11N1O1)]\\@
 The archive entry for this job was punched.


 THE UNDERLYING PHYSICAL LAWS NECESSARY FOR THE 
 MATHEMATICAL THEORY OF A LARGE PART OF PHYSICS AND THE
 WHOLE OF CHEMISTRY ARE THUS COMPLETELY KNOWN, AND THE
 DIFFICULTY IS ONLY THAT THE EXACT APPLICATION OF THESE
 LAWS LEADS TO EQUATIONS MUCH TOO COMPLICATED 
 TO BE SOLUBLE.

                                        -- P. A. M. DIRAC, 1929
 Job cpu time:       0 days  0 hours 14 minutes 13.3 seconds.
 Elapsed time:       0 days  0 hours  1 minutes 47.1 seconds.
 File lengths (MBytes):  RWF=    288 Int=      0 D2E=      0 Chk=     12 Scr=     32
 Normal termination of Gaussian 16 at Wed Oct 22 13:41:44 2025.
