 Entering Gaussian System, Link 0=g16
 Input=../../g16_g16_C17-w_18.com
 Output=../../g16_g16_C17-w_18.log
 Initial command:
 /lrz/sys/applications/gaussian/g16.C.01/x86_64_legacy/exe/l1.exe "/dss/lxclscratch/0D/go29tiz2/Gau-223609.inp" -scrdir="/dss/lxclscratch/0D/go29tiz2/"
 Entering Link 1 = /lrz/sys/applications/gaussian/g16.C.01/x86_64_legacy/exe/l1.exe PID=    223610.
  
 Copyright (c) 1988-2019, Gaussian, Inc.  All Rights Reserved.
  
 This is part of the Gaussian(R) 16 program.  It is based on
 the Gaussian(R) 09 system (copyright 2009, Gaussian, Inc.),
 the Gaussian(R) 03 system (copyright 2003, Gaussian, Inc.),
 the Gaussian(R) 98 system (copyright 1998, Gaussian, Inc.),
 the Gaussian(R) 94 system (copyright 1995, Gaussian, Inc.),
 the Gaussian 92(TM) system (copyright 1992, Gaussian, Inc.),
 the Gaussian 90(TM) system (copyright 1990, Gaussian, Inc.),
 the Gaussian 88(TM) system (copyright 1988, Gaussian, Inc.),
 the Gaussian 86(TM) system (copyright 1986, Carnegie Mellon
 University), and the Gaussian 82(TM) system (copyright 1983,
 Carnegie Mellon University). Gaussian is a federally registered
 trademark of Gaussian, Inc.
  
 This software contains proprietary and confidential information,
 including trade secrets, belonging to Gaussian, Inc.
  
 This software is provided under written license and may be
 used, copied, transmitted, or stored only in accord with that
 written license.
  
 The following legend is applicable only to US Government
 contracts under FAR:
  
                    RESTRICTED RIGHTS LEGEND
  
 Use, reproduction and disclosure by the US Government is
 subject to restrictions as set forth in subparagraphs (a)
 and (c) of the Commercial Computer Software - Restricted
 Rights clause in FAR 52.227-19.
  
 Gaussian, Inc.
 340 Quinnipiac St., Bldg. 40, Wallingford CT 06492
  
  
 ---------------------------------------------------------------
 Warning -- This program may not be used in any manner that
 competes with the business of Gaussian, Inc. or will provide
 assistance to any competitor of Gaussian, Inc.  The licensee
 of this program is prohibited from giving any competitor of
 Gaussian, Inc. access to this program.  By using this program,
 the user acknowledges that Gaussian, Inc. is engaged in the
 business of creating and licensing software in the field of
 computational chemistry and represents and warrants to the
 licensee that it is not a competitor of Gaussian, Inc. and that
 it will not use this program in any manner prohibited above.
 ---------------------------------------------------------------
  

 Cite this work as:
 Gaussian 16, Revision C.01,
 M. J. Frisch, G. W. Trucks, H. B. Schlegel, G. E. Scuseria, 
 M. A. Robb, J. R. Cheeseman, G. Scalmani, V. Barone, 
 G. A. Petersson, H. Nakatsuji, X. Li, M. Caricato, A. V. Marenich, 
 J. Bloino, B. G. Janesko, R. Gomperts, B. Mennucci, H. P. Hratchian, 
 J. V. Ortiz, A. F. Izmaylov, J. L. Sonnenberg, D. Williams-Young, 
 F. Ding, F. Lipparini, F. Egidi, J. Goings, B. Peng, A. Petrone, 
 T. Henderson, D. Ranasinghe, V. G. Zakrzewski, J. Gao, N. Rega, 
 G. Zheng, W. Liang, M. Hada, M. Ehara, K. Toyota, R. Fukuda, 
 J. Hasegawa, M. Ishida, T. Nakajima, Y. Honda, O. Kitao, H. Nakai, 
 T. Vreven, K. Throssell, J. A. Montgomery, Jr., J. E. Peralta, 
 F. Ogliaro, M. J. Bearpark, J. J. Heyd, E. N. Brothers, K. N. Kudin, 
 V. N. Staroverov, T. A. Keith, R. Kobayashi, J. Normand, 
 K. Raghavachari, A. P. Rendell, J. C. Burant, S. S. Iyengar, 
 J. Tomasi, M. Cossi, J. M. Millam, M. Klene, C. Adamo, R. Cammi, 
 J. W. Ochterski, R. L. Martin, K. Morokuma, O. Farkas, 
 J. B. Foresman, and D. J. Fox, Gaussian, Inc., Wallingford CT, 2019.
 
 ******************************************
 Gaussian 16:  EM64L-G16RevC.01  3-Jul-2019
                22-Oct-2025 
 ******************************************
 %chk=g16_g16_C17-w_18.chk
 %nprocshared=8
 Will use up to    8 processors via shared memory.
 %mem=32GB
 -------------------------------------------
 #p wb97xd scrf=(smd,solvent=water) def2tzvp
 -------------------------------------------
 1/38=1,172=1/1;
 2/12=2,17=6,18=5,40=1/2;
 3/5=44,7=101,11=2,25=1,30=1,70=32201,72=1,74=-58/1,2,3;
 4//1;
 5/5=2,38=5,53=1/2;
 6/7=2,8=2,9=2,10=2,28=1/1;
 99/5=1,9=1/99;
 Leave Link    1 at Wed Oct 22 09:22:34 2025, MaxMem=  4294967296 cpu:               4.7 elap:               0.7
 (Enter /lrz/sys/applications/gaussian/g16.C.01/x86_64_legacy/exe/l101.exe)
 ----------------
 g16_g16_C17-w_18
 ----------------
 Symbolic Z-matrix:
 Charge =  0 Multiplicity = 1
 O                    -0.99512   1.35492   0.19925 
 C                    -0.86407   0.06184  -0.31646 
 O                    -2.14584  -0.53134  -0.31164 
 C                     0.13136  -0.78456   0.46828 
 C                     1.513    -0.15601   0.63728 
 C                     2.23631   0.13978  -0.67234 
 H                    -1.13846   1.28065   1.15294 
 H                    -0.52236   0.19892  -1.35801 
 H                    -2.04317  -1.48227  -0.43982 
 H                    -0.3172   -0.98113   1.45776 
 H                     0.22119  -1.75987  -0.04064 
 H                     1.41556   0.7736    1.22173 
 H                     2.12626  -0.83755   1.24828 
 H                     2.3062   -0.76159  -1.30256 
 H                     3.26007   0.49723  -0.48442 
 H                     1.72003   0.91711  -1.25676 
 
 ITRead=  0  0  0  0  0  0  0  0  0  0  0  0  0  0  0  0
 MicOpt= -1 -1 -1 -1 -1 -1 -1 -1 -1 -1 -1 -1 -1 -1 -1 -1
 NAtoms=     16 NQM=       16 NQMF=       0 NMMI=      0 NMMIF=      0
                NMic=       0 NMicF=      0.
                    Isotopes and Nuclear Properties:
 (Nuclear quadrupole moments (NQMom) in fm**2, nuclear magnetic moments (NMagM)
  in nuclear magnetons)

  Atom         1           2           3           4           5           6           7           8           9          10
 IAtWgt=          16          12          16          12          12          12           1           1           1           1
 AtmWgt=  15.9949146  12.0000000  15.9949146  12.0000000  12.0000000  12.0000000   1.0078250   1.0078250   1.0078250   1.0078250
 NucSpn=           0           0           0           0           0           0           1           1           1           1
 AtZEff=  -0.0000000  -0.0000000  -0.0000000  -0.0000000  -0.0000000  -0.0000000  -0.0000000  -0.0000000  -0.0000000  -0.0000000
 NQMom=    0.0000000   0.0000000   0.0000000   0.0000000   0.0000000   0.0000000   0.0000000   0.0000000   0.0000000   0.0000000
 NMagM=    0.0000000   0.0000000   0.0000000   0.0000000   0.0000000   0.0000000   2.7928460   2.7928460   2.7928460   2.7928460
 AtZNuc=   8.0000000   6.0000000   8.0000000   6.0000000   6.0000000   6.0000000   1.0000000   1.0000000   1.0000000   1.0000000

  Atom        11          12          13          14          15          16
 IAtWgt=           1           1           1           1           1           1
 AtmWgt=   1.0078250   1.0078250   1.0078250   1.0078250   1.0078250   1.0078250
 NucSpn=           1           1           1           1           1           1
 AtZEff=  -0.0000000  -0.0000000  -0.0000000  -0.0000000  -0.0000000  -0.0000000
 NQMom=    0.0000000   0.0000000   0.0000000   0.0000000   0.0000000   0.0000000
 NMagM=    2.7928460   2.7928460   2.7928460   2.7928460   2.7928460   2.7928460
 AtZNuc=   1.0000000   1.0000000   1.0000000   1.0000000   1.0000000   1.0000000
 Leave Link  101 at Wed Oct 22 09:22:34 2025, MaxMem=  4294967296 cpu:               1.2 elap:               0.2
 (Enter /lrz/sys/applications/gaussian/g16.C.01/x86_64_legacy/exe/l202.exe)
                          Input orientation:                          
 ---------------------------------------------------------------------
 Center     Atomic      Atomic             Coordinates (Angstroms)
 Number     Number       Type             X           Y           Z
 ---------------------------------------------------------------------
      1          8           0       -0.995122    1.354924    0.199249
      2          6           0       -0.864072    0.061839   -0.316455
      3          8           0       -2.145838   -0.531340   -0.311639
      4          6           0        0.131362   -0.784564    0.468284
      5          6           0        1.512998   -0.156010    0.637281
      6          6           0        2.236305    0.139775   -0.672337
      7          1           0       -1.138456    1.280646    1.152938
      8          1           0       -0.522362    0.198917   -1.358011
      9          1           0       -2.043171   -1.482268   -0.439818
     10          1           0       -0.317195   -0.981128    1.457759
     11          1           0        0.221193   -1.759874   -0.040639
     12          1           0        1.415559    0.773597    1.221725
     13          1           0        2.126261   -0.837545    1.248276
     14          1           0        2.306197   -0.761587   -1.302564
     15          1           0        3.260070    0.497229   -0.484423
     16          1           0        1.720029    0.917108   -1.256760
 ---------------------------------------------------------------------
                    Distance matrix (angstroms):
                    1          2          3          4          5
     1  O    0.000000
     2  C    1.398282   0.000000
     3  O    2.267850   1.412377   0.000000
     4  C    2.432849   1.524173   2.420339   0.000000
     5  C    2.960652   2.570512   3.798474   1.527271   0.000000
     6  C    3.560670   3.121708   4.447884   2.566360   1.525045
     7  H    0.967256   1.928702   2.538326   2.519183   3.059427
     8  H    1.996225   1.104715   2.064908   2.174843   2.872256
     9  H    3.091354   1.946730   0.965005   2.457648   3.945306
    10  H    2.738717   2.129481   2.583992   1.104039   2.168781
    11  H    3.352452   2.138343   2.680592   1.103767   2.168113
    12  H    2.682309   2.840654   4.091163   2.155157   1.102378
    13  H    3.956060   3.492759   4.558281   2.142619   1.101770
    14  H    4.199258   3.420679   4.566789   2.804699   2.181487
    15  H    4.394281   4.150461   5.505602   3.512756   2.176511
    16  H    3.111863   2.879798   4.235113   2.897469   2.186741
                    6          7          8          9         10
     6  C    0.000000
     7  H    4.002777   0.000000
     8  H    2.843218   2.802601   0.000000
     9  H    4.582467   3.314977   2.445878   0.000000
    10  H    3.509144   2.425491   3.059928   2.613605   0.000000
    11  H    2.840490   3.538083   2.474915   2.315978   1.772429
    12  H    2.159358   2.604769   3.277321   4.451120   2.477339
    13  H    2.157781   3.892840   3.857744   4.544171   2.456619
    14  H    1.102055   4.697429   2.987706   4.492295   3.814416
    15  H    1.100536   4.758332   3.893448   5.660809   4.330639
    16  H    1.101062   3.756293   2.356771   4.537188   3.888727
                   11         12         13         14         15
    11  H    0.000000
    12  H    3.072222   0.000000
    13  H    2.478160   1.761131   0.000000
    14  H    2.633681   3.085784   2.558306   0.000000
    15  H    3.811329   2.527754   2.463613   1.778720   0.000000
    16  H    3.300256   2.501237   3.085294   1.778681   1.773282
                   16
    16  H    0.000000
 Stoichiometry    C4H10O2
 Framework group  C1[X(C4H10O2)]
 Deg. of freedom    42
 Full point group                 C1      NOp   1
 Largest Abelian subgroup         C1      NOp   1
 Largest concise Abelian subgroup C1      NOp   1
                         Standard orientation:                         
 ---------------------------------------------------------------------
 Center     Atomic      Atomic             Coordinates (Angstroms)
 Number     Number       Type             X           Y           Z
 ---------------------------------------------------------------------
      1          8           0       -0.995122    1.354924    0.199249
      2          6           0       -0.864072    0.061839   -0.316455
      3          8           0       -2.145838   -0.531340   -0.311639
      4          6           0        0.131362   -0.784564    0.468284
      5          6           0        1.512998   -0.156010    0.637281
      6          6           0        2.236305    0.139775   -0.672337
      7          1           0       -1.138456    1.280646    1.152938
      8          1           0       -0.522362    0.198917   -1.358011
      9          1           0       -2.043171   -1.482268   -0.439818
     10          1           0       -0.317195   -0.981128    1.457759
     11          1           0        0.221193   -1.759874   -0.040639
     12          1           0        1.415559    0.773597    1.221725
     13          1           0        2.126261   -0.837545    1.248276
     14          1           0        2.306197   -0.761587   -1.302564
     15          1           0        3.260070    0.497229   -0.484423
     16          1           0        1.720029    0.917108   -1.256760
 ---------------------------------------------------------------------
 Rotational constants (GHZ):           6.2246379           2.0572157           1.8719081
 Leave Link  202 at Wed Oct 22 09:22:34 2025, MaxMem=  4294967296 cpu:               0.1 elap:               0.0
 (Enter /lrz/sys/applications/gaussian/g16.C.01/x86_64_legacy/exe/l301.exe)
 Standard basis: def2TZVP (5D, 7F)
 Ernie: Thresh=  0.10000D-02 Tol=  0.10000D-05 Strict=F.
 There are   276 symmetry adapted cartesian basis functions of A   symmetry.
 There are   246 symmetry adapted basis functions of A   symmetry.
   246 basis functions,   386 primitive gaussians,   276 cartesian basis functions
    25 alpha electrons       25 beta electrons
       nuclear repulsion energy       261.4334664108 Hartrees.
 IExCor= 4639 DFT=T Ex+Corr=wB97XD ExCW=0 ScaHFX=  1.000000
 ScaDFX=  1.000000  1.000000  1.000000  1.000000 ScalE2=  1.000000  1.000000
 IRadAn=      5 IRanWt=     -1 IRanGd=            0 ICorTp=0 IEmpDi=121
 HFx  wShort=  0.000000 wLong=  0.200000 cFull=  0.222036 cShort=  0.000000 cLong=  0.777964
 DFx  wShort=  0.000000 wLong=  0.200000 cFull=  0.000000 cShort=  0.000000 cLong=  1.000000
 NAtoms=   16 NActive=   16 NUniq=   16 SFac= 1.00D+00 NAtFMM=   60 NAOKFM=F Big=F
 Integral buffers will be    131072 words long.
 Raffenetti 2 integral format.
 Two-electron integral symmetry is turned on.
 R6Disp:  Grimme-D2 Dispersion energy=       -0.0087122538 Hartrees.
 Nuclear repulsion after empirical dispersion term =      261.4247541570 Hartrees.
 ------------------------------------------------------------------------------
 Polarizable Continuum Model (PCM)
 =================================
 Model                : PCM.
 Atomic radii         : SMD-Coulomb.
 Polarization charges : Total charges.
 Charge compensation  : None.
 Solution method      : On-the-fly selection.
 Cavity type          : VdW (van der Waals Surface) (Alpha=1.000).
 Cavity algorithm     : GePol (No added spheres)
                        Default sphere list used, NSphG=   16.
                        Lebedev-Laikov grids with approx.  5.0 points / Ang**2.
                        Smoothing algorithm: York/Karplus (Gamma=1.0000).
                        Polarization charges: spherical gaussians, with
                                              point-specific exponents (IZeta= 3).
                        Self-potential: point-specific (ISelfS= 7).
                        Self-field    : sphere-specific E.n sum rule (ISelfD= 2).
 Solvent              : Water, Eps=  78.355300 Eps(inf)=   1.777849
 ------------------------------------------------------------------------------
 Spheres list:
 ISph  on   Nord     Re0    Alpha      Xe            Ye            Ze
    1   O      1    1.5200  1.000     -0.995122      1.354924      0.199249
    2   C      2    1.8500  1.000     -0.864072      0.061839     -0.316455
    3   O      3    1.5200  1.000     -2.145838     -0.531340     -0.311639
    4   C      4    1.8500  1.000      0.131362     -0.784564      0.468284
    5   C      5    1.8500  1.000      1.512998     -0.156010      0.637281
    6   C      6    1.8500  1.000      2.236305      0.139775     -0.672337
    7   H      7    1.2000  1.000     -1.138456      1.280646      1.152938
    8   H      8    1.2000  1.000     -0.522362      0.198917     -1.358011
    9   H      9    1.2000  1.000     -2.043171     -1.482268     -0.439818
   10   H     10    1.2000  1.000     -0.317195     -0.981128      1.457759
   11   H     11    1.2000  1.000      0.221193     -1.759874     -0.040639
   12   H     12    1.2000  1.000      1.415559      0.773597      1.221725
   13   H     13    1.2000  1.000      2.126261     -0.837545      1.248276
   14   H     14    1.2000  1.000      2.306197     -0.761587     -1.302564
   15   H     15    1.2000  1.000      3.260070      0.497229     -0.484423
   16   H     16    1.2000  1.000      1.720029      0.917108     -1.256760
 ------------------------------------------------------------------------------
 GePol: Number of generator spheres                  =      16
 GePol: Total number of spheres                      =      16
 GePol: Number of exposed spheres                    =      16 (100.00%)
 GePol: Number of points                             =    1100
 GePol: Average weight of points                     =       0.12
 GePol: Minimum weight of points                     =   0.70D-11
 GePol: Maximum weight of points                     =    0.21991
 GePol: Number of points with low weight             =      72
 GePol: Fraction of low-weight points (<1% of avg)   =       6.55%
 GePol: Cavity surface area                          =    129.819 Ang**2
 GePol: Cavity volume                                =     99.703 Ang**3
 ------------------------------------------------------------------------------
 Atomic radii for non-electrostatic terms: SMD-CDS.
 ------------------------------------------------------------------------------
 PCM non-electrostatic energy =         0.0049875570 Hartrees.
 Nuclear repulsion after PCM non-electrostatic terms =      261.4297417141 Hartrees.
 Leave Link  301 at Wed Oct 22 09:22:35 2025, MaxMem=  4294967296 cpu:               1.3 elap:               0.2
 (Enter /lrz/sys/applications/gaussian/g16.C.01/x86_64_legacy/exe/l302.exe)
 NPDir=0 NMtPBC=     1 NCelOv=     1 NCel=       1 NClECP=     1 NCelD=      1
         NCelK=      1 NCelE2=     1 NClLst=     1 CellRange=     0.0.
 One-electron integrals computed using PRISM.
 One-electron integral symmetry used in STVInt
   1 Symmetry operations used in ECPInt.
 ECPInt:  NShTT=    5671 NPrTT=   16452 LenC2=    5597 LenP2D=   13410.
 LDataN:  DoStor=T MaxTD1= 6 Len=  172
 NBasis=   246 RedAO= T EigKep=  2.36D-04  NBF=   246
 NBsUse=   246 1.00D-06 EigRej= -1.00D+00 NBFU=   246
 Precomputing XC quadrature grid using
 IXCGrd= 4 IRadAn=           5 IRanWt=          -1 IRanGd=           0 AccXCQ= 0.00D+00.
 Generated NRdTot=       0 NPtTot=           0 NUsed=           0 NTot=          32
 NSgBfM=   275   275   275   275   275 MxSgAt=    16 MxSgA2=    16.
 Leave Link  302 at Wed Oct 22 09:22:35 2025, MaxMem=  4294967296 cpu:               2.2 elap:               0.3
 (Enter /lrz/sys/applications/gaussian/g16.C.01/x86_64_legacy/exe/l303.exe)
 DipDrv:  MaxL=1.
 Leave Link  303 at Wed Oct 22 09:22:35 2025, MaxMem=  4294967296 cpu:               0.3 elap:               0.1
 (Enter /lrz/sys/applications/gaussian/g16.C.01/x86_64_legacy/exe/l401.exe)
 ExpMin= 9.52D-02 ExpMax= 2.70D+04 ExpMxC= 9.22D+02 IAcc=3 IRadAn=         5 AccDes= 0.00D+00
 Harris functional with IExCor= 4639 and IRadAn=       5 diagonalized for initial guess.
 HarFok:  IExCor= 4639 AccDes= 0.00D+00 IRadAn=         5 IDoV= 1 UseB2=F ITyADJ=14
 ICtDFT=  3500011 ScaDFX=  1.000000  1.000000  1.000000  1.000000
 FoFCou: FMM=F IPFlag=           0 FMFlag=      100000 FMFlg1=           0
         NFxFlg=           0 DoJE=T BraDBF=F KetDBF=T FulRan=T
         wScrn=  0.000000 ICntrl=       500 IOpCl=  0 I1Cent=   200000004 NGrid=           0
         NMat0=    1 NMatS0=      1 NMatT0=    0 NMatD0=    1 NMtDS0=    0 NMtDT0=    0
 Petite list used in FoFCou.
 Harris En= -295.779102957746    
 JPrj=0 DoOrth=F DoCkMO=F.
 Leave Link  401 at Wed Oct 22 09:22:37 2025, MaxMem=  4294967296 cpu:              15.3 elap:               1.9
 (Enter /lrz/sys/applications/gaussian/g16.C.01/x86_64_legacy/exe/l502.exe)
 Integral symmetry usage will be decided dynamically.
 Closed shell SCF:
 Using DIIS extrapolation, IDIIS=  1040.
 NGot=  4294967296 LenX=  4294809698 LenY=  4294733081
 Requested convergence on RMS density matrix=1.00D-08 within 128 cycles.
 Requested convergence on MAX density matrix=1.00D-06.
 Requested convergence on             energy=1.00D-06.
 No special actions if energy rises.
 Fock matrices will be formed incrementally for  20 cycles.

 Cycle   1  Pass 1  IDiag  1:
 FoFJK:  IHMeth= 1 ICntrl=       0 DoSepK=T KAlg= 0 I1Cent=           0 FoldK=F
 IRaf=         1 NMat=       1 IRICut=       1 DoRegI=T DoRafI=F ISym2E= 0 IDoP0=0 IntGTp=1.
 FoFCou: FMM=F IPFlag=           0 FMFlag=      100000 FMFlg1=           0
         NFxFlg=           0 DoJE=T BraDBF=F KetDBF=F FulRan=T
         wScrn=  0.000000 ICntrl=       500 IOpCl=  0 I1Cent=           0 NGrid=           0
         NMat0=    1 NMatS0=      1 NMatT0=    0 NMatD0=    1 NMtDS0=    0 NMtDT0=    0
 Symmetry not used in FoFCou.
 Inv3:  Mode=1 IEnd=     3630000.
 Iteration    1 A*A^-1 deviation from unit magnitude is 5.22D-15 for   1013.
 Iteration    1 A*A^-1 deviation from orthogonality  is 3.44D-15 for    744    186.
 Iteration    1 A^-1*A deviation from unit magnitude is 5.22D-15 for   1013.
 Iteration    1 A^-1*A deviation from orthogonality  is 2.92D-15 for    986    486.
 E= -308.852079606251    
 DIIS: error= 4.60D-02 at cycle   1 NSaved=   1.
 NSaved= 1 IEnMin= 1 EnMin= -308.852079606251     IErMin= 1 ErrMin= 4.60D-02
 ErrMax= 4.60D-02  0.00D+00 EMaxC= 1.00D-01 BMatC= 6.50D-01 BMatP= 6.50D-01
 IDIUse=3 WtCom= 5.40D-01 WtEn= 4.60D-01
 Coeff-Com:  0.100D+01
 Coeff-En:   0.100D+01
 Coeff:      0.100D+01
 Gap=     0.529 Goal=   None    Shift=    0.000
 GapD=    0.529 DampG=2.000 DampE=0.500 DampFc=1.0000 IDamp=-1.
 RMSDP=1.92D-03 MaxDP=5.04D-02              OVMax= 6.45D-02

 Cycle   2  Pass 1  IDiag  1:
 RMSU=  1.87D-03    CP:  9.57D-01
 E= -308.906636855209     Delta-E=       -0.054557248958 Rises=F Damp=F
 DIIS: error= 7.49D-03 at cycle   2 NSaved=   2.
 NSaved= 2 IEnMin= 2 EnMin= -308.906636855209     IErMin= 2 ErrMin= 7.49D-03
 ErrMax= 7.49D-03  0.00D+00 EMaxC= 1.00D-01 BMatC= 4.94D-02 BMatP= 6.50D-01
 IDIUse=3 WtCom= 9.25D-01 WtEn= 7.49D-02
 Coeff-Com:  0.151D+00 0.849D+00
 Coeff-En:   0.969D-01 0.903D+00
 Coeff:      0.147D+00 0.853D+00
 Gap=     0.515 Goal=   None    Shift=    0.000
 RMSDP=7.77D-04 MaxDP=2.85D-02 DE=-5.46D-02 OVMax= 5.09D-02

 Cycle   3  Pass 1  IDiag  1:
 RMSU=  6.28D-04    CP:  9.62D-01  7.57D-01
 E= -308.923154525515     Delta-E=       -0.016517670305 Rises=F Damp=F
 DIIS: error= 5.79D-03 at cycle   3 NSaved=   3.
 NSaved= 3 IEnMin= 3 EnMin= -308.923154525515     IErMin= 3 ErrMin= 5.79D-03
 ErrMax= 5.79D-03  0.00D+00 EMaxC= 1.00D-01 BMatC= 2.51D-02 BMatP= 4.94D-02
 IDIUse=3 WtCom= 9.42D-01 WtEn= 5.79D-02
 Coeff-Com:  0.239D-01 0.424D+00 0.553D+00
 Coeff-En:   0.000D+00 0.328D+00 0.672D+00
 Coeff:      0.225D-01 0.418D+00 0.559D+00
 Gap=     0.482 Goal=   None    Shift=    0.000
 RMSDP=3.89D-04 MaxDP=1.32D-02 DE=-1.65D-02 OVMax= 2.25D-02

 Cycle   4  Pass 1  IDiag  1:
 RMSU=  1.35D-04    CP:  9.57D-01  9.19D-01  6.91D-01
 E= -308.939996677619     Delta-E=       -0.016842152105 Rises=F Damp=F
 DIIS: error= 7.30D-04 at cycle   4 NSaved=   4.
 NSaved= 4 IEnMin= 4 EnMin= -308.939996677619     IErMin= 4 ErrMin= 7.30D-04
 ErrMax= 7.30D-04  0.00D+00 EMaxC= 1.00D-01 BMatC= 2.42D-04 BMatP= 2.51D-02
 IDIUse=3 WtCom= 9.93D-01 WtEn= 7.30D-03
 Coeff-Com:  0.807D-02 0.152D+00 0.225D+00 0.614D+00
 Coeff-En:   0.000D+00 0.000D+00 0.000D+00 0.100D+01
 Coeff:      0.802D-02 0.151D+00 0.224D+00 0.617D+00
 Gap=     0.476 Goal=   None    Shift=    0.000
 RMSDP=4.36D-05 MaxDP=1.58D-03 DE=-1.68D-02 OVMax= 2.27D-03

 Cycle   5  Pass 1  IDiag  1:
 RMSU=  3.67D-05    CP:  9.56D-01  9.28D-01  7.15D-01  9.90D-01
 E= -308.940169548980     Delta-E=       -0.000172871361 Rises=F Damp=F
 DIIS: error= 1.10D-04 at cycle   5 NSaved=   5.
 NSaved= 5 IEnMin= 5 EnMin= -308.940169548980     IErMin= 5 ErrMin= 1.10D-04
 ErrMax= 1.10D-04  0.00D+00 EMaxC= 1.00D-01 BMatC= 8.90D-06 BMatP= 2.42D-04
 IDIUse=3 WtCom= 9.99D-01 WtEn= 1.10D-03
 Coeff-Com: -0.204D-02-0.328D-01-0.343D-01 0.985D-01 0.971D+00
 Coeff-En:   0.000D+00 0.000D+00 0.000D+00 0.000D+00 0.100D+01
 Coeff:     -0.204D-02-0.328D-01-0.343D-01 0.983D-01 0.971D+00
 Gap=     0.476 Goal=   None    Shift=    0.000
 RMSDP=3.44D-05 MaxDP=9.92D-04 DE=-1.73D-04 OVMax= 9.86D-04

 Cycle   6  Pass 1  IDiag  1:
 RMSU=  9.83D-06    CP:  9.55D-01  9.38D-01  7.39D-01  1.14D+00  1.22D+00
 E= -308.940182145829     Delta-E=       -0.000012596849 Rises=F Damp=F
 DIIS: error= 1.55D-05 at cycle   6 NSaved=   6.
 NSaved= 6 IEnMin= 6 EnMin= -308.940182145829     IErMin= 6 ErrMin= 1.55D-05
 ErrMax= 1.55D-05  0.00D+00 EMaxC= 1.00D-01 BMatC= 2.07D-07 BMatP= 8.90D-06
 IDIUse=1 WtCom= 1.00D+00 WtEn= 0.00D+00
 Coeff-Com: -0.373D-03-0.694D-02-0.957D-02-0.124D-01 0.371D-01 0.992D+00
 Coeff:     -0.373D-03-0.694D-02-0.957D-02-0.124D-01 0.371D-01 0.992D+00
 Gap=     0.476 Goal=   None    Shift=    0.000
 RMSDP=7.80D-06 MaxDP=2.16D-04 DE=-1.26D-05 OVMax= 3.01D-04

 Cycle   7  Pass 1  IDiag  1:
 RMSU=  2.58D-06    CP:  9.55D-01  9.40D-01  7.42D-01  1.17D+00  1.30D+00
                    CP:  1.32D+00
 E= -308.940182570827     Delta-E=       -0.000000424998 Rises=F Damp=F
 DIIS: error= 1.02D-05 at cycle   7 NSaved=   7.
 NSaved= 7 IEnMin= 7 EnMin= -308.940182570827     IErMin= 7 ErrMin= 1.02D-05
 ErrMax= 1.02D-05  0.00D+00 EMaxC= 1.00D-01 BMatC= 5.18D-08 BMatP= 2.07D-07
 IDIUse=1 WtCom= 1.00D+00 WtEn= 0.00D+00
 Coeff-Com:  0.164D-04-0.112D-05-0.730D-03-0.103D-01-0.584D-01 0.334D+00
 Coeff-Com:  0.736D+00
 Coeff:      0.164D-04-0.112D-05-0.730D-03-0.103D-01-0.584D-01 0.334D+00
 Coeff:      0.736D+00
 Gap=     0.476 Goal=   None    Shift=    0.000
 RMSDP=1.87D-06 MaxDP=5.35D-05 DE=-4.25D-07 OVMax= 8.52D-05

 Cycle   8  Pass 1  IDiag  1:
 RMSU=  7.64D-07    CP:  9.55D-01  9.40D-01  7.43D-01  1.18D+00  1.32D+00
                    CP:  1.43D+00  1.15D+00
 E= -308.940182628253     Delta-E=       -0.000000057427 Rises=F Damp=F
 DIIS: error= 2.60D-06 at cycle   8 NSaved=   8.
 NSaved= 8 IEnMin= 8 EnMin= -308.940182628253     IErMin= 8 ErrMin= 2.60D-06
 ErrMax= 2.60D-06  0.00D+00 EMaxC= 1.00D-01 BMatC= 5.17D-09 BMatP= 5.18D-08
 IDIUse=1 WtCom= 1.00D+00 WtEn= 0.00D+00
 Coeff-Com:  0.421D-04 0.722D-03 0.839D-03-0.127D-02-0.201D-01-0.176D-01
 Coeff-Com:  0.218D+00 0.820D+00
 Coeff:      0.421D-04 0.722D-03 0.839D-03-0.127D-02-0.201D-01-0.176D-01
 Coeff:      0.218D+00 0.820D+00
 Gap=     0.476 Goal=   None    Shift=    0.000
 RMSDP=7.07D-07 MaxDP=1.87D-05 DE=-5.74D-08 OVMax= 3.45D-05

 Cycle   9  Pass 1  IDiag  1:
 RMSU=  2.04D-07    CP:  9.55D-01  9.40D-01  7.43D-01  1.18D+00  1.33D+00
                    CP:  1.47D+00  1.31D+00  1.12D+00
 E= -308.940182634340     Delta-E=       -0.000000006086 Rises=F Damp=F
 DIIS: error= 1.10D-06 at cycle   9 NSaved=   9.
 NSaved= 9 IEnMin= 9 EnMin= -308.940182634340     IErMin= 9 ErrMin= 1.10D-06
 ErrMax= 1.10D-06  0.00D+00 EMaxC= 1.00D-01 BMatC= 7.74D-10 BMatP= 5.17D-09
 IDIUse=1 WtCom= 1.00D+00 WtEn= 0.00D+00
 Coeff-Com:  0.134D-04 0.263D-03 0.389D-03 0.569D-03-0.165D-02-0.410D-01
 Coeff-Com:  0.910D-02 0.311D+00 0.721D+00
 Coeff:      0.134D-04 0.263D-03 0.389D-03 0.569D-03-0.165D-02-0.410D-01
 Coeff:      0.910D-02 0.311D+00 0.721D+00
 Gap=     0.476 Goal=   None    Shift=    0.000
 RMSDP=2.16D-07 MaxDP=6.24D-06 DE=-6.09D-09 OVMax= 1.18D-05

 Cycle  10  Pass 1  IDiag  1:
 RMSU=  9.25D-08    CP:  9.55D-01  9.40D-01  7.43D-01  1.18D+00  1.33D+00
                    CP:  1.48D+00  1.35D+00  1.23D+00  1.10D+00
 E= -308.940182635121     Delta-E=       -0.000000000781 Rises=F Damp=F
 DIIS: error= 3.35D-07 at cycle  10 NSaved=  10.
 NSaved=10 IEnMin=10 EnMin= -308.940182635121     IErMin=10 ErrMin= 3.35D-07
 ErrMax= 3.35D-07  0.00D+00 EMaxC= 1.00D-01 BMatC= 7.55D-11 BMatP= 7.74D-10
 IDIUse=1 WtCom= 1.00D+00 WtEn= 0.00D+00
 Coeff-Com: -0.191D-05-0.179D-04 0.114D-04 0.426D-03 0.273D-02-0.117D-01
 Coeff-Com: -0.338D-01-0.318D-01 0.233D+00 0.841D+00
 Coeff:     -0.191D-05-0.179D-04 0.114D-04 0.426D-03 0.273D-02-0.117D-01
 Coeff:     -0.338D-01-0.318D-01 0.233D+00 0.841D+00
 Gap=     0.476 Goal=   None    Shift=    0.000
 RMSDP=9.30D-08 MaxDP=2.84D-06 DE=-7.81D-10 OVMax= 5.44D-06

 Cycle  11  Pass 1  IDiag  1:
 RMSU=  2.81D-08    CP:  9.55D-01  9.40D-01  7.43D-01  1.18D+00  1.33D+00
                    CP:  1.49D+00  1.37D+00  1.27D+00  1.31D+00  1.21D+00
 E= -308.940182635223     Delta-E=       -0.000000000102 Rises=F Damp=F
 DIIS: error= 4.77D-08 at cycle  11 NSaved=  11.
 NSaved=11 IEnMin=11 EnMin= -308.940182635223     IErMin=11 ErrMin= 4.77D-08
 ErrMax= 4.77D-08  0.00D+00 EMaxC= 1.00D-01 BMatC= 1.01D-12 BMatP= 7.55D-11
 IDIUse=1 WtCom= 1.00D+00 WtEn= 0.00D+00
 Coeff-Com: -0.975D-07-0.631D-05-0.166D-04-0.737D-04-0.307D-03 0.322D-02
 Coeff-Com:  0.349D-02-0.952D-02-0.562D-01-0.969D-01 0.116D+01
 Coeff:     -0.975D-07-0.631D-05-0.166D-04-0.737D-04-0.307D-03 0.322D-02
 Coeff:      0.349D-02-0.952D-02-0.562D-01-0.969D-01 0.116D+01
 Gap=     0.476 Goal=   None    Shift=    0.000
 RMSDP=2.34D-08 MaxDP=6.31D-07 DE=-1.02D-10 OVMax= 1.30D-06

 Cycle  12  Pass 1  IDiag  1:
 RMSU=  6.35D-09    CP:  9.55D-01  9.40D-01  7.43D-01  1.18D+00  1.33D+00
                    CP:  1.49D+00  1.37D+00  1.28D+00  1.37D+00  1.36D+00
                    CP:  1.39D+00
 E= -308.940182635230     Delta-E=       -0.000000000007 Rises=F Damp=F
 DIIS: error= 9.50D-09 at cycle  12 NSaved=  12.
 NSaved=12 IEnMin=12 EnMin= -308.940182635230     IErMin=12 ErrMin= 9.50D-09
 ErrMax= 9.50D-09  0.00D+00 EMaxC= 1.00D-01 BMatC= 4.38D-14 BMatP= 1.01D-12
 IDIUse=1 WtCom= 1.00D+00 WtEn= 0.00D+00
 Coeff-Com:  0.581D-07 0.394D-06-0.101D-05-0.176D-04-0.116D-03 0.588D-03
 Coeff-Com:  0.138D-02 0.838D-03-0.105D-01-0.350D-01 0.520D-01 0.991D+00
 Coeff:      0.581D-07 0.394D-06-0.101D-05-0.176D-04-0.116D-03 0.588D-03
 Coeff:      0.138D-02 0.838D-03-0.105D-01-0.350D-01 0.520D-01 0.991D+00
 Gap=     0.476 Goal=   None    Shift=    0.000
 RMSDP=4.55D-09 MaxDP=1.24D-07 DE=-7.39D-12 OVMax= 2.18D-07

 Error on total polarization charges =  0.04698
 SCF Done:  E(RwB97XD) =  -308.940182635     A.U. after   12 cycles
            NFock= 12  Conv=0.45D-08     -V/T= 2.0052
 KE= 3.073338896284D+02 PE=-1.245535646704D+03 EE= 3.678318327266D+02
 SMD-CDS (non-electrostatic) energy       (kcal/mol) =       3.13
 (included in total energy above)
 Leave Link  502 at Wed Oct 22 09:24:06 2025, MaxMem=  4294967296 cpu:             707.4 elap:              88.6
 (Enter /lrz/sys/applications/gaussian/g16.C.01/x86_64_legacy/exe/l601.exe)
 Copying SCF densities to generalized density rwf, IOpCl= 0 IROHF=0.

 **********************************************************************

            Population analysis using the SCF Density.

 **********************************************************************

 Orbital symmetries:
       Occupied  (A) (A) (A) (A) (A) (A) (A) (A) (A) (A) (A) (A)
                 (A) (A) (A) (A) (A) (A) (A) (A) (A) (A) (A) (A)
                 (A)
       Virtual   (A) (A) (A) (A) (A) (A) (A) (A) (A) (A) (A) (A)
                 (A) (A) (A) (A) (A) (A) (A) (A) (A) (A) (A) (A)
                 (A) (A) (A) (A) (A) (A) (A) (A) (A) (A) (A) (A)
                 (A) (A) (A) (A) (A) (A) (A) (A) (A) (A) (A) (A)
                 (A) (A) (A) (A) (A) (A) (A) (A) (A) (A) (A) (A)
                 (A) (A) (A) (A) (A) (A) (A) (A) (A) (A) (A) (A)
                 (A) (A) (A) (A) (A) (A) (A) (A) (A) (A) (A) (A)
                 (A) (A) (A) (A) (A) (A) (A) (A) (A) (A) (A) (A)
                 (A) (A) (A) (A) (A) (A) (A) (A) (A) (A) (A) (A)
                 (A) (A) (A) (A) (A) (A) (A) (A) (A) (A) (A) (A)
                 (A) (A) (A) (A) (A) (A) (A) (A) (A) (A) (A) (A)
                 (A) (A) (A) (A) (A) (A) (A) (A) (A) (A) (A) (A)
                 (A) (A) (A) (A) (A) (A) (A) (A) (A) (A) (A) (A)
                 (A) (A) (A) (A) (A) (A) (A) (A) (A) (A) (A) (A)
                 (A) (A) (A) (A) (A) (A) (A) (A) (A) (A) (A) (A)
                 (A) (A) (A) (A) (A) (A) (A) (A) (A) (A) (A) (A)
                 (A) (A) (A) (A) (A) (A) (A) (A) (A) (A) (A) (A)
                 (A) (A) (A) (A) (A) (A) (A) (A) (A) (A) (A) (A)
                 (A) (A) (A) (A) (A)
 The electronic state is 1-A.
 Alpha  occ. eigenvalues --  -19.25806 -19.25273 -10.37730 -10.27411 -10.27381
 Alpha  occ. eigenvalues --  -10.26415  -1.16836  -1.10039  -0.88594  -0.80003
 Alpha  occ. eigenvalues --   -0.73847  -0.67451  -0.62122  -0.57242  -0.56871
 Alpha  occ. eigenvalues --   -0.52147  -0.51007  -0.47656  -0.46296  -0.44292
 Alpha  occ. eigenvalues --   -0.41841  -0.41127  -0.40512  -0.39835  -0.35775
 Alpha virt. eigenvalues --    0.11793   0.14169   0.14301   0.15704   0.18464
 Alpha virt. eigenvalues --    0.19327   0.20062   0.20420   0.21632   0.23103
 Alpha virt. eigenvalues --    0.25591   0.26876   0.28037   0.28976   0.30419
 Alpha virt. eigenvalues --    0.31406   0.32381   0.35293   0.35825   0.37305
 Alpha virt. eigenvalues --    0.40557   0.40855   0.42483   0.44536   0.46354
 Alpha virt. eigenvalues --    0.48037   0.48920   0.49352   0.50283   0.51488
 Alpha virt. eigenvalues --    0.52220   0.52511   0.54141   0.54534   0.56318
 Alpha virt. eigenvalues --    0.57072   0.57956   0.58766   0.62769   0.64530
 Alpha virt. eigenvalues --    0.66344   0.67552   0.69246   0.70919   0.73047
 Alpha virt. eigenvalues --    0.73482   0.77555   0.81473   0.84922   0.89504
 Alpha virt. eigenvalues --    0.91488   0.92582   0.94622   0.95914   1.00322
 Alpha virt. eigenvalues --    1.02077   1.03684   1.10494   1.11167   1.12194
 Alpha virt. eigenvalues --    1.18277   1.19293   1.21644   1.22006   1.26009
 Alpha virt. eigenvalues --    1.28194   1.31101   1.32605   1.34883   1.45259
 Alpha virt. eigenvalues --    1.47278   1.54897   1.56882   1.60456   1.62579
 Alpha virt. eigenvalues --    1.62875   1.63667   1.66454   1.67461   1.68045
 Alpha virt. eigenvalues --    1.69822   1.72469   1.73140   1.76429   1.78341
 Alpha virt. eigenvalues --    1.82111   1.85246   1.87109   1.89593   1.90319
 Alpha virt. eigenvalues --    1.93860   1.95319   1.97902   2.00329   2.00586
 Alpha virt. eigenvalues --    2.03172   2.06957   2.09893   2.11068   2.15515
 Alpha virt. eigenvalues --    2.18395   2.23031   2.24130   2.26853   2.31126
 Alpha virt. eigenvalues --    2.32753   2.37176   2.38304   2.40985   2.41164
 Alpha virt. eigenvalues --    2.42856   2.45294   2.48375   2.49660   2.52196
 Alpha virt. eigenvalues --    2.53370   2.55071   2.59744   2.61530   2.62079
 Alpha virt. eigenvalues --    2.63862   2.66117   2.69147   2.71260   2.74794
 Alpha virt. eigenvalues --    2.75755   2.77235   2.78882   2.79603   2.82224
 Alpha virt. eigenvalues --    2.83508   2.88711   2.89323   2.92697   2.97956
 Alpha virt. eigenvalues --    3.02935   3.05662   3.06234   3.09569   3.14208
 Alpha virt. eigenvalues --    3.16867   3.17931   3.21894   3.22241   3.25158
 Alpha virt. eigenvalues --    3.28784   3.29949   3.34087   3.35577   3.38312
 Alpha virt. eigenvalues --    3.39596   3.40622   3.43058   3.44491   3.46539
 Alpha virt. eigenvalues --    3.50202   3.52802   3.54318   3.56548   3.58017
 Alpha virt. eigenvalues --    3.60541   3.64061   3.67631   3.69364   3.78361
 Alpha virt. eigenvalues --    3.79515   3.85040   3.91165   3.93733   3.99205
 Alpha virt. eigenvalues --    4.00361   4.07079   4.07611   4.08805   4.13535
 Alpha virt. eigenvalues --    4.16470   4.19397   4.25672   4.36109   4.38959
 Alpha virt. eigenvalues --    4.47683   4.50518   4.58877   4.65339   4.67130
 Alpha virt. eigenvalues --    4.70556   4.75784   4.80628   4.87999   4.97218
 Alpha virt. eigenvalues --    5.01180   5.28867   5.34700   5.38724   5.42063
 Alpha virt. eigenvalues --    5.50797   5.58979   5.68970   5.80956   5.87757
 Alpha virt. eigenvalues --    6.00227   6.06448   6.11522   6.35878   6.44534
 Alpha virt. eigenvalues --    6.54044   6.57491   6.76809   6.82371   6.87189
 Alpha virt. eigenvalues --    6.94106   7.05724   7.09840   7.22703   7.33300
 Alpha virt. eigenvalues --   22.40690  22.56434  22.58189  22.73397  43.92033
 Alpha virt. eigenvalues --   43.99498
          Condensed to atoms (all electrons):
               1          2          3          4          5          6
     1  O    8.132189   0.253993  -0.069804  -0.031426  -0.002110  -0.009308
     2  C    0.253993   4.644671   0.253823   0.349833  -0.052635   0.025310
     3  O   -0.069804   0.253823   8.154204  -0.062496   0.011789  -0.001726
     4  C   -0.031426   0.349833  -0.062496   5.112941   0.272825  -0.044998
     5  C   -0.002110  -0.052635   0.011789   0.272825   4.995792   0.283373
     6  C   -0.009308   0.025310  -0.001726  -0.044998   0.283373   5.008988
     7  H    0.299620  -0.022053   0.002907  -0.010800  -0.003229   0.000710
     8  H   -0.048186   0.438187  -0.050197  -0.075775  -0.000149   0.005474
     9  H    0.005289  -0.025386   0.304884  -0.001842   0.000855   0.000044
    10  H   -0.005919  -0.020957   0.004881   0.393093  -0.030749   0.008034
    11  H    0.006452  -0.052077   0.001302   0.415287  -0.021987  -0.006355
    12  H    0.014224  -0.023533   0.000629  -0.023879   0.413885  -0.039569
    13  H    0.000544   0.010582  -0.000316  -0.038201   0.409329  -0.029072
    14  H    0.000422  -0.007675   0.000080   0.008478  -0.043893   0.406671
    15  H   -0.000032  -0.000344   0.000002   0.008213  -0.036103   0.410972
    16  H    0.005064   0.009944   0.000265  -0.013425  -0.031469   0.409908
               7          8          9         10         11         12
     1  O    0.299620  -0.048186   0.005289  -0.005919   0.006452   0.014224
     2  C   -0.022053   0.438187  -0.025386  -0.020957  -0.052077  -0.023533
     3  O    0.002907  -0.050197   0.304884   0.004881   0.001302   0.000629
     4  C   -0.010800  -0.075775  -0.001842   0.393093   0.415287  -0.023879
     5  C   -0.003229  -0.000149   0.000855  -0.030749  -0.021987   0.413885
     6  C    0.000710   0.005474   0.000044   0.008034  -0.006355  -0.039569
     7  H    0.341738   0.008768   0.000011   0.004240   0.000541   0.002143
     8  H    0.008768   0.613778   0.000660   0.008104  -0.002599   0.001013
     9  H    0.000011   0.000660   0.335347  -0.000189   0.001835  -0.000035
    10  H    0.004240   0.008104  -0.000189   0.544002  -0.023613  -0.003303
    11  H    0.000541  -0.002599   0.001835  -0.023613   0.549741   0.006324
    12  H    0.002143   0.001013  -0.000035  -0.003303   0.006324   0.576075
    13  H   -0.000430  -0.001049  -0.000088  -0.006403  -0.004746  -0.026440
    14  H   -0.000010   0.000733  -0.000007   0.000025   0.002205   0.006577
    15  H    0.000037   0.000507   0.000001  -0.000130  -0.000151  -0.003151
    16  H   -0.000456  -0.008983  -0.000059  -0.000601   0.000650  -0.003986
              13         14         15         16
     1  O    0.000544   0.000422  -0.000032   0.005064
     2  C    0.010582  -0.007675  -0.000344   0.009944
     3  O   -0.000316   0.000080   0.000002   0.000265
     4  C   -0.038201   0.008478   0.008213  -0.013425
     5  C    0.409329  -0.043893  -0.036103  -0.031469
     6  C   -0.029072   0.406671   0.410972   0.409908
     7  H   -0.000430  -0.000010   0.000037  -0.000456
     8  H   -0.001049   0.000733   0.000507  -0.008983
     9  H   -0.000088  -0.000007   0.000001  -0.000059
    10  H   -0.006403   0.000025  -0.000130  -0.000601
    11  H   -0.004746   0.002205  -0.000151   0.000650
    12  H   -0.026440   0.006577  -0.003151  -0.003986
    13  H    0.574121  -0.003133  -0.006181   0.006014
    14  H   -0.003133   0.551971  -0.021950  -0.026335
    15  H   -0.006181  -0.021950   0.534276  -0.022381
    16  H    0.006014  -0.026335  -0.022381   0.543205
 Mulliken charges:
               1
     1  O   -0.551014
     2  C    0.218318
     3  O   -0.550228
     4  C   -0.257827
     5  C   -0.165523
     6  C   -0.428456
     7  H    0.376263
     8  H    0.109713
     9  H    0.378679
    10  H    0.129486
    11  H    0.127192
    12  H    0.103025
    13  H    0.115471
    14  H    0.125842
    15  H    0.136415
    16  H    0.132644
 Sum of Mulliken charges =  -0.00000
 Mulliken charges with hydrogens summed into heavy atoms:
               1
     1  O   -0.174751
     2  C    0.328031
     3  O   -0.171549
     4  C   -0.001149
     5  C    0.052973
     6  C   -0.033555
 Electronic spatial extent (au):  <R**2>=            717.4180
 Charge=             -0.0000 electrons
 Dipole moment (field-independent basis, Debye):
    X=              2.0262    Y=             -3.0917    Z=              1.2246  Tot=              3.8941
 Quadrupole moment (field-independent basis, Debye-Ang):
   XX=            -44.8445   YY=            -37.2741   ZZ=            -35.3014
   XY=              3.4201   XZ=             -1.5524   YZ=              3.0006
 Traceless Quadrupole moment (field-independent basis, Debye-Ang):
   XX=             -5.7045   YY=              1.8659   ZZ=              3.8386
   XY=              3.4201   XZ=             -1.5524   YZ=              3.0006
 Octapole moment (field-independent basis, Debye-Ang**2):
  XXX=              7.2644  YYY=            -11.8025  ZZZ=              4.2153  XYY=             -8.6406
  XXY=             -5.8311  XXZ=              4.6901  XZZ=             -7.7247  YZZ=              3.6655
  YYZ=              0.7956  XYZ=             -4.3457
 Hexadecapole moment (field-independent basis, Debye-Ang**3):
 XXXX=           -658.4272 YYYY=           -170.3808 ZZZZ=           -126.6934 XXXY=             13.3936
 XXXZ=             -0.0340 YYYX=             18.4283 YYYZ=             12.9072 ZZZX=             -2.2174
 ZZZY=              7.5017 XXYY=           -118.2463 XXZZ=           -125.5726 YYZZ=            -43.7764
 XXYZ=              8.1424 YYXZ=              0.8075 ZZXY=             -4.5796
 N-N= 2.614297417141D+02 E-N=-1.245535647473D+03  KE= 3.073338896284D+02
 No NMR shielding tensors so no spin-rotation constants.
 Leave Link  601 at Wed Oct 22 09:24:06 2025, MaxMem=  4294967296 cpu:               1.3 elap:               0.2
 (Enter /lrz/sys/applications/gaussian/g16.C.01/x86_64_legacy/exe/l9999.exe)
 Unable to Open any file for archive entry.
 1\1\GINC-CM4R15C05S03\SP\RwB97XD\def2TZVP\C4H10O2\GO29TIZ2\22-Oct-2025
 \0\\#p wb97xd scrf=(smd,solvent=water) def2tzvp\\g16_g16_C17-w_18\\0,1
 \O,0,-0.995122,1.354924,0.199249\C,0,-0.864072,0.061839,-0.316455\O,0,
 -2.145838,-0.53134,-0.311639\C,0,0.131362,-0.784564,0.468284\C,0,1.512
 998,-0.15601,0.637281\C,0,2.236305,0.139775,-0.672337\H,0,-1.138456,1.
 280646,1.152938\H,0,-0.522362,0.198917,-1.358011\H,0,-2.043171,-1.4822
 68,-0.439818\H,0,-0.317195,-0.981128,1.457759\H,0,0.221193,-1.759874,-
 0.040639\H,0,1.415559,0.773597,1.221725\H,0,2.126261,-0.837545,1.24827
 6\H,0,2.306197,-0.761587,-1.302564\H,0,3.26007,0.497229,-0.484423\H,0,
 1.720029,0.917108,-1.25676\\Version=EM64L-G16RevC.01\State=1-A\HF=-308
 .9401826\RMSD=4.546e-09\Dipole=0.7971733,-1.2163854,0.481779\Quadrupol
 e=-4.2411438,1.3872606,2.8538832,2.542737,-1.1541541,2.2308951\PG=C01 
 [X(C4H10O2)]\\@
 The archive entry for this job was punched.


 MATERIAL COPIED FROM ONE SCHOLARLY BOOK WITHOUT CREDIT COMPRISES PLAGIARISM.
 MATERIAL COPIED FROM TWO SCHOLARLY BOOKS COMPRISES AN ESSAY.
 MATERIAL COPIED FROM THREE SCHOLARLY BOOKS COMPRISES A DISSERTATION.
 MATERIAL COPIED FROM FOUR SCHOLARLY BOOKS COMPRISES A FIFTH SCHOLARLY BOOK.

                               -- C&EN, 25 FEB 1980
 Job cpu time:       0 days  0 hours 12 minutes 14.3 seconds.
 Elapsed time:       0 days  0 hours  1 minutes 32.2 seconds.
 File lengths (MBytes):  RWF=    288 Int=      0 D2E=      0 Chk=     12 Scr=     32
 Normal termination of Gaussian 16 at Wed Oct 22 09:24:06 2025.
