 Entering Gaussian System, Link 0=g16
 Input=../../g16_g16_C4-a_4.com
 Output=../../g16_g16_C4-a_4.log
 Initial command:
 /lrz/sys/applications/gaussian/g16.C.01/x86_64_legacy/exe/l1.exe "/dss/lxclscratch/0D/go29tiz2/Gau-22382.inp" -scrdir="/dss/lxclscratch/0D/go29tiz2/"
 Entering Link 1 = /lrz/sys/applications/gaussian/g16.C.01/x86_64_legacy/exe/l1.exe PID=     22383.
  
 Copyright (c) 1988-2019, Gaussian, Inc.  All Rights Reserved.
  
 This is part of the Gaussian(R) 16 program.  It is based on
 the Gaussian(R) 09 system (copyright 2009, Gaussian, Inc.),
 the Gaussian(R) 03 system (copyright 2003, Gaussian, Inc.),
 the Gaussian(R) 98 system (copyright 1998, Gaussian, Inc.),
 the Gaussian(R) 94 system (copyright 1995, Gaussian, Inc.),
 the Gaussian 92(TM) system (copyright 1992, Gaussian, Inc.),
 the Gaussian 90(TM) system (copyright 1990, Gaussian, Inc.),
 the Gaussian 88(TM) system (copyright 1988, Gaussian, Inc.),
 the Gaussian 86(TM) system (copyright 1986, Carnegie Mellon
 University), and the Gaussian 82(TM) system (copyright 1983,
 Carnegie Mellon University). Gaussian is a federally registered
 trademark of Gaussian, Inc.
  
 This software contains proprietary and confidential information,
 including trade secrets, belonging to Gaussian, Inc.
  
 This software is provided under written license and may be
 used, copied, transmitted, or stored only in accord with that
 written license.
  
 The following legend is applicable only to US Government
 contracts under FAR:
  
                    RESTRICTED RIGHTS LEGEND
  
 Use, reproduction and disclosure by the US Government is
 subject to restrictions as set forth in subparagraphs (a)
 and (c) of the Commercial Computer Software - Restricted
 Rights clause in FAR 52.227-19.
  
 Gaussian, Inc.
 340 Quinnipiac St., Bldg. 40, Wallingford CT 06492
  
  
 ---------------------------------------------------------------
 Warning -- This program may not be used in any manner that
 competes with the business of Gaussian, Inc. or will provide
 assistance to any competitor of Gaussian, Inc.  The licensee
 of this program is prohibited from giving any competitor of
 Gaussian, Inc. access to this program.  By using this program,
 the user acknowledges that Gaussian, Inc. is engaged in the
 business of creating and licensing software in the field of
 computational chemistry and represents and warrants to the
 licensee that it is not a competitor of Gaussian, Inc. and that
 it will not use this program in any manner prohibited above.
 ---------------------------------------------------------------
  

 Cite this work as:
 Gaussian 16, Revision C.01,
 M. J. Frisch, G. W. Trucks, H. B. Schlegel, G. E. Scuseria, 
 M. A. Robb, J. R. Cheeseman, G. Scalmani, V. Barone, 
 G. A. Petersson, H. Nakatsuji, X. Li, M. Caricato, A. V. Marenich, 
 J. Bloino, B. G. Janesko, R. Gomperts, B. Mennucci, H. P. Hratchian, 
 J. V. Ortiz, A. F. Izmaylov, J. L. Sonnenberg, D. Williams-Young, 
 F. Ding, F. Lipparini, F. Egidi, J. Goings, B. Peng, A. Petrone, 
 T. Henderson, D. Ranasinghe, V. G. Zakrzewski, J. Gao, N. Rega, 
 G. Zheng, W. Liang, M. Hada, M. Ehara, K. Toyota, R. Fukuda, 
 J. Hasegawa, M. Ishida, T. Nakajima, Y. Honda, O. Kitao, H. Nakai, 
 T. Vreven, K. Throssell, J. A. Montgomery, Jr., J. E. Peralta, 
 F. Ogliaro, M. J. Bearpark, J. J. Heyd, E. N. Brothers, K. N. Kudin, 
 V. N. Staroverov, T. A. Keith, R. Kobayashi, J. Normand, 
 K. Raghavachari, A. P. Rendell, J. C. Burant, S. S. Iyengar, 
 J. Tomasi, M. Cossi, J. M. Millam, M. Klene, C. Adamo, R. Cammi, 
 J. W. Ochterski, R. L. Martin, K. Morokuma, O. Farkas, 
 J. B. Foresman, and D. J. Fox, Gaussian, Inc., Wallingford CT, 2019.
 
 ******************************************
 Gaussian 16:  EM64L-G16RevC.01  3-Jul-2019
                22-Oct-2025 
 ******************************************
 %chk=g16_g16_C4-a_4.chk
 %nprocshared=8
 Will use up to    8 processors via shared memory.
 %mem=32GB
 -------------------------------------------
 #p wb97xd scrf=(smd,solvent=water) def2tzvp
 -------------------------------------------
 1/38=1,172=1/1;
 2/12=2,17=6,18=5,40=1/2;
 3/5=44,7=101,11=2,25=1,30=1,70=32201,72=1,74=-58/1,2,3;
 4//1;
 5/5=2,38=5,53=1/2;
 6/7=2,8=2,9=2,10=2,28=1/1;
 99/5=1,9=1/99;
 Leave Link    1 at Wed Oct 22 10:14:16 2025, MaxMem=  4294967296 cpu:               4.1 elap:               0.6
 (Enter /lrz/sys/applications/gaussian/g16.C.01/x86_64_legacy/exe/l101.exe)
 --------------
 g16_g16_C4-a_4
 --------------
 Symbolic Z-matrix:
 Charge =  0 Multiplicity = 1
 O                     1.42174  -1.23168   0.06132 
 C                     0.85848  -0.0277   -0.44445 
 N                     1.59642   1.14625  -0.05706 
 C                    -0.62045   0.02231  -0.00047 
 C                    -0.72789   0.11067   1.52755 
 C                    -1.29646   1.24127  -0.63719 
 C                    -1.33124  -1.24637  -0.48961 
 H                     2.31702  -1.30206  -0.29039 
 H                     0.87247  -0.0664   -1.54961 
 H                     1.70918   1.15438   0.95696 
 H                     2.53638   1.09505  -0.44782 
 H                    -0.29566   1.04687   1.91492 
 H                    -1.78477   0.08589   1.83617 
 H                    -0.21369  -0.7314    2.01445 
 H                    -0.83274   2.1798   -0.30318 
 H                    -1.22876   1.20317  -1.73674 
 H                    -2.36406   1.26963  -0.36764 
 H                    -1.23478  -1.35656  -1.58219 
 H                    -0.91874  -2.15074  -0.02059 
 H                    -2.40532  -1.19898  -0.25046 
 
 ITRead=  0  0  0  0  0  0  0  0  0  0  0  0  0  0  0  0  0  0  0  0
 MicOpt= -1 -1 -1 -1 -1 -1 -1 -1 -1 -1 -1 -1 -1 -1 -1 -1 -1 -1 -1 -1
 NAtoms=     20 NQM=       20 NQMF=       0 NMMI=      0 NMMIF=      0
                NMic=       0 NMicF=      0.
                    Isotopes and Nuclear Properties:
 (Nuclear quadrupole moments (NQMom) in fm**2, nuclear magnetic moments (NMagM)
  in nuclear magnetons)

  Atom         1           2           3           4           5           6           7           8           9          10
 IAtWgt=          16          12          14          12          12          12          12           1           1           1
 AtmWgt=  15.9949146  12.0000000  14.0030740  12.0000000  12.0000000  12.0000000  12.0000000   1.0078250   1.0078250   1.0078250
 NucSpn=           0           0           2           0           0           0           0           1           1           1
 AtZEff=  -0.0000000  -0.0000000  -0.0000000  -0.0000000  -0.0000000  -0.0000000  -0.0000000  -0.0000000  -0.0000000  -0.0000000
 NQMom=    0.0000000   0.0000000   2.0440000   0.0000000   0.0000000   0.0000000   0.0000000   0.0000000   0.0000000   0.0000000
 NMagM=    0.0000000   0.0000000   0.4037610   0.0000000   0.0000000   0.0000000   0.0000000   2.7928460   2.7928460   2.7928460
 AtZNuc=   8.0000000   6.0000000   7.0000000   6.0000000   6.0000000   6.0000000   6.0000000   1.0000000   1.0000000   1.0000000

  Atom        11          12          13          14          15          16          17          18          19          20
 IAtWgt=           1           1           1           1           1           1           1           1           1           1
 AtmWgt=   1.0078250   1.0078250   1.0078250   1.0078250   1.0078250   1.0078250   1.0078250   1.0078250   1.0078250   1.0078250
 NucSpn=           1           1           1           1           1           1           1           1           1           1
 AtZEff=  -0.0000000  -0.0000000  -0.0000000  -0.0000000  -0.0000000  -0.0000000  -0.0000000  -0.0000000  -0.0000000  -0.0000000
 NQMom=    0.0000000   0.0000000   0.0000000   0.0000000   0.0000000   0.0000000   0.0000000   0.0000000   0.0000000   0.0000000
 NMagM=    2.7928460   2.7928460   2.7928460   2.7928460   2.7928460   2.7928460   2.7928460   2.7928460   2.7928460   2.7928460
 AtZNuc=   1.0000000   1.0000000   1.0000000   1.0000000   1.0000000   1.0000000   1.0000000   1.0000000   1.0000000   1.0000000
 Leave Link  101 at Wed Oct 22 10:14:16 2025, MaxMem=  4294967296 cpu:               1.4 elap:               0.2
 (Enter /lrz/sys/applications/gaussian/g16.C.01/x86_64_legacy/exe/l202.exe)
                          Input orientation:                          
 ---------------------------------------------------------------------
 Center     Atomic      Atomic             Coordinates (Angstroms)
 Number     Number       Type             X           Y           Z
 ---------------------------------------------------------------------
      1          8           0        1.421739   -1.231680    0.061318
      2          6           0        0.858475   -0.027700   -0.444451
      3          7           0        1.596417    1.146247   -0.057061
      4          6           0       -0.620451    0.022306   -0.000466
      5          6           0       -0.727887    0.110671    1.527552
      6          6           0       -1.296457    1.241270   -0.637190
      7          6           0       -1.331244   -1.246373   -0.489612
      8          1           0        2.317020   -1.302056   -0.290387
      9          1           0        0.872474   -0.066396   -1.549609
     10          1           0        1.709176    1.154384    0.956962
     11          1           0        2.536383    1.095048   -0.447820
     12          1           0       -0.295657    1.046866    1.914921
     13          1           0       -1.784767    0.085894    1.836165
     14          1           0       -0.213694   -0.731399    2.014448
     15          1           0       -0.832743    2.179799   -0.303180
     16          1           0       -1.228755    1.203173   -1.736740
     17          1           0       -2.364062    1.269630   -0.367636
     18          1           0       -1.234777   -1.356562   -1.582190
     19          1           0       -0.918740   -2.150739   -0.020588
     20          1           0       -2.405315   -1.198976   -0.250463
 ---------------------------------------------------------------------
                    Distance matrix (angstroms):
                    1          2          3          4          5
     1  O    0.000000
     2  C    1.422194   0.000000
     3  N    2.387271   1.439716   0.000000
     4  C    2.397256   1.544942   2.486152   0.000000
     5  C    2.927907   2.534657   2.997633   1.534337   0.000000
     6  C    3.740586   2.508220   2.951999   1.532408   2.507515
     7  C    2.807607   2.506406   3.805644   1.534287   2.504907
     8  H    0.964457   1.942955   2.562791   3.235232   3.817350
     9  H    2.062684   1.105924   2.054823   2.153262   3.472957
    10  H    2.564781   2.021132   1.020306   2.761418   2.711860
    11  H    2.629699   2.018898   1.019240   3.364001   3.940375
    12  H    3.402509   2.837842   2.734691   2.196343   1.101516
    13  H    3.894581   3.492970   4.017594   2.175520   1.101295
    14  H    2.596081   2.773251   3.330646   2.189384   1.100247
    15  H    4.105330   2.784462   2.651344   2.188945   2.764754
    16  H    4.023262   2.746195   3.287272   2.186122   3.478510
    17  H    4.557723   3.474725   3.974553   2.175043   2.758984
    18  H    3.126306   2.728008   4.075013   2.186441   3.475659
    19  H    2.515794   2.800973   4.146982   2.193514   2.747205
    20  H    3.839872   3.473017   4.642341   2.177101   2.773135
                    6          7          8          9         10
     6  C    0.000000
     7  C    2.492259   0.000000
     8  H    4.432380   3.654124   0.000000
     9  H    2.691981   2.715200   2.280177   0.000000
    10  H    3.403337   4.135259   2.821250   2.910889   0.000000
    11  H    3.840300   4.521342   2.412263   2.309001   1.631320
    12  H    2.748211   3.480397   4.148120   3.821891   2.224545
    13  H    2.773234   2.718429   4.824239   4.306691   3.757966
    14  H    3.477784   2.790060   3.470220   3.784771   2.893421
    15  H    1.098831   3.467263   4.695155   3.083301   3.016751
    16  H    1.102291   2.750656   4.576093   2.462110   3.986207
    17  H    1.101474   2.722474   5.341541   3.695564   4.284753
    18  H    2.765061   1.102349   3.779813   2.471052   4.628067
    19  H    3.468226   1.099100   3.356069   3.144970   4.334211
    20  H    2.708122   1.101393   4.723629   3.703298   4.891341
                   11         12         13         14         15
    11  H    0.000000
    12  H    3.688539   0.000000
    13  H    4.990723   1.774012   0.000000
    14  H    4.118446   1.782933   1.779894   0.000000
    15  H    3.542402   2.547935   3.141271   3.772227   0.000000
    16  H    3.981114   3.772232   3.784589   4.341006   1.779247
    17  H    4.904209   3.088364   2.567791   3.781868   1.782554
    18  H    4.638840   4.346055   3.750776   3.790679   3.781977
    19  H    4.759783   3.789341   3.033160   2.579339   4.340601
    20  H    5.451777   3.766079   2.527842   3.186166   3.727182
                   16         17         18         19         20
    16  H    0.000000
    17  H    1.779827   0.000000
    18  H    2.564403   3.106012   0.000000
    19  H    3.780213   3.729386   1.780224   0.000000
    20  H    3.060005   2.471730   1.780025   1.780056   0.000000
 Stoichiometry    C5H13NO
 Framework group  C1[X(C5H13NO)]
 Deg. of freedom    54
 Full point group                 C1      NOp   1
 Largest Abelian subgroup         C1      NOp   1
 Largest concise Abelian subgroup C1      NOp   1
                         Standard orientation:                         
 ---------------------------------------------------------------------
 Center     Atomic      Atomic             Coordinates (Angstroms)
 Number     Number       Type             X           Y           Z
 ---------------------------------------------------------------------
      1          8           0       -1.421740    1.231680    0.061318
      2          6           0       -0.858475    0.027700   -0.444451
      3          7           0       -1.596417   -1.146247   -0.057061
      4          6           0        0.620451   -0.022306   -0.000466
      5          6           0        0.727887   -0.110671    1.527552
      6          6           0        1.296457   -1.241270   -0.637190
      7          6           0        1.331243    1.246373   -0.489612
      8          1           0       -2.317021    1.302055   -0.290387
      9          1           0       -0.872474    0.066396   -1.549609
     10          1           0       -1.709176   -1.154384    0.956962
     11          1           0       -2.536383   -1.095049   -0.447820
     12          1           0        0.295657   -1.046866    1.914921
     13          1           0        1.784767   -0.085894    1.836165
     14          1           0        0.213694    0.731399    2.014448
     15          1           0        0.832743   -2.179799   -0.303180
     16          1           0        1.228755   -1.203173   -1.736740
     17          1           0        2.364062   -1.269629   -0.367636
     18          1           0        1.234776    1.356562   -1.582190
     19          1           0        0.918739    2.150739   -0.020588
     20          1           0        2.405314    1.198977   -0.250463
 ---------------------------------------------------------------------
 Rotational constants (GHZ):           3.1477729           2.2656399           1.9008015
 Leave Link  202 at Wed Oct 22 10:14:16 2025, MaxMem=  4294967296 cpu:               0.1 elap:               0.0
 (Enter /lrz/sys/applications/gaussian/g16.C.01/x86_64_legacy/exe/l301.exe)
 Standard basis: def2TZVP (5D, 7F)
 Ernie: Thresh=  0.10000D-02 Tol=  0.10000D-05 Strict=F.
 There are   330 symmetry adapted cartesian basis functions of A   symmetry.
 There are   295 symmetry adapted basis functions of A   symmetry.
   295 basis functions,   461 primitive gaussians,   330 cartesian basis functions
    29 alpha electrons       29 beta electrons
       nuclear repulsion energy       350.8943020092 Hartrees.
 IExCor= 4639 DFT=T Ex+Corr=wB97XD ExCW=0 ScaHFX=  1.000000
 ScaDFX=  1.000000  1.000000  1.000000  1.000000 ScalE2=  1.000000  1.000000
 IRadAn=      5 IRanWt=     -1 IRanGd=            0 ICorTp=0 IEmpDi=121
 HFx  wShort=  0.000000 wLong=  0.200000 cFull=  0.222036 cShort=  0.000000 cLong=  0.777964
 DFx  wShort=  0.000000 wLong=  0.200000 cFull=  0.000000 cShort=  0.000000 cLong=  1.000000
 NAtoms=   20 NActive=   20 NUniq=   20 SFac= 1.00D+00 NAtFMM=   60 NAOKFM=F Big=F
 Integral buffers will be    131072 words long.
 Raffenetti 2 integral format.
 Two-electron integral symmetry is turned on.
 R6Disp:  Grimme-D2 Dispersion energy=       -0.0135842815 Hartrees.
 Nuclear repulsion after empirical dispersion term =      350.8807177276 Hartrees.
 ------------------------------------------------------------------------------
 Polarizable Continuum Model (PCM)
 =================================
 Model                : PCM.
 Atomic radii         : SMD-Coulomb.
 Polarization charges : Total charges.
 Charge compensation  : None.
 Solution method      : On-the-fly selection.
 Cavity type          : VdW (van der Waals Surface) (Alpha=1.000).
 Cavity algorithm     : GePol (No added spheres)
                        Default sphere list used, NSphG=   20.
                        Lebedev-Laikov grids with approx.  5.0 points / Ang**2.
                        Smoothing algorithm: York/Karplus (Gamma=1.0000).
                        Polarization charges: spherical gaussians, with
                                              point-specific exponents (IZeta= 3).
                        Self-potential: point-specific (ISelfS= 7).
                        Self-field    : sphere-specific E.n sum rule (ISelfD= 2).
 Solvent              : Water, Eps=  78.355300 Eps(inf)=   1.777849
 ------------------------------------------------------------------------------
 Spheres list:
 ISph  on   Nord     Re0    Alpha      Xe            Ye            Ze
    1   O      1    1.5200  1.000     -1.421740      1.231680      0.061318
    2   C      2    1.8500  1.000     -0.858475      0.027700     -0.444451
    3   N      3    1.8900  1.000     -1.596417     -1.146247     -0.057061
    4   C      4    1.8500  1.000      0.620451     -0.022306     -0.000466
    5   C      5    1.8500  1.000      0.727887     -0.110671      1.527552
    6   C      6    1.8500  1.000      1.296457     -1.241270     -0.637190
    7   C      7    1.8500  1.000      1.331243      1.246373     -0.489612
    8   H      8    1.2000  1.000     -2.317021      1.302055     -0.290387
    9   H      9    1.2000  1.000     -0.872474      0.066396     -1.549609
   10   H     10    1.2000  1.000     -1.709176     -1.154384      0.956962
   11   H     11    1.2000  1.000     -2.536383     -1.095049     -0.447820
   12   H     12    1.2000  1.000      0.295657     -1.046866      1.914921
   13   H     13    1.2000  1.000      1.784767     -0.085894      1.836165
   14   H     14    1.2000  1.000      0.213694      0.731399      2.014448
   15   H     15    1.2000  1.000      0.832743     -2.179799     -0.303180
   16   H     16    1.2000  1.000      1.228755     -1.203173     -1.736740
   17   H     17    1.2000  1.000      2.364062     -1.269629     -0.367636
   18   H     18    1.2000  1.000      1.234776      1.356562     -1.582190
   19   H     19    1.2000  1.000      0.918739      2.150739     -0.020588
   20   H     20    1.2000  1.000      2.405314      1.198977     -0.250463
 ------------------------------------------------------------------------------
 GePol: Number of generator spheres                  =      20
 GePol: Total number of spheres                      =      20
 GePol: Number of exposed spheres                    =      20 (100.00%)
 GePol: Number of points                             =    1317
 GePol: Average weight of points                     =       0.12
 GePol: Minimum weight of points                     =   0.35D-11
 GePol: Maximum weight of points                     =    0.21991
 GePol: Number of points with low weight             =      89
 GePol: Fraction of low-weight points (<1% of avg)   =       6.76%
 GePol: Cavity surface area                          =    151.918 Ang**2
 GePol: Cavity volume                                =    124.796 Ang**3
 ------------------------------------------------------------------------------
 Atomic radii for non-electrostatic terms: SMD-CDS.
 ------------------------------------------------------------------------------
 PCM non-electrostatic energy =         0.0047386979 Hartrees.
 Nuclear repulsion after PCM non-electrostatic terms =      350.8854564255 Hartrees.
 Leave Link  301 at Wed Oct 22 10:14:16 2025, MaxMem=  4294967296 cpu:               0.8 elap:               0.1
 (Enter /lrz/sys/applications/gaussian/g16.C.01/x86_64_legacy/exe/l302.exe)
 NPDir=0 NMtPBC=     1 NCelOv=     1 NCel=       1 NClECP=     1 NCelD=      1
         NCelK=      1 NCelE2=     1 NClLst=     1 CellRange=     0.0.
 One-electron integrals computed using PRISM.
 One-electron integral symmetry used in STVInt
   1 Symmetry operations used in ECPInt.
 ECPInt:  NShTT=    8385 NPrTT=   24064 LenC2=    8321 LenP2D=   19726.
 LDataN:  DoStor=T MaxTD1= 6 Len=  172
 NBasis=   295 RedAO= T EigKep=  1.65D-04  NBF=   295
 NBsUse=   295 1.00D-06 EigRej= -1.00D+00 NBFU=   295
 Precomputing XC quadrature grid using
 IXCGrd= 4 IRadAn=           5 IRanWt=          -1 IRanGd=           0 AccXCQ= 0.00D+00.
 Generated NRdTot=       0 NPtTot=           0 NUsed=           0 NTot=          32
 NSgBfM=   329   329   329   329   329 MxSgAt=    20 MxSgA2=    20.
 Leave Link  302 at Wed Oct 22 10:14:17 2025, MaxMem=  4294967296 cpu:               2.8 elap:               0.4
 (Enter /lrz/sys/applications/gaussian/g16.C.01/x86_64_legacy/exe/l303.exe)
 DipDrv:  MaxL=1.
 Leave Link  303 at Wed Oct 22 10:14:17 2025, MaxMem=  4294967296 cpu:               0.4 elap:               0.1
 (Enter /lrz/sys/applications/gaussian/g16.C.01/x86_64_legacy/exe/l401.exe)
 ExpMin= 9.52D-02 ExpMax= 2.70D+04 ExpMxC= 9.22D+02 IAcc=3 IRadAn=         5 AccDes= 0.00D+00
 Harris functional with IExCor= 4639 and IRadAn=       5 diagonalized for initial guess.
 HarFok:  IExCor= 4639 AccDes= 0.00D+00 IRadAn=         5 IDoV= 1 UseB2=F ITyADJ=14
 ICtDFT=  3500011 ScaDFX=  1.000000  1.000000  1.000000  1.000000
 FoFCou: FMM=F IPFlag=           0 FMFlag=      100000 FMFlg1=           0
         NFxFlg=           0 DoJE=T BraDBF=F KetDBF=T FulRan=T
         wScrn=  0.000000 ICntrl=       500 IOpCl=  0 I1Cent=   200000004 NGrid=           0
         NMat0=    1 NMatS0=      1 NMatT0=    0 NMatD0=    1 NMtDS0=    0 NMtDT0=    0
 Petite list used in FoFCou.
 Harris En= -313.565056849636    
 JPrj=0 DoOrth=F DoCkMO=F.
 Leave Link  401 at Wed Oct 22 10:14:20 2025, MaxMem=  4294967296 cpu:              22.5 elap:               2.8
 (Enter /lrz/sys/applications/gaussian/g16.C.01/x86_64_legacy/exe/l502.exe)
 Integral symmetry usage will be decided dynamically.
 Closed shell SCF:
 Using DIIS extrapolation, IDIIS=  1040.
 NGot=  4294967296 LenX=  4294743206 LenY=  4294633865
 Requested convergence on RMS density matrix=1.00D-08 within 128 cycles.
 Requested convergence on MAX density matrix=1.00D-06.
 Requested convergence on             energy=1.00D-06.
 No special actions if energy rises.
 Fock matrices will be formed incrementally for  20 cycles.

 Cycle   1  Pass 1  IDiag  1:
 FoFJK:  IHMeth= 1 ICntrl=       0 DoSepK=T KAlg= 0 I1Cent=           0 FoldK=F
 IRaf=         1 NMat=       1 IRICut=       1 DoRegI=T DoRafI=F ISym2E= 0 IDoP0=0 IntGTp=1.
 FoFCou: FMM=F IPFlag=           0 FMFlag=      100000 FMFlg1=           0
         NFxFlg=           0 DoJE=T BraDBF=F KetDBF=F FulRan=T
         wScrn=  0.000000 ICntrl=       500 IOpCl=  0 I1Cent=           0 NGrid=           0
         NMat0=    1 NMatS0=      1 NMatT0=    0 NMatD0=    1 NMtDS0=    0 NMtDT0=    0
 Symmetry not used in FoFCou.
 Inv3:  Mode=1 IEnd=     5203467.
 Iteration    1 A*A^-1 deviation from unit magnitude is 6.99D-15 for    952.
 Iteration    1 A*A^-1 deviation from orthogonality  is 4.46D-15 for   1249    460.
 Iteration    1 A^-1*A deviation from unit magnitude is 6.55D-15 for    952.
 Iteration    1 A^-1*A deviation from orthogonality  is 6.14D-14 for   1029    951.
 E= -328.286402976286    
 DIIS: error= 5.58D-02 at cycle   1 NSaved=   1.
 NSaved= 1 IEnMin= 1 EnMin= -328.286402976286     IErMin= 1 ErrMin= 5.58D-02
 ErrMax= 5.58D-02  0.00D+00 EMaxC= 1.00D-01 BMatC= 7.01D-01 BMatP= 7.01D-01
 IDIUse=3 WtCom= 4.42D-01 WtEn= 5.58D-01
 Coeff-Com:  0.100D+01
 Coeff-En:   0.100D+01
 Coeff:      0.100D+01
 Gap=     0.488 Goal=   None    Shift=    0.000
 GapD=    0.488 DampG=2.000 DampE=0.500 DampFc=1.0000 IDamp=-1.
 RMSDP=1.68D-03 MaxDP=7.12D-02              OVMax= 5.84D-02

 Cycle   2  Pass 1  IDiag  1:
 RMSU=  1.62D-03    CP:  9.52D-01
 E= -328.353872331213     Delta-E=       -0.067469354927 Rises=F Damp=F
 DIIS: error= 8.40D-03 at cycle   2 NSaved=   2.
 NSaved= 2 IEnMin= 2 EnMin= -328.353872331213     IErMin= 2 ErrMin= 8.40D-03
 ErrMax= 8.40D-03  0.00D+00 EMaxC= 1.00D-01 BMatC= 4.06D-02 BMatP= 7.01D-01
 IDIUse=3 WtCom= 9.16D-01 WtEn= 8.40D-02
 Coeff-Com:  0.126D+00 0.874D+00
 Coeff-En:   0.000D+00 0.100D+01
 Coeff:      0.115D+00 0.885D+00
 Gap=     0.464 Goal=   None    Shift=    0.000
 RMSDP=7.33D-04 MaxDP=3.08D-02 DE=-6.75D-02 OVMax= 4.70D-02

 Cycle   3  Pass 1  IDiag  1:
 RMSU=  5.88D-04    CP:  9.63D-01  7.36D-01
 E= -328.367697530006     Delta-E=       -0.013825198793 Rises=F Damp=F
 DIIS: error= 5.84D-03 at cycle   3 NSaved=   3.
 NSaved= 3 IEnMin= 3 EnMin= -328.367697530006     IErMin= 3 ErrMin= 5.84D-03
 ErrMax= 5.84D-03  0.00D+00 EMaxC= 1.00D-01 BMatC= 2.30D-02 BMatP= 4.06D-02
 IDIUse=3 WtCom= 9.42D-01 WtEn= 5.84D-02
 Coeff-Com:  0.245D-01 0.436D+00 0.539D+00
 Coeff-En:   0.000D+00 0.342D+00 0.658D+00
 Coeff:      0.231D-01 0.431D+00 0.546D+00
 Gap=     0.459 Goal=   None    Shift=    0.000
 RMSDP=3.75D-04 MaxDP=1.63D-02 DE=-1.38D-02 OVMax= 2.27D-02

 Cycle   4  Pass 1  IDiag  1:
 RMSU=  1.55D-04    CP:  9.55D-01  8.93D-01  6.26D-01
 E= -328.383992769015     Delta-E=       -0.016295239008 Rises=F Damp=F
 DIIS: error= 6.62D-04 at cycle   4 NSaved=   4.
 NSaved= 4 IEnMin= 4 EnMin= -328.383992769015     IErMin= 4 ErrMin= 6.62D-04
 ErrMax= 6.62D-04  0.00D+00 EMaxC= 1.00D-01 BMatC= 3.46D-04 BMatP= 2.30D-02
 IDIUse=3 WtCom= 9.93D-01 WtEn= 6.62D-03
 Coeff-Com:  0.959D-02 0.175D+00 0.244D+00 0.572D+00
 Coeff-En:   0.000D+00 0.000D+00 0.000D+00 0.100D+01
 Coeff:      0.953D-02 0.174D+00 0.242D+00 0.575D+00
 Gap=     0.446 Goal=   None    Shift=    0.000
 RMSDP=4.10D-05 MaxDP=1.94D-03 DE=-1.63D-02 OVMax= 2.69D-03

 Cycle   5  Pass 1  IDiag  1:
 RMSU=  3.56D-05    CP:  9.55D-01  8.96D-01  6.49D-01  9.10D-01
 E= -328.384229446681     Delta-E=       -0.000236677666 Rises=F Damp=F
 DIIS: error= 1.15D-04 at cycle   5 NSaved=   5.
 NSaved= 5 IEnMin= 5 EnMin= -328.384229446681     IErMin= 5 ErrMin= 1.15D-04
 ErrMax= 1.15D-04  0.00D+00 EMaxC= 1.00D-01 BMatC= 9.00D-06 BMatP= 3.46D-04
 IDIUse=3 WtCom= 9.99D-01 WtEn= 1.15D-03
 Coeff-Com: -0.172D-02-0.282D-01-0.274D-01 0.849D-01 0.972D+00
 Coeff-En:   0.000D+00 0.000D+00 0.000D+00 0.000D+00 0.100D+01
 Coeff:     -0.172D-02-0.281D-01-0.274D-01 0.848D-01 0.972D+00
 Gap=     0.446 Goal=   None    Shift=    0.000
 RMSDP=2.67D-05 MaxDP=1.01D-03 DE=-2.37D-04 OVMax= 8.31D-04

 Cycle   6  Pass 1  IDiag  1:
 RMSU=  1.00D-05    CP:  9.55D-01  9.04D-01  6.61D-01  1.03D+00  1.22D+00
 E= -328.384240433897     Delta-E=       -0.000010987216 Rises=F Damp=F
 DIIS: error= 2.70D-05 at cycle   6 NSaved=   6.
 NSaved= 6 IEnMin= 6 EnMin= -328.384240433897     IErMin= 6 ErrMin= 2.70D-05
 ErrMax= 2.70D-05  0.00D+00 EMaxC= 1.00D-01 BMatC= 5.34D-07 BMatP= 9.00D-06
 IDIUse=1 WtCom= 1.00D+00 WtEn= 0.00D+00
 Coeff-Com: -0.811D-03-0.132D-01-0.150D-01 0.714D-02 0.254D+00 0.768D+00
 Coeff:     -0.811D-03-0.132D-01-0.150D-01 0.714D-02 0.254D+00 0.768D+00
 Gap=     0.446 Goal=   None    Shift=    0.000
 RMSDP=5.86D-06 MaxDP=1.82D-04 DE=-1.10D-05 OVMax= 2.59D-04

 Cycle   7  Pass 1  IDiag  1:
 RMSU=  2.60D-06    CP:  9.55D-01  9.05D-01  6.63D-01  1.05D+00  1.30D+00
                    CP:  1.12D+00
 E= -328.384240999703     Delta-E=       -0.000000565806 Rises=F Damp=F
 DIIS: error= 1.14D-05 at cycle   7 NSaved=   7.
 NSaved= 7 IEnMin= 7 EnMin= -328.384240999703     IErMin= 7 ErrMin= 1.14D-05
 ErrMax= 1.14D-05  0.00D+00 EMaxC= 1.00D-01 BMatC= 8.72D-08 BMatP= 5.34D-07
 IDIUse=1 WtCom= 1.00D+00 WtEn= 0.00D+00
 Coeff-Com: -0.463D-04-0.119D-02-0.194D-02-0.744D-02-0.393D-01 0.257D+00
 Coeff-Com:  0.793D+00
 Coeff:     -0.463D-04-0.119D-02-0.194D-02-0.744D-02-0.393D-01 0.257D+00
 Coeff:      0.793D+00
 Gap=     0.446 Goal=   None    Shift=    0.000
 RMSDP=2.32D-06 MaxDP=7.86D-05 DE=-5.66D-07 OVMax= 8.88D-05

 Cycle   8  Pass 1  IDiag  1:
 RMSU=  8.76D-07    CP:  9.55D-01  9.05D-01  6.63D-01  1.06D+00  1.33D+00
                    CP:  1.26D+00  1.15D+00
 E= -328.384241094693     Delta-E=       -0.000000094990 Rises=F Damp=F
 DIIS: error= 2.32D-06 at cycle   8 NSaved=   8.
 NSaved= 8 IEnMin= 8 EnMin= -328.384241094693     IErMin= 8 ErrMin= 2.32D-06
 ErrMax= 2.32D-06  0.00D+00 EMaxC= 1.00D-01 BMatC= 3.71D-09 BMatP= 8.72D-08
 IDIUse=1 WtCom= 1.00D+00 WtEn= 0.00D+00
 Coeff-Com:  0.361D-04 0.553D-03 0.538D-03-0.204D-02-0.251D-01 0.145D-01
 Coeff-Com:  0.181D+00 0.831D+00
 Coeff:      0.361D-04 0.553D-03 0.538D-03-0.204D-02-0.251D-01 0.145D-01
 Coeff:      0.181D+00 0.831D+00
 Gap=     0.446 Goal=   None    Shift=    0.000
 RMSDP=6.55D-07 MaxDP=2.01D-05 DE=-9.50D-08 OVMax= 2.81D-05

 Cycle   9  Pass 1  IDiag  1:
 RMSU=  2.28D-07    CP:  9.55D-01  9.05D-01  6.63D-01  1.06D+00  1.34D+00
                    CP:  1.29D+00  1.26D+00  1.23D+00
 E= -328.384241099578     Delta-E=       -0.000000004885 Rises=F Damp=F
 DIIS: error= 7.79D-07 at cycle   9 NSaved=   9.
 NSaved= 9 IEnMin= 9 EnMin= -328.384241099578     IErMin= 9 ErrMin= 7.79D-07
 ErrMax= 7.79D-07  0.00D+00 EMaxC= 1.00D-01 BMatC= 5.77D-10 BMatP= 3.71D-09
 IDIUse=1 WtCom= 1.00D+00 WtEn= 0.00D+00
 Coeff-Com:  0.145D-04 0.280D-03 0.353D-03-0.446D-04-0.427D-02-0.187D-01
 Coeff-Com: -0.216D-01 0.263D+00 0.781D+00
 Coeff:      0.145D-04 0.280D-03 0.353D-03-0.446D-04-0.427D-02-0.187D-01
 Coeff:     -0.216D-01 0.263D+00 0.781D+00
 Gap=     0.446 Goal=   None    Shift=    0.000
 RMSDP=2.22D-07 MaxDP=8.25D-06 DE=-4.89D-09 OVMax= 1.24D-05

 Cycle  10  Pass 1  IDiag  1:
 RMSU=  7.25D-08    CP:  9.55D-01  9.05D-01  6.63D-01  1.06D+00  1.34D+00
                    CP:  1.30D+00  1.30D+00  1.36D+00  1.17D+00
 E= -328.384241100320     Delta-E=       -0.000000000742 Rises=F Damp=F
 DIIS: error= 2.70D-07 at cycle  10 NSaved=  10.
 NSaved=10 IEnMin=10 EnMin= -328.384241100320     IErMin=10 ErrMin= 2.70D-07
 ErrMax= 2.70D-07  0.00D+00 EMaxC= 1.00D-01 BMatC= 4.96D-11 BMatP= 5.77D-10
 IDIUse=1 WtCom= 1.00D+00 WtEn= 0.00D+00
 Coeff-Com: -0.165D-05-0.141D-04 0.896D-05 0.288D-03 0.277D-02-0.607D-02
 Coeff-Com: -0.327D-01-0.558D-01 0.177D+00 0.914D+00
 Coeff:     -0.165D-05-0.141D-04 0.896D-05 0.288D-03 0.277D-02-0.607D-02
 Coeff:     -0.327D-01-0.558D-01 0.177D+00 0.914D+00
 Gap=     0.446 Goal=   None    Shift=    0.000
 RMSDP=9.25D-08 MaxDP=3.62D-06 DE=-7.42D-10 OVMax= 4.61D-06

 Cycle  11  Pass 1  IDiag  1:
 RMSU=  2.72D-08    CP:  9.55D-01  9.05D-01  6.63D-01  1.06D+00  1.34D+00
                    CP:  1.31D+00  1.31D+00  1.42D+00  1.33D+00  1.27D+00
 E= -328.384241100397     Delta-E=       -0.000000000077 Rises=F Damp=F
 DIIS: error= 3.66D-08 at cycle  11 NSaved=  11.
 NSaved=11 IEnMin=11 EnMin= -328.384241100397     IErMin=11 ErrMin= 3.66D-08
 ErrMax= 3.66D-08  0.00D+00 EMaxC= 1.00D-01 BMatC= 1.04D-12 BMatP= 4.96D-11
 IDIUse=1 WtCom= 1.00D+00 WtEn= 0.00D+00
 Coeff-Com: -0.201D-06-0.722D-05-0.128D-04-0.883D-05-0.194D-03 0.132D-02
 Coeff-Com:  0.439D-02-0.402D-02-0.527D-01-0.984D-01 0.115D+01
 Coeff:     -0.201D-06-0.722D-05-0.128D-04-0.883D-05-0.194D-03 0.132D-02
 Coeff:      0.439D-02-0.402D-02-0.527D-01-0.984D-01 0.115D+01
 Gap=     0.446 Goal=   None    Shift=    0.000
 RMSDP=2.04D-08 MaxDP=9.08D-07 DE=-7.72D-11 OVMax= 1.18D-06

 Cycle  12  Pass 1  IDiag  1:
 RMSU=  5.98D-09    CP:  9.55D-01  9.05D-01  6.63D-01  1.06D+00  1.34D+00
                    CP:  1.31D+00  1.31D+00  1.43D+00  1.37D+00  1.42D+00
                    CP:  1.38D+00
 E= -328.384241100407     Delta-E=       -0.000000000009 Rises=F Damp=F
 DIIS: error= 9.74D-09 at cycle  12 NSaved=  12.
 NSaved=12 IEnMin=12 EnMin= -328.384241100407     IErMin=12 ErrMin= 9.74D-09
 ErrMax= 9.74D-09  0.00D+00 EMaxC= 1.00D-01 BMatC= 6.72D-14 BMatP= 1.04D-12
 IDIUse=1 WtCom= 1.00D+00 WtEn= 0.00D+00
 Coeff-Com:  0.369D-07-0.279D-06-0.181D-05-0.139D-04-0.148D-03 0.395D-03
 Coeff-Com:  0.203D-02 0.241D-02-0.130D-01-0.558D-01 0.128D+00 0.936D+00
 Coeff:      0.369D-07-0.279D-06-0.181D-05-0.139D-04-0.148D-03 0.395D-03
 Coeff:      0.203D-02 0.241D-02-0.130D-01-0.558D-01 0.128D+00 0.936D+00
 Gap=     0.446 Goal=   None    Shift=    0.000
 RMSDP=4.05D-09 MaxDP=1.50D-07 DE=-9.44D-12 OVMax= 1.95D-07

 Error on total polarization charges =  0.04653
 SCF Done:  E(RwB97XD) =  -328.384241100     A.U. after   12 cycles
            NFock= 12  Conv=0.41D-08     -V/T= 2.0057
 KE= 3.265361194717D+02 PE=-1.467140539964D+03 EE= 4.613347229666D+02
 SMD-CDS (non-electrostatic) energy       (kcal/mol) =       2.97
 (included in total energy above)
 Leave Link  502 at Wed Oct 22 10:16:53 2025, MaxMem=  4294967296 cpu:            1227.0 elap:             153.6
 (Enter /lrz/sys/applications/gaussian/g16.C.01/x86_64_legacy/exe/l601.exe)
 Copying SCF densities to generalized density rwf, IOpCl= 0 IROHF=0.

 **********************************************************************

            Population analysis using the SCF Density.

 **********************************************************************

 Orbital symmetries:
       Occupied  (A) (A) (A) (A) (A) (A) (A) (A) (A) (A) (A) (A)
                 (A) (A) (A) (A) (A) (A) (A) (A) (A) (A) (A) (A)
                 (A) (A) (A) (A) (A)
       Virtual   (A) (A) (A) (A) (A) (A) (A) (A) (A) (A) (A) (A)
                 (A) (A) (A) (A) (A) (A) (A) (A) (A) (A) (A) (A)
                 (A) (A) (A) (A) (A) (A) (A) (A) (A) (A) (A) (A)
                 (A) (A) (A) (A) (A) (A) (A) (A) (A) (A) (A) (A)
                 (A) (A) (A) (A) (A) (A) (A) (A) (A) (A) (A) (A)
                 (A) (A) (A) (A) (A) (A) (A) (A) (A) (A) (A) (A)
                 (A) (A) (A) (A) (A) (A) (A) (A) (A) (A) (A) (A)
                 (A) (A) (A) (A) (A) (A) (A) (A) (A) (A) (A) (A)
                 (A) (A) (A) (A) (A) (A) (A) (A) (A) (A) (A) (A)
                 (A) (A) (A) (A) (A) (A) (A) (A) (A) (A) (A) (A)
                 (A) (A) (A) (A) (A) (A) (A) (A) (A) (A) (A) (A)
                 (A) (A) (A) (A) (A) (A) (A) (A) (A) (A) (A) (A)
                 (A) (A) (A) (A) (A) (A) (A) (A) (A) (A) (A) (A)
                 (A) (A) (A) (A) (A) (A) (A) (A) (A) (A) (A) (A)
                 (A) (A) (A) (A) (A) (A) (A) (A) (A) (A) (A) (A)
                 (A) (A) (A) (A) (A) (A) (A) (A) (A) (A) (A) (A)
                 (A) (A) (A) (A) (A) (A) (A) (A) (A) (A) (A) (A)
                 (A) (A) (A) (A) (A) (A) (A) (A) (A) (A) (A) (A)
                 (A) (A) (A) (A) (A) (A) (A) (A) (A) (A) (A) (A)
                 (A) (A) (A) (A) (A) (A) (A) (A) (A) (A) (A) (A)
                 (A) (A) (A) (A) (A) (A) (A) (A) (A) (A) (A) (A)
                 (A) (A) (A) (A) (A) (A) (A) (A) (A) (A) (A) (A)
                 (A) (A)
 The electronic state is 1-A.
 Alpha  occ. eigenvalues --  -19.24530 -14.40899 -10.34849 -10.28874 -10.26196
 Alpha  occ. eigenvalues --  -10.26085 -10.26056  -1.12982  -0.97333  -0.90258
 Alpha  occ. eigenvalues --   -0.77406  -0.77031  -0.74314  -0.62526  -0.60858
 Alpha  occ. eigenvalues --   -0.57309  -0.54585  -0.51914  -0.50314  -0.49026
 Alpha  occ. eigenvalues --   -0.47383  -0.45534  -0.45062  -0.43557  -0.40170
 Alpha  occ. eigenvalues --   -0.39922  -0.39250  -0.37586  -0.33557
 Alpha virt. eigenvalues --    0.11055   0.13951   0.15046   0.16283   0.17017
 Alpha virt. eigenvalues --    0.17681   0.18282   0.20244   0.21213   0.21968
 Alpha virt. eigenvalues --    0.22969   0.23807   0.24358   0.24704   0.25114
 Alpha virt. eigenvalues --    0.25616   0.27504   0.28769   0.31636   0.31847
 Alpha virt. eigenvalues --    0.34404   0.34893   0.35687   0.38255   0.39208
 Alpha virt. eigenvalues --    0.40731   0.42653   0.43788   0.43938   0.45327
 Alpha virt. eigenvalues --    0.46082   0.47553   0.49012   0.49768   0.50831
 Alpha virt. eigenvalues --    0.51417   0.52979   0.53372   0.54302   0.54515
 Alpha virt. eigenvalues --    0.55305   0.56461   0.56743   0.57308   0.57465
 Alpha virt. eigenvalues --    0.58533   0.60625   0.61489   0.62261   0.64608
 Alpha virt. eigenvalues --    0.65260   0.68111   0.68936   0.71972   0.75451
 Alpha virt. eigenvalues --    0.76362   0.80195   0.80397   0.81867   0.85390
 Alpha virt. eigenvalues --    0.87949   0.91601   0.92665   0.95097   0.96994
 Alpha virt. eigenvalues --    0.97694   0.99814   1.01866   1.07144   1.08491
 Alpha virt. eigenvalues --    1.10168   1.11265   1.13075   1.15461   1.19607
 Alpha virt. eigenvalues --    1.21099   1.21942   1.23057   1.24380   1.27249
 Alpha virt. eigenvalues --    1.32891   1.34494   1.36527   1.38006   1.38431
 Alpha virt. eigenvalues --    1.39829   1.45230   1.47879   1.50918   1.53152
 Alpha virt. eigenvalues --    1.55314   1.58441   1.63280   1.64093   1.64953
 Alpha virt. eigenvalues --    1.66136   1.68050   1.69086   1.69769   1.70693
 Alpha virt. eigenvalues --    1.72240   1.72391   1.73171   1.74460   1.74556
 Alpha virt. eigenvalues --    1.77705   1.82655   1.85868   1.87821   1.89683
 Alpha virt. eigenvalues --    1.92105   1.95384   1.98569   2.00204   2.00519
 Alpha virt. eigenvalues --    2.01723   2.02666   2.04208   2.09162   2.10242
 Alpha virt. eigenvalues --    2.10727   2.14692   2.17900   2.19164   2.21626
 Alpha virt. eigenvalues --    2.23386   2.26229   2.27263   2.29132   2.30271
 Alpha virt. eigenvalues --    2.34734   2.36255   2.36653   2.38796   2.41461
 Alpha virt. eigenvalues --    2.42500   2.44590   2.45376   2.46643   2.47017
 Alpha virt. eigenvalues --    2.49450   2.52923   2.53982   2.56267   2.57171
 Alpha virt. eigenvalues --    2.59586   2.60652   2.63458   2.64876   2.65156
 Alpha virt. eigenvalues --    2.67276   2.68417   2.71143   2.71505   2.72179
 Alpha virt. eigenvalues --    2.73466   2.75740   2.76918   2.81773   2.83889
 Alpha virt. eigenvalues --    2.85418   2.87808   2.88929   2.91212   2.91866
 Alpha virt. eigenvalues --    2.92909   2.98501   2.99659   3.03456   3.05772
 Alpha virt. eigenvalues --    3.11772   3.14823   3.17951   3.19377   3.20203
 Alpha virt. eigenvalues --    3.22750   3.23835   3.26399   3.27909   3.30211
 Alpha virt. eigenvalues --    3.32204   3.34367   3.38257   3.39592   3.41968
 Alpha virt. eigenvalues --    3.42270   3.43484   3.43951   3.45151   3.46871
 Alpha virt. eigenvalues --    3.48908   3.49524   3.50624   3.52315   3.54155
 Alpha virt. eigenvalues --    3.59811   3.60598   3.68824   3.71601   3.73885
 Alpha virt. eigenvalues --    3.74634   3.77957   3.81745   3.81994   3.83828
 Alpha virt. eigenvalues --    3.86417   3.89962   3.95625   4.02779   4.12195
 Alpha virt. eigenvalues --    4.13696   4.14580   4.18241   4.20719   4.21209
 Alpha virt. eigenvalues --    4.22690   4.27606   4.28974   4.31551   4.33990
 Alpha virt. eigenvalues --    4.39122   4.43374   4.45916   4.48465   4.51102
 Alpha virt. eigenvalues --    4.51756   4.53261   4.55790   4.57148   4.72237
 Alpha virt. eigenvalues --    4.75969   4.79252   4.81848   4.83736   4.93954
 Alpha virt. eigenvalues --    4.96137   4.98885   5.02789   5.04542   5.07138
 Alpha virt. eigenvalues --    5.10249   5.18102   5.25172   5.35856   5.38743
 Alpha virt. eigenvalues --    5.44393   5.50707   5.61189   5.69059   5.88487
 Alpha virt. eigenvalues --    5.89046   5.91928   6.08916   6.40965   6.61828
 Alpha virt. eigenvalues --    6.81758   6.90793   7.10930   7.29992  22.50112
 Alpha virt. eigenvalues --   22.52659  22.53237  22.74074  22.80329  32.11410
 Alpha virt. eigenvalues --   44.05381
          Condensed to atoms (all electrons):
               1          2          3          4          5          6
     1  O    8.144074   0.334105  -0.101160  -0.080002  -0.021280   0.002952
     2  C    0.334105   4.758324   0.327871   0.249846  -0.029018  -0.048437
     3  N   -0.101160   0.327871   6.711927  -0.021884  -0.005449  -0.024554
     4  C   -0.080002   0.249846  -0.021884   5.083669   0.307091   0.306941
     5  C   -0.021280  -0.029018  -0.005449   0.307091   5.128828  -0.062325
     6  C    0.002952  -0.048437  -0.024554   0.306941  -0.062325   5.120175
     7  C    0.000031  -0.072949   0.007110   0.322964  -0.062812  -0.067045
     8  H    0.306854  -0.037063   0.007565   0.010962   0.000975  -0.000434
     9  H   -0.051998   0.469302  -0.053563  -0.053645   0.005684  -0.006494
    10  H    0.003335  -0.014268   0.355494  -0.016823   0.001904   0.000722
    11  H   -0.000637  -0.045391   0.377765   0.009728  -0.000254   0.000398
    12  H    0.000702  -0.010857   0.002346  -0.029818   0.410395  -0.010820
    13  H   -0.000130   0.010229  -0.000125  -0.033519   0.415310  -0.007840
    14  H    0.012930  -0.002574  -0.001663  -0.040448   0.405431   0.011498
    15  H    0.000567  -0.013495   0.017385  -0.031064  -0.007026   0.404431
    16  H    0.000016  -0.005568   0.000314  -0.032974   0.011413   0.402731
    17  H   -0.000112   0.011604   0.001058  -0.034481  -0.008892   0.409534
    18  H   -0.000751  -0.005230   0.000020  -0.032537   0.011289  -0.007868
    19  H    0.009565  -0.011668   0.000439  -0.033100  -0.006105   0.011566
    20  H    0.000591   0.013365  -0.000163  -0.039298  -0.009460  -0.009130
               7          8          9         10         11         12
     1  O    0.000031   0.306854  -0.051998   0.003335  -0.000637   0.000702
     2  C   -0.072949  -0.037063   0.469302  -0.014268  -0.045391  -0.010857
     3  N    0.007110   0.007565  -0.053563   0.355494   0.377765   0.002346
     4  C    0.322964   0.010962  -0.053645  -0.016823   0.009728  -0.029818
     5  C   -0.062812   0.000975   0.005684   0.001904  -0.000254   0.410395
     6  C   -0.067045  -0.000434  -0.006494   0.000722   0.000398  -0.010820
     7  C    5.099345  -0.000554  -0.009896  -0.000156  -0.000553   0.011334
     8  H   -0.000554   0.351653  -0.006808  -0.000343   0.004835  -0.000147
     9  H   -0.009896  -0.006808   0.586745   0.008091  -0.007358  -0.000203
    10  H   -0.000156  -0.000343   0.008091   0.433851  -0.025839  -0.001765
    11  H   -0.000553   0.004835  -0.007358  -0.025839   0.425228  -0.000144
    12  H    0.011334  -0.000147  -0.000203  -0.001765  -0.000144   0.531289
    13  H   -0.008440   0.000046  -0.000150   0.000114   0.000026  -0.021777
    14  H   -0.007919  -0.000790   0.000905   0.001364  -0.000145  -0.021834
    15  H    0.011669  -0.000065   0.000064  -0.000074  -0.000504   0.003569
    16  H   -0.006596  -0.000041   0.004776   0.000069  -0.000152  -0.000002
    17  H   -0.010062   0.000018  -0.000388  -0.000125   0.000041  -0.000094
    18  H    0.404581  -0.000114   0.004732   0.000034  -0.000019  -0.000358
    19  H    0.409828  -0.000457   0.000561   0.000039  -0.000045  -0.000089
    20  H    0.415932   0.000052  -0.000436  -0.000022   0.000019  -0.000027
              13         14         15         16         17         18
     1  O   -0.000130   0.012930   0.000567   0.000016  -0.000112  -0.000751
     2  C    0.010229  -0.002574  -0.013495  -0.005568   0.011604  -0.005230
     3  N   -0.000125  -0.001663   0.017385   0.000314   0.001058   0.000020
     4  C   -0.033519  -0.040448  -0.031064  -0.032974  -0.034481  -0.032537
     5  C    0.415310   0.405431  -0.007026   0.011413  -0.008892   0.011289
     6  C   -0.007840   0.011498   0.404431   0.402731   0.409534  -0.007868
     7  C   -0.008440  -0.007919   0.011669  -0.006596  -0.010062   0.404581
     8  H    0.000046  -0.000790  -0.000065  -0.000041   0.000018  -0.000114
     9  H   -0.000150   0.000905   0.000064   0.004776  -0.000388   0.004732
    10  H    0.000114   0.001364  -0.000074   0.000069  -0.000125   0.000034
    11  H    0.000026  -0.000145  -0.000504  -0.000152   0.000041  -0.000019
    12  H   -0.021777  -0.021834   0.003569  -0.000002  -0.000094  -0.000358
    13  H    0.522226  -0.021134  -0.000452  -0.000084   0.002815   0.000048
    14  H   -0.021134   0.527135  -0.000065  -0.000294  -0.000088  -0.000065
    15  H   -0.000452  -0.000065   0.532277  -0.020919  -0.019582  -0.000176
    16  H   -0.000084  -0.000294  -0.020919   0.535371  -0.021286   0.003014
    17  H    0.002815  -0.000088  -0.019582  -0.021286   0.530580  -0.000144
    18  H    0.000048  -0.000065  -0.000176   0.003014  -0.000144   0.534226
    19  H   -0.000660   0.003345  -0.000409  -0.000141  -0.000132  -0.021245
    20  H    0.002903  -0.000436  -0.000112  -0.000349   0.002395  -0.021742
              19         20
     1  O    0.009565   0.000591
     2  C   -0.011668   0.013365
     3  N    0.000439  -0.000163
     4  C   -0.033100  -0.039298
     5  C   -0.006105  -0.009460
     6  C    0.011566  -0.009130
     7  C    0.409828   0.415932
     8  H   -0.000457   0.000052
     9  H    0.000561  -0.000436
    10  H    0.000039  -0.000022
    11  H   -0.000045   0.000019
    12  H   -0.000089  -0.000027
    13  H   -0.000660   0.002903
    14  H    0.003345  -0.000436
    15  H   -0.000409  -0.000112
    16  H   -0.000141  -0.000349
    17  H   -0.000132   0.002395
    18  H   -0.021245  -0.021742
    19  H    0.527937  -0.020792
    20  H   -0.020792   0.530047
 Mulliken charges:
               1
     1  O   -0.559653
     2  C    0.121871
     3  N   -0.600733
     4  C    0.188393
     5  C   -0.485699
     6  C   -0.426004
     7  C   -0.435810
     8  H    0.363858
     9  H    0.110080
    10  H    0.254400
    11  H    0.263001
    12  H    0.138300
    13  H    0.140595
    14  H    0.134845
    15  H    0.123980
    16  H    0.130701
    17  H    0.137340
    18  H    0.132306
    19  H    0.131565
    20  H    0.136662
 Sum of Mulliken charges =  -0.00000
 Mulliken charges with hydrogens summed into heavy atoms:
               1
     1  O   -0.195795
     2  C    0.231951
     3  N   -0.083331
     4  C    0.188393
     5  C   -0.071959
     6  C   -0.033983
     7  C   -0.035276
 Electronic spatial extent (au):  <R**2>=            815.1396
 Charge=             -0.0000 electrons
 Dipole moment (field-independent basis, Debye):
    X=             -2.1130    Y=             -0.1161    Z=             -0.6829  Tot=              2.2236
 Quadrupole moment (field-independent basis, Debye-Ang):
   XX=            -35.9867   YY=            -52.2530   ZZ=            -44.7551
   XY=             -0.4644   XZ=              2.0618   YZ=             -2.6544
 Traceless Quadrupole moment (field-independent basis, Debye-Ang):
   XX=              8.3449   YY=             -7.9214   ZZ=             -0.4235
   XY=             -0.4644   XZ=              2.0618   YZ=             -2.6544
 Octapole moment (field-independent basis, Debye-Ang**2):
  XXX=            -41.5479  YYY=              7.0885  ZZZ=             -3.3017  XYY=             -3.5379
  XXY=              3.3052  XXZ=             -4.0211  XZZ=             -7.4881  YZZ=             -0.0892
  YYZ=              2.5663  XYZ=              4.1122
 Hexadecapole moment (field-independent basis, Debye-Ang**3):
 XXXX=           -397.6026 YYYY=           -366.6808 ZZZZ=           -241.0398 XXXY=            -11.7539
 XXXZ=             21.8483 YYYX=            -12.6617 YYYZ=             -6.4194 ZZZX=             -1.8669
 ZZZY=             -3.5919 XXYY=           -136.5673 XXZZ=           -120.1965 YYZZ=            -97.5683
 XXYZ=             -7.0828 YYXZ=              0.9198 ZZXY=              1.5334
 N-N= 3.508854564255D+02 E-N=-1.467140540204D+03  KE= 3.265361194717D+02
 No NMR shielding tensors so no spin-rotation constants.
 Leave Link  601 at Wed Oct 22 10:16:53 2025, MaxMem=  4294967296 cpu:               1.4 elap:               0.2
 (Enter /lrz/sys/applications/gaussian/g16.C.01/x86_64_legacy/exe/l9999.exe)
 Unable to Open any file for archive entry.
 1\1\GINC-CM4R15C05S03\SP\RwB97XD\def2TZVP\C5H13N1O1\GO29TIZ2\22-Oct-20
 25\0\\#p wb97xd scrf=(smd,solvent=water) def2tzvp\\g16_g16_C4-a_4\\0,1
 \O,0,1.421739,-1.23168,0.061318\C,0,0.858475,-0.0277,-0.444451\N,0,1.5
 96417,1.146247,-0.057061\C,0,-0.620451,0.022306,-0.000466\C,0,-0.72788
 7,0.110671,1.527552\C,0,-1.296457,1.24127,-0.63719\C,0,-1.331244,-1.24
 6373,-0.489612\H,0,2.31702,-1.302056,-0.290387\H,0,0.872474,-0.066396,
 -1.549609\H,0,1.709176,1.154384,0.956962\H,0,2.536383,1.095048,-0.4478
 2\H,0,-0.295657,1.046866,1.914921\H,0,-1.784767,0.085894,1.836165\H,0,
 -0.213694,-0.731399,2.014448\H,0,-0.832743,2.179799,-0.30318\H,0,-1.22
 8755,1.203173,-1.73674\H,0,-2.364062,1.26963,-0.367636\H,0,-1.234777,-
 1.356562,-1.58219\H,0,-0.91874,-2.150739,-0.020588\H,0,-2.405315,-1.19
 8976,-0.250463\\Version=EM64L-G16RevC.01\State=1-A\HF=-328.3842411\RMS
 D=4.052e-09\Dipole=0.8313101,0.0456687,-0.2686918\Quadrupole=6.2042144
 ,-5.8893432,-0.3148711,-0.3452757,-1.532893,1.9735113\PG=C01 [X(C5H13N
 1O1)]\\@
 The archive entry for this job was punched.


 I MET A TRAVELLER FROM AN ANTIQUE LAND
 WHO SAID... TWO VAST AND TRUNKLESS LEGS OF STONE
 STAND IN THE DESERT..... NEAR THEM,  ON THE SAND,
 HALF SUNK,  A SHATTERED VISAGE LIES,  WHOSE FROWN,
 AND WRINKLED LIP,  AND SNEER OF COLD COMMAND
 TELL THAT ITS SCULPTOR WELL THOSE PASSIONS READ
 WHICH YET SURVIVE,  STAMPED ON THESE LIFELESS THINGS
 THE HAND THAT MOCKED THEM,  AND THE HEART THAT FED-
 AND ON THE PEDESTAL THESE WORDS APPEAR 
 MY NAME IS OZYMANDIAS, KING OF KINGS--   
 LOOK ON MY WORKS YE MIGHTY AND DESPAIR. 
 NOTHING BESIDE REMAINS,  ROUND THE DECAY 
 OF THAT COLOSSAL WRECK,  BOUNDLESS AND BARE
 THE LONE AND LEVEL SANDS STRETCH FAR AWAY.
                                    SHELLEY
 Job cpu time:       0 days  0 hours 21 minutes  0.8 seconds.
 Elapsed time:       0 days  0 hours  2 minutes 38.1 seconds.
 File lengths (MBytes):  RWF=    320 Int=      0 D2E=      0 Chk=     12 Scr=     32
 Normal termination of Gaussian 16 at Wed Oct 22 10:16:54 2025.
