 Entering Gaussian System, Link 0=g16
 Input=../../g16_g16_C2-a_5.com
 Output=../../g16_g16_C2-a_5.log
 Initial command:
 /lrz/sys/applications/gaussian/g16.C.01/x86_64_legacy/exe/l1.exe "/dss/lxclscratch/0D/go29tiz2/Gau-14873.inp" -scrdir="/dss/lxclscratch/0D/go29tiz2/"
 Entering Link 1 = /lrz/sys/applications/gaussian/g16.C.01/x86_64_legacy/exe/l1.exe PID=     14874.
  
 Copyright (c) 1988-2019, Gaussian, Inc.  All Rights Reserved.
  
 This is part of the Gaussian(R) 16 program.  It is based on
 the Gaussian(R) 09 system (copyright 2009, Gaussian, Inc.),
 the Gaussian(R) 03 system (copyright 2003, Gaussian, Inc.),
 the Gaussian(R) 98 system (copyright 1998, Gaussian, Inc.),
 the Gaussian(R) 94 system (copyright 1995, Gaussian, Inc.),
 the Gaussian 92(TM) system (copyright 1992, Gaussian, Inc.),
 the Gaussian 90(TM) system (copyright 1990, Gaussian, Inc.),
 the Gaussian 88(TM) system (copyright 1988, Gaussian, Inc.),
 the Gaussian 86(TM) system (copyright 1986, Carnegie Mellon
 University), and the Gaussian 82(TM) system (copyright 1983,
 Carnegie Mellon University). Gaussian is a federally registered
 trademark of Gaussian, Inc.
  
 This software contains proprietary and confidential information,
 including trade secrets, belonging to Gaussian, Inc.
  
 This software is provided under written license and may be
 used, copied, transmitted, or stored only in accord with that
 written license.
  
 The following legend is applicable only to US Government
 contracts under FAR:
  
                    RESTRICTED RIGHTS LEGEND
  
 Use, reproduction and disclosure by the US Government is
 subject to restrictions as set forth in subparagraphs (a)
 and (c) of the Commercial Computer Software - Restricted
 Rights clause in FAR 52.227-19.
  
 Gaussian, Inc.
 340 Quinnipiac St., Bldg. 40, Wallingford CT 06492
  
  
 ---------------------------------------------------------------
 Warning -- This program may not be used in any manner that
 competes with the business of Gaussian, Inc. or will provide
 assistance to any competitor of Gaussian, Inc.  The licensee
 of this program is prohibited from giving any competitor of
 Gaussian, Inc. access to this program.  By using this program,
 the user acknowledges that Gaussian, Inc. is engaged in the
 business of creating and licensing software in the field of
 computational chemistry and represents and warrants to the
 licensee that it is not a competitor of Gaussian, Inc. and that
 it will not use this program in any manner prohibited above.
 ---------------------------------------------------------------
  

 Cite this work as:
 Gaussian 16, Revision C.01,
 M. J. Frisch, G. W. Trucks, H. B. Schlegel, G. E. Scuseria, 
 M. A. Robb, J. R. Cheeseman, G. Scalmani, V. Barone, 
 G. A. Petersson, H. Nakatsuji, X. Li, M. Caricato, A. V. Marenich, 
 J. Bloino, B. G. Janesko, R. Gomperts, B. Mennucci, H. P. Hratchian, 
 J. V. Ortiz, A. F. Izmaylov, J. L. Sonnenberg, D. Williams-Young, 
 F. Ding, F. Lipparini, F. Egidi, J. Goings, B. Peng, A. Petrone, 
 T. Henderson, D. Ranasinghe, V. G. Zakrzewski, J. Gao, N. Rega, 
 G. Zheng, W. Liang, M. Hada, M. Ehara, K. Toyota, R. Fukuda, 
 J. Hasegawa, M. Ishida, T. Nakajima, Y. Honda, O. Kitao, H. Nakai, 
 T. Vreven, K. Throssell, J. A. Montgomery, Jr., J. E. Peralta, 
 F. Ogliaro, M. J. Bearpark, J. J. Heyd, E. N. Brothers, K. N. Kudin, 
 V. N. Staroverov, T. A. Keith, R. Kobayashi, J. Normand, 
 K. Raghavachari, A. P. Rendell, J. C. Burant, S. S. Iyengar, 
 J. Tomasi, M. Cossi, J. M. Millam, M. Klene, C. Adamo, R. Cammi, 
 J. W. Ochterski, R. L. Martin, K. Morokuma, O. Farkas, 
 J. B. Foresman, and D. J. Fox, Gaussian, Inc., Wallingford CT, 2019.
 
 ******************************************
 Gaussian 16:  EM64L-G16RevC.01  3-Jul-2019
                22-Oct-2025 
 ******************************************
 %chk=g16_g16_C2-a_5.chk
 %nprocshared=8
 Will use up to    8 processors via shared memory.
 %mem=32GB
 -------------------------------------------
 #p wb97xd scrf=(smd,solvent=water) def2tzvp
 -------------------------------------------
 1/38=1,172=1/1;
 2/12=2,17=6,18=5,40=1/2;
 3/5=44,7=101,11=2,25=1,30=1,70=32201,72=1,74=-58/1,2,3;
 4//1;
 5/5=2,38=5,53=1/2;
 6/7=2,8=2,9=2,10=2,28=1/1;
 99/5=1,9=1/99;
 Leave Link    1 at Wed Oct 22 10:08:00 2025, MaxMem=  4294967296 cpu:               4.3 elap:               0.6
 (Enter /lrz/sys/applications/gaussian/g16.C.01/x86_64_legacy/exe/l101.exe)
 --------------
 g16_g16_C2-a_5
 --------------
 Symbolic Z-matrix:
 Charge =  0 Multiplicity = 1
 O                    -0.61704   1.32041  -0.23112 
 C                    -0.52111   0.01107   0.32856 
 N                    -1.71288  -0.73104   0.04474 
 C                     0.70433  -0.72414  -0.2031 
 C                     2.02079  -0.00996   0.07069 
 H                     0.08206   1.86723   0.14748 
 H                    -0.43265   0.10889   1.42672 
 H                    -1.8147   -0.81619  -0.96776 
 H                    -2.52119  -0.20068   0.36798 
 H                     0.57061  -0.86578  -1.29026 
 H                     0.71904  -1.72745   0.25065 
 H                     2.05828   0.97045  -0.42969 
 H                     2.16737   0.1553    1.15033 
 H                     2.87363  -0.59956  -0.29649 
 
 ITRead=  0  0  0  0  0  0  0  0  0  0  0  0  0  0
 MicOpt= -1 -1 -1 -1 -1 -1 -1 -1 -1 -1 -1 -1 -1 -1
 NAtoms=     14 NQM=       14 NQMF=       0 NMMI=      0 NMMIF=      0
                NMic=       0 NMicF=      0.
                    Isotopes and Nuclear Properties:
 (Nuclear quadrupole moments (NQMom) in fm**2, nuclear magnetic moments (NMagM)
  in nuclear magnetons)

  Atom         1           2           3           4           5           6           7           8           9          10
 IAtWgt=          16          12          14          12          12           1           1           1           1           1
 AtmWgt=  15.9949146  12.0000000  14.0030740  12.0000000  12.0000000   1.0078250   1.0078250   1.0078250   1.0078250   1.0078250
 NucSpn=           0           0           2           0           0           1           1           1           1           1
 AtZEff=  -0.0000000  -0.0000000  -0.0000000  -0.0000000  -0.0000000  -0.0000000  -0.0000000  -0.0000000  -0.0000000  -0.0000000
 NQMom=    0.0000000   0.0000000   2.0440000   0.0000000   0.0000000   0.0000000   0.0000000   0.0000000   0.0000000   0.0000000
 NMagM=    0.0000000   0.0000000   0.4037610   0.0000000   0.0000000   2.7928460   2.7928460   2.7928460   2.7928460   2.7928460
 AtZNuc=   8.0000000   6.0000000   7.0000000   6.0000000   6.0000000   1.0000000   1.0000000   1.0000000   1.0000000   1.0000000

  Atom        11          12          13          14
 IAtWgt=           1           1           1           1
 AtmWgt=   1.0078250   1.0078250   1.0078250   1.0078250
 NucSpn=           1           1           1           1
 AtZEff=  -0.0000000  -0.0000000  -0.0000000  -0.0000000
 NQMom=    0.0000000   0.0000000   0.0000000   0.0000000
 NMagM=    2.7928460   2.7928460   2.7928460   2.7928460
 AtZNuc=   1.0000000   1.0000000   1.0000000   1.0000000
 Leave Link  101 at Wed Oct 22 10:08:00 2025, MaxMem=  4294967296 cpu:               1.4 elap:               0.2
 (Enter /lrz/sys/applications/gaussian/g16.C.01/x86_64_legacy/exe/l202.exe)
                          Input orientation:                          
 ---------------------------------------------------------------------
 Center     Atomic      Atomic             Coordinates (Angstroms)
 Number     Number       Type             X           Y           Z
 ---------------------------------------------------------------------
      1          8           0       -0.617040    1.320409   -0.231120
      2          6           0       -0.521112    0.011065    0.328557
      3          7           0       -1.712883   -0.731038    0.044736
      4          6           0        0.704333   -0.724144   -0.203100
      5          6           0        2.020789   -0.009956    0.070686
      6          1           0        0.082062    1.867226    0.147481
      7          1           0       -0.432653    0.108886    1.426716
      8          1           0       -1.814701   -0.816191   -0.967764
      9          1           0       -2.521188   -0.200675    0.367981
     10          1           0        0.570607   -0.865779   -1.290261
     11          1           0        0.719039   -1.727453    0.250647
     12          1           0        2.058279    0.970454   -0.429688
     13          1           0        2.167371    0.155298    1.150333
     14          1           0        2.873629   -0.599559   -0.296490
 ---------------------------------------------------------------------
                    Distance matrix (angstroms):
                    1          2          3          4          5
     1  O    0.000000
     2  C    1.427173   0.000000
     3  N    2.342094   1.432337   0.000000
     4  C    2.434545   1.524765   2.429898   0.000000
     5  C    2.969697   2.555034   3.802754   1.522524   0.000000
     6  H    0.964931   1.960087   3.159646   2.687997   2.699699
     7  H    2.061603   1.106050   2.062603   2.154757   2.805765
     8  H    2.557752   2.009521   1.021163   2.634144   4.054550
     9  H    2.509661   2.011639   1.019377   3.317249   4.555690
    10  H    2.704016   2.140392   2.648528   1.104474   2.165095
    11  H    3.362539   2.136935   2.636188   1.101241   2.162576
    12  H    2.705407   2.854579   4.164351   2.180865   1.101355
    13  H    3.319464   2.814971   4.130897   2.178458   1.102013
    14  H    3.984385   3.505398   4.601067   2.174877   1.099903
                    6          7          8          9         10
     6  H    0.000000
     7  H    2.234532   0.000000
     8  H    3.470188   2.915366   0.000000
     9  H    3.331928   2.361933   1.631625   0.000000
    10  H    3.126515   3.055890   2.407521   3.570900   0.000000
    11  H    3.652136   2.466105   2.955463   3.583837   1.771697
    12  H    2.245609   3.223861   4.299023   4.793677   2.515056
    13  H    2.878354   2.615084   4.613786   4.766695   3.090106
    14  H    3.751664   3.795107   4.741094   5.450200   2.522373
                   11         12         13         14
    11  H    0.000000
    12  H    3.087899   0.000000
    13  H    2.540050   1.781249   0.000000
    14  H    2.492742   1.774113   1.778175   0.000000
 Stoichiometry    C3H9NO
 Framework group  C1[X(C3H9NO)]
 Deg. of freedom    36
 Full point group                 C1      NOp   1
 Largest Abelian subgroup         C1      NOp   1
 Largest concise Abelian subgroup C1      NOp   1
                         Standard orientation:                         
 ---------------------------------------------------------------------
 Center     Atomic      Atomic             Coordinates (Angstroms)
 Number     Number       Type             X           Y           Z
 ---------------------------------------------------------------------
      1          8           0       -0.617040    1.320409   -0.231120
      2          6           0       -0.521112    0.011065    0.328557
      3          7           0       -1.712883   -0.731038    0.044736
      4          6           0        0.704333   -0.724144   -0.203100
      5          6           0        2.020789   -0.009956    0.070686
      6          1           0        0.082062    1.867226    0.147481
      7          1           0       -0.432653    0.108886    1.426716
      8          1           0       -1.814701   -0.816191   -0.967764
      9          1           0       -2.521188   -0.200675    0.367981
     10          1           0        0.570607   -0.865779   -1.290261
     11          1           0        0.719039   -1.727453    0.250647
     12          1           0        2.058279    0.970454   -0.429688
     13          1           0        2.167371    0.155298    1.150333
     14          1           0        2.873629   -0.599559   -0.296490
 ---------------------------------------------------------------------
 Rotational constants (GHZ):           8.3937360           3.5471255           2.7411676
 Leave Link  202 at Wed Oct 22 10:08:00 2025, MaxMem=  4294967296 cpu:               0.0 elap:               0.0
 (Enter /lrz/sys/applications/gaussian/g16.C.01/x86_64_legacy/exe/l301.exe)
 Standard basis: def2TZVP (5D, 7F)
 Ernie: Thresh=  0.10000D-02 Tol=  0.10000D-05 Strict=F.
 There are   234 symmetry adapted cartesian basis functions of A   symmetry.
 There are   209 symmetry adapted basis functions of A   symmetry.
   209 basis functions,   327 primitive gaussians,   234 cartesian basis functions
    21 alpha electrons       21 beta electrons
       nuclear repulsion energy       195.4117086085 Hartrees.
 IExCor= 4639 DFT=T Ex+Corr=wB97XD ExCW=0 ScaHFX=  1.000000
 ScaDFX=  1.000000  1.000000  1.000000  1.000000 ScalE2=  1.000000  1.000000
 IRadAn=      5 IRanWt=     -1 IRanGd=            0 ICorTp=0 IEmpDi=121
 HFx  wShort=  0.000000 wLong=  0.200000 cFull=  0.222036 cShort=  0.000000 cLong=  0.777964
 DFx  wShort=  0.000000 wLong=  0.200000 cFull=  0.000000 cShort=  0.000000 cLong=  1.000000
 NAtoms=   14 NActive=   14 NUniq=   14 SFac= 1.00D+00 NAtFMM=   60 NAOKFM=F Big=F
 Integral buffers will be    131072 words long.
 Raffenetti 2 integral format.
 Two-electron integral symmetry is turned on.
 R6Disp:  Grimme-D2 Dispersion energy=       -0.0065343378 Hartrees.
 Nuclear repulsion after empirical dispersion term =      195.4051742707 Hartrees.
 ------------------------------------------------------------------------------
 Polarizable Continuum Model (PCM)
 =================================
 Model                : PCM.
 Atomic radii         : SMD-Coulomb.
 Polarization charges : Total charges.
 Charge compensation  : None.
 Solution method      : On-the-fly selection.
 Cavity type          : VdW (van der Waals Surface) (Alpha=1.000).
 Cavity algorithm     : GePol (No added spheres)
                        Default sphere list used, NSphG=   14.
                        Lebedev-Laikov grids with approx.  5.0 points / Ang**2.
                        Smoothing algorithm: York/Karplus (Gamma=1.0000).
                        Polarization charges: spherical gaussians, with
                                              point-specific exponents (IZeta= 3).
                        Self-potential: point-specific (ISelfS= 7).
                        Self-field    : sphere-specific E.n sum rule (ISelfD= 2).
 Solvent              : Water, Eps=  78.355300 Eps(inf)=   1.777849
 ------------------------------------------------------------------------------
 Spheres list:
 ISph  on   Nord     Re0    Alpha      Xe            Ye            Ze
    1   O      1    1.5200  1.000     -0.617040      1.320409     -0.231120
    2   C      2    1.8500  1.000     -0.521112      0.011065      0.328557
    3   N      3    1.8900  1.000     -1.712883     -0.731038      0.044736
    4   C      4    1.8500  1.000      0.704333     -0.724144     -0.203100
    5   C      5    1.8500  1.000      2.020789     -0.009956      0.070686
    6   H      6    1.2000  1.000      0.082062      1.867226      0.147481
    7   H      7    1.2000  1.000     -0.432653      0.108886      1.426716
    8   H      8    1.2000  1.000     -1.814701     -0.816191     -0.967764
    9   H      9    1.2000  1.000     -2.521188     -0.200675      0.367981
   10   H     10    1.2000  1.000      0.570607     -0.865779     -1.290261
   11   H     11    1.2000  1.000      0.719039     -1.727453      0.250647
   12   H     12    1.2000  1.000      2.058279      0.970454     -0.429688
   13   H     13    1.2000  1.000      2.167371      0.155298      1.150333
   14   H     14    1.2000  1.000      2.873629     -0.599559     -0.296490
 ------------------------------------------------------------------------------
 GePol: Number of generator spheres                  =      14
 GePol: Total number of spheres                      =      14
 GePol: Number of exposed spheres                    =      14 (100.00%)
 GePol: Number of points                             =     999
 GePol: Average weight of points                     =       0.12
 GePol: Minimum weight of points                     =   0.43D-09
 GePol: Maximum weight of points                     =    0.21991
 GePol: Number of points with low weight             =      64
 GePol: Fraction of low-weight points (<1% of avg)   =       6.41%
 GePol: Cavity surface area                          =    117.535 Ang**2
 GePol: Cavity volume                                =     90.535 Ang**3
 ------------------------------------------------------------------------------
 Atomic radii for non-electrostatic terms: SMD-CDS.
 ------------------------------------------------------------------------------
 PCM non-electrostatic energy =         0.0025563808 Hartrees.
 Nuclear repulsion after PCM non-electrostatic terms =      195.4077306515 Hartrees.
 Leave Link  301 at Wed Oct 22 10:08:00 2025, MaxMem=  4294967296 cpu:               0.6 elap:               0.1
 (Enter /lrz/sys/applications/gaussian/g16.C.01/x86_64_legacy/exe/l302.exe)
 NPDir=0 NMtPBC=     1 NCelOv=     1 NCel=       1 NClECP=     1 NCelD=      1
         NCelK=      1 NCelE2=     1 NClLst=     1 CellRange=     0.0.
 One-electron integrals computed using PRISM.
 One-electron integral symmetry used in STVInt
   1 Symmetry operations used in ECPInt.
 ECPInt:  NShTT=    4186 NPrTT=   12072 LenC2=    4157 LenP2D=   10138.
 LDataN:  DoStor=T MaxTD1= 6 Len=  172
 NBasis=   209 RedAO= T EigKep=  2.47D-04  NBF=   209
 NBsUse=   209 1.00D-06 EigRej= -1.00D+00 NBFU=   209
 Precomputing XC quadrature grid using
 IXCGrd= 4 IRadAn=           5 IRanWt=          -1 IRanGd=           0 AccXCQ= 0.00D+00.
 Generated NRdTot=       0 NPtTot=           0 NUsed=           0 NTot=          32
 NSgBfM=   234   234   234   234   234 MxSgAt=    14 MxSgA2=    14.
 Leave Link  302 at Wed Oct 22 10:08:01 2025, MaxMem=  4294967296 cpu:               1.8 elap:               0.2
 (Enter /lrz/sys/applications/gaussian/g16.C.01/x86_64_legacy/exe/l303.exe)
 DipDrv:  MaxL=1.
 Leave Link  303 at Wed Oct 22 10:08:01 2025, MaxMem=  4294967296 cpu:               0.3 elap:               0.1
 (Enter /lrz/sys/applications/gaussian/g16.C.01/x86_64_legacy/exe/l401.exe)
 ExpMin= 9.52D-02 ExpMax= 2.70D+04 ExpMxC= 9.22D+02 IAcc=3 IRadAn=         5 AccDes= 0.00D+00
 Harris functional with IExCor= 4639 and IRadAn=       5 diagonalized for initial guess.
 HarFok:  IExCor= 4639 AccDes= 0.00D+00 IRadAn=         5 IDoV= 1 UseB2=F ITyADJ=14
 ICtDFT=  3500011 ScaDFX=  1.000000  1.000000  1.000000  1.000000
 FoFCou: FMM=F IPFlag=           0 FMFlag=      100000 FMFlg1=           0
         NFxFlg=           0 DoJE=T BraDBF=F KetDBF=T FulRan=T
         wScrn=  0.000000 ICntrl=       500 IOpCl=  0 I1Cent=   200000004 NGrid=           0
         NMat0=    1 NMatS0=      1 NMatT0=    0 NMatD0=    1 NMtDS0=    0 NMtDT0=    0
 Petite list used in FoFCou.
 Harris En= -238.841867431909    
 JPrj=0 DoOrth=F DoCkMO=F.
 Leave Link  401 at Wed Oct 22 10:08:02 2025, MaxMem=  4294967296 cpu:              11.1 elap:               1.4
 (Enter /lrz/sys/applications/gaussian/g16.C.01/x86_64_legacy/exe/l502.exe)
 Integral symmetry usage will be decided dynamically.
 Closed shell SCF:
 Using DIIS extrapolation, IDIIS=  1040.
 NGot=  4294967296 LenX=  4294853286 LenY=  4294798089
 Requested convergence on RMS density matrix=1.00D-08 within 128 cycles.
 Requested convergence on MAX density matrix=1.00D-06.
 Requested convergence on             energy=1.00D-06.
 No special actions if energy rises.
 Fock matrices will be formed incrementally for  20 cycles.

 Cycle   1  Pass 1  IDiag  1:
 FoFJK:  IHMeth= 1 ICntrl=       0 DoSepK=T KAlg= 0 I1Cent=           0 FoldK=F
 IRaf=         1 NMat=       1 IRICut=       1 DoRegI=T DoRafI=F ISym2E= 0 IDoP0=0 IntGTp=1.
 FoFCou: FMM=F IPFlag=           0 FMFlag=      100000 FMFlg1=           0
         NFxFlg=           0 DoJE=T BraDBF=F KetDBF=F FulRan=T
         wScrn=  0.000000 ICntrl=       500 IOpCl=  0 I1Cent=           0 NGrid=           0
         NMat0=    1 NMatS0=      1 NMatT0=    0 NMatD0=    1 NMtDS0=    0 NMtDT0=    0
 Symmetry not used in FoFCou.
 Inv3:  Mode=1 IEnd=     2994003.
 Iteration    1 A*A^-1 deviation from unit magnitude is 5.33D-15 for    270.
 Iteration    1 A*A^-1 deviation from orthogonality  is 2.39D-15 for    757    282.
 Iteration    1 A^-1*A deviation from unit magnitude is 4.88D-15 for    270.
 Iteration    1 A^-1*A deviation from orthogonality  is 4.77D-15 for    762    295.
 E= -249.686008093400    
 DIIS: error= 3.55D-02 at cycle   1 NSaved=   1.
 NSaved= 1 IEnMin= 1 EnMin= -249.686008093400     IErMin= 1 ErrMin= 3.55D-02
 ErrMax= 3.55D-02  0.00D+00 EMaxC= 1.00D-01 BMatC= 5.27D-01 BMatP= 5.27D-01
 IDIUse=3 WtCom= 6.45D-01 WtEn= 3.55D-01
 Coeff-Com:  0.100D+01
 Coeff-En:   0.100D+01
 Coeff:      0.100D+01
 Gap=     0.511 Goal=   None    Shift=    0.000
 GapD=    0.511 DampG=2.000 DampE=0.500 DampFc=1.0000 IDamp=-1.
 RMSDP=1.75D-03 MaxDP=4.85D-02              OVMax= 6.06D-02

 Cycle   2  Pass 1  IDiag  1:
 RMSU=  1.71D-03    CP:  9.65D-01
 E= -249.729906671718     Delta-E=       -0.043898578318 Rises=F Damp=F
 DIIS: error= 7.28D-03 at cycle   2 NSaved=   2.
 NSaved= 2 IEnMin= 2 EnMin= -249.729906671718     IErMin= 2 ErrMin= 7.28D-03
 ErrMax= 7.28D-03  0.00D+00 EMaxC= 1.00D-01 BMatC= 3.20D-02 BMatP= 5.27D-01
 IDIUse=3 WtCom= 9.27D-01 WtEn= 7.28D-02
 Coeff-Com:  0.130D+00 0.870D+00
 Coeff-En:   0.489D-02 0.995D+00
 Coeff:      0.121D+00 0.879D+00
 Gap=     0.477 Goal=   None    Shift=    0.000
 RMSDP=7.76D-04 MaxDP=3.06D-02 DE=-4.39D-02 OVMax= 5.28D-02

 Cycle   3  Pass 1  IDiag  1:
 RMSU=  6.36D-04    CP:  9.70D-01  7.41D-01
 E= -249.738333187115     Delta-E=       -0.008426515397 Rises=F Damp=F
 DIIS: error= 6.18D-03 at cycle   3 NSaved=   3.
 NSaved= 3 IEnMin= 3 EnMin= -249.738333187115     IErMin= 3 ErrMin= 6.18D-03
 ErrMax= 6.18D-03  0.00D+00 EMaxC= 1.00D-01 BMatC= 2.01D-02 BMatP= 3.20D-02
 IDIUse=3 WtCom= 9.38D-01 WtEn= 6.18D-02
 Coeff-Com:  0.242D-01 0.449D+00 0.527D+00
 Coeff-En:   0.000D+00 0.380D+00 0.620D+00
 Coeff:      0.227D-01 0.444D+00 0.533D+00
 Gap=     0.481 Goal=   None    Shift=    0.000
 RMSDP=4.10D-04 MaxDP=1.55D-02 DE=-8.43D-03 OVMax= 2.41D-02

 Cycle   4  Pass 1  IDiag  1:
 RMSU=  1.48D-04    CP:  9.65D-01  9.20D-01  6.46D-01
 E= -249.751966733731     Delta-E=       -0.013633546617 Rises=F Damp=F
 DIIS: error= 8.76D-04 at cycle   4 NSaved=   4.
 NSaved= 4 IEnMin= 4 EnMin= -249.751966733731     IErMin= 4 ErrMin= 8.76D-04
 ErrMax= 8.76D-04  0.00D+00 EMaxC= 1.00D-01 BMatC= 1.96D-04 BMatP= 2.01D-02
 IDIUse=3 WtCom= 9.91D-01 WtEn= 8.76D-03
 Coeff-Com:  0.861D-02 0.166D+00 0.220D+00 0.605D+00
 Coeff-En:   0.000D+00 0.000D+00 0.000D+00 0.100D+01
 Coeff:      0.854D-02 0.165D+00 0.218D+00 0.609D+00
 Gap=     0.467 Goal=   None    Shift=    0.000
 RMSDP=4.54D-05 MaxDP=1.30D-03 DE=-1.36D-02 OVMax= 2.07D-03

 Cycle   5  Pass 1  IDiag  1:
 RMSU=  3.89D-05    CP:  9.64D-01  9.28D-01  6.73D-01  9.76D-01
 E= -249.752107692476     Delta-E=       -0.000140958745 Rises=F Damp=F
 DIIS: error= 1.24D-04 at cycle   5 NSaved=   5.
 NSaved= 5 IEnMin= 5 EnMin= -249.752107692476     IErMin= 5 ErrMin= 1.24D-04
 ErrMax= 1.24D-04  0.00D+00 EMaxC= 1.00D-01 BMatC= 7.56D-06 BMatP= 1.96D-04
 IDIUse=3 WtCom= 9.99D-01 WtEn= 1.24D-03
 Coeff-Com: -0.200D-02-0.344D-01-0.326D-01 0.104D+00 0.965D+00
 Coeff-En:   0.000D+00 0.000D+00 0.000D+00 0.000D+00 0.100D+01
 Coeff:     -0.200D-02-0.343D-01-0.326D-01 0.104D+00 0.965D+00
 Gap=     0.467 Goal=   None    Shift=    0.000
 RMSDP=3.55D-05 MaxDP=8.47D-04 DE=-1.41D-04 OVMax= 9.39D-04

 Cycle   6  Pass 1  IDiag  1:
 RMSU=  1.10D-05    CP:  9.64D-01  9.39D-01  6.95D-01  1.13D+00  1.21D+00
 E= -249.752117988750     Delta-E=       -0.000010296273 Rises=F Damp=F
 DIIS: error= 2.45D-05 at cycle   6 NSaved=   6.
 NSaved= 6 IEnMin= 6 EnMin= -249.752117988750     IErMin= 6 ErrMin= 2.45D-05
 ErrMax= 2.45D-05  0.00D+00 EMaxC= 1.00D-01 BMatC= 2.56D-07 BMatP= 7.56D-06
 IDIUse=1 WtCom= 1.00D+00 WtEn= 0.00D+00
 Coeff-Com: -0.613D-03-0.103D-01-0.116D-01 0.674D-03 0.139D+00 0.883D+00
 Coeff:     -0.613D-03-0.103D-01-0.116D-01 0.674D-03 0.139D+00 0.883D+00
 Gap=     0.467 Goal=   None    Shift=    0.000
 RMSDP=8.05D-06 MaxDP=1.83D-04 DE=-1.03D-05 OVMax= 3.03D-04

 Cycle   7  Pass 1  IDiag  1:
 RMSU=  2.90D-06    CP:  9.64D-01  9.41D-01  6.99D-01  1.16D+00  1.31D+00
                    CP:  1.19D+00
 E= -249.752118361582     Delta-E=       -0.000000372832 Rises=F Damp=F
 DIIS: error= 1.37D-05 at cycle   7 NSaved=   7.
 NSaved= 7 IEnMin= 7 EnMin= -249.752118361582     IErMin= 7 ErrMin= 1.37D-05
 ErrMax= 1.37D-05  0.00D+00 EMaxC= 1.00D-01 BMatC= 7.85D-08 BMatP= 2.56D-07
 IDIUse=1 WtCom= 1.00D+00 WtEn= 0.00D+00
 Coeff-Com: -0.223D-04-0.795D-03-0.160D-02-0.111D-01-0.519D-01 0.344D+00
 Coeff-Com:  0.721D+00
 Coeff:     -0.223D-04-0.795D-03-0.160D-02-0.111D-01-0.519D-01 0.344D+00
 Coeff:      0.721D+00
 Gap=     0.467 Goal=   None    Shift=    0.000
 RMSDP=2.78D-06 MaxDP=6.27D-05 DE=-3.73D-07 OVMax= 1.08D-04

 Cycle   8  Pass 1  IDiag  1:
 RMSU=  1.08D-06    CP:  9.64D-01  9.41D-01  7.00D-01  1.17D+00  1.33D+00
                    CP:  1.35D+00  1.14D+00
 E= -249.752118446194     Delta-E=       -0.000000084611 Rises=F Damp=F
 DIIS: error= 2.79D-06 at cycle   8 NSaved=   8.
 NSaved= 8 IEnMin= 8 EnMin= -249.752118446194     IErMin= 8 ErrMin= 2.79D-06
 ErrMax= 2.79D-06  0.00D+00 EMaxC= 1.00D-01 BMatC= 3.87D-09 BMatP= 7.85D-08
 IDIUse=1 WtCom= 1.00D+00 WtEn= 0.00D+00
 Coeff-Com:  0.470D-04 0.783D-03 0.800D-03-0.189D-02-0.223D-01-0.157D-01
 Coeff-Com:  0.150D+00 0.888D+00
 Coeff:      0.470D-04 0.783D-03 0.800D-03-0.189D-02-0.223D-01-0.157D-01
 Coeff:      0.150D+00 0.888D+00
 Gap=     0.467 Goal=   None    Shift=    0.000
 RMSDP=9.93D-07 MaxDP=2.00D-05 DE=-8.46D-08 OVMax= 4.10D-05

 Cycle   9  Pass 1  IDiag  1:
 RMSU=  2.53D-07    CP:  9.64D-01  9.41D-01  7.01D-01  1.17D+00  1.34D+00
                    CP:  1.40D+00  1.30D+00  1.23D+00
 E= -249.752118452505     Delta-E=       -0.000000006312 Rises=F Damp=F
 DIIS: error= 7.94D-07 at cycle   9 NSaved=   9.
 NSaved= 9 IEnMin= 9 EnMin= -249.752118452505     IErMin= 9 ErrMin= 7.94D-07
 ErrMax= 7.94D-07  0.00D+00 EMaxC= 1.00D-01 BMatC= 3.40D-10 BMatP= 3.87D-09
 IDIUse=1 WtCom= 1.00D+00 WtEn= 0.00D+00
 Coeff-Com:  0.935D-05 0.222D-03 0.314D-03 0.481D-03 0.103D-03-0.320D-01
 Coeff-Com: -0.322D-01 0.171D+00 0.892D+00
 Coeff:      0.935D-05 0.222D-03 0.314D-03 0.481D-03 0.103D-03-0.320D-01
 Coeff:     -0.322D-01 0.171D+00 0.892D+00
 Gap=     0.467 Goal=   None    Shift=    0.000
 RMSDP=3.08D-07 MaxDP=7.16D-06 DE=-6.31D-09 OVMax= 1.40D-05

 Cycle  10  Pass 1  IDiag  1:
 RMSU=  9.65D-08    CP:  9.64D-01  9.41D-01  7.01D-01  1.17D+00  1.34D+00
                    CP:  1.41D+00  1.35D+00  1.37D+00  1.29D+00
 E= -249.752118453154     Delta-E=       -0.000000000648 Rises=F Damp=F
 DIIS: error= 4.53D-07 at cycle  10 NSaved=  10.
 NSaved=10 IEnMin=10 EnMin= -249.752118453154     IErMin=10 ErrMin= 4.53D-07
 ErrMax= 4.53D-07  0.00D+00 EMaxC= 1.00D-01 BMatC= 5.27D-11 BMatP= 3.40D-10
 IDIUse=1 WtCom= 1.00D+00 WtEn= 0.00D+00
 Coeff-Com: -0.264D-05-0.346D-04-0.579D-05 0.419D-03 0.312D-02-0.927D-02
 Coeff-Com: -0.312D-01-0.551D-01 0.280D+00 0.812D+00
 Coeff:     -0.264D-05-0.346D-04-0.579D-05 0.419D-03 0.312D-02-0.927D-02
 Coeff:     -0.312D-01-0.551D-01 0.280D+00 0.812D+00
 Gap=     0.467 Goal=   None    Shift=    0.000
 RMSDP=1.06D-07 MaxDP=2.45D-06 DE=-6.48D-10 OVMax= 4.75D-06

 Cycle  11  Pass 1  IDiag  1:
 RMSU=  3.13D-08    CP:  9.64D-01  9.41D-01  7.01D-01  1.17D+00  1.34D+00
                    CP:  1.42D+00  1.37D+00  1.42D+00  1.48D+00  1.21D+00
 E= -249.752118453232     Delta-E=       -0.000000000078 Rises=F Damp=F
 DIIS: error= 4.52D-08 at cycle  11 NSaved=  11.
 NSaved=11 IEnMin=11 EnMin= -249.752118453232     IErMin=11 ErrMin= 4.52D-08
 ErrMax= 4.52D-08  0.00D+00 EMaxC= 1.00D-01 BMatC= 1.41D-12 BMatP= 5.27D-11
 IDIUse=1 WtCom= 1.00D+00 WtEn= 0.00D+00
 Coeff-Com: -0.176D-06-0.748D-05-0.175D-04-0.493D-04-0.328D-03 0.276D-02
 Coeff-Com:  0.478D-02-0.604D-02-0.818D-01-0.420D-01 0.112D+01
 Coeff:     -0.176D-06-0.748D-05-0.175D-04-0.493D-04-0.328D-03 0.276D-02
 Coeff:      0.478D-02-0.604D-02-0.818D-01-0.420D-01 0.112D+01
 Gap=     0.467 Goal=   None    Shift=    0.000
 RMSDP=3.00D-08 MaxDP=6.62D-07 DE=-7.79D-11 OVMax= 1.40D-06

 Cycle  12  Pass 1  IDiag  1:
 RMSU=  6.94D-09    CP:  9.64D-01  9.41D-01  7.01D-01  1.17D+00  1.34D+00
                    CP:  1.42D+00  1.37D+00  1.43D+00  1.54D+00  1.39D+00
                    CP:  1.34D+00
 E= -249.752118453233     Delta-E=       -0.000000000001 Rises=F Damp=F
 DIIS: error= 1.00D-08 at cycle  12 NSaved=  12.
 NSaved=12 IEnMin=12 EnMin= -249.752118453233     IErMin=12 ErrMin= 1.00D-08
 ErrMax= 1.00D-08  0.00D+00 EMaxC= 1.00D-01 BMatC= 5.68D-14 BMatP= 1.41D-12
 IDIUse=1 WtCom= 1.00D+00 WtEn= 0.00D+00
 Coeff-Com:  0.547D-07 0.267D-06-0.133D-05-0.204D-04-0.134D-03 0.540D-03
 Coeff-Com:  0.157D-02 0.174D-02-0.144D-01-0.386D-01 0.517D-01 0.997D+00
 Coeff:      0.547D-07 0.267D-06-0.133D-05-0.204D-04-0.134D-03 0.540D-03
 Coeff:      0.157D-02 0.174D-02-0.144D-01-0.386D-01 0.517D-01 0.997D+00
 Gap=     0.467 Goal=   None    Shift=    0.000
 RMSDP=5.89D-09 MaxDP=1.16D-07 DE=-1.48D-12 OVMax= 2.45D-07

 Error on total polarization charges =  0.03989
 SCF Done:  E(RwB97XD) =  -249.752118453     A.U. after   12 cycles
            NFock= 12  Conv=0.59D-08     -V/T= 2.0053
 KE= 2.484249813682D+02 PE=-9.740444729936D+02 EE= 2.804596425206D+02
 SMD-CDS (non-electrostatic) energy       (kcal/mol) =       1.60
 (included in total energy above)
 Leave Link  502 at Wed Oct 22 10:09:01 2025, MaxMem=  4294967296 cpu:             469.5 elap:              58.8
 (Enter /lrz/sys/applications/gaussian/g16.C.01/x86_64_legacy/exe/l601.exe)
 Copying SCF densities to generalized density rwf, IOpCl= 0 IROHF=0.

 **********************************************************************

            Population analysis using the SCF Density.

 **********************************************************************

 Orbital symmetries:
       Occupied  (A) (A) (A) (A) (A) (A) (A) (A) (A) (A) (A) (A)
                 (A) (A) (A) (A) (A) (A) (A) (A) (A)
       Virtual   (A) (A) (A) (A) (A) (A) (A) (A) (A) (A) (A) (A)
                 (A) (A) (A) (A) (A) (A) (A) (A) (A) (A) (A) (A)
                 (A) (A) (A) (A) (A) (A) (A) (A) (A) (A) (A) (A)
                 (A) (A) (A) (A) (A) (A) (A) (A) (A) (A) (A) (A)
                 (A) (A) (A) (A) (A) (A) (A) (A) (A) (A) (A) (A)
                 (A) (A) (A) (A) (A) (A) (A) (A) (A) (A) (A) (A)
                 (A) (A) (A) (A) (A) (A) (A) (A) (A) (A) (A) (A)
                 (A) (A) (A) (A) (A) (A) (A) (A) (A) (A) (A) (A)
                 (A) (A) (A) (A) (A) (A) (A) (A) (A) (A) (A) (A)
                 (A) (A) (A) (A) (A) (A) (A) (A) (A) (A) (A) (A)
                 (A) (A) (A) (A) (A) (A) (A) (A) (A) (A) (A) (A)
                 (A) (A) (A) (A) (A) (A) (A) (A) (A) (A) (A) (A)
                 (A) (A) (A) (A) (A) (A) (A) (A) (A) (A) (A) (A)
                 (A) (A) (A) (A) (A) (A) (A) (A) (A) (A) (A) (A)
                 (A) (A) (A) (A) (A) (A) (A) (A) (A) (A) (A) (A)
                 (A) (A) (A) (A) (A) (A) (A) (A)
 The electronic state is 1-A.
 Alpha  occ. eigenvalues --  -19.24631 -14.41150 -10.35068 -10.27149 -10.26660
 Alpha  occ. eigenvalues --   -1.12878  -0.97702  -0.86074  -0.74818  -0.67530
 Alpha  occ. eigenvalues --   -0.61331  -0.56952  -0.54975  -0.52053  -0.48872
 Alpha  occ. eigenvalues --   -0.44744  -0.43508  -0.43201  -0.41065  -0.36305
 Alpha  occ. eigenvalues --   -0.34755
 Alpha virt. eigenvalues --    0.11955   0.13988   0.15344   0.16645   0.18786
 Alpha virt. eigenvalues --    0.19602   0.20825   0.21686   0.22776   0.26122
 Alpha virt. eigenvalues --    0.28091   0.28379   0.29978   0.31631   0.33208
 Alpha virt. eigenvalues --    0.34854   0.37581   0.38515   0.40426   0.42881
 Alpha virt. eigenvalues --    0.44803   0.46963   0.47677   0.49096   0.50670
 Alpha virt. eigenvalues --    0.51009   0.53470   0.53951   0.54932   0.56595
 Alpha virt. eigenvalues --    0.57120   0.57433   0.60099   0.60993   0.61555
 Alpha virt. eigenvalues --    0.65390   0.66818   0.68547   0.71727   0.72518
 Alpha virt. eigenvalues --    0.80314   0.83182   0.86742   0.89034   0.92546
 Alpha virt. eigenvalues --    0.94714   0.97575   1.02262   1.07084   1.08428
 Alpha virt. eigenvalues --    1.08708   1.15896   1.18559   1.21139   1.23625
 Alpha virt. eigenvalues --    1.25006   1.30098   1.36320   1.42946   1.44395
 Alpha virt. eigenvalues --    1.47359   1.47448   1.54719   1.58699   1.61153
 Alpha virt. eigenvalues --    1.61849   1.64512   1.66832   1.66973   1.68490
 Alpha virt. eigenvalues --    1.70859   1.73244   1.77841   1.81141   1.86540
 Alpha virt. eigenvalues --    1.90197   1.92300   1.94005   1.95580   1.96384
 Alpha virt. eigenvalues --    1.98413   2.01640   2.02924   2.07120   2.09580
 Alpha virt. eigenvalues --    2.14599   2.16079   2.18665   2.21211   2.21466
 Alpha virt. eigenvalues --    2.29114   2.34571   2.36142   2.37494   2.41637
 Alpha virt. eigenvalues --    2.42510   2.46436   2.49305   2.51931   2.52978
 Alpha virt. eigenvalues --    2.56010   2.58146   2.61406   2.64710   2.67236
 Alpha virt. eigenvalues --    2.69615   2.72282   2.74185   2.75822   2.76470
 Alpha virt. eigenvalues --    2.80194   2.82392   2.83111   2.86267   2.92249
 Alpha virt. eigenvalues --    2.95150   3.02337   3.05830   3.07185   3.10341
 Alpha virt. eigenvalues --    3.17020   3.19447   3.21342   3.24014   3.24885
 Alpha virt. eigenvalues --    3.31476   3.34660   3.35457   3.36638   3.38451
 Alpha virt. eigenvalues --    3.43633   3.45496   3.48835   3.52331   3.54479
 Alpha virt. eigenvalues --    3.58098   3.62899   3.66995   3.69037   3.70243
 Alpha virt. eigenvalues --    3.75059   3.88943   3.94475   3.97888   3.99405
 Alpha virt. eigenvalues --    4.00487   4.05192   4.12648   4.16264   4.22265
 Alpha virt. eigenvalues --    4.30713   4.37621   4.40850   4.44043   4.51209
 Alpha virt. eigenvalues --    4.59357   4.61895   4.68315   4.73895   4.77309
 Alpha virt. eigenvalues --    4.88420   4.89605   4.95350   4.99650   5.02936
 Alpha virt. eigenvalues --    5.16970   5.21200   5.32903   5.35610   5.38745
 Alpha virt. eigenvalues --    5.54717   5.58806   5.64795   5.81063   5.88631
 Alpha virt. eigenvalues --    5.93674   6.01205   6.42377   6.57425   6.79296
 Alpha virt. eigenvalues --    6.89386   7.08085   7.26775  22.41329  22.53877
 Alpha virt. eigenvalues --   22.71267  32.06600  43.95567
          Condensed to atoms (all electrons):
               1          2          3          4          5          6
     1  O    8.212554   0.235631  -0.090823  -0.061044   0.011813   0.304993
     2  C    0.235631   4.677751   0.328660   0.346672  -0.058542  -0.022002
     3  N   -0.090823   0.328660   6.703721  -0.057166   0.009852   0.008356
     4  C   -0.061044   0.346672  -0.057166   5.053745   0.276157  -0.001892
     5  C    0.011813  -0.058542   0.009852   0.276157   5.028467   0.003088
     6  H    0.304993  -0.022002   0.008356  -0.001892   0.003088   0.339857
     7  H   -0.059059   0.459228  -0.038713  -0.063918  -0.011252  -0.005395
     8  H   -0.000899  -0.013871   0.360699  -0.019775  -0.000361  -0.000441
     9  H    0.002329  -0.031945   0.366908   0.011142  -0.001017   0.000108
    10  H   -0.000186  -0.021890  -0.004965   0.400368  -0.037190  -0.000401
    11  H    0.007342  -0.040249   0.005082   0.394960  -0.020597  -0.000386
    12  H    0.009582  -0.011134   0.000059  -0.036833   0.405529  -0.000595
    13  H   -0.001856   0.003235  -0.000077  -0.040015   0.404240  -0.000521
    14  H    0.000510   0.009016  -0.000227  -0.034142   0.409025   0.000188
               7          8          9         10         11         12
     1  O   -0.059059  -0.000899   0.002329  -0.000186   0.007342   0.009582
     2  C    0.459228  -0.013871  -0.031945  -0.021890  -0.040249  -0.011134
     3  N   -0.038713   0.360699   0.366908  -0.004965   0.005082   0.000059
     4  C   -0.063918  -0.019775   0.011142   0.400368   0.394960  -0.036833
     5  C   -0.011252  -0.000361  -0.001017  -0.037190  -0.020597   0.405529
     6  H   -0.005395  -0.000441   0.000108  -0.000401  -0.000386  -0.000595
     7  H    0.598071   0.008227  -0.008977   0.008065  -0.001507   0.002537
     8  H    0.008227   0.429830  -0.028746   0.006272   0.000324   0.000179
     9  H   -0.008977  -0.028746   0.431507  -0.000437  -0.000666  -0.000058
    10  H    0.008065   0.006272  -0.000437   0.568065  -0.025961  -0.002784
    11  H   -0.001507   0.000324  -0.000666  -0.025961   0.576332   0.006893
    12  H    0.002537   0.000179  -0.000058  -0.002784   0.006893   0.548165
    13  H    0.004263   0.000044   0.000008   0.006626  -0.004520  -0.027083
    14  H   -0.000097  -0.000018   0.000015  -0.004117  -0.004482  -0.019280
              13         14
     1  O   -0.001856   0.000510
     2  C    0.003235   0.009016
     3  N   -0.000077  -0.000227
     4  C   -0.040015  -0.034142
     5  C    0.404240   0.409025
     6  H   -0.000521   0.000188
     7  H    0.004263  -0.000097
     8  H    0.000044  -0.000018
     9  H    0.000008   0.000015
    10  H    0.006626  -0.004117
    11  H   -0.004520  -0.004482
    12  H   -0.027083  -0.019280
    13  H    0.548880  -0.021295
    14  H   -0.021295   0.525424
 Mulliken charges:
               1
     1  O   -0.570888
     2  C    0.139439
     3  N   -0.591364
     4  C   -0.168259
     5  C   -0.419211
     6  H    0.375042
     7  H    0.108528
     8  H    0.258536
     9  H    0.259829
    10  H    0.108534
    11  H    0.107438
    12  H    0.124823
    13  H    0.128072
    14  H    0.139481
 Sum of Mulliken charges =  -0.00000
 Mulliken charges with hydrogens summed into heavy atoms:
               1
     1  O   -0.195846
     2  C    0.247967
     3  N   -0.073000
     4  C    0.047713
     5  C   -0.026835
 Electronic spatial extent (au):  <R**2>=            495.2059
 Charge=             -0.0000 electrons
 Dipole moment (field-independent basis, Debye):
    X=              1.3304    Y=              0.8113    Z=              0.6185  Tot=              1.6765
 Quadrupole moment (field-independent basis, Debye-Ang):
   XX=            -30.9714   YY=            -34.6067   ZZ=            -31.3672
   XY=              0.3544   XZ=              0.7828   YZ=              3.4947
 Traceless Quadrupole moment (field-independent basis, Debye-Ang):
   XX=              1.3437   YY=             -2.2916   ZZ=              0.9479
   XY=              0.3544   XZ=              0.7828   YZ=              3.4947
 Octapole moment (field-independent basis, Debye-Ang**2):
  XXX=            -15.5048  YYY=             13.7966  ZZZ=             -0.4496  XYY=              9.1335
  XXY=              2.5748  XXZ=             -2.2055  XZZ=             -3.5520  YZZ=              0.1589
  YYZ=              0.8738  XYZ=             -3.6199
 Hexadecapole moment (field-independent basis, Debye-Ang**3):
 XXXX=           -382.8810 YYYY=           -157.5222 ZZZZ=            -63.1877 XXXY=            -10.6992
 XXXZ=             -0.6173 YYYX=             -0.7916 YYYZ=              5.1700 ZZZX=              4.1972
 ZZZY=              3.9619 XXYY=           -109.1001 XXZZ=            -76.2018 YYZZ=            -39.7836
 XXYZ=              6.8205 YYXZ=              2.2384 ZZXY=              1.5861
 N-N= 1.954077306515D+02 E-N=-9.740444721344D+02  KE= 2.484249813682D+02
 No NMR shielding tensors so no spin-rotation constants.
 Leave Link  601 at Wed Oct 22 10:09:01 2025, MaxMem=  4294967296 cpu:               1.1 elap:               0.2
 (Enter /lrz/sys/applications/gaussian/g16.C.01/x86_64_legacy/exe/l9999.exe)
 Unable to Open any file for archive entry.
 1\1\GINC-CM4R15C05S03\SP\RwB97XD\def2TZVP\C3H9N1O1\GO29TIZ2\22-Oct-202
 5\0\\#p wb97xd scrf=(smd,solvent=water) def2tzvp\\g16_g16_C2-a_5\\0,1\
 O,0,-0.61704,1.320409,-0.23112\C,0,-0.521112,0.011065,0.328557\N,0,-1.
 712883,-0.731038,0.044736\C,0,0.704333,-0.724144,-0.2031\C,0,2.020789,
 -0.009956,0.070686\H,0,0.082062,1.867226,0.147481\H,0,-0.432653,0.1088
 86,1.426716\H,0,-1.814701,-0.816191,-0.967764\H,0,-2.521188,-0.200675,
 0.367981\H,0,0.570607,-0.865779,-1.290261\H,0,0.719039,-1.727453,0.250
 647\H,0,2.058279,0.970454,-0.429688\H,0,2.167371,0.155298,1.150333\H,0
 ,2.873629,-0.599559,-0.29649\\Version=EM64L-G16RevC.01\State=1-A\HF=-2
 49.7521185\RMSD=5.894e-09\Dipole=0.5234049,0.3191755,0.243345\Quadrupo
 le=0.9990096,-1.7037478,0.7047382,0.2634673,0.5819886,2.5982486\PG=C01
  [X(C3H9N1O1)]\\@
 The archive entry for this job was punched.


 ERROR IS A HARDY PLANT... IT FLOURISHETH IN EVERY SOIL.
            MARTIN FARQUHAR TUPPER
 Job cpu time:       0 days  0 hours  8 minutes 10.5 seconds.
 Elapsed time:       0 days  0 hours  1 minutes  1.7 seconds.
 File lengths (MBytes):  RWF=    288 Int=      0 D2E=      0 Chk=      8 Scr=     32
 Normal termination of Gaussian 16 at Wed Oct 22 10:09:01 2025.
