 Entering Gaussian System, Link 0=g16
 Input=../../g16_g16_C4-a_1.com
 Output=../../g16_g16_C4-a_1.log
 Initial command:
 /lrz/sys/applications/gaussian/g16.C.01/x86_64_legacy/exe/l1.exe "/dss/lxclscratch/0D/go29tiz2/Gau-22014.inp" -scrdir="/dss/lxclscratch/0D/go29tiz2/"
 Entering Link 1 = /lrz/sys/applications/gaussian/g16.C.01/x86_64_legacy/exe/l1.exe PID=     22015.
  
 Copyright (c) 1988-2019, Gaussian, Inc.  All Rights Reserved.
  
 This is part of the Gaussian(R) 16 program.  It is based on
 the Gaussian(R) 09 system (copyright 2009, Gaussian, Inc.),
 the Gaussian(R) 03 system (copyright 2003, Gaussian, Inc.),
 the Gaussian(R) 98 system (copyright 1998, Gaussian, Inc.),
 the Gaussian(R) 94 system (copyright 1995, Gaussian, Inc.),
 the Gaussian 92(TM) system (copyright 1992, Gaussian, Inc.),
 the Gaussian 90(TM) system (copyright 1990, Gaussian, Inc.),
 the Gaussian 88(TM) system (copyright 1988, Gaussian, Inc.),
 the Gaussian 86(TM) system (copyright 1986, Carnegie Mellon
 University), and the Gaussian 82(TM) system (copyright 1983,
 Carnegie Mellon University). Gaussian is a federally registered
 trademark of Gaussian, Inc.
  
 This software contains proprietary and confidential information,
 including trade secrets, belonging to Gaussian, Inc.
  
 This software is provided under written license and may be
 used, copied, transmitted, or stored only in accord with that
 written license.
  
 The following legend is applicable only to US Government
 contracts under FAR:
  
                    RESTRICTED RIGHTS LEGEND
  
 Use, reproduction and disclosure by the US Government is
 subject to restrictions as set forth in subparagraphs (a)
 and (c) of the Commercial Computer Software - Restricted
 Rights clause in FAR 52.227-19.
  
 Gaussian, Inc.
 340 Quinnipiac St., Bldg. 40, Wallingford CT 06492
  
  
 ---------------------------------------------------------------
 Warning -- This program may not be used in any manner that
 competes with the business of Gaussian, Inc. or will provide
 assistance to any competitor of Gaussian, Inc.  The licensee
 of this program is prohibited from giving any competitor of
 Gaussian, Inc. access to this program.  By using this program,
 the user acknowledges that Gaussian, Inc. is engaged in the
 business of creating and licensing software in the field of
 computational chemistry and represents and warrants to the
 licensee that it is not a competitor of Gaussian, Inc. and that
 it will not use this program in any manner prohibited above.
 ---------------------------------------------------------------
  

 Cite this work as:
 Gaussian 16, Revision C.01,
 M. J. Frisch, G. W. Trucks, H. B. Schlegel, G. E. Scuseria, 
 M. A. Robb, J. R. Cheeseman, G. Scalmani, V. Barone, 
 G. A. Petersson, H. Nakatsuji, X. Li, M. Caricato, A. V. Marenich, 
 J. Bloino, B. G. Janesko, R. Gomperts, B. Mennucci, H. P. Hratchian, 
 J. V. Ortiz, A. F. Izmaylov, J. L. Sonnenberg, D. Williams-Young, 
 F. Ding, F. Lipparini, F. Egidi, J. Goings, B. Peng, A. Petrone, 
 T. Henderson, D. Ranasinghe, V. G. Zakrzewski, J. Gao, N. Rega, 
 G. Zheng, W. Liang, M. Hada, M. Ehara, K. Toyota, R. Fukuda, 
 J. Hasegawa, M. Ishida, T. Nakajima, Y. Honda, O. Kitao, H. Nakai, 
 T. Vreven, K. Throssell, J. A. Montgomery, Jr., J. E. Peralta, 
 F. Ogliaro, M. J. Bearpark, J. J. Heyd, E. N. Brothers, K. N. Kudin, 
 V. N. Staroverov, T. A. Keith, R. Kobayashi, J. Normand, 
 K. Raghavachari, A. P. Rendell, J. C. Burant, S. S. Iyengar, 
 J. Tomasi, M. Cossi, J. M. Millam, M. Klene, C. Adamo, R. Cammi, 
 J. W. Ochterski, R. L. Martin, K. Morokuma, O. Farkas, 
 J. B. Foresman, and D. J. Fox, Gaussian, Inc., Wallingford CT, 2019.
 
 ******************************************
 Gaussian 16:  EM64L-G16RevC.01  3-Jul-2019
                22-Oct-2025 
 ******************************************
 %chk=g16_g16_C4-a_1.chk
 %nprocshared=8
 Will use up to    8 processors via shared memory.
 %mem=32GB
 -------------------------------------------
 #p wb97xd scrf=(smd,solvent=water) def2tzvp
 -------------------------------------------
 1/38=1,172=1/1;
 2/12=2,17=6,18=5,40=1/2;
 3/5=44,7=101,11=2,25=1,30=1,70=32201,72=1,74=-58/1,2,3;
 4//1;
 5/5=2,38=5,53=1/2;
 6/7=2,8=2,9=2,10=2,28=1/1;
 99/5=1,9=1/99;
 Leave Link    1 at Wed Oct 22 10:14:09 2025, MaxMem=  4294967296 cpu:               4.6 elap:               0.7
 (Enter /lrz/sys/applications/gaussian/g16.C.01/x86_64_legacy/exe/l101.exe)
 --------------
 g16_g16_C4-a_1
 --------------
 Symbolic Z-matrix:
 Charge =  0 Multiplicity = 1
 O                     1.49595  -1.24017  -0.08992 
 C                     0.86284  -0.02384  -0.46747 
 N                     1.60153   1.14519  -0.06825 
 C                    -0.61467   0.0258   -0.00063 
 C                    -0.71177   0.07105   1.53081 
 C                    -1.29253   1.26535  -0.59457 
 C                    -1.33185  -1.22857  -0.51431 
 H                     1.51343  -1.27883   0.87508 
 H                     0.85917  -0.05828  -1.56914 
 H                     2.56615   1.04386  -0.38024 
 H                     1.63654   1.19955   0.95016 
 H                    -0.25623   0.98217   1.94952 
 H                    -1.76798   0.06226   1.84174 
 H                    -0.2283   -0.80159   1.9995 
 H                    -2.36249   1.27922  -0.33303 
 H                    -0.83635   2.193    -0.22175 
 H                    -1.21562   1.26878  -1.69414 
 H                    -2.39685  -1.20392  -0.23526 
 H                    -1.27218  -1.29602  -1.61282 
 H                    -0.88973  -2.14386  -0.09557 
 
 ITRead=  0  0  0  0  0  0  0  0  0  0  0  0  0  0  0  0  0  0  0  0
 MicOpt= -1 -1 -1 -1 -1 -1 -1 -1 -1 -1 -1 -1 -1 -1 -1 -1 -1 -1 -1 -1
 NAtoms=     20 NQM=       20 NQMF=       0 NMMI=      0 NMMIF=      0
                NMic=       0 NMicF=      0.
                    Isotopes and Nuclear Properties:
 (Nuclear quadrupole moments (NQMom) in fm**2, nuclear magnetic moments (NMagM)
  in nuclear magnetons)

  Atom         1           2           3           4           5           6           7           8           9          10
 IAtWgt=          16          12          14          12          12          12          12           1           1           1
 AtmWgt=  15.9949146  12.0000000  14.0030740  12.0000000  12.0000000  12.0000000  12.0000000   1.0078250   1.0078250   1.0078250
 NucSpn=           0           0           2           0           0           0           0           1           1           1
 AtZEff=  -0.0000000  -0.0000000  -0.0000000  -0.0000000  -0.0000000  -0.0000000  -0.0000000  -0.0000000  -0.0000000  -0.0000000
 NQMom=    0.0000000   0.0000000   2.0440000   0.0000000   0.0000000   0.0000000   0.0000000   0.0000000   0.0000000   0.0000000
 NMagM=    0.0000000   0.0000000   0.4037610   0.0000000   0.0000000   0.0000000   0.0000000   2.7928460   2.7928460   2.7928460
 AtZNuc=   8.0000000   6.0000000   7.0000000   6.0000000   6.0000000   6.0000000   6.0000000   1.0000000   1.0000000   1.0000000

  Atom        11          12          13          14          15          16          17          18          19          20
 IAtWgt=           1           1           1           1           1           1           1           1           1           1
 AtmWgt=   1.0078250   1.0078250   1.0078250   1.0078250   1.0078250   1.0078250   1.0078250   1.0078250   1.0078250   1.0078250
 NucSpn=           1           1           1           1           1           1           1           1           1           1
 AtZEff=  -0.0000000  -0.0000000  -0.0000000  -0.0000000  -0.0000000  -0.0000000  -0.0000000  -0.0000000  -0.0000000  -0.0000000
 NQMom=    0.0000000   0.0000000   0.0000000   0.0000000   0.0000000   0.0000000   0.0000000   0.0000000   0.0000000   0.0000000
 NMagM=    2.7928460   2.7928460   2.7928460   2.7928460   2.7928460   2.7928460   2.7928460   2.7928460   2.7928460   2.7928460
 AtZNuc=   1.0000000   1.0000000   1.0000000   1.0000000   1.0000000   1.0000000   1.0000000   1.0000000   1.0000000   1.0000000
 Leave Link  101 at Wed Oct 22 10:14:09 2025, MaxMem=  4294967296 cpu:               1.2 elap:               0.2
 (Enter /lrz/sys/applications/gaussian/g16.C.01/x86_64_legacy/exe/l202.exe)
                          Input orientation:                          
 ---------------------------------------------------------------------
 Center     Atomic      Atomic             Coordinates (Angstroms)
 Number     Number       Type             X           Y           Z
 ---------------------------------------------------------------------
      1          8           0        1.495946   -1.240174   -0.089920
      2          6           0        0.862843   -0.023837   -0.467467
      3          7           0        1.601528    1.145190   -0.068250
      4          6           0       -0.614674    0.025799   -0.000629
      5          6           0       -0.711765    0.071051    1.530810
      6          6           0       -1.292528    1.265346   -0.594565
      7          6           0       -1.331848   -1.228570   -0.514305
      8          1           0        1.513426   -1.278833    0.875077
      9          1           0        0.859172   -0.058283   -1.569137
     10          1           0        2.566147    1.043861   -0.380236
     11          1           0        1.636537    1.199545    0.950164
     12          1           0       -0.256228    0.982174    1.949519
     13          1           0       -1.767979    0.062260    1.841740
     14          1           0       -0.228297   -0.801587    1.999496
     15          1           0       -2.362487    1.279221   -0.333033
     16          1           0       -0.836345    2.192996   -0.221753
     17          1           0       -1.215624    1.268778   -1.694136
     18          1           0       -2.396850   -1.203920   -0.235257
     19          1           0       -1.272181   -1.296019   -1.612822
     20          1           0       -0.889731   -2.143861   -0.095571
 ---------------------------------------------------------------------
                    Distance matrix (angstroms):
                    1          2          3          4          5
     1  O    0.000000
     2  C    1.422265   0.000000
     3  N    2.387798   1.439324   0.000000
     4  C    2.462799   1.550309   2.483779   0.000000
     5  C    3.036456   2.545880   3.010331   1.535181   0.000000
     6  C    3.782576   2.514711   2.943978   1.532554   2.506161
     7  C    2.859485   2.504046   3.799789   1.533507   2.501202
     8  H    0.965929   1.949538   2.602598   2.645323   2.683961
     9  H    1.997606   1.102214   2.062062   2.153952   3.477678
    10  H    2.538982   2.012171   1.018868   3.361276   3.917035
    11  H    2.655893   2.026066   1.020464   2.711022   2.669302
    12  H    3.488303   2.847139   2.747585   2.201412   1.101352
    13  H    4.010094   3.501582   4.021738   2.173883   1.101064
    14  H    2.744273   2.807381   3.378428   2.198717   1.102227
    15  H    4.614538   3.481205   3.975109   2.176329   2.767394
    16  H    4.152543   2.803919   2.657948   2.189698   2.754932
    17  H    4.027525   2.737809   3.255015   2.184972   3.476881
    18  H    3.895677   3.474495   4.640392   2.177937   2.753916
    19  H    3.159885   2.736533   4.074728   2.186020   3.473524
    20  H    2.551105   2.775666   4.126133   2.189085   2.753656
                    6          7          8          9         10
     6  C    0.000000
     7  C    2.495517   0.000000
     8  H    4.062767   3.166780   0.000000
     9  H    2.707692   2.698668   2.809266   0.000000
    10  H    3.870964   4.514010   2.842348   2.354139   0.000000
    11  H    3.312090   4.105085   2.482570   2.921182   1.630453
    12  H    2.761606   3.480629   3.065657   3.835050   3.660241
    13  H    2.758451   2.721654   3.674314   4.307033   4.968437
    14  H    3.483382   2.778369   2.127365   3.803976   4.108250
    15  H    1.101546   2.717369   4.798528   3.700805   4.934476
    16  H    1.098920   3.469614   4.333365   3.123856   3.594799
    17  H    1.102262   2.764463   4.531985   2.466069   4.009827
    18  H    2.728718   1.101229   4.065552   3.700459   5.450218
    19  H    2.756420   1.102202   3.734909   2.465069   4.661230
    20  H    3.468996   1.099347   2.732324   3.095108   4.710170
                   11         12         13         14         15
    11  H    0.000000
    12  H    2.151400   0.000000
    13  H    3.698521   1.772921   0.000000
    14  H    2.929715   1.784680   1.772495   0.000000
    15  H    4.200611   3.120033   2.562044   3.784867   0.000000
    16  H    2.911268   2.552851   3.109016   3.777724   1.782267
    17  H    3.889979   3.778731   3.776665   4.347890   1.779889
    18  H    4.842528   3.759590   2.512490   3.139843   2.485303
    19  H    4.610572   4.348862   3.744961   3.792492   3.075466
    20  H    4.319023   3.788907   3.064549   2.574587   3.734018
                   16         17         18         19         20
    16  H    0.000000
    17  H    1.779310   0.000000
    18  H    3.738234   3.104490   0.000000
    19  H    3.781303   2.566709   1.780744   0.000000
    20  H    4.339021   3.782555   1.781687   1.779650   0.000000
 Stoichiometry    C5H13NO
 Framework group  C1[X(C5H13NO)]
 Deg. of freedom    54
 Full point group                 C1      NOp   1
 Largest Abelian subgroup         C1      NOp   1
 Largest concise Abelian subgroup C1      NOp   1
                         Standard orientation:                         
 ---------------------------------------------------------------------
 Center     Atomic      Atomic             Coordinates (Angstroms)
 Number     Number       Type             X           Y           Z
 ---------------------------------------------------------------------
      1          8           0       -1.495947    1.240173   -0.089920
      2          6           0       -0.862843    0.023837   -0.467467
      3          7           0       -1.601528   -1.145191   -0.068250
      4          6           0        0.614674   -0.025799   -0.000629
      5          6           0        0.711765   -0.071051    1.530810
      6          6           0        1.292528   -1.265345   -0.594565
      7          6           0        1.331847    1.228571   -0.514305
      8          1           0       -1.513427    1.278832    0.875077
      9          1           0       -0.859172    0.058283   -1.569137
     10          1           0       -2.566147   -1.043862   -0.380236
     11          1           0       -1.636537   -1.199546    0.950164
     12          1           0        0.256228   -0.982174    1.949519
     13          1           0        1.767979   -0.062259    1.841740
     14          1           0        0.228296    0.801587    1.999496
     15          1           0        2.362487   -1.279220   -0.333033
     16          1           0        0.836346   -2.192996   -0.221753
     17          1           0        1.215624   -1.268777   -1.694136
     18          1           0        2.396849    1.203921   -0.235257
     19          1           0        1.272180    1.296020   -1.612822
     20          1           0        0.889730    2.143861   -0.095571
 ---------------------------------------------------------------------
 Rotational constants (GHZ):           3.1272246           2.2578277           1.8984973
 Leave Link  202 at Wed Oct 22 10:14:09 2025, MaxMem=  4294967296 cpu:               0.0 elap:               0.0
 (Enter /lrz/sys/applications/gaussian/g16.C.01/x86_64_legacy/exe/l301.exe)
 Standard basis: def2TZVP (5D, 7F)
 Ernie: Thresh=  0.10000D-02 Tol=  0.10000D-05 Strict=F.
 There are   330 symmetry adapted cartesian basis functions of A   symmetry.
 There are   295 symmetry adapted basis functions of A   symmetry.
   295 basis functions,   461 primitive gaussians,   330 cartesian basis functions
    29 alpha electrons       29 beta electrons
       nuclear repulsion energy       350.8123604451 Hartrees.
 IExCor= 4639 DFT=T Ex+Corr=wB97XD ExCW=0 ScaHFX=  1.000000
 ScaDFX=  1.000000  1.000000  1.000000  1.000000 ScalE2=  1.000000  1.000000
 IRadAn=      5 IRanWt=     -1 IRanGd=            0 ICorTp=0 IEmpDi=121
 HFx  wShort=  0.000000 wLong=  0.200000 cFull=  0.222036 cShort=  0.000000 cLong=  0.777964
 DFx  wShort=  0.000000 wLong=  0.200000 cFull=  0.000000 cShort=  0.000000 cLong=  1.000000
 NAtoms=   20 NActive=   20 NUniq=   20 SFac= 1.00D+00 NAtFMM=   60 NAOKFM=F Big=F
 Integral buffers will be    131072 words long.
 Raffenetti 2 integral format.
 Two-electron integral symmetry is turned on.
 R6Disp:  Grimme-D2 Dispersion energy=       -0.0140184759 Hartrees.
 Nuclear repulsion after empirical dispersion term =      350.7983419692 Hartrees.
 ------------------------------------------------------------------------------
 Polarizable Continuum Model (PCM)
 =================================
 Model                : PCM.
 Atomic radii         : SMD-Coulomb.
 Polarization charges : Total charges.
 Charge compensation  : None.
 Solution method      : On-the-fly selection.
 Cavity type          : VdW (van der Waals Surface) (Alpha=1.000).
 Cavity algorithm     : GePol (No added spheres)
                        Default sphere list used, NSphG=   20.
                        Lebedev-Laikov grids with approx.  5.0 points / Ang**2.
                        Smoothing algorithm: York/Karplus (Gamma=1.0000).
                        Polarization charges: spherical gaussians, with
                                              point-specific exponents (IZeta= 3).
                        Self-potential: point-specific (ISelfS= 7).
                        Self-field    : sphere-specific E.n sum rule (ISelfD= 2).
 Solvent              : Water, Eps=  78.355300 Eps(inf)=   1.777849
 ------------------------------------------------------------------------------
 Spheres list:
 ISph  on   Nord     Re0    Alpha      Xe            Ye            Ze
    1   O      1    1.5200  1.000     -1.495947      1.240173     -0.089920
    2   C      2    1.8500  1.000     -0.862843      0.023837     -0.467467
    3   N      3    1.8900  1.000     -1.601528     -1.145191     -0.068250
    4   C      4    1.8500  1.000      0.614674     -0.025799     -0.000629
    5   C      5    1.8500  1.000      0.711765     -0.071051      1.530810
    6   C      6    1.8500  1.000      1.292528     -1.265345     -0.594565
    7   C      7    1.8500  1.000      1.331847      1.228571     -0.514305
    8   H      8    1.2000  1.000     -1.513427      1.278832      0.875077
    9   H      9    1.2000  1.000     -0.859172      0.058283     -1.569137
   10   H     10    1.2000  1.000     -2.566147     -1.043862     -0.380236
   11   H     11    1.2000  1.000     -1.636537     -1.199546      0.950164
   12   H     12    1.2000  1.000      0.256228     -0.982174      1.949519
   13   H     13    1.2000  1.000      1.767979     -0.062259      1.841740
   14   H     14    1.2000  1.000      0.228296      0.801587      1.999496
   15   H     15    1.2000  1.000      2.362487     -1.279220     -0.333033
   16   H     16    1.2000  1.000      0.836346     -2.192996     -0.221753
   17   H     17    1.2000  1.000      1.215624     -1.268777     -1.694136
   18   H     18    1.2000  1.000      2.396849      1.203921     -0.235257
   19   H     19    1.2000  1.000      1.272180      1.296020     -1.612822
   20   H     20    1.2000  1.000      0.889730      2.143861     -0.095571
 ------------------------------------------------------------------------------
 GePol: Number of generator spheres                  =      20
 GePol: Total number of spheres                      =      20
 GePol: Number of exposed spheres                    =      20 (100.00%)
 GePol: Number of points                             =    1318
 GePol: Average weight of points                     =       0.11
 GePol: Minimum weight of points                     =   0.31D-11
 GePol: Maximum weight of points                     =    0.21991
 GePol: Number of points with low weight             =     102
 GePol: Fraction of low-weight points (<1% of avg)   =       7.74%
 GePol: Cavity surface area                          =    150.671 Ang**2
 GePol: Cavity volume                                =    124.638 Ang**3
 ------------------------------------------------------------------------------
 Atomic radii for non-electrostatic terms: SMD-CDS.
 ------------------------------------------------------------------------------
 PCM non-electrostatic energy =         0.0043901706 Hartrees.
 Nuclear repulsion after PCM non-electrostatic terms =      350.8027321398 Hartrees.
 Leave Link  301 at Wed Oct 22 10:14:09 2025, MaxMem=  4294967296 cpu:               0.7 elap:               0.1
 (Enter /lrz/sys/applications/gaussian/g16.C.01/x86_64_legacy/exe/l302.exe)
 NPDir=0 NMtPBC=     1 NCelOv=     1 NCel=       1 NClECP=     1 NCelD=      1
         NCelK=      1 NCelE2=     1 NClLst=     1 CellRange=     0.0.
 One-electron integrals computed using PRISM.
 One-electron integral symmetry used in STVInt
   1 Symmetry operations used in ECPInt.
 ECPInt:  NShTT=    8385 NPrTT=   24064 LenC2=    8320 LenP2D=   19749.
 LDataN:  DoStor=T MaxTD1= 6 Len=  172
 NBasis=   295 RedAO= T EigKep=  1.61D-04  NBF=   295
 NBsUse=   295 1.00D-06 EigRej= -1.00D+00 NBFU=   295
 Precomputing XC quadrature grid using
 IXCGrd= 4 IRadAn=           5 IRanWt=          -1 IRanGd=           0 AccXCQ= 0.00D+00.
 Generated NRdTot=       0 NPtTot=           0 NUsed=           0 NTot=          32
 NSgBfM=   329   329   329   329   329 MxSgAt=    20 MxSgA2=    20.
 Leave Link  302 at Wed Oct 22 10:14:10 2025, MaxMem=  4294967296 cpu:               2.9 elap:               0.4
 (Enter /lrz/sys/applications/gaussian/g16.C.01/x86_64_legacy/exe/l303.exe)
 DipDrv:  MaxL=1.
 Leave Link  303 at Wed Oct 22 10:14:10 2025, MaxMem=  4294967296 cpu:               0.4 elap:               0.1
 (Enter /lrz/sys/applications/gaussian/g16.C.01/x86_64_legacy/exe/l401.exe)
 ExpMin= 9.52D-02 ExpMax= 2.70D+04 ExpMxC= 9.22D+02 IAcc=3 IRadAn=         5 AccDes= 0.00D+00
 Harris functional with IExCor= 4639 and IRadAn=       5 diagonalized for initial guess.
 HarFok:  IExCor= 4639 AccDes= 0.00D+00 IRadAn=         5 IDoV= 1 UseB2=F ITyADJ=14
 ICtDFT=  3500011 ScaDFX=  1.000000  1.000000  1.000000  1.000000
 FoFCou: FMM=F IPFlag=           0 FMFlag=      100000 FMFlg1=           0
         NFxFlg=           0 DoJE=T BraDBF=F KetDBF=T FulRan=T
         wScrn=  0.000000 ICntrl=       500 IOpCl=  0 I1Cent=   200000004 NGrid=           0
         NMat0=    1 NMatS0=      1 NMatT0=    0 NMatD0=    1 NMtDS0=    0 NMtDT0=    0
 Petite list used in FoFCou.
 Harris En= -313.564098287639    
 JPrj=0 DoOrth=F DoCkMO=F.
 Leave Link  401 at Wed Oct 22 10:14:13 2025, MaxMem=  4294967296 cpu:              22.9 elap:               2.9
 (Enter /lrz/sys/applications/gaussian/g16.C.01/x86_64_legacy/exe/l502.exe)
 Integral symmetry usage will be decided dynamically.
 Closed shell SCF:
 Using DIIS extrapolation, IDIIS=  1040.
 NGot=  4294967296 LenX=  4294743206 LenY=  4294633865
 Requested convergence on RMS density matrix=1.00D-08 within 128 cycles.
 Requested convergence on MAX density matrix=1.00D-06.
 Requested convergence on             energy=1.00D-06.
 No special actions if energy rises.
 Fock matrices will be formed incrementally for  20 cycles.

 Cycle   1  Pass 1  IDiag  1:
 FoFJK:  IHMeth= 1 ICntrl=       0 DoSepK=T KAlg= 0 I1Cent=           0 FoldK=F
 IRaf=         1 NMat=       1 IRICut=       1 DoRegI=T DoRafI=F ISym2E= 0 IDoP0=0 IntGTp=1.
 FoFCou: FMM=F IPFlag=           0 FMFlag=      100000 FMFlg1=           0
         NFxFlg=           0 DoJE=T BraDBF=F KetDBF=F FulRan=T
         wScrn=  0.000000 ICntrl=       500 IOpCl=  0 I1Cent=           0 NGrid=           0
         NMat0=    1 NMatS0=      1 NMatT0=    0 NMatD0=    1 NMtDS0=    0 NMtDT0=    0
 Symmetry not used in FoFCou.
 Inv3:  Mode=1 IEnd=     5211372.
 Iteration    1 A*A^-1 deviation from unit magnitude is 5.55D-15 for    259.
 Iteration    1 A*A^-1 deviation from orthogonality  is 4.24D-15 for    827    231.
 Iteration    1 A^-1*A deviation from unit magnitude is 5.33D-15 for    636.
 Iteration    1 A^-1*A deviation from orthogonality  is 1.26D-14 for    948    827.
 E= -328.287697359058    
 DIIS: error= 5.19D-02 at cycle   1 NSaved=   1.
 NSaved= 1 IEnMin= 1 EnMin= -328.287697359058     IErMin= 1 ErrMin= 5.19D-02
 ErrMax= 5.19D-02  0.00D+00 EMaxC= 1.00D-01 BMatC= 7.00D-01 BMatP= 7.00D-01
 IDIUse=3 WtCom= 4.81D-01 WtEn= 5.19D-01
 Coeff-Com:  0.100D+01
 Coeff-En:   0.100D+01
 Coeff:      0.100D+01
 Gap=     0.487 Goal=   None    Shift=    0.000
 GapD=    0.487 DampG=2.000 DampE=0.500 DampFc=1.0000 IDamp=-1.
 RMSDP=1.64D-03 MaxDP=7.16D-02              OVMax= 6.30D-02

 Cycle   2  Pass 1  IDiag  1:
 RMSU=  1.58D-03    CP:  9.55D-01
 E= -328.354528355601     Delta-E=       -0.066830996543 Rises=F Damp=F
 DIIS: error= 8.35D-03 at cycle   2 NSaved=   2.
 NSaved= 2 IEnMin= 2 EnMin= -328.354528355601     IErMin= 2 ErrMin= 8.35D-03
 ErrMax= 8.35D-03  0.00D+00 EMaxC= 1.00D-01 BMatC= 4.05D-02 BMatP= 7.00D-01
 IDIUse=3 WtCom= 9.17D-01 WtEn= 8.35D-02
 Coeff-Com:  0.125D+00 0.875D+00
 Coeff-En:   0.000D+00 0.100D+01
 Coeff:      0.115D+00 0.885D+00
 Gap=     0.457 Goal=   None    Shift=    0.000
 RMSDP=6.85D-04 MaxDP=3.10D-02 DE=-6.68D-02 OVMax= 4.82D-02

 Cycle   3  Pass 1  IDiag  1:
 RMSU=  5.70D-04    CP:  9.62D-01  7.63D-01
 E= -328.368049432941     Delta-E=       -0.013521077340 Rises=F Damp=F
 DIIS: error= 6.39D-03 at cycle   3 NSaved=   3.
 NSaved= 3 IEnMin= 3 EnMin= -328.368049432941     IErMin= 3 ErrMin= 6.39D-03
 ErrMax= 6.39D-03  0.00D+00 EMaxC= 1.00D-01 BMatC= 2.33D-02 BMatP= 4.05D-02
 IDIUse=3 WtCom= 9.36D-01 WtEn= 6.39D-02
 Coeff-Com:  0.246D-01 0.438D+00 0.537D+00
 Coeff-En:   0.000D+00 0.347D+00 0.653D+00
 Coeff:      0.230D-01 0.432D+00 0.545D+00
 Gap=     0.458 Goal=   None    Shift=    0.000
 RMSDP=3.41D-04 MaxDP=1.65D-02 DE=-1.35D-02 OVMax= 2.29D-02

 Cycle   4  Pass 1  IDiag  1:
 RMSU=  1.48D-04    CP:  9.56D-01  9.09D-01  6.56D-01
 E= -328.384619989189     Delta-E=       -0.016570556248 Rises=F Damp=F
 DIIS: error= 7.80D-04 at cycle   4 NSaved=   4.
 NSaved= 4 IEnMin= 4 EnMin= -328.384619989189     IErMin= 4 ErrMin= 7.80D-04
 ErrMax= 7.80D-04  0.00D+00 EMaxC= 1.00D-01 BMatC= 3.48D-04 BMatP= 2.33D-02
 IDIUse=3 WtCom= 9.92D-01 WtEn= 7.80D-03
 Coeff-Com:  0.954D-02 0.175D+00 0.242D+00 0.573D+00
 Coeff-En:   0.000D+00 0.000D+00 0.000D+00 0.100D+01
 Coeff:      0.947D-02 0.174D+00 0.240D+00 0.577D+00
 Gap=     0.447 Goal=   None    Shift=    0.000
 RMSDP=3.92D-05 MaxDP=1.94D-03 DE=-1.66D-02 OVMax= 2.63D-03

 Cycle   5  Pass 1  IDiag  1:
 RMSU=  3.55D-05    CP:  9.56D-01  9.15D-01  6.75D-01  9.47D-01
 E= -328.384858568801     Delta-E=       -0.000238579612 Rises=F Damp=F
 DIIS: error= 1.17D-04 at cycle   5 NSaved=   5.
 NSaved= 5 IEnMin= 5 EnMin= -328.384858568801     IErMin= 5 ErrMin= 1.17D-04
 ErrMax= 1.17D-04  0.00D+00 EMaxC= 1.00D-01 BMatC= 9.48D-06 BMatP= 3.48D-04
 IDIUse=3 WtCom= 9.99D-01 WtEn= 1.17D-03
 Coeff-Com: -0.184D-02-0.306D-01-0.305D-01 0.839D-01 0.979D+00
 Coeff-En:   0.000D+00 0.000D+00 0.000D+00 0.000D+00 0.100D+01
 Coeff:     -0.183D-02-0.306D-01-0.305D-01 0.838D-01 0.979D+00
 Gap=     0.446 Goal=   None    Shift=    0.000
 RMSDP=2.85D-05 MaxDP=8.84D-04 DE=-2.39D-04 OVMax= 8.37D-04

 Cycle   6  Pass 1  IDiag  1:
 RMSU=  1.08D-05    CP:  9.55D-01  9.23D-01  6.91D-01  1.08D+00  1.22D+00
 E= -328.384870616411     Delta-E=       -0.000012047610 Rises=F Damp=F
 DIIS: error= 2.27D-05 at cycle   6 NSaved=   6.
 NSaved= 6 IEnMin= 6 EnMin= -328.384870616411     IErMin= 6 ErrMin= 2.27D-05
 ErrMax= 2.27D-05  0.00D+00 EMaxC= 1.00D-01 BMatC= 5.24D-07 BMatP= 9.48D-06
 IDIUse=1 WtCom= 1.00D+00 WtEn= 0.00D+00
 Coeff-Com: -0.814D-03-0.133D-01-0.151D-01 0.551D-02 0.240D+00 0.784D+00
 Coeff:     -0.814D-03-0.133D-01-0.151D-01 0.551D-02 0.240D+00 0.784D+00
 Gap=     0.446 Goal=   None    Shift=    0.000
 RMSDP=6.35D-06 MaxDP=1.78D-04 DE=-1.20D-05 OVMax= 2.74D-04

 Cycle   7  Pass 1  IDiag  1:
 RMSU=  2.62D-06    CP:  9.55D-01  9.24D-01  6.93D-01  1.10D+00  1.30D+00
                    CP:  1.14D+00
 E= -328.384871225183     Delta-E=       -0.000000608772 Rises=F Damp=F
 DIIS: error= 1.08D-05 at cycle   7 NSaved=   7.
 NSaved= 7 IEnMin= 7 EnMin= -328.384871225183     IErMin= 7 ErrMin= 1.08D-05
 ErrMax= 1.08D-05  0.00D+00 EMaxC= 1.00D-01 BMatC= 9.50D-08 BMatP= 5.24D-07
 IDIUse=1 WtCom= 1.00D+00 WtEn= 0.00D+00
 Coeff-Com: -0.203D-04-0.714D-03-0.143D-02-0.866D-02-0.513D-01 0.263D+00
 Coeff-Com:  0.799D+00
 Coeff:     -0.203D-04-0.714D-03-0.143D-02-0.866D-02-0.513D-01 0.263D+00
 Coeff:      0.799D+00
 Gap=     0.446 Goal=   None    Shift=    0.000
 RMSDP=2.71D-06 MaxDP=8.19D-05 DE=-6.09D-07 OVMax= 1.02D-04

 Cycle   8  Pass 1  IDiag  1:
 RMSU=  1.01D-06    CP:  9.55D-01  9.25D-01  6.94D-01  1.11D+00  1.33D+00
                    CP:  1.29D+00  1.17D+00
 E= -328.384871337078     Delta-E=       -0.000000111895 Rises=F Damp=F
 DIIS: error= 2.24D-06 at cycle   8 NSaved=   8.
 NSaved= 8 IEnMin= 8 EnMin= -328.384871337078     IErMin= 8 ErrMin= 2.24D-06
 ErrMax= 2.24D-06  0.00D+00 EMaxC= 1.00D-01 BMatC= 4.08D-09 BMatP= 9.50D-08
 IDIUse=1 WtCom= 1.00D+00 WtEn= 0.00D+00
 Coeff-Com:  0.441D-04 0.698D-03 0.705D-03-0.214D-02-0.260D-01 0.807D-02
 Coeff-Com:  0.163D+00 0.856D+00
 Coeff:      0.441D-04 0.698D-03 0.705D-03-0.214D-02-0.260D-01 0.807D-02
 Coeff:      0.163D+00 0.856D+00
 Gap=     0.446 Goal=   None    Shift=    0.000
 RMSDP=7.41D-07 MaxDP=2.36D-05 DE=-1.12D-07 OVMax= 3.20D-05

 Cycle   9  Pass 1  IDiag  1:
 RMSU=  2.25D-07    CP:  9.55D-01  9.25D-01  6.94D-01  1.12D+00  1.34D+00
                    CP:  1.33D+00  1.30D+00  1.23D+00
 E= -328.384871343243     Delta-E=       -0.000000006165 Rises=F Damp=F
 DIIS: error= 9.83D-07 at cycle   9 NSaved=   9.
 NSaved= 9 IEnMin= 9 EnMin= -328.384871343243     IErMin= 9 ErrMin= 9.83D-07
 ErrMax= 9.83D-07  0.00D+00 EMaxC= 1.00D-01 BMatC= 7.61D-10 BMatP= 4.08D-09
 IDIUse=1 WtCom= 1.00D+00 WtEn= 0.00D+00
 Coeff-Com:  0.157D-04 0.306D-03 0.392D-03 0.724D-04-0.327D-02-0.238D-01
 Coeff-Com: -0.338D-01 0.282D+00 0.778D+00
 Coeff:      0.157D-04 0.306D-03 0.392D-03 0.724D-04-0.327D-02-0.238D-01
 Coeff:     -0.338D-01 0.282D+00 0.778D+00
 Gap=     0.446 Goal=   None    Shift=    0.000
 RMSDP=2.39D-07 MaxDP=7.56D-06 DE=-6.17D-09 OVMax= 1.28D-05

 Cycle  10  Pass 1  IDiag  1:
 RMSU=  8.46D-08    CP:  9.55D-01  9.25D-01  6.94D-01  1.12D+00  1.34D+00
                    CP:  1.34D+00  1.33D+00  1.35D+00  1.14D+00
 E= -328.384871344275     Delta-E=       -0.000000001032 Rises=F Damp=F
 DIIS: error= 2.73D-07 at cycle  10 NSaved=  10.
 NSaved=10 IEnMin=10 EnMin= -328.384871344275     IErMin=10 ErrMin= 2.73D-07
 ErrMax= 2.73D-07  0.00D+00 EMaxC= 1.00D-01 BMatC= 6.03D-11 BMatP= 7.61D-10
 IDIUse=1 WtCom= 1.00D+00 WtEn= 0.00D+00
 Coeff-Com: -0.214D-05-0.221D-04 0.497D-06 0.315D-03 0.304D-02-0.682D-02
 Coeff-Com: -0.328D-01-0.491D-01 0.178D+00 0.907D+00
 Coeff:     -0.214D-05-0.221D-04 0.497D-06 0.315D-03 0.304D-02-0.682D-02
 Coeff:     -0.328D-01-0.491D-01 0.178D+00 0.907D+00
 Gap=     0.446 Goal=   None    Shift=    0.000
 RMSDP=9.62D-08 MaxDP=2.77D-06 DE=-1.03D-09 OVMax= 4.95D-06

 Cycle  11  Pass 1  IDiag  1:
 RMSU=  2.88D-08    CP:  9.55D-01  9.25D-01  6.94D-01  1.12D+00  1.34D+00
                    CP:  1.35D+00  1.35D+00  1.41D+00  1.32D+00  1.26D+00
 E= -328.384871344382     Delta-E=       -0.000000000107 Rises=F Damp=F
 DIIS: error= 4.35D-08 at cycle  11 NSaved=  11.
 NSaved=11 IEnMin=11 EnMin= -328.384871344382     IErMin=11 ErrMin= 4.35D-08
 ErrMax= 4.35D-08  0.00D+00 EMaxC= 1.00D-01 BMatC= 1.26D-12 BMatP= 6.03D-11
 IDIUse=1 WtCom= 1.00D+00 WtEn= 0.00D+00
 Coeff-Com: -0.203D-06-0.806D-05-0.150D-04-0.222D-04-0.274D-03 0.165D-02
 Coeff-Com:  0.538D-02-0.572D-02-0.571D-01-0.100D+00 0.116D+01
 Coeff:     -0.203D-06-0.806D-05-0.150D-04-0.222D-04-0.274D-03 0.165D-02
 Coeff:      0.538D-02-0.572D-02-0.571D-01-0.100D+00 0.116D+01
 Gap=     0.446 Goal=   None    Shift=    0.000
 RMSDP=2.17D-08 MaxDP=5.93D-07 DE=-1.07D-10 OVMax= 1.18D-06

 Cycle  12  Pass 1  IDiag  1:
 RMSU=  5.98D-09    CP:  9.55D-01  9.25D-01  6.94D-01  1.12D+00  1.34D+00
                    CP:  1.35D+00  1.35D+00  1.41D+00  1.36D+00  1.41D+00
                    CP:  1.36D+00
 E= -328.384871344387     Delta-E=       -0.000000000005 Rises=F Damp=F
 DIIS: error= 8.72D-09 at cycle  12 NSaved=  12.
 NSaved=12 IEnMin=12 EnMin= -328.384871344387     IErMin=12 ErrMin= 8.72D-09
 ErrMax= 8.72D-09  0.00D+00 EMaxC= 1.00D-01 BMatC= 6.50D-14 BMatP= 1.26D-12
 IDIUse=1 WtCom= 1.00D+00 WtEn= 0.00D+00
 Coeff-Com:  0.493D-07 0.188D-06-0.106D-05-0.152D-04-0.142D-03 0.372D-03
 Coeff-Com:  0.181D-02 0.203D-02-0.104D-01-0.473D-01 0.706D-01 0.983D+00
 Coeff:      0.493D-07 0.188D-06-0.106D-05-0.152D-04-0.142D-03 0.372D-03
 Coeff:      0.181D-02 0.203D-02-0.104D-01-0.473D-01 0.706D-01 0.983D+00
 Gap=     0.446 Goal=   None    Shift=    0.000
 RMSDP=4.30D-09 MaxDP=1.30D-07 DE=-5.34D-12 OVMax= 2.35D-07

 Error on total polarization charges =  0.04716
 SCF Done:  E(RwB97XD) =  -328.384871344     A.U. after   12 cycles
            NFock= 12  Conv=0.43D-08     -V/T= 2.0057
 KE= 3.265338968989D+02 PE=-1.466604308663D+03 EE= 4.608828082804D+02
 SMD-CDS (non-electrostatic) energy       (kcal/mol) =       2.75
 (included in total energy above)
 Leave Link  502 at Wed Oct 22 10:16:46 2025, MaxMem=  4294967296 cpu:            1224.5 elap:             153.3
 (Enter /lrz/sys/applications/gaussian/g16.C.01/x86_64_legacy/exe/l601.exe)
 Copying SCF densities to generalized density rwf, IOpCl= 0 IROHF=0.

 **********************************************************************

            Population analysis using the SCF Density.

 **********************************************************************

 Orbital symmetries:
       Occupied  (A) (A) (A) (A) (A) (A) (A) (A) (A) (A) (A) (A)
                 (A) (A) (A) (A) (A) (A) (A) (A) (A) (A) (A) (A)
                 (A) (A) (A) (A) (A)
       Virtual   (A) (A) (A) (A) (A) (A) (A) (A) (A) (A) (A) (A)
                 (A) (A) (A) (A) (A) (A) (A) (A) (A) (A) (A) (A)
                 (A) (A) (A) (A) (A) (A) (A) (A) (A) (A) (A) (A)
                 (A) (A) (A) (A) (A) (A) (A) (A) (A) (A) (A) (A)
                 (A) (A) (A) (A) (A) (A) (A) (A) (A) (A) (A) (A)
                 (A) (A) (A) (A) (A) (A) (A) (A) (A) (A) (A) (A)
                 (A) (A) (A) (A) (A) (A) (A) (A) (A) (A) (A) (A)
                 (A) (A) (A) (A) (A) (A) (A) (A) (A) (A) (A) (A)
                 (A) (A) (A) (A) (A) (A) (A) (A) (A) (A) (A) (A)
                 (A) (A) (A) (A) (A) (A) (A) (A) (A) (A) (A) (A)
                 (A) (A) (A) (A) (A) (A) (A) (A) (A) (A) (A) (A)
                 (A) (A) (A) (A) (A) (A) (A) (A) (A) (A) (A) (A)
                 (A) (A) (A) (A) (A) (A) (A) (A) (A) (A) (A) (A)
                 (A) (A) (A) (A) (A) (A) (A) (A) (A) (A) (A) (A)
                 (A) (A) (A) (A) (A) (A) (A) (A) (A) (A) (A) (A)
                 (A) (A) (A) (A) (A) (A) (A) (A) (A) (A) (A) (A)
                 (A) (A) (A) (A) (A) (A) (A) (A) (A) (A) (A) (A)
                 (A) (A) (A) (A) (A) (A) (A) (A) (A) (A) (A) (A)
                 (A) (A) (A) (A) (A) (A) (A) (A) (A) (A) (A) (A)
                 (A) (A) (A) (A) (A) (A) (A) (A) (A) (A) (A) (A)
                 (A) (A) (A) (A) (A) (A) (A) (A) (A) (A) (A) (A)
                 (A) (A) (A) (A) (A) (A) (A) (A) (A) (A) (A) (A)
                 (A) (A)
 The electronic state is 1-A.
 Alpha  occ. eigenvalues --  -19.24599 -14.40917 -10.34867 -10.28948 -10.26502
 Alpha  occ. eigenvalues --  -10.26120 -10.26097  -1.13016  -0.97379  -0.90220
 Alpha  occ. eigenvalues --   -0.77720  -0.77046  -0.74350  -0.64371  -0.58571
 Alpha  occ. eigenvalues --   -0.57275  -0.54688  -0.52792  -0.50882  -0.49131
 Alpha  occ. eigenvalues --   -0.46231  -0.45445  -0.44823  -0.43680  -0.41843
 Alpha  occ. eigenvalues --   -0.40069  -0.39752  -0.36807  -0.33522
 Alpha virt. eigenvalues --    0.11115   0.14224   0.15159   0.16196   0.16974
 Alpha virt. eigenvalues --    0.17525   0.17893   0.20770   0.21157   0.21799
 Alpha virt. eigenvalues --    0.23129   0.23999   0.24388   0.24840   0.25081
 Alpha virt. eigenvalues --    0.26505   0.27284   0.29842   0.31465   0.32299
 Alpha virt. eigenvalues --    0.34015   0.34568   0.36394   0.38217   0.39453
 Alpha virt. eigenvalues --    0.40629   0.40862   0.42947   0.43734   0.44632
 Alpha virt. eigenvalues --    0.46842   0.48390   0.49546   0.49679   0.50373
 Alpha virt. eigenvalues --    0.50922   0.52731   0.53332   0.54090   0.54733
 Alpha virt. eigenvalues --    0.55496   0.56128   0.56196   0.57180   0.57653
 Alpha virt. eigenvalues --    0.58820   0.59884   0.61688   0.62093   0.64397
 Alpha virt. eigenvalues --    0.65145   0.67312   0.69846   0.72096   0.75420
 Alpha virt. eigenvalues --    0.75779   0.79959   0.80544   0.82697   0.86273
 Alpha virt. eigenvalues --    0.89054   0.90866   0.92408   0.94788   0.95506
 Alpha virt. eigenvalues --    0.97298   0.98326   1.01436   1.07562   1.08236
 Alpha virt. eigenvalues --    1.10028   1.10841   1.11681   1.15819   1.17629
 Alpha virt. eigenvalues --    1.21143   1.21960   1.23393   1.24386   1.27284
 Alpha virt. eigenvalues --    1.33073   1.35710   1.36766   1.38076   1.39027
 Alpha virt. eigenvalues --    1.42607   1.45068   1.48476   1.51276   1.54007
 Alpha virt. eigenvalues --    1.55061   1.56441   1.61456   1.64159   1.64563
 Alpha virt. eigenvalues --    1.65388   1.66721   1.67952   1.69025   1.70689
 Alpha virt. eigenvalues --    1.71964   1.72253   1.73871   1.74668   1.76490
 Alpha virt. eigenvalues --    1.79634   1.82662   1.85440   1.87318   1.87945
 Alpha virt. eigenvalues --    1.91926   1.94413   1.97127   1.98308   2.00694
 Alpha virt. eigenvalues --    2.01694   2.05218   2.07093   2.08393   2.10439
 Alpha virt. eigenvalues --    2.12067   2.13033   2.17927   2.20790   2.23443
 Alpha virt. eigenvalues --    2.24169   2.25324   2.25899   2.32679   2.32937
 Alpha virt. eigenvalues --    2.33266   2.36728   2.38087   2.38620   2.40261
 Alpha virt. eigenvalues --    2.42679   2.43806   2.46160   2.46667   2.47146
 Alpha virt. eigenvalues --    2.49929   2.52307   2.53795   2.55958   2.56544
 Alpha virt. eigenvalues --    2.58791   2.61611   2.62028   2.63366   2.65496
 Alpha virt. eigenvalues --    2.66230   2.68942   2.69907   2.71923   2.72500
 Alpha virt. eigenvalues --    2.73580   2.76277   2.77653   2.80718   2.83123
 Alpha virt. eigenvalues --    2.85933   2.88164   2.89671   2.91559   2.92529
 Alpha virt. eigenvalues --    2.93866   2.99454   3.01253   3.02687   3.06530
 Alpha virt. eigenvalues --    3.07743   3.16416   3.16751   3.18508   3.19962
 Alpha virt. eigenvalues --    3.21461   3.26082   3.27042   3.27680   3.29353
 Alpha virt. eigenvalues --    3.33504   3.34554   3.36423   3.40236   3.40535
 Alpha virt. eigenvalues --    3.42625   3.43345   3.44997   3.45427   3.46848
 Alpha virt. eigenvalues --    3.48487   3.50033   3.50666   3.50992   3.55653
 Alpha virt. eigenvalues --    3.57318   3.59950   3.68273   3.70695   3.72396
 Alpha virt. eigenvalues --    3.74573   3.77223   3.81373   3.82401   3.84080
 Alpha virt. eigenvalues --    3.86559   3.89601   3.99189   4.02046   4.12480
 Alpha virt. eigenvalues --    4.14696   4.15099   4.18208   4.20005   4.21304
 Alpha virt. eigenvalues --    4.22375   4.25899   4.27253   4.32561   4.33284
 Alpha virt. eigenvalues --    4.38784   4.43452   4.44615   4.49355   4.51357
 Alpha virt. eigenvalues --    4.52101   4.53919   4.55409   4.56985   4.70735
 Alpha virt. eigenvalues --    4.76700   4.78999   4.81309   4.83763   4.91977
 Alpha virt. eigenvalues --    4.96103   4.99367   5.02468   5.03987   5.06843
 Alpha virt. eigenvalues --    5.10958   5.17244   5.24676   5.35006   5.37418
 Alpha virt. eigenvalues --    5.45280   5.48376   5.59624   5.68269   5.85036
 Alpha virt. eigenvalues --    5.90489   5.97195   6.07745   6.41125   6.59571
 Alpha virt. eigenvalues --    6.82097   6.95749   7.09955   7.26358  22.49366
 Alpha virt. eigenvalues --   22.52891  22.53431  22.73872  22.79776  32.11950
 Alpha virt. eigenvalues --   44.04149
          Condensed to atoms (all electrons):
               1          2          3          4          5          6
     1  O    8.169160   0.266486  -0.107907  -0.025507  -0.013698   0.004882
     2  C    0.266486   4.761544   0.333189   0.327985  -0.031219  -0.063897
     3  N   -0.107907   0.333189   6.699901  -0.039697  -0.006637  -0.020410
     4  C   -0.025507   0.327985  -0.039697   5.050553   0.298824   0.311485
     5  C   -0.013698  -0.031219  -0.006637   0.298824   5.111540  -0.066094
     6  C    0.004882  -0.063897  -0.020410   0.311485  -0.066094   5.142039
     7  C   -0.018403  -0.067665   0.006225   0.307315  -0.062234  -0.080165
     8  H    0.298726  -0.024238   0.002763  -0.006414   0.005661   0.000335
     9  H   -0.037478   0.424720  -0.033771  -0.039774   0.009968  -0.007552
    10  H    0.003341  -0.034087   0.367407   0.009149  -0.000804   0.000578
    11  H   -0.000532  -0.025919   0.364794  -0.015442   0.006551  -0.000961
    12  H    0.000609  -0.009129   0.000455  -0.028104   0.412199  -0.013370
    13  H    0.000206   0.009131  -0.000040  -0.031349   0.415676  -0.007264
    14  H    0.002759  -0.005105  -0.000533  -0.025755   0.399772   0.012584
    15  H   -0.000257   0.012488   0.000950  -0.033221  -0.009897   0.405733
    16  H    0.000640  -0.012721   0.016511  -0.031523  -0.005287   0.402440
    17  H    0.000085  -0.005427   0.000243  -0.032760   0.011287   0.402718
    18  H    0.000828   0.012650  -0.000175  -0.034413  -0.011000  -0.008271
    19  H    0.000079  -0.006641   0.000186  -0.031855   0.011399  -0.006735
    20  H    0.016388  -0.018633   0.001027  -0.025170  -0.006793   0.012839
               7          8          9         10         11         12
     1  O   -0.018403   0.298726  -0.037478   0.003341  -0.000532   0.000609
     2  C   -0.067665  -0.024238   0.424720  -0.034087  -0.025919  -0.009129
     3  N    0.006225   0.002763  -0.033771   0.367407   0.364794   0.000455
     4  C    0.307315  -0.006414  -0.039774   0.009149  -0.015442  -0.028104
     5  C   -0.062234   0.005661   0.009968  -0.000804   0.006551   0.412199
     6  C   -0.080165   0.000335  -0.007552   0.000578  -0.000961  -0.013370
     7  C    5.140158  -0.003869  -0.009409  -0.000542   0.000146   0.012056
     8  H   -0.003869   0.354924   0.007963  -0.000354   0.005038  -0.000652
     9  H   -0.009409   0.007963   0.562909  -0.006765   0.006932  -0.000362
    10  H   -0.000542  -0.000354  -0.006765   0.430374  -0.025483  -0.000097
    11  H    0.000146   0.005038   0.006932  -0.025483   0.431668  -0.001346
    12  H    0.012056  -0.000652  -0.000362  -0.000097  -0.001346   0.525486
    13  H   -0.008791  -0.000006  -0.000166   0.000019   0.000034  -0.020725
    14  H   -0.012956   0.001572  -0.000060  -0.000211  -0.000604  -0.021945
    15  H   -0.008420  -0.000038  -0.000572   0.000053  -0.000168   0.000113
    16  H    0.012119  -0.000036   0.000167  -0.000532   0.000074   0.003384
    17  H   -0.006293  -0.000000   0.004075  -0.000159   0.000080  -0.000028
    18  H    0.410048  -0.000114  -0.000466   0.000020  -0.000028   0.000018
    19  H    0.402360   0.000168   0.004898  -0.000027   0.000023  -0.000353
    20  H    0.400201   0.000696   0.000063  -0.000074  -0.000019  -0.000107
              13         14         15         16         17         18
     1  O    0.000206   0.002759  -0.000257   0.000640   0.000085   0.000828
     2  C    0.009131  -0.005105   0.012488  -0.012721  -0.005427   0.012650
     3  N   -0.000040  -0.000533   0.000950   0.016511   0.000243  -0.000175
     4  C   -0.031349  -0.025755  -0.033221  -0.031523  -0.032760  -0.034413
     5  C    0.415676   0.399772  -0.009897  -0.005287   0.011287  -0.011000
     6  C   -0.007264   0.012584   0.405733   0.402440   0.402718  -0.008271
     7  C   -0.008791  -0.012956  -0.008420   0.012119  -0.006293   0.410048
     8  H   -0.000006   0.001572  -0.000038  -0.000036  -0.000000  -0.000114
     9  H   -0.000166  -0.000060  -0.000572   0.000167   0.004075  -0.000466
    10  H    0.000019  -0.000211   0.000053  -0.000532  -0.000159   0.000020
    11  H    0.000034  -0.000604  -0.000168   0.000074   0.000080  -0.000028
    12  H   -0.020725  -0.021945   0.000113   0.003384  -0.000028   0.000018
    13  H    0.515528  -0.020289   0.002495  -0.000545  -0.000063   0.003003
    14  H   -0.020289   0.532614  -0.000104  -0.000005  -0.000325  -0.000103
    15  H    0.002495  -0.000104   0.534280  -0.020073  -0.021266   0.002386
    16  H   -0.000545  -0.000005  -0.020073   0.532306  -0.020888  -0.000177
    17  H   -0.000063  -0.000325  -0.021266  -0.020888   0.534016  -0.000183
    18  H    0.003003  -0.000103   0.002386  -0.000177  -0.000183   0.529727
    19  H    0.000063  -0.000060  -0.000373  -0.000177   0.002971  -0.020976
    20  H   -0.000422   0.003520  -0.000236  -0.000423  -0.000173  -0.019643
              19         20
     1  O    0.000079   0.016388
     2  C   -0.006641  -0.018633
     3  N    0.000186   0.001027
     4  C   -0.031855  -0.025170
     5  C    0.011399  -0.006793
     6  C   -0.006735   0.012839
     7  C    0.402360   0.400201
     8  H    0.000168   0.000696
     9  H    0.004898   0.000063
    10  H   -0.000027  -0.000074
    11  H    0.000023  -0.000019
    12  H   -0.000353  -0.000107
    13  H    0.000063  -0.000422
    14  H   -0.000060   0.003520
    15  H   -0.000373  -0.000236
    16  H   -0.000177  -0.000423
    17  H    0.002971  -0.000173
    18  H   -0.020976  -0.019643
    19  H    0.533460  -0.020786
    20  H   -0.020786   0.531762
 Mulliken charges:
               1
     1  O   -0.560407
     2  C    0.156489
     3  N   -0.584480
     4  C    0.095673
     5  C   -0.469214
     6  C   -0.420914
     7  C   -0.411881
     8  H    0.357874
     9  H    0.114681
    10  H    0.258194
    11  H    0.255163
    12  H    0.141897
    13  H    0.143504
    14  H    0.135234
    15  H    0.136127
    16  H    0.124744
    17  H    0.132090
    18  H    0.136868
    19  H    0.132377
    20  H    0.125983
 Sum of Mulliken charges =  -0.00000
 Mulliken charges with hydrogens summed into heavy atoms:
               1
     1  O   -0.202534
     2  C    0.271170
     3  N   -0.071124
     4  C    0.095673
     5  C   -0.048580
     6  C   -0.027954
     7  C   -0.016652
 Electronic spatial extent (au):  <R**2>=            816.8042
 Charge=             -0.0000 electrons
 Dipole moment (field-independent basis, Debye):
    X=             -0.0129    Y=             -0.2665    Z=              2.2739  Tot=              2.2895
 Quadrupole moment (field-independent basis, Debye-Ang):
   XX=            -43.8265   YY=            -52.4254   ZZ=            -42.5571
   XY=              2.0831   XZ=             -3.0630   YZ=              0.8908
 Traceless Quadrupole moment (field-independent basis, Debye-Ang):
   XX=              2.4432   YY=             -6.1558   ZZ=              3.7126
   XY=              2.0831   XZ=             -3.0630   YZ=              0.8908
 Octapole moment (field-independent basis, Debye-Ang**2):
  XXX=            -16.9527  YYY=              6.5531  ZZZ=             -0.2294  XYY=              1.1171
  XXY=             -6.6287  XXZ=              6.1766  XZZ=             -9.2788  YZZ=              2.1879
  YYZ=              8.7499  XYZ=             -2.1282
 Hexadecapole moment (field-independent basis, Debye-Ang**3):
 XXXX=           -458.6369 YYYY=           -368.0390 ZZZZ=           -238.1247 XXXY=             19.2904
 XXXZ=              1.5716 YYYX=             -6.7122 YYYZ=              0.9095 ZZZX=             -6.3513
 ZZZY=              0.1066 XXYY=           -152.3331 XXZZ=           -117.0124 YYZZ=            -94.5521
 XXYZ=              4.8802 YYXZ=             -9.8735 ZZXY=             -1.9625
 N-N= 3.508027321398D+02 E-N=-1.466604309425D+03  KE= 3.265338968989D+02
 No NMR shielding tensors so no spin-rotation constants.
 Leave Link  601 at Wed Oct 22 10:16:46 2025, MaxMem=  4294967296 cpu:               1.5 elap:               0.2
 (Enter /lrz/sys/applications/gaussian/g16.C.01/x86_64_legacy/exe/l9999.exe)
 Unable to Open any file for archive entry.
 1\1\GINC-CM4R15C05S03\SP\RwB97XD\def2TZVP\C5H13N1O1\GO29TIZ2\22-Oct-20
 25\0\\#p wb97xd scrf=(smd,solvent=water) def2tzvp\\g16_g16_C4-a_1\\0,1
 \O,0,1.495946,-1.240174,-0.08992\C,0,0.862843,-0.023837,-0.467467\N,0,
 1.601528,1.14519,-0.06825\C,0,-0.614674,0.025799,-0.000629\C,0,-0.7117
 65,0.071051,1.53081\C,0,-1.292528,1.265346,-0.594565\C,0,-1.331848,-1.
 22857,-0.514305\H,0,1.513426,-1.278833,0.875077\H,0,0.859172,-0.058283
 ,-1.569137\H,0,2.566147,1.043861,-0.380236\H,0,1.636537,1.199545,0.950
 164\H,0,-0.256228,0.982174,1.949519\H,0,-1.767979,0.06226,1.84174\H,0,
 -0.228297,-0.801587,1.999496\H,0,-2.362487,1.279221,-0.333033\H,0,-0.8
 36345,2.192996,-0.221753\H,0,-1.215624,1.268778,-1.694136\H,0,-2.39685
 ,-1.20392,-0.235257\H,0,-1.272181,-1.296019,-1.612822\H,0,-0.889731,-2
 .143861,-0.095571\\Version=EM64L-G16RevC.01\State=1-A\HF=-328.3848713\
 RMSD=4.300e-09\Dipole=0.0050613,0.104866,0.8946066\Quadrupole=1.816460
 5,-4.5766547,2.7601941,1.5487471,2.2772629,-0.6622688\PG=C01 [X(C5H13N
 1O1)]\\@
 The archive entry for this job was punched.


 HERE WE GO......
 SLIDING DOWN THE RAZOR BLADE OF LIFE......
                                 TOM LEHRER
 Job cpu time:       0 days  0 hours 20 minutes 59.2 seconds.
 Elapsed time:       0 days  0 hours  2 minutes 37.9 seconds.
 File lengths (MBytes):  RWF=    320 Int=      0 D2E=      0 Chk=     12 Scr=     32
 Normal termination of Gaussian 16 at Wed Oct 22 10:16:46 2025.
