 Entering Gaussian System, Link 0=g16
 Input=../../g16_g16_C1-w_3.com
 Output=../../g16_g16_C1-w_3.log
 Initial command:
 /lrz/sys/applications/gaussian/g16.C.01/x86_64_legacy/exe/l1.exe "/dss/lxclscratch/0D/go29tiz2/Gau-12071.inp" -scrdir="/dss/lxclscratch/0D/go29tiz2/"
 Entering Link 1 = /lrz/sys/applications/gaussian/g16.C.01/x86_64_legacy/exe/l1.exe PID=     12072.
  
 Copyright (c) 1988-2019, Gaussian, Inc.  All Rights Reserved.
  
 This is part of the Gaussian(R) 16 program.  It is based on
 the Gaussian(R) 09 system (copyright 2009, Gaussian, Inc.),
 the Gaussian(R) 03 system (copyright 2003, Gaussian, Inc.),
 the Gaussian(R) 98 system (copyright 1998, Gaussian, Inc.),
 the Gaussian(R) 94 system (copyright 1995, Gaussian, Inc.),
 the Gaussian 92(TM) system (copyright 1992, Gaussian, Inc.),
 the Gaussian 90(TM) system (copyright 1990, Gaussian, Inc.),
 the Gaussian 88(TM) system (copyright 1988, Gaussian, Inc.),
 the Gaussian 86(TM) system (copyright 1986, Carnegie Mellon
 University), and the Gaussian 82(TM) system (copyright 1983,
 Carnegie Mellon University). Gaussian is a federally registered
 trademark of Gaussian, Inc.
  
 This software contains proprietary and confidential information,
 including trade secrets, belonging to Gaussian, Inc.
  
 This software is provided under written license and may be
 used, copied, transmitted, or stored only in accord with that
 written license.
  
 The following legend is applicable only to US Government
 contracts under FAR:
  
                    RESTRICTED RIGHTS LEGEND
  
 Use, reproduction and disclosure by the US Government is
 subject to restrictions as set forth in subparagraphs (a)
 and (c) of the Commercial Computer Software - Restricted
 Rights clause in FAR 52.227-19.
  
 Gaussian, Inc.
 340 Quinnipiac St., Bldg. 40, Wallingford CT 06492
  
  
 ---------------------------------------------------------------
 Warning -- This program may not be used in any manner that
 competes with the business of Gaussian, Inc. or will provide
 assistance to any competitor of Gaussian, Inc.  The licensee
 of this program is prohibited from giving any competitor of
 Gaussian, Inc. access to this program.  By using this program,
 the user acknowledges that Gaussian, Inc. is engaged in the
 business of creating and licensing software in the field of
 computational chemistry and represents and warrants to the
 licensee that it is not a competitor of Gaussian, Inc. and that
 it will not use this program in any manner prohibited above.
 ---------------------------------------------------------------
  

 Cite this work as:
 Gaussian 16, Revision C.01,
 M. J. Frisch, G. W. Trucks, H. B. Schlegel, G. E. Scuseria, 
 M. A. Robb, J. R. Cheeseman, G. Scalmani, V. Barone, 
 G. A. Petersson, H. Nakatsuji, X. Li, M. Caricato, A. V. Marenich, 
 J. Bloino, B. G. Janesko, R. Gomperts, B. Mennucci, H. P. Hratchian, 
 J. V. Ortiz, A. F. Izmaylov, J. L. Sonnenberg, D. Williams-Young, 
 F. Ding, F. Lipparini, F. Egidi, J. Goings, B. Peng, A. Petrone, 
 T. Henderson, D. Ranasinghe, V. G. Zakrzewski, J. Gao, N. Rega, 
 G. Zheng, W. Liang, M. Hada, M. Ehara, K. Toyota, R. Fukuda, 
 J. Hasegawa, M. Ishida, T. Nakajima, Y. Honda, O. Kitao, H. Nakai, 
 T. Vreven, K. Throssell, J. A. Montgomery, Jr., J. E. Peralta, 
 F. Ogliaro, M. J. Bearpark, J. J. Heyd, E. N. Brothers, K. N. Kudin, 
 V. N. Staroverov, T. A. Keith, R. Kobayashi, J. Normand, 
 K. Raghavachari, A. P. Rendell, J. C. Burant, S. S. Iyengar, 
 J. Tomasi, M. Cossi, J. M. Millam, M. Klene, C. Adamo, R. Cammi, 
 J. W. Ochterski, R. L. Martin, K. Morokuma, O. Farkas, 
 J. B. Foresman, and D. J. Fox, Gaussian, Inc., Wallingford CT, 2019.
 
 ******************************************
 Gaussian 16:  EM64L-G16RevC.01  3-Jul-2019
                22-Oct-2025 
 ******************************************
 %chk=g16_g16_C1-w_3.chk
 %nprocshared=8
 Will use up to    8 processors via shared memory.
 %mem=32GB
 -------------------------------------------
 #p wb97xd scrf=(smd,solvent=water) def2tzvp
 -------------------------------------------
 1/38=1,172=1/1;
 2/12=2,17=6,18=5,40=1/2;
 3/5=44,7=101,11=2,25=1,30=1,70=32201,72=1,74=-58/1,2,3;
 4//1;
 5/5=2,38=5,53=1/2;
 6/7=2,8=2,9=2,10=2,28=1/1;
 99/5=1,9=1/99;
 Leave Link    1 at Wed Oct 22 10:03:16 2025, MaxMem=  4294967296 cpu:               4.7 elap:               0.7
 (Enter /lrz/sys/applications/gaussian/g16.C.01/x86_64_legacy/exe/l101.exe)
 --------------
 g16_g16_C1-w_3
 --------------
 Symbolic Z-matrix:
 Charge =  0 Multiplicity = 1
 C                     1.3707   -0.16048  -0.09396 
 C                    -0.06536   0.00323   0.36416 
 O                    -0.64629   1.17693  -0.16532 
 O                    -0.87002  -1.07369  -0.02058 
 H                     1.98781   0.68263   0.25066 
 H                     1.79642  -1.09008   0.3095 
 H                     1.40846  -0.19519  -1.19463 
 H                    -0.11349   0.02516   1.46809 
 H                    -0.0443    1.91312  -0.00002 
 H                    -0.7364   -1.21804  -0.96752 
 
 ITRead=  0  0  0  0  0  0  0  0  0  0
 MicOpt= -1 -1 -1 -1 -1 -1 -1 -1 -1 -1
 NAtoms=     10 NQM=       10 NQMF=       0 NMMI=      0 NMMIF=      0
                NMic=       0 NMicF=      0.
                    Isotopes and Nuclear Properties:
 (Nuclear quadrupole moments (NQMom) in fm**2, nuclear magnetic moments (NMagM)
  in nuclear magnetons)

  Atom         1           2           3           4           5           6           7           8           9          10
 IAtWgt=          12          12          16          16           1           1           1           1           1           1
 AtmWgt=  12.0000000  12.0000000  15.9949146  15.9949146   1.0078250   1.0078250   1.0078250   1.0078250   1.0078250   1.0078250
 NucSpn=           0           0           0           0           1           1           1           1           1           1
 AtZEff=  -0.0000000  -0.0000000  -0.0000000  -0.0000000  -0.0000000  -0.0000000  -0.0000000  -0.0000000  -0.0000000  -0.0000000
 NQMom=    0.0000000   0.0000000   0.0000000   0.0000000   0.0000000   0.0000000   0.0000000   0.0000000   0.0000000   0.0000000
 NMagM=    0.0000000   0.0000000   0.0000000   0.0000000   2.7928460   2.7928460   2.7928460   2.7928460   2.7928460   2.7928460
 AtZNuc=   6.0000000   6.0000000   8.0000000   8.0000000   1.0000000   1.0000000   1.0000000   1.0000000   1.0000000   1.0000000
 Leave Link  101 at Wed Oct 22 10:03:16 2025, MaxMem=  4294967296 cpu:               0.9 elap:               0.1
 (Enter /lrz/sys/applications/gaussian/g16.C.01/x86_64_legacy/exe/l202.exe)
                          Input orientation:                          
 ---------------------------------------------------------------------
 Center     Atomic      Atomic             Coordinates (Angstroms)
 Number     Number       Type             X           Y           Z
 ---------------------------------------------------------------------
      1          6           0        1.370695   -0.160484   -0.093961
      2          6           0       -0.065363    0.003230    0.364158
      3          8           0       -0.646291    1.176928   -0.165324
      4          8           0       -0.870022   -1.073687   -0.020581
      5          1           0        1.987811    0.682634    0.250656
      6          1           0        1.796419   -1.090080    0.309499
      7          1           0        1.408460   -0.195189   -1.194631
      8          1           0       -0.113489    0.025160    1.468089
      9          1           0       -0.044295    1.913119   -0.000024
     10          1           0       -0.736403   -1.218042   -0.967523
 ---------------------------------------------------------------------
                    Distance matrix (angstroms):
                    1          2          3          4          5
     1  C    0.000000
     2  C    1.516225   0.000000
     3  O    2.421156   1.412585   0.000000
     4  O    2.420772   1.398303   2.266335   0.000000
     5  H    1.100200   2.165640   2.712169   3.365329   0.000000
     6  H    1.099168   2.159756   3.366246   2.686844   1.783987
     7  H    1.101864   2.154379   2.676599   2.709545   1.787477
     8  H    2.162699   1.105197   2.068450   1.998986   2.515925
     9  H    2.512141   1.944415   0.965246   3.098912   2.388805
    10  H    2.514240   1.927479   2.527355   0.967156   3.538060
                    6          7          8          9         10
     6  H    0.000000
     7  H    1.792693   0.000000
     8  H    2.496766   3.074892   0.000000
     9  H    3.535992   2.825340   2.392600   0.000000
    10  H    2.839427   2.387099   2.804600   3.349513   0.000000
 Stoichiometry    C2H6O2
 Framework group  C1[X(C2H6O2)]
 Deg. of freedom    24
 Full point group                 C1      NOp   1
 Largest Abelian subgroup         C1      NOp   1
 Largest concise Abelian subgroup C1      NOp   1
                         Standard orientation:                         
 ---------------------------------------------------------------------
 Center     Atomic      Atomic             Coordinates (Angstroms)
 Number     Number       Type             X           Y           Z
 ---------------------------------------------------------------------
      1          6           0        1.370695   -0.160482   -0.093961
      2          6           0       -0.065363    0.003230    0.364158
      3          8           0       -0.646292    1.176927   -0.165324
      4          8           0       -0.870020   -1.073688   -0.020581
      5          1           0        1.987810    0.682636    0.250656
      6          1           0        1.796421   -1.090078    0.309499
      7          1           0        1.408461   -0.195187   -1.194631
      8          1           0       -0.113489    0.025160    1.468089
      9          1           0       -0.044297    1.913119   -0.000024
     10          1           0       -0.736401   -1.218043   -0.967523
 ---------------------------------------------------------------------
 Rotational constants (GHZ):           9.2480429           8.7580396           5.1192349
 Leave Link  202 at Wed Oct 22 10:03:16 2025, MaxMem=  4294967296 cpu:               0.0 elap:               0.0
 (Enter /lrz/sys/applications/gaussian/g16.C.01/x86_64_legacy/exe/l301.exe)
 Standard basis: def2TZVP (5D, 7F)
 Ernie: Thresh=  0.10000D-02 Tol=  0.10000D-05 Strict=F.
 There are   180 symmetry adapted cartesian basis functions of A   symmetry.
 There are   160 symmetry adapted basis functions of A   symmetry.
   160 basis functions,   252 primitive gaussians,   180 cartesian basis functions
    17 alpha electrons       17 beta electrons
       nuclear repulsion energy       135.7833814386 Hartrees.
 IExCor= 4639 DFT=T Ex+Corr=wB97XD ExCW=0 ScaHFX=  1.000000
 ScaDFX=  1.000000  1.000000  1.000000  1.000000 ScalE2=  1.000000  1.000000
 IRadAn=      5 IRanWt=     -1 IRanGd=            0 ICorTp=0 IEmpDi=121
 HFx  wShort=  0.000000 wLong=  0.200000 cFull=  0.222036 cShort=  0.000000 cLong=  0.777964
 DFx  wShort=  0.000000 wLong=  0.200000 cFull=  0.000000 cShort=  0.000000 cLong=  1.000000
 NAtoms=   10 NActive=   10 NUniq=   10 SFac= 1.00D+00 NAtFMM=   60 NAOKFM=F Big=F
 Integral buffers will be    131072 words long.
 Raffenetti 2 integral format.
 Two-electron integral symmetry is turned on.
 R6Disp:  Grimme-D2 Dispersion energy=       -0.0033129851 Hartrees.
 Nuclear repulsion after empirical dispersion term =      135.7800684535 Hartrees.
 ------------------------------------------------------------------------------
 Polarizable Continuum Model (PCM)
 =================================
 Model                : PCM.
 Atomic radii         : SMD-Coulomb.
 Polarization charges : Total charges.
 Charge compensation  : None.
 Solution method      : On-the-fly selection.
 Cavity type          : VdW (van der Waals Surface) (Alpha=1.000).
 Cavity algorithm     : GePol (No added spheres)
                        Default sphere list used, NSphG=   10.
                        Lebedev-Laikov grids with approx.  5.0 points / Ang**2.
                        Smoothing algorithm: York/Karplus (Gamma=1.0000).
                        Polarization charges: spherical gaussians, with
                                              point-specific exponents (IZeta= 3).
                        Self-potential: point-specific (ISelfS= 7).
                        Self-field    : sphere-specific E.n sum rule (ISelfD= 2).
 Solvent              : Water, Eps=  78.355300 Eps(inf)=   1.777849
 ------------------------------------------------------------------------------
 Spheres list:
 ISph  on   Nord     Re0    Alpha      Xe            Ye            Ze
    1   C      1    1.8500  1.000      1.370695     -0.160482     -0.093961
    2   C      2    1.8500  1.000     -0.065363      0.003230      0.364158
    3   O      3    1.5200  1.000     -0.646292      1.176927     -0.165324
    4   O      4    1.5200  1.000     -0.870020     -1.073688     -0.020581
    5   H      5    1.2000  1.000      1.987810      0.682636      0.250656
    6   H      6    1.2000  1.000      1.796421     -1.090078      0.309499
    7   H      7    1.2000  1.000      1.408461     -0.195187     -1.194631
    8   H      8    1.2000  1.000     -0.113489      0.025160      1.468089
    9   H      9    1.2000  1.000     -0.044297      1.913119     -0.000024
   10   H     10    1.2000  1.000     -0.736401     -1.218043     -0.967523
 ------------------------------------------------------------------------------
 GePol: Number of generator spheres                  =      10
 GePol: Total number of spheres                      =      10
 GePol: Number of exposed spheres                    =      10 (100.00%)
 GePol: Number of points                             =     734
 GePol: Average weight of points                     =       0.12
 GePol: Minimum weight of points                     =   0.36D-08
 GePol: Maximum weight of points                     =    0.21991
 GePol: Number of points with low weight             =      49
 GePol: Fraction of low-weight points (<1% of avg)   =       6.68%
 GePol: Cavity surface area                          =     90.219 Ang**2
 GePol: Cavity volume                                =     64.299 Ang**3
 ------------------------------------------------------------------------------
 Atomic radii for non-electrostatic terms: SMD-CDS.
 ------------------------------------------------------------------------------
 PCM non-electrostatic energy =         0.0041807374 Hartrees.
 Nuclear repulsion after PCM non-electrostatic terms =      135.7842491909 Hartrees.
 Leave Link  301 at Wed Oct 22 10:03:16 2025, MaxMem=  4294967296 cpu:               0.6 elap:               0.1
 (Enter /lrz/sys/applications/gaussian/g16.C.01/x86_64_legacy/exe/l302.exe)
 NPDir=0 NMtPBC=     1 NCelOv=     1 NCel=       1 NClECP=     1 NCelD=      1
         NCelK=      1 NCelE2=     1 NClLst=     1 CellRange=     0.0.
 One-electron integrals computed using PRISM.
 One-electron integral symmetry used in STVInt
   1 Symmetry operations used in ECPInt.
 ECPInt:  NShTT=    2346 NPrTT=    6892 LenC2=    2337 LenP2D=    5956.
 LDataN:  DoStor=T MaxTD1= 6 Len=  172
 NBasis=   160 RedAO= T EigKep=  5.32D-04  NBF=   160
 NBsUse=   160 1.00D-06 EigRej= -1.00D+00 NBFU=   160
 Precomputing XC quadrature grid using
 IXCGrd= 4 IRadAn=           5 IRanWt=          -1 IRanGd=           0 AccXCQ= 0.00D+00.
 Generated NRdTot=       0 NPtTot=           0 NUsed=           0 NTot=          32
 NSgBfM=   180   180   180   180   180 MxSgAt=    10 MxSgA2=    10.
 Leave Link  302 at Wed Oct 22 10:03:16 2025, MaxMem=  4294967296 cpu:               1.6 elap:               0.2
 (Enter /lrz/sys/applications/gaussian/g16.C.01/x86_64_legacy/exe/l303.exe)
 DipDrv:  MaxL=1.
 Leave Link  303 at Wed Oct 22 10:03:16 2025, MaxMem=  4294967296 cpu:               0.2 elap:               0.0
 (Enter /lrz/sys/applications/gaussian/g16.C.01/x86_64_legacy/exe/l401.exe)
 ExpMin= 9.52D-02 ExpMax= 2.70D+04 ExpMxC= 9.22D+02 IAcc=3 IRadAn=         5 AccDes= 0.00D+00
 Harris functional with IExCor= 4639 and IRadAn=       5 diagonalized for initial guess.
 HarFok:  IExCor= 4639 AccDes= 0.00D+00 IRadAn=         5 IDoV= 1 UseB2=F ITyADJ=14
 ICtDFT=  3500011 ScaDFX=  1.000000  1.000000  1.000000  1.000000
 FoFCou: FMM=F IPFlag=           0 FMFlag=      100000 FMFlg1=           0
         NFxFlg=           0 DoJE=T BraDBF=F KetDBF=T FulRan=T
         wScrn=  0.000000 ICntrl=       500 IOpCl=  0 I1Cent=   200000004 NGrid=           0
         NMat0=    1 NMatS0=      1 NMatT0=    0 NMatD0=    1 NMtDS0=    0 NMtDT0=    0
 Petite list used in FoFCou.
 Harris En= -221.062531868468    
 JPrj=0 DoOrth=F DoCkMO=F.
 Leave Link  401 at Wed Oct 22 10:03:17 2025, MaxMem=  4294967296 cpu:               6.5 elap:               0.8
 (Enter /lrz/sys/applications/gaussian/g16.C.01/x86_64_legacy/exe/l502.exe)
 Keep R1 ints in memory in canonical form, NReq=176071796.
 FoFCou: FMM=F IPFlag=           0 FMFlag=           0 FMFlg1=           0
         NFxFlg=           0 DoJE=F BraDBF=F KetDBF=F FulRan=T
         wScrn=  0.000000 ICntrl=       600 IOpCl=  0 I1Cent=           0 NGrid=           0
         NMat0=    1 NMatS0=  12880 NMatT0=    0 NMatD0=    1 NMtDS0=    0 NMtDT0=    0
 Symmetry not used in FoFCou.
 Two-electron integral symmetry not used.
 Closed shell SCF:
 Using DIIS extrapolation, IDIIS=  1040.
 NGot=  4294967296 LenX=  4128991762 LenY=  4128958921
 Requested convergence on RMS density matrix=1.00D-08 within 128 cycles.
 Requested convergence on MAX density matrix=1.00D-06.
 Requested convergence on             energy=1.00D-06.
 No special actions if energy rises.

 Cycle   1  Pass 1  IDiag  1:
 Inv3:  Mode=1 IEnd=     1616268.
 Iteration    1 A*A^-1 deviation from unit magnitude is 4.55D-15 for    372.
 Iteration    1 A*A^-1 deviation from orthogonality  is 3.63D-15 for    651    207.
 Iteration    1 A^-1*A deviation from unit magnitude is 4.55D-15 for    372.
 Iteration    1 A^-1*A deviation from orthogonality  is 1.56D-14 for    663    578.
 E= -230.246223969115    
 DIIS: error= 4.05D-02 at cycle   1 NSaved=   1.
 NSaved= 1 IEnMin= 1 EnMin= -230.246223969115     IErMin= 1 ErrMin= 4.05D-02
 ErrMax= 4.05D-02  0.00D+00 EMaxC= 1.00D-01 BMatC= 4.82D-01 BMatP= 4.82D-01
 IDIUse=3 WtCom= 5.95D-01 WtEn= 4.05D-01
 Coeff-Com:  0.100D+01
 Coeff-En:   0.100D+01
 Coeff:      0.100D+01
 Gap=     0.528 Goal=   None    Shift=    0.000
 GapD=    0.528 DampG=2.000 DampE=0.500 DampFc=1.0000 IDamp=-1.
 RMSDP=2.07D-03 MaxDP=3.85D-02              OVMax= 7.85D-02

 Cycle   2  Pass 1  IDiag  1:
 E= -230.282000512285     Delta-E=       -0.035776543169 Rises=F Damp=F
 DIIS: error= 1.04D-02 at cycle   2 NSaved=   2.
 NSaved= 2 IEnMin= 2 EnMin= -230.282000512285     IErMin= 2 ErrMin= 1.04D-02
 ErrMax= 1.04D-02  0.00D+00 EMaxC= 1.00D-01 BMatC= 4.22D-02 BMatP= 4.82D-01
 IDIUse=3 WtCom= 8.96D-01 WtEn= 1.04D-01
 Coeff-Com:  0.167D+00 0.833D+00
 Coeff-En:   0.174D+00 0.826D+00
 Coeff:      0.168D+00 0.832D+00
 Gap=     0.488 Goal=   None    Shift=    0.000
 RMSDP=9.61D-04 MaxDP=2.55D-02 DE=-3.58D-02 OVMax= 4.89D-02

 Cycle   3  Pass 1  IDiag  1:
 E= -230.296762846521     Delta-E=       -0.014762334236 Rises=F Damp=F
 DIIS: error= 7.59D-03 at cycle   3 NSaved=   3.
 NSaved= 3 IEnMin= 3 EnMin= -230.296762846521     IErMin= 3 ErrMin= 7.59D-03
 ErrMax= 7.59D-03  0.00D+00 EMaxC= 1.00D-01 BMatC= 1.91D-02 BMatP= 4.22D-02
 IDIUse=3 WtCom= 9.24D-01 WtEn= 7.59D-02
 Coeff-Com:  0.233D-01 0.411D+00 0.566D+00
 Coeff-En:   0.000D+00 0.305D+00 0.695D+00
 Coeff:      0.215D-01 0.403D+00 0.576D+00
 Gap=     0.490 Goal=   None    Shift=    0.000
 RMSDP=4.61D-04 MaxDP=1.18D-02 DE=-1.48D-02 OVMax= 2.15D-02

 Cycle   4  Pass 1  IDiag  1:
 E= -230.309162252091     Delta-E=       -0.012399405570 Rises=F Damp=F
 DIIS: error= 7.87D-04 at cycle   4 NSaved=   4.
 NSaved= 4 IEnMin= 4 EnMin= -230.309162252091     IErMin= 4 ErrMin= 7.87D-04
 ErrMax= 7.87D-04  0.00D+00 EMaxC= 1.00D-01 BMatC= 2.07D-04 BMatP= 1.91D-02
 IDIUse=3 WtCom= 9.92D-01 WtEn= 7.87D-03
 Coeff-Com:  0.743D-02 0.149D+00 0.237D+00 0.607D+00
 Coeff-En:   0.000D+00 0.000D+00 0.000D+00 0.100D+01
 Coeff:      0.737D-02 0.147D+00 0.235D+00 0.610D+00
 Gap=     0.487 Goal=   None    Shift=    0.000
 RMSDP=5.43D-05 MaxDP=1.57D-03 DE=-1.24D-02 OVMax= 2.22D-03

 Cycle   5  Pass 1  IDiag  1:
 E= -230.309305424846     Delta-E=       -0.000143172755 Rises=F Damp=F
 DIIS: error= 1.31D-04 at cycle   5 NSaved=   5.
 NSaved= 5 IEnMin= 5 EnMin= -230.309305424846     IErMin= 5 ErrMin= 1.31D-04
 ErrMax= 1.31D-04  0.00D+00 EMaxC= 1.00D-01 BMatC= 5.69D-06 BMatP= 2.07D-04
 IDIUse=3 WtCom= 9.99D-01 WtEn= 1.31D-03
 Coeff-Com: -0.189D-02-0.308D-01-0.336D-01 0.744D-01 0.992D+00
 Coeff-En:   0.000D+00 0.000D+00 0.000D+00 0.000D+00 0.100D+01
 Coeff:     -0.189D-02-0.308D-01-0.336D-01 0.743D-01 0.992D+00
 Gap=     0.487 Goal=   None    Shift=    0.000
 RMSDP=4.04D-05 MaxDP=8.62D-04 DE=-1.43D-04 OVMax= 9.21D-04

 Cycle   6  Pass 1  IDiag  1:
 E= -230.309313907133     Delta-E=       -0.000008482287 Rises=F Damp=F
 DIIS: error= 1.94D-05 at cycle   6 NSaved=   6.
 NSaved= 6 IEnMin= 6 EnMin= -230.309313907133     IErMin= 6 ErrMin= 1.94D-05
 ErrMax= 1.94D-05  0.00D+00 EMaxC= 1.00D-01 BMatC= 1.36D-07 BMatP= 5.69D-06
 IDIUse=1 WtCom= 1.00D+00 WtEn= 0.00D+00
 Coeff-Com: -0.298D-03-0.575D-02-0.898D-02-0.176D-01 0.348D-02 0.103D+01
 Coeff:     -0.298D-03-0.575D-02-0.898D-02-0.176D-01 0.348D-02 0.103D+01
 Gap=     0.487 Goal=   None    Shift=    0.000
 RMSDP=1.01D-05 MaxDP=2.18D-04 DE=-8.48D-06 OVMax= 2.82D-04

 Cycle   7  Pass 1  IDiag  1:
 E= -230.309314227458     Delta-E=       -0.000000320325 Rises=F Damp=F
 DIIS: error= 1.21D-05 at cycle   7 NSaved=   7.
 NSaved= 7 IEnMin= 7 EnMin= -230.309314227458     IErMin= 7 ErrMin= 1.21D-05
 ErrMax= 1.21D-05  0.00D+00 EMaxC= 1.00D-01 BMatC= 3.16D-08 BMatP= 1.36D-07
 IDIUse=1 WtCom= 1.00D+00 WtEn= 0.00D+00
 Coeff-Com:  0.153D-05-0.295D-03-0.119D-02-0.868D-02-0.521D-01 0.318D+00
 Coeff-Com:  0.744D+00
 Coeff:      0.153D-05-0.295D-03-0.119D-02-0.868D-02-0.521D-01 0.318D+00
 Coeff:      0.744D+00
 Gap=     0.487 Goal=   None    Shift=    0.000
 RMSDP=2.09D-06 MaxDP=4.55D-05 DE=-3.20D-07 OVMax= 7.00D-05

 Cycle   8  Pass 1  IDiag  1:
 E= -230.309314256457     Delta-E=       -0.000000028999 Rises=F Damp=F
 DIIS: error= 5.63D-06 at cycle   8 NSaved=   8.
 NSaved= 8 IEnMin= 8 EnMin= -230.309314256457     IErMin= 8 ErrMin= 5.63D-06
 ErrMax= 5.63D-06  0.00D+00 EMaxC= 1.00D-01 BMatC= 7.78D-09 BMatP= 3.16D-08
 IDIUse=1 WtCom= 1.00D+00 WtEn= 0.00D+00
 Coeff-Com:  0.471D-04 0.812D-03 0.984D-03-0.562D-03-0.234D-01-0.332D-01
 Coeff-Com:  0.336D+00 0.720D+00
 Coeff:      0.471D-04 0.812D-03 0.984D-03-0.562D-03-0.234D-01-0.332D-01
 Coeff:      0.336D+00 0.720D+00
 Gap=     0.487 Goal=   None    Shift=    0.000
 RMSDP=8.59D-07 MaxDP=1.69D-05 DE=-2.90D-08 OVMax= 2.85D-05

 Cycle   9  Pass 1  IDiag  1:
 E= -230.309314263417     Delta-E=       -0.000000006959 Rises=F Damp=F
 DIIS: error= 5.96D-07 at cycle   9 NSaved=   9.
 NSaved= 9 IEnMin= 9 EnMin= -230.309314263417     IErMin= 9 ErrMin= 5.96D-07
 ErrMax= 5.96D-07  0.00D+00 EMaxC= 1.00D-01 BMatC= 1.57D-10 BMatP= 7.78D-09
 IDIUse=1 WtCom= 1.00D+00 WtEn= 0.00D+00
 Coeff-Com:  0.221D-05 0.955D-04 0.214D-03 0.794D-03 0.291D-02-0.309D-01
 Coeff-Com: -0.415D-01 0.432D-01 0.103D+01
 Coeff:      0.221D-05 0.955D-04 0.214D-03 0.794D-03 0.291D-02-0.309D-01
 Coeff:     -0.415D-01 0.432D-01 0.103D+01
 Gap=     0.487 Goal=   None    Shift=    0.000
 RMSDP=2.89D-07 MaxDP=6.93D-06 DE=-6.96D-09 OVMax= 1.17D-05

 Cycle  10  Pass 1  IDiag  1:
 E= -230.309314263774     Delta-E=       -0.000000000358 Rises=F Damp=F
 DIIS: error= 2.57D-07 at cycle  10 NSaved=  10.
 NSaved=10 IEnMin=10 EnMin= -230.309314263774     IErMin=10 ErrMin= 2.57D-07
 ErrMax= 2.57D-07  0.00D+00 EMaxC= 1.00D-01 BMatC= 1.65D-11 BMatP= 1.57D-10
 IDIUse=1 WtCom= 1.00D+00 WtEn= 0.00D+00
 Coeff-Com: -0.191D-05-0.279D-04-0.925D-05 0.254D-03 0.236D-02-0.715D-02
 Coeff-Com: -0.324D-01-0.306D-01 0.281D+00 0.787D+00
 Coeff:     -0.191D-05-0.279D-04-0.925D-05 0.254D-03 0.236D-02-0.715D-02
 Coeff:     -0.324D-01-0.306D-01 0.281D+00 0.787D+00
 Gap=     0.487 Goal=   None    Shift=    0.000
 RMSDP=5.60D-08 MaxDP=1.24D-06 DE=-3.58D-10 OVMax= 2.24D-06

 Cycle  11  Pass 1  IDiag  1:
 E= -230.309314263796     Delta-E=       -0.000000000022 Rises=F Damp=F
 DIIS: error= 8.55D-08 at cycle  11 NSaved=  11.
 NSaved=11 IEnMin=11 EnMin= -230.309314263796     IErMin=11 ErrMin= 8.55D-08
 ErrMax= 8.55D-08  0.00D+00 EMaxC= 1.00D-01 BMatC= 1.14D-12 BMatP= 1.65D-11
 IDIUse=1 WtCom= 1.00D+00 WtEn= 0.00D+00
 Coeff-Com: -0.893D-07-0.619D-05-0.180D-04-0.739D-04-0.290D-03 0.299D-02
 Coeff-Com:  0.331D-02-0.544D-02-0.958D-01 0.999D-01 0.995D+00
 Coeff:     -0.893D-07-0.619D-05-0.180D-04-0.739D-04-0.290D-03 0.299D-02
 Coeff:      0.331D-02-0.544D-02-0.958D-01 0.999D-01 0.995D+00
 Gap=     0.487 Goal=   None    Shift=    0.000
 RMSDP=2.30D-08 MaxDP=5.23D-07 DE=-2.18D-11 OVMax= 9.85D-07

 Cycle  12  Pass 1  IDiag  1:
 E= -230.309314263796     Delta-E=        0.000000000001 Rises=F Damp=F
 DIIS: error= 1.39D-08 at cycle  12 NSaved=  12.
 NSaved=12 IEnMin=11 EnMin= -230.309314263796     IErMin=12 ErrMin= 1.39D-08
 ErrMax= 1.39D-08  0.00D+00 EMaxC= 1.00D-01 BMatC= 2.99D-14 BMatP= 1.14D-12
 IDIUse=1 WtCom= 1.00D+00 WtEn= 0.00D+00
 Coeff-Com:  0.573D-07 0.626D-06-0.453D-06-0.110D-04-0.104D-03 0.394D-03
 Coeff-Com:  0.149D-02 0.117D-02-0.137D-01-0.373D-01 0.250D-01 0.102D+01
 Coeff:      0.573D-07 0.626D-06-0.453D-06-0.110D-04-0.104D-03 0.394D-03
 Coeff:      0.149D-02 0.117D-02-0.137D-01-0.373D-01 0.250D-01 0.102D+01
 Gap=     0.487 Goal=   None    Shift=    0.000
 RMSDP=5.53D-09 MaxDP=1.12D-07 DE= 6.82D-13 OVMax= 2.08D-07

 Error on total polarization charges =  0.03862
 SCF Done:  E(RwB97XD) =  -230.309314264     A.U. after   12 cycles
            NFock= 12  Conv=0.55D-08     -V/T= 2.0048
 KE= 2.292061039449D+02 PE=-8.124613302434D+02 EE= 2.171616628437D+02
 SMD-CDS (non-electrostatic) energy       (kcal/mol) =       2.62
 (included in total energy above)
 Leave Link  502 at Wed Oct 22 10:03:35 2025, MaxMem=  4294967296 cpu:             130.3 elap:              17.6
 (Enter /lrz/sys/applications/gaussian/g16.C.01/x86_64_legacy/exe/l601.exe)
 Copying SCF densities to generalized density rwf, IOpCl= 0 IROHF=0.

 **********************************************************************

            Population analysis using the SCF Density.

 **********************************************************************

 Orbital symmetries:
       Occupied  (A) (A) (A) (A) (A) (A) (A) (A) (A) (A) (A) (A)
                 (A) (A) (A) (A) (A)
       Virtual   (A) (A) (A) (A) (A) (A) (A) (A) (A) (A) (A) (A)
                 (A) (A) (A) (A) (A) (A) (A) (A) (A) (A) (A) (A)
                 (A) (A) (A) (A) (A) (A) (A) (A) (A) (A) (A) (A)
                 (A) (A) (A) (A) (A) (A) (A) (A) (A) (A) (A) (A)
                 (A) (A) (A) (A) (A) (A) (A) (A) (A) (A) (A) (A)
                 (A) (A) (A) (A) (A) (A) (A) (A) (A) (A) (A) (A)
                 (A) (A) (A) (A) (A) (A) (A) (A) (A) (A) (A) (A)
                 (A) (A) (A) (A) (A) (A) (A) (A) (A) (A) (A) (A)
                 (A) (A) (A) (A) (A) (A) (A) (A) (A) (A) (A) (A)
                 (A) (A) (A) (A) (A) (A) (A) (A) (A) (A) (A) (A)
                 (A) (A) (A) (A) (A) (A) (A) (A) (A) (A) (A) (A)
                 (A) (A) (A) (A) (A) (A) (A) (A) (A) (A) (A)
 The electronic state is 1-A.
 Alpha  occ. eigenvalues --  -19.25824 -19.25300 -10.38078 -10.26939  -1.16891
 Alpha  occ. eigenvalues --   -1.10067  -0.83324  -0.72603  -0.62372  -0.57843
 Alpha  occ. eigenvalues --   -0.55496  -0.50342  -0.46383  -0.44665  -0.43953
 Alpha  occ. eigenvalues --   -0.39731  -0.36482
 Alpha virt. eigenvalues --    0.12196   0.15643   0.17483   0.17922   0.20361
 Alpha virt. eigenvalues --    0.20958   0.24384   0.25316   0.28750   0.31880
 Alpha virt. eigenvalues --    0.35093   0.36096   0.39288   0.40128   0.42419
 Alpha virt. eigenvalues --    0.45490   0.48125   0.50419   0.51798   0.52843
 Alpha virt. eigenvalues --    0.53959   0.56159   0.57543   0.59796   0.61943
 Alpha virt. eigenvalues --    0.64370   0.66239   0.70724   0.72319   0.79080
 Alpha virt. eigenvalues --    0.86901   0.88519   0.90717   0.94031   0.95824
 Alpha virt. eigenvalues --    1.02680   1.13268   1.16754   1.19775   1.20845
 Alpha virt. eigenvalues --    1.23144   1.39774   1.42861   1.52296   1.56474
 Alpha virt. eigenvalues --    1.59428   1.61469   1.61955   1.63648   1.66470
 Alpha virt. eigenvalues --    1.68592   1.75196   1.79231   1.81486   1.86924
 Alpha virt. eigenvalues --    1.90838   1.92489   1.94166   1.98977   2.03078
 Alpha virt. eigenvalues --    2.10743   2.12111   2.19283   2.22652   2.30149
 Alpha virt. eigenvalues --    2.31314   2.32199   2.36744   2.37816   2.41595
 Alpha virt. eigenvalues --    2.42816   2.44363   2.48298   2.53197   2.55730
 Alpha virt. eigenvalues --    2.61234   2.64257   2.65535   2.77305   2.80939
 Alpha virt. eigenvalues --    2.82363   2.83097   2.93575   2.95545   2.96904
 Alpha virt. eigenvalues --    3.04063   3.10220   3.16415   3.19183   3.19394
 Alpha virt. eigenvalues --    3.21452   3.28469   3.30029   3.36200   3.40497
 Alpha virt. eigenvalues --    3.42371   3.46078   3.55491   3.57882   3.61174
 Alpha virt. eigenvalues --    3.64142   3.83483   3.91254   3.94634   3.99933
 Alpha virt. eigenvalues --    4.03423   4.06914   4.10276   4.30101   4.44151
 Alpha virt. eigenvalues --    4.45808   4.56144   4.63113   4.72676   4.84064
 Alpha virt. eigenvalues --    5.27814   5.33884   5.37568   5.41221   5.50391
 Alpha virt. eigenvalues --    5.58502   5.68838   5.79844   5.87290   5.99070
 Alpha virt. eigenvalues --    6.04425   6.10356   6.35683   6.44904   6.52068
 Alpha virt. eigenvalues --    6.56125   6.75514   6.79891   6.86579   6.92133
 Alpha virt. eigenvalues --    7.04699   7.07560   7.21236   7.31928  22.39516
 Alpha virt. eigenvalues --   22.69007  43.82602  43.95852
          Condensed to atoms (all electrons):
               1          2          3          4          5          6
     1  C    5.038303   0.375385  -0.057307  -0.044278   0.402264   0.395451
     2  C    0.375385   4.568396   0.244490   0.284034  -0.036489  -0.035238
     3  O   -0.057307   0.244490   8.175420  -0.071429   0.001229   0.006660
     4  O   -0.044278   0.284034  -0.071429   8.122269   0.005969   0.001560
     5  H    0.402264  -0.036489   0.001229   0.005969   0.527401  -0.017386
     6  H    0.395451  -0.035238   0.006660   0.001560  -0.017386   0.530069
     7  H    0.387493  -0.023058   0.002650  -0.004192  -0.022701  -0.019501
     8  H   -0.073939   0.424843  -0.052377  -0.048393  -0.004390   0.000359
     9  H   -0.002272  -0.019235   0.302582   0.005236   0.000422   0.000323
    10  H   -0.015785  -0.022626   0.001945   0.298680   0.000349   0.000267
               7          8          9         10
     1  C    0.387493  -0.073939  -0.002272  -0.015785
     2  C   -0.023058   0.424843  -0.019235  -0.022626
     3  O    0.002650  -0.052377   0.302582   0.001945
     4  O   -0.004192  -0.048393   0.005236   0.298680
     5  H   -0.022701  -0.004390   0.000422   0.000349
     6  H   -0.019501   0.000359   0.000323   0.000267
     7  H    0.530769   0.009058  -0.000291   0.005719
     8  H    0.009058   0.636541  -0.000477   0.009579
     9  H   -0.000291  -0.000477   0.333912  -0.000149
    10  H    0.005719   0.009579  -0.000149   0.346845
 Mulliken charges:
               1
     1  C   -0.405316
     2  C    0.239497
     3  O   -0.553864
     4  O   -0.549457
     5  H    0.143330
     6  H    0.137437
     7  H    0.134053
     8  H    0.099196
     9  H    0.379948
    10  H    0.375175
 Sum of Mulliken charges =  -0.00000
 Mulliken charges with hydrogens summed into heavy atoms:
               1
     1  C    0.009504
     2  C    0.338693
     3  O   -0.173915
     4  O   -0.174281
 Electronic spatial extent (au):  <R**2>=            281.7694
 Charge=             -0.0000 electrons
 Dipole moment (field-independent basis, Debye):
    X=              3.5189    Y=              1.0459    Z=             -0.4591  Tot=              3.6996
 Quadrupole moment (field-independent basis, Debye-Ang):
   XX=            -28.2314   YY=            -23.2335   ZZ=            -22.7244
   XY=              1.4481   XZ=              0.9972   YZ=              3.3431
 Traceless Quadrupole moment (field-independent basis, Debye-Ang):
   XX=             -3.5016   YY=              1.4963   ZZ=              2.0053
   XY=              1.4481   XZ=              0.9972   YZ=              3.3431
 Octapole moment (field-independent basis, Debye-Ang**2):
  XXX=              0.6774  YYY=             12.0503  ZZZ=             -2.2865  XYY=              4.1613
  XXY=             -0.0882  XXZ=             -0.6669  XZZ=             -2.5563  YZZ=             -2.9203
  YYZ=             -2.3408  XYZ=             -2.3437
 Hexadecapole moment (field-independent basis, Debye-Ang**3):
 XXXX=           -173.1331 YYYY=           -110.9443 ZZZZ=            -42.3853 XXXY=              2.4454
 XXXZ=              3.5795 YYYX=              3.9053 YYYZ=              6.2774 ZZZX=              1.1441
 ZZZY=              4.7364 XXYY=            -52.4398 XXZZ=            -35.0033 YYZZ=            -27.8966
 XXYZ=              2.2234 YYXZ=              4.0309 ZZXY=              2.7754
 N-N= 1.357842491909D+02 E-N=-8.124613296715D+02  KE= 2.292061039449D+02
 No NMR shielding tensors so no spin-rotation constants.
 Leave Link  601 at Wed Oct 22 10:03:35 2025, MaxMem=  4294967296 cpu:               1.0 elap:               0.1
 (Enter /lrz/sys/applications/gaussian/g16.C.01/x86_64_legacy/exe/l9999.exe)
 Unable to Open any file for archive entry.
 1\1\GINC-CM4R15C05S03\SP\RwB97XD\def2TZVP\C2H6O2\GO29TIZ2\22-Oct-2025\
 0\\#p wb97xd scrf=(smd,solvent=water) def2tzvp\\g16_g16_C1-w_3\\0,1\C,
 0,1.370695,-0.160484,-0.093961\C,0,-0.065363,0.00323,0.364158\O,0,-0.6
 46291,1.176928,-0.165324\O,0,-0.870022,-1.073687,-0.020581\H,0,1.98781
 1,0.682634,0.250656\H,0,1.796419,-1.09008,0.309499\H,0,1.40846,-0.1951
 89,-1.194631\H,0,-0.113489,0.02516,1.468089\H,0,-0.044295,1.913119,-0.
 000024\H,0,-0.736403,-1.218042,-0.967523\\Version=EM64L-G16RevC.01\Sta
 te=1-A\HF=-230.3093143\RMSD=5.526e-09\Dipole=1.3844431,0.4114741,-0.18
 06059\Quadrupole=-2.6033579,1.1124361,1.4909218,1.0766137,0.7414161,2.
 4854776\PG=C01 [X(C2H6O2)]\\@
 The archive entry for this job was punched.


 IT IS A PROFOUNDLY ERRONEOUS TRUISM ... THAT WE SHOULD CULTIVATE
 THE HABIT OF THINKING OF WHAT WE ARE DOING.
 THE PRECISE OPPOSITE IS THE CASE.
 CIVILIZATION ADVANCES BY EXTENDING THE NUMBER OF IMPORTANT OPERATIONS
 WHICH WE CAN PERFORM WITHOUT THINKING ABOUT THEM.

                                    -- ALFRED NORTH WHITEHEAD
 Job cpu time:       0 days  0 hours  2 minutes 26.1 seconds.
 Elapsed time:       0 days  0 hours  0 minutes 19.8 seconds.
 File lengths (MBytes):  RWF=    272 Int=      0 D2E=      0 Chk=      8 Scr=     32
 Normal termination of Gaussian 16 at Wed Oct 22 10:03:35 2025.
