 Entering Gaussian System, Link 0=g16
 Input=../../g16_g16_C3-a_9.com
 Output=../../g16_g16_C3-a_9.log
 Initial command:
 /lrz/sys/applications/gaussian/g16.C.01/x86_64_legacy/exe/l1.exe "/dss/lxclscratch/0D/go29tiz2/Gau-19743.inp" -scrdir="/dss/lxclscratch/0D/go29tiz2/"
 Entering Link 1 = /lrz/sys/applications/gaussian/g16.C.01/x86_64_legacy/exe/l1.exe PID=     19744.
  
 Copyright (c) 1988-2019, Gaussian, Inc.  All Rights Reserved.
  
 This is part of the Gaussian(R) 16 program.  It is based on
 the Gaussian(R) 09 system (copyright 2009, Gaussian, Inc.),
 the Gaussian(R) 03 system (copyright 2003, Gaussian, Inc.),
 the Gaussian(R) 98 system (copyright 1998, Gaussian, Inc.),
 the Gaussian(R) 94 system (copyright 1995, Gaussian, Inc.),
 the Gaussian 92(TM) system (copyright 1992, Gaussian, Inc.),
 the Gaussian 90(TM) system (copyright 1990, Gaussian, Inc.),
 the Gaussian 88(TM) system (copyright 1988, Gaussian, Inc.),
 the Gaussian 86(TM) system (copyright 1986, Carnegie Mellon
 University), and the Gaussian 82(TM) system (copyright 1983,
 Carnegie Mellon University). Gaussian is a federally registered
 trademark of Gaussian, Inc.
  
 This software contains proprietary and confidential information,
 including trade secrets, belonging to Gaussian, Inc.
  
 This software is provided under written license and may be
 used, copied, transmitted, or stored only in accord with that
 written license.
  
 The following legend is applicable only to US Government
 contracts under FAR:
  
                    RESTRICTED RIGHTS LEGEND
  
 Use, reproduction and disclosure by the US Government is
 subject to restrictions as set forth in subparagraphs (a)
 and (c) of the Commercial Computer Software - Restricted
 Rights clause in FAR 52.227-19.
  
 Gaussian, Inc.
 340 Quinnipiac St., Bldg. 40, Wallingford CT 06492
  
  
 ---------------------------------------------------------------
 Warning -- This program may not be used in any manner that
 competes with the business of Gaussian, Inc. or will provide
 assistance to any competitor of Gaussian, Inc.  The licensee
 of this program is prohibited from giving any competitor of
 Gaussian, Inc. access to this program.  By using this program,
 the user acknowledges that Gaussian, Inc. is engaged in the
 business of creating and licensing software in the field of
 computational chemistry and represents and warrants to the
 licensee that it is not a competitor of Gaussian, Inc. and that
 it will not use this program in any manner prohibited above.
 ---------------------------------------------------------------
  

 Cite this work as:
 Gaussian 16, Revision C.01,
 M. J. Frisch, G. W. Trucks, H. B. Schlegel, G. E. Scuseria, 
 M. A. Robb, J. R. Cheeseman, G. Scalmani, V. Barone, 
 G. A. Petersson, H. Nakatsuji, X. Li, M. Caricato, A. V. Marenich, 
 J. Bloino, B. G. Janesko, R. Gomperts, B. Mennucci, H. P. Hratchian, 
 J. V. Ortiz, A. F. Izmaylov, J. L. Sonnenberg, D. Williams-Young, 
 F. Ding, F. Lipparini, F. Egidi, J. Goings, B. Peng, A. Petrone, 
 T. Henderson, D. Ranasinghe, V. G. Zakrzewski, J. Gao, N. Rega, 
 G. Zheng, W. Liang, M. Hada, M. Ehara, K. Toyota, R. Fukuda, 
 J. Hasegawa, M. Ishida, T. Nakajima, Y. Honda, O. Kitao, H. Nakai, 
 T. Vreven, K. Throssell, J. A. Montgomery, Jr., J. E. Peralta, 
 F. Ogliaro, M. J. Bearpark, J. J. Heyd, E. N. Brothers, K. N. Kudin, 
 V. N. Staroverov, T. A. Keith, R. Kobayashi, J. Normand, 
 K. Raghavachari, A. P. Rendell, J. C. Burant, S. S. Iyengar, 
 J. Tomasi, M. Cossi, J. M. Millam, M. Klene, C. Adamo, R. Cammi, 
 J. W. Ochterski, R. L. Martin, K. Morokuma, O. Farkas, 
 J. B. Foresman, and D. J. Fox, Gaussian, Inc., Wallingford CT, 2019.
 
 ******************************************
 Gaussian 16:  EM64L-G16RevC.01  3-Jul-2019
                22-Oct-2025 
 ******************************************
 %chk=g16_g16_C3-a_9.chk
 %nprocshared=8
 Will use up to    8 processors via shared memory.
 %mem=32GB
 -------------------------------------------
 #p wb97xd scrf=(smd,solvent=water) def2tzvp
 -------------------------------------------
 1/38=1,172=1/1;
 2/12=2,17=6,18=5,40=1/2;
 3/5=44,7=101,11=2,25=1,30=1,70=32201,72=1,74=-58/1,2,3;
 4//1;
 5/5=2,38=5,53=1/2;
 6/7=2,8=2,9=2,10=2,28=1/1;
 99/5=1,9=1/99;
 Leave Link    1 at Wed Oct 22 10:12:04 2025, MaxMem=  4294967296 cpu:               5.4 elap:               0.8
 (Enter /lrz/sys/applications/gaussian/g16.C.01/x86_64_legacy/exe/l101.exe)
 --------------
 g16_g16_C3-a_9
 --------------
 Symbolic Z-matrix:
 Charge =  0 Multiplicity = 1
 O                     1.60924   0.70517  -0.65661 
 C                     0.72027  -0.3547   -0.32089 
 N                     0.99325  -0.95729   0.95703 
 C                    -0.69978   0.21535  -0.41002 
 C                    -0.96288   1.2957    0.63927 
 C                    -1.74895  -0.89056  -0.35041 
 H                     2.50393   0.34455  -0.65699 
 H                     0.81845  -1.15133  -1.08048 
 H                     1.92     -1.38131   0.94307 
 H                     1.01813  -0.23349   1.67565 
 H                    -0.75804   0.68882  -1.40467 
 H                    -0.19744   2.08477   0.60508 
 H                    -1.94269   1.76729   0.46905 
 H                    -0.97516   0.87381   1.65768 
 H                    -1.72352  -1.40526   0.62225 
 H                    -2.75963  -0.47713  -0.48991 
 H                    -1.58271  -1.64581  -1.13474 
 
 ITRead=  0  0  0  0  0  0  0  0  0  0  0  0  0  0  0  0  0
 MicOpt= -1 -1 -1 -1 -1 -1 -1 -1 -1 -1 -1 -1 -1 -1 -1 -1 -1
 NAtoms=     17 NQM=       17 NQMF=       0 NMMI=      0 NMMIF=      0
                NMic=       0 NMicF=      0.
                    Isotopes and Nuclear Properties:
 (Nuclear quadrupole moments (NQMom) in fm**2, nuclear magnetic moments (NMagM)
  in nuclear magnetons)

  Atom         1           2           3           4           5           6           7           8           9          10
 IAtWgt=          16          12          14          12          12          12           1           1           1           1
 AtmWgt=  15.9949146  12.0000000  14.0030740  12.0000000  12.0000000  12.0000000   1.0078250   1.0078250   1.0078250   1.0078250
 NucSpn=           0           0           2           0           0           0           1           1           1           1
 AtZEff=  -0.0000000  -0.0000000  -0.0000000  -0.0000000  -0.0000000  -0.0000000  -0.0000000  -0.0000000  -0.0000000  -0.0000000
 NQMom=    0.0000000   0.0000000   2.0440000   0.0000000   0.0000000   0.0000000   0.0000000   0.0000000   0.0000000   0.0000000
 NMagM=    0.0000000   0.0000000   0.4037610   0.0000000   0.0000000   0.0000000   2.7928460   2.7928460   2.7928460   2.7928460
 AtZNuc=   8.0000000   6.0000000   7.0000000   6.0000000   6.0000000   6.0000000   1.0000000   1.0000000   1.0000000   1.0000000

  Atom        11          12          13          14          15          16          17
 IAtWgt=           1           1           1           1           1           1           1
 AtmWgt=   1.0078250   1.0078250   1.0078250   1.0078250   1.0078250   1.0078250   1.0078250
 NucSpn=           1           1           1           1           1           1           1
 AtZEff=  -0.0000000  -0.0000000  -0.0000000  -0.0000000  -0.0000000  -0.0000000  -0.0000000
 NQMom=    0.0000000   0.0000000   0.0000000   0.0000000   0.0000000   0.0000000   0.0000000
 NMagM=    2.7928460   2.7928460   2.7928460   2.7928460   2.7928460   2.7928460   2.7928460
 AtZNuc=   1.0000000   1.0000000   1.0000000   1.0000000   1.0000000   1.0000000   1.0000000
 Leave Link  101 at Wed Oct 22 10:12:04 2025, MaxMem=  4294967296 cpu:               1.1 elap:               0.2
 (Enter /lrz/sys/applications/gaussian/g16.C.01/x86_64_legacy/exe/l202.exe)
                          Input orientation:                          
 ---------------------------------------------------------------------
 Center     Atomic      Atomic             Coordinates (Angstroms)
 Number     Number       Type             X           Y           Z
 ---------------------------------------------------------------------
      1          8           0        1.609244    0.705172   -0.656605
      2          6           0        0.720266   -0.354700   -0.320890
      3          7           0        0.993253   -0.957292    0.957027
      4          6           0       -0.699782    0.215350   -0.410018
      5          6           0       -0.962880    1.295700    0.639266
      6          6           0       -1.748947   -0.890558   -0.350414
      7          1           0        2.503931    0.344551   -0.656989
      8          1           0        0.818454   -1.151334   -1.080477
      9          1           0        1.920003   -1.381310    0.943065
     10          1           0        1.018131   -0.233491    1.675648
     11          1           0       -0.758042    0.688823   -1.404669
     12          1           0       -0.197442    2.084772    0.605083
     13          1           0       -1.942690    1.767292    0.469047
     14          1           0       -0.975162    0.873810    1.657679
     15          1           0       -1.723522   -1.405263    0.622245
     16          1           0       -2.759626   -0.477133   -0.489907
     17          1           0       -1.582706   -1.645806   -1.134737
 ---------------------------------------------------------------------
                    Distance matrix (angstroms):
                    1          2          3          4          5
     1  O    0.000000
     2  C    1.423487   0.000000
     3  N    2.397298   1.438996   0.000000
     4  C    2.373253   1.532787   2.471896   0.000000
     5  C    2.940039   2.545329   3.000567   1.528847   0.000000
     6  C    3.730624   2.526861   3.038670   1.525560   2.525290
     7  H    0.964631   1.945090   2.565539   3.215815   3.821484
     8  H    2.061948   1.105097   2.054174   2.149972   3.481184
     9  H    2.647437   2.022592   1.019241   3.353122   3.945845
    10  H    2.582616   2.022271   1.020256   2.739103   2.708674
    11  H    2.482722   2.109244   3.369620   1.103133   2.141945
    12  H    2.599859   2.765979   3.285692   2.185753   1.099863
    13  H    3.874458   3.495452   4.035002   2.173959   1.100637
    14  H    3.473255   2.880703   2.778220   2.187413   1.102410
    15  H    4.146893   2.822284   2.773738   2.177153   2.806077
    16  H    4.529090   3.486145   4.050712   2.174597   2.765188
    17  H    3.993025   2.762785   3.388966   2.183729   3.490520
                    6          7          8          9         10
     6  C    0.000000
     7  H    4.439195   0.000000
     8  H    2.681892   2.293000   0.000000
     9  H    3.921112   2.424818   2.315388   0.000000
    10  H    3.491903   2.825408   2.911792   1.633260   0.000000
    11  H    2.141913   3.364226   2.444712   4.119373   3.673392
    12  H    3.488944   3.452334   3.787551   4.075724   2.828086
    13  H    2.788049   4.802560   4.306195   5.005875   3.771668
    14  H    2.782836   4.212112   3.849125   3.738746   2.280275
    15  H    1.100742   4.750752   3.070079   3.657701   3.162178
    16  H    1.100841   5.329926   3.688628   4.976934   4.361243
    17  H    1.101453   4.570598   2.452145   4.081200   4.081330
                   11         12         13         14         15
    11  H    0.000000
    12  H    2.510388   0.000000
    13  H    2.465218   1.779098   0.000000
    14  H    3.075603   1.783041   1.774054   0.000000
    15  H    3.070135   3.809142   3.183804   2.612727   0.000000
    16  H    2.490498   3.785122   2.573795   3.101852   1.780960
    17  H    2.490668   4.343172   3.788265   3.809877   1.778954
                   16         17
    16  H    0.000000
    17  H    1.779534   0.000000
 Stoichiometry    C4H11NO
 Framework group  C1[X(C4H11NO)]
 Deg. of freedom    45
 Full point group                 C1      NOp   1
 Largest Abelian subgroup         C1      NOp   1
 Largest concise Abelian subgroup C1      NOp   1
                         Standard orientation:                         
 ---------------------------------------------------------------------
 Center     Atomic      Atomic             Coordinates (Angstroms)
 Number     Number       Type             X           Y           Z
 ---------------------------------------------------------------------
      1          8           0        1.609244    0.705172   -0.656605
      2          6           0        0.720266   -0.354700   -0.320890
      3          7           0        0.993253   -0.957292    0.957027
      4          6           0       -0.699782    0.215350   -0.410018
      5          6           0       -0.962880    1.295700    0.639266
      6          6           0       -1.748947   -0.890558   -0.350414
      7          1           0        2.503931    0.344551   -0.656989
      8          1           0        0.818454   -1.151334   -1.080477
      9          1           0        1.920003   -1.381310    0.943065
     10          1           0        1.018131   -0.233491    1.675648
     11          1           0       -0.758042    0.688823   -1.404669
     12          1           0       -0.197442    2.084772    0.605083
     13          1           0       -1.942690    1.767292    0.469047
     14          1           0       -0.975162    0.873810    1.657679
     15          1           0       -1.723522   -1.405263    0.622245
     16          1           0       -2.759626   -0.477133   -0.489907
     17          1           0       -1.582706   -1.645806   -1.134737
 ---------------------------------------------------------------------
 Rotational constants (GHZ):           4.5301409           2.7024237           2.3465198
 Leave Link  202 at Wed Oct 22 10:12:04 2025, MaxMem=  4294967296 cpu:               0.1 elap:               0.0
 (Enter /lrz/sys/applications/gaussian/g16.C.01/x86_64_legacy/exe/l301.exe)
 Standard basis: def2TZVP (5D, 7F)
 Ernie: Thresh=  0.10000D-02 Tol=  0.10000D-05 Strict=F.
 There are   282 symmetry adapted cartesian basis functions of A   symmetry.
 There are   252 symmetry adapted basis functions of A   symmetry.
   252 basis functions,   394 primitive gaussians,   282 cartesian basis functions
    25 alpha electrons       25 beta electrons
       nuclear repulsion energy       267.5990646219 Hartrees.
 IExCor= 4639 DFT=T Ex+Corr=wB97XD ExCW=0 ScaHFX=  1.000000
 ScaDFX=  1.000000  1.000000  1.000000  1.000000 ScalE2=  1.000000  1.000000
 IRadAn=      5 IRanWt=     -1 IRanGd=            0 ICorTp=0 IEmpDi=121
 HFx  wShort=  0.000000 wLong=  0.200000 cFull=  0.222036 cShort=  0.000000 cLong=  0.777964
 DFx  wShort=  0.000000 wLong=  0.200000 cFull=  0.000000 cShort=  0.000000 cLong=  1.000000
 NAtoms=   17 NActive=   17 NUniq=   17 SFac= 1.00D+00 NAtFMM=   60 NAOKFM=F Big=F
 Integral buffers will be    131072 words long.
 Raffenetti 2 integral format.
 Two-electron integral symmetry is turned on.
 R6Disp:  Grimme-D2 Dispersion energy=       -0.0098189005 Hartrees.
 Nuclear repulsion after empirical dispersion term =      267.5892457213 Hartrees.
 ------------------------------------------------------------------------------
 Polarizable Continuum Model (PCM)
 =================================
 Model                : PCM.
 Atomic radii         : SMD-Coulomb.
 Polarization charges : Total charges.
 Charge compensation  : None.
 Solution method      : On-the-fly selection.
 Cavity type          : VdW (van der Waals Surface) (Alpha=1.000).
 Cavity algorithm     : GePol (No added spheres)
                        Default sphere list used, NSphG=   17.
                        Lebedev-Laikov grids with approx.  5.0 points / Ang**2.
                        Smoothing algorithm: York/Karplus (Gamma=1.0000).
                        Polarization charges: spherical gaussians, with
                                              point-specific exponents (IZeta= 3).
                        Self-potential: point-specific (ISelfS= 7).
                        Self-field    : sphere-specific E.n sum rule (ISelfD= 2).
 Solvent              : Water, Eps=  78.355300 Eps(inf)=   1.777849
 ------------------------------------------------------------------------------
 Spheres list:
 ISph  on   Nord     Re0    Alpha      Xe            Ye            Ze
    1   O      1    1.5200  1.000      1.609244      0.705172     -0.656605
    2   C      2    1.8500  1.000      0.720266     -0.354700     -0.320890
    3   N      3    1.8900  1.000      0.993253     -0.957292      0.957027
    4   C      4    1.8500  1.000     -0.699782      0.215350     -0.410018
    5   C      5    1.8500  1.000     -0.962880      1.295700      0.639266
    6   C      6    1.8500  1.000     -1.748947     -0.890558     -0.350414
    7   H      7    1.2000  1.000      2.503931      0.344551     -0.656989
    8   H      8    1.2000  1.000      0.818454     -1.151334     -1.080477
    9   H      9    1.2000  1.000      1.920003     -1.381310      0.943065
   10   H     10    1.2000  1.000      1.018131     -0.233491      1.675648
   11   H     11    1.2000  1.000     -0.758042      0.688823     -1.404669
   12   H     12    1.2000  1.000     -0.197442      2.084772      0.605083
   13   H     13    1.2000  1.000     -1.942690      1.767292      0.469047
   14   H     14    1.2000  1.000     -0.975162      0.873810      1.657679
   15   H     15    1.2000  1.000     -1.723522     -1.405263      0.622245
   16   H     16    1.2000  1.000     -2.759626     -0.477133     -0.489907
   17   H     17    1.2000  1.000     -1.582706     -1.645806     -1.134737
 ------------------------------------------------------------------------------
 GePol: Number of generator spheres                  =      17
 GePol: Total number of spheres                      =      17
 GePol: Number of exposed spheres                    =      17 (100.00%)
 GePol: Number of points                             =    1163
 GePol: Average weight of points                     =       0.12
 GePol: Minimum weight of points                     =   0.41D-08
 GePol: Maximum weight of points                     =    0.21991
 GePol: Number of points with low weight             =      70
 GePol: Fraction of low-weight points (<1% of avg)   =       6.02%
 GePol: Cavity surface area                          =    135.377 Ang**2
 GePol: Cavity volume                                =    107.791 Ang**3
 ------------------------------------------------------------------------------
 Atomic radii for non-electrostatic terms: SMD-CDS.
 ------------------------------------------------------------------------------
 PCM non-electrostatic energy =         0.0038865812 Hartrees.
 Nuclear repulsion after PCM non-electrostatic terms =      267.5931323025 Hartrees.
 Leave Link  301 at Wed Oct 22 10:12:04 2025, MaxMem=  4294967296 cpu:               0.6 elap:               0.1
 (Enter /lrz/sys/applications/gaussian/g16.C.01/x86_64_legacy/exe/l302.exe)
 NPDir=0 NMtPBC=     1 NCelOv=     1 NCel=       1 NClECP=     1 NCelD=      1
         NCelK=      1 NCelE2=     1 NClLst=     1 CellRange=     0.0.
 One-electron integrals computed using PRISM.
 One-electron integral symmetry used in STVInt
   1 Symmetry operations used in ECPInt.
 ECPInt:  NShTT=    6105 NPrTT=   17556 LenC2=    6061 LenP2D=   14563.
 LDataN:  DoStor=T MaxTD1= 6 Len=  172
 NBasis=   252 RedAO= T EigKep=  1.98D-04  NBF=   252
 NBsUse=   252 1.00D-06 EigRej= -1.00D+00 NBFU=   252
 Precomputing XC quadrature grid using
 IXCGrd= 4 IRadAn=           5 IRanWt=          -1 IRanGd=           0 AccXCQ= 0.00D+00.
 Generated NRdTot=       0 NPtTot=           0 NUsed=           0 NTot=          32
 NSgBfM=   281   281   281   281   281 MxSgAt=    17 MxSgA2=    17.
 Leave Link  302 at Wed Oct 22 10:12:04 2025, MaxMem=  4294967296 cpu:               2.4 elap:               0.3
 (Enter /lrz/sys/applications/gaussian/g16.C.01/x86_64_legacy/exe/l303.exe)
 DipDrv:  MaxL=1.
 Leave Link  303 at Wed Oct 22 10:12:04 2025, MaxMem=  4294967296 cpu:               0.3 elap:               0.1
 (Enter /lrz/sys/applications/gaussian/g16.C.01/x86_64_legacy/exe/l401.exe)
 ExpMin= 9.52D-02 ExpMax= 2.70D+04 ExpMxC= 9.22D+02 IAcc=3 IRadAn=         5 AccDes= 0.00D+00
 Harris functional with IExCor= 4639 and IRadAn=       5 diagonalized for initial guess.
 HarFok:  IExCor= 4639 AccDes= 0.00D+00 IRadAn=         5 IDoV= 1 UseB2=F ITyADJ=14
 ICtDFT=  3500011 ScaDFX=  1.000000  1.000000  1.000000  1.000000
 FoFCou: FMM=F IPFlag=           0 FMFlag=      100000 FMFlg1=           0
         NFxFlg=           0 DoJE=T BraDBF=F KetDBF=T FulRan=T
         wScrn=  0.000000 ICntrl=       500 IOpCl=  0 I1Cent=   200000004 NGrid=           0
         NMat0=    1 NMatS0=      1 NMatT0=    0 NMatD0=    1 NMtDS0=    0 NMtDT0=    0
 Petite list used in FoFCou.
 Harris En= -276.203239579643    
 JPrj=0 DoOrth=F DoCkMO=F.
 Leave Link  401 at Wed Oct 22 10:12:06 2025, MaxMem=  4294967296 cpu:              16.9 elap:               2.1
 (Enter /lrz/sys/applications/gaussian/g16.C.01/x86_64_legacy/exe/l502.exe)
 Integral symmetry usage will be decided dynamically.
 Closed shell SCF:
 Using DIIS extrapolation, IDIIS=  1040.
 NGot=  4294967296 LenX=  4294802854 LenY=  4294722889
 Requested convergence on RMS density matrix=1.00D-08 within 128 cycles.
 Requested convergence on MAX density matrix=1.00D-06.
 Requested convergence on             energy=1.00D-06.
 No special actions if energy rises.
 Fock matrices will be formed incrementally for  20 cycles.

 Cycle   1  Pass 1  IDiag  1:
 FoFJK:  IHMeth= 1 ICntrl=       0 DoSepK=T KAlg= 0 I1Cent=           0 FoldK=F
 IRaf=         1 NMat=       1 IRICut=       1 DoRegI=T DoRafI=F ISym2E= 0 IDoP0=0 IntGTp=1.
 FoFCou: FMM=F IPFlag=           0 FMFlag=      100000 FMFlg1=           0
         NFxFlg=           0 DoJE=T BraDBF=F KetDBF=F FulRan=T
         wScrn=  0.000000 ICntrl=       500 IOpCl=  0 I1Cent=           0 NGrid=           0
         NMat0=    1 NMatS0=      1 NMatT0=    0 NMatD0=    1 NMtDS0=    0 NMtDT0=    0
 Symmetry not used in FoFCou.
 Inv3:  Mode=1 IEnd=     4057707.
 Iteration    1 A*A^-1 deviation from unit magnitude is 6.22D-15 for    293.
 Iteration    1 A*A^-1 deviation from orthogonality  is 3.54D-15 for    977    917.
 Iteration    1 A^-1*A deviation from unit magnitude is 5.88D-15 for    293.
 Iteration    1 A^-1*A deviation from orthogonality  is 3.07D-15 for    998    983.
 E= -288.987877326367    
 DIIS: error= 4.18D-02 at cycle   1 NSaved=   1.
 NSaved= 1 IEnMin= 1 EnMin= -288.987877326367     IErMin= 1 ErrMin= 4.18D-02
 ErrMax= 4.18D-02  0.00D+00 EMaxC= 1.00D-01 BMatC= 6.12D-01 BMatP= 6.12D-01
 IDIUse=3 WtCom= 5.82D-01 WtEn= 4.18D-01
 Coeff-Com:  0.100D+01
 Coeff-En:   0.100D+01
 Coeff:      0.100D+01
 Gap=     0.489 Goal=   None    Shift=    0.000
 GapD=    0.489 DampG=2.000 DampE=0.500 DampFc=1.0000 IDamp=-1.
 RMSDP=1.82D-03 MaxDP=5.78D-02              OVMax= 5.60D-02

 Cycle   2  Pass 1  IDiag  1:
 RMSU=  1.75D-03    CP:  9.51D-01
 E= -289.043143688262     Delta-E=       -0.055266361896 Rises=F Damp=F
 DIIS: error= 7.55D-03 at cycle   2 NSaved=   2.
 NSaved= 2 IEnMin= 2 EnMin= -289.043143688262     IErMin= 2 ErrMin= 7.55D-03
 ErrMax= 7.55D-03  0.00D+00 EMaxC= 1.00D-01 BMatC= 3.45D-02 BMatP= 6.12D-01
 IDIUse=3 WtCom= 9.24D-01 WtEn= 7.55D-02
 Coeff-Com:  0.124D+00 0.876D+00
 Coeff-En:   0.000D+00 0.100D+01
 Coeff:      0.115D+00 0.885D+00
 Gap=     0.459 Goal=   None    Shift=    0.000
 RMSDP=7.90D-04 MaxDP=3.09D-02 DE=-5.53D-02 OVMax= 4.59D-02

 Cycle   3  Pass 1  IDiag  1:
 RMSU=  6.16D-04    CP:  9.63D-01  7.27D-01
 E= -289.053424391735     Delta-E=       -0.010280703473 Rises=F Damp=F
 DIIS: error= 6.50D-03 at cycle   3 NSaved=   3.
 NSaved= 3 IEnMin= 3 EnMin= -289.053424391735     IErMin= 3 ErrMin= 6.50D-03
 ErrMax= 6.50D-03  0.00D+00 EMaxC= 1.00D-01 BMatC= 2.09D-02 BMatP= 3.45D-02
 IDIUse=3 WtCom= 9.35D-01 WtEn= 6.50D-02
 Coeff-Com:  0.245D-01 0.445D+00 0.531D+00
 Coeff-En:   0.000D+00 0.365D+00 0.635D+00
 Coeff:      0.229D-01 0.439D+00 0.538D+00
 Gap=     0.463 Goal=   None    Shift=    0.000
 RMSDP=4.33D-04 MaxDP=1.61D-02 DE=-1.03D-02 OVMax= 2.37D-02

 Cycle   4  Pass 1  IDiag  1:
 RMSU=  1.55D-04    CP:  9.54D-01  9.04D-01  6.03D-01
 E= -289.068001615435     Delta-E=       -0.014577223700 Rises=F Damp=F
 DIIS: error= 6.76D-04 at cycle   4 NSaved=   4.
 NSaved= 4 IEnMin= 4 EnMin= -289.068001615435     IErMin= 4 ErrMin= 6.76D-04
 ErrMax= 6.76D-04  0.00D+00 EMaxC= 1.00D-01 BMatC= 2.63D-04 BMatP= 2.09D-02
 IDIUse=3 WtCom= 9.93D-01 WtEn= 6.76D-03
 Coeff-Com:  0.921D-02 0.173D+00 0.232D+00 0.586D+00
 Coeff-En:   0.000D+00 0.000D+00 0.000D+00 0.100D+01
 Coeff:      0.915D-02 0.171D+00 0.231D+00 0.589D+00
 Gap=     0.451 Goal=   None    Shift=    0.000
 RMSDP=4.18D-05 MaxDP=1.61D-03 DE=-1.46D-02 OVMax= 2.47D-03

 Cycle   5  Pass 1  IDiag  1:
 RMSU=  3.72D-05    CP:  9.54D-01  9.09D-01  6.26D-01  9.39D-01
 E= -289.068186866548     Delta-E=       -0.000185251113 Rises=F Damp=F
 DIIS: error= 1.38D-04 at cycle   5 NSaved=   5.
 NSaved= 5 IEnMin= 5 EnMin= -289.068186866548     IErMin= 5 ErrMin= 1.38D-04
 ErrMax= 1.38D-04  0.00D+00 EMaxC= 1.00D-01 BMatC= 8.22D-06 BMatP= 2.63D-04
 IDIUse=3 WtCom= 9.99D-01 WtEn= 1.38D-03
 Coeff-Com: -0.186D-02-0.314D-01-0.301D-01 0.940D-01 0.969D+00
 Coeff-En:   0.000D+00 0.000D+00 0.000D+00 0.000D+00 0.100D+01
 Coeff:     -0.185D-02-0.313D-01-0.301D-01 0.938D-01 0.969D+00
 Gap=     0.450 Goal=   None    Shift=    0.000
 RMSDP=3.10D-05 MaxDP=1.21D-03 DE=-1.85D-04 OVMax= 8.34D-04

 Cycle   6  Pass 1  IDiag  1:
 RMSU=  1.07D-05    CP:  9.54D-01  9.18D-01  6.39D-01  1.07D+00  1.23D+00
 E= -289.068197317651     Delta-E=       -0.000010451103 Rises=F Damp=F
 DIIS: error= 2.00D-05 at cycle   6 NSaved=   6.
 NSaved= 6 IEnMin= 6 EnMin= -289.068197317651     IErMin= 6 ErrMin= 2.00D-05
 ErrMax= 2.00D-05  0.00D+00 EMaxC= 1.00D-01 BMatC= 3.29D-07 BMatP= 8.22D-06
 IDIUse=1 WtCom= 1.00D+00 WtEn= 0.00D+00
 Coeff-Com: -0.697D-03-0.116D-01-0.130D-01 0.455D-02 0.187D+00 0.834D+00
 Coeff:     -0.697D-03-0.116D-01-0.130D-01 0.455D-02 0.187D+00 0.834D+00
 Gap=     0.451 Goal=   None    Shift=    0.000
 RMSDP=6.75D-06 MaxDP=2.28D-04 DE=-1.05D-05 OVMax= 2.38D-04

 Cycle   7  Pass 1  IDiag  1:
 RMSU=  2.51D-06    CP:  9.53D-01  9.19D-01  6.40D-01  1.10D+00  1.31D+00
                    CP:  1.18D+00
 E= -289.068197714701     Delta-E=       -0.000000397050 Rises=F Damp=F
 DIIS: error= 1.53D-05 at cycle   7 NSaved=   7.
 NSaved= 7 IEnMin= 7 EnMin= -289.068197714701     IErMin= 7 ErrMin= 1.53D-05
 ErrMax= 1.53D-05  0.00D+00 EMaxC= 1.00D-01 BMatC= 7.98D-08 BMatP= 3.29D-07
 IDIUse=1 WtCom= 1.00D+00 WtEn= 0.00D+00
 Coeff-Com: -0.410D-04-0.108D-02-0.182D-02-0.861D-02-0.440D-01 0.309D+00
 Coeff-Com:  0.747D+00
 Coeff:     -0.410D-04-0.108D-02-0.182D-02-0.861D-02-0.440D-01 0.309D+00
 Coeff:      0.747D+00
 Gap=     0.451 Goal=   None    Shift=    0.000
 RMSDP=2.45D-06 MaxDP=7.91D-05 DE=-3.97D-07 OVMax= 7.83D-05

 Cycle   8  Pass 1  IDiag  1:
 RMSU=  9.33D-07    CP:  9.53D-01  9.20D-01  6.40D-01  1.11D+00  1.34D+00
                    CP:  1.31D+00  1.14D+00
 E= -289.068197797709     Delta-E=       -0.000000083008 Rises=F Damp=F
 DIIS: error= 2.02D-06 at cycle   8 NSaved=   8.
 NSaved= 8 IEnMin= 8 EnMin= -289.068197797709     IErMin= 8 ErrMin= 2.02D-06
 ErrMax= 2.02D-06  0.00D+00 EMaxC= 1.00D-01 BMatC= 3.39D-09 BMatP= 7.98D-08
 IDIUse=1 WtCom= 1.00D+00 WtEn= 0.00D+00
 Coeff-Com:  0.404D-04 0.654D-03 0.659D-03-0.198D-02-0.237D-01 0.586D-02
 Coeff-Com:  0.165D+00 0.854D+00
 Coeff:      0.404D-04 0.654D-03 0.659D-03-0.198D-02-0.237D-01 0.586D-02
 Coeff:      0.165D+00 0.854D+00
 Gap=     0.451 Goal=   None    Shift=    0.000
 RMSDP=7.81D-07 MaxDP=2.28D-05 DE=-8.30D-08 OVMax= 2.71D-05

 Cycle   9  Pass 1  IDiag  1:
 RMSU=  2.25D-07    CP:  9.53D-01  9.20D-01  6.40D-01  1.11D+00  1.35D+00
                    CP:  1.35D+00  1.28D+00  1.22D+00
 E= -289.068197802376     Delta-E=       -0.000000004667 Rises=F Damp=F
 DIIS: error= 7.10D-07 at cycle   9 NSaved=   9.
 NSaved= 9 IEnMin= 9 EnMin= -289.068197802376     IErMin= 9 ErrMin= 7.10D-07
 ErrMax= 7.10D-07  0.00D+00 EMaxC= 1.00D-01 BMatC= 4.30D-10 BMatP= 3.39D-09
 IDIUse=1 WtCom= 1.00D+00 WtEn= 0.00D+00
 Coeff-Com:  0.137D-04 0.268D-03 0.343D-03 0.708D-04-0.317D-02-0.233D-01
 Coeff-Com: -0.185D-01 0.245D+00 0.799D+00
 Coeff:      0.137D-04 0.268D-03 0.343D-03 0.708D-04-0.317D-02-0.233D-01
 Coeff:     -0.185D-01 0.245D+00 0.799D+00
 Gap=     0.451 Goal=   None    Shift=    0.000
 RMSDP=2.40D-07 MaxDP=6.88D-06 DE=-4.67D-09 OVMax= 1.04D-05

 Cycle  10  Pass 1  IDiag  1:
 RMSU=  7.53D-08    CP:  9.53D-01  9.20D-01  6.40D-01  1.11D+00  1.35D+00
                    CP:  1.36D+00  1.32D+00  1.33D+00  1.19D+00
 E= -289.068197802946     Delta-E=       -0.000000000570 Rises=F Damp=F
 DIIS: error= 2.77D-07 at cycle  10 NSaved=  10.
 NSaved=10 IEnMin=10 EnMin= -289.068197802946     IErMin=10 ErrMin= 2.77D-07
 ErrMax= 2.77D-07  0.00D+00 EMaxC= 1.00D-01 BMatC= 4.40D-11 BMatP= 4.30D-10
 IDIUse=1 WtCom= 1.00D+00 WtEn= 0.00D+00
 Coeff-Com: -0.196D-05-0.208D-04 0.368D-05 0.327D-03 0.272D-02-0.720D-02
 Coeff-Com: -0.307D-01-0.538D-01 0.207D+00 0.882D+00
 Coeff:     -0.196D-05-0.208D-04 0.368D-05 0.327D-03 0.272D-02-0.720D-02
 Coeff:     -0.307D-01-0.538D-01 0.207D+00 0.882D+00
 Gap=     0.451 Goal=   None    Shift=    0.000
 RMSDP=9.50D-08 MaxDP=2.76D-06 DE=-5.70D-10 OVMax= 3.73D-06

 Cycle  11  Pass 1  IDiag  1:
 RMSU=  2.75D-08    CP:  9.53D-01  9.20D-01  6.40D-01  1.11D+00  1.35D+00
                    CP:  1.37D+00  1.34D+00  1.39D+00  1.36D+00  1.24D+00
 E= -289.068197802997     Delta-E=       -0.000000000051 Rises=F Damp=F
 DIIS: error= 3.49D-08 at cycle  11 NSaved=  11.
 NSaved=11 IEnMin=11 EnMin= -289.068197802997     IErMin=11 ErrMin= 3.49D-08
 ErrMax= 3.49D-08  0.00D+00 EMaxC= 1.00D-01 BMatC= 7.99D-13 BMatP= 4.40D-11
 IDIUse=1 WtCom= 1.00D+00 WtEn= 0.00D+00
 Coeff-Com: -0.811D-07-0.514D-05-0.119D-04-0.276D-04-0.304D-03 0.178D-02
 Coeff-Com:  0.490D-02-0.170D-02-0.616D-01-0.118D+00 0.118D+01
 Coeff:     -0.811D-07-0.514D-05-0.119D-04-0.276D-04-0.304D-03 0.178D-02
 Coeff:      0.490D-02-0.170D-02-0.616D-01-0.118D+00 0.118D+01
 Gap=     0.451 Goal=   None    Shift=    0.000
 RMSDP=2.15D-08 MaxDP=7.41D-07 DE=-5.08D-11 OVMax= 9.93D-07

 Cycle  12  Pass 1  IDiag  1:
 RMSU=  6.26D-09    CP:  9.53D-01  9.20D-01  6.40D-01  1.11D+00  1.35D+00
                    CP:  1.37D+00  1.34D+00  1.39D+00  1.40D+00  1.39D+00
                    CP:  1.40D+00
 E= -289.068197803013     Delta-E=       -0.000000000016 Rises=F Damp=F
 DIIS: error= 7.10D-09 at cycle  12 NSaved=  12.
 NSaved=12 IEnMin=12 EnMin= -289.068197803013     IErMin=12 ErrMin= 7.10D-09
 ErrMax= 7.10D-09  0.00D+00 EMaxC= 1.00D-01 BMatC= 3.99D-14 BMatP= 7.99D-13
 IDIUse=1 WtCom= 1.00D+00 WtEn= 0.00D+00
 Coeff-Com:  0.537D-07 0.394D-06-0.718D-06-0.144D-04-0.115D-03 0.345D-03
 Coeff-Com:  0.146D-02 0.230D-02-0.991D-02-0.440D-01 0.592D-01 0.991D+00
 Coeff:      0.537D-07 0.394D-06-0.718D-06-0.144D-04-0.115D-03 0.345D-03
 Coeff:      0.146D-02 0.230D-02-0.991D-02-0.440D-01 0.592D-01 0.991D+00
 Gap=     0.451 Goal=   None    Shift=    0.000
 RMSDP=4.24D-09 MaxDP=1.81D-07 DE=-1.58D-11 OVMax= 1.82D-07

 Error on total polarization charges =  0.04349
 SCF Done:  E(RwB97XD) =  -289.068197803     A.U. after   12 cycles
            NFock= 12  Conv=0.42D-08     -V/T= 2.0055
 KE= 2.874829878207D+02 PE=-1.209561179389D+03 EE= 3.654168614631D+02
 SMD-CDS (non-electrostatic) energy       (kcal/mol) =       2.44
 (included in total energy above)
 Leave Link  502 at Wed Oct 22 10:13:43 2025, MaxMem=  4294967296 cpu:             770.8 elap:              96.5
 (Enter /lrz/sys/applications/gaussian/g16.C.01/x86_64_legacy/exe/l601.exe)
 Copying SCF densities to generalized density rwf, IOpCl= 0 IROHF=0.

 **********************************************************************

            Population analysis using the SCF Density.

 **********************************************************************

 Orbital symmetries:
       Occupied  (A) (A) (A) (A) (A) (A) (A) (A) (A) (A) (A) (A)
                 (A) (A) (A) (A) (A) (A) (A) (A) (A) (A) (A) (A)
                 (A)
       Virtual   (A) (A) (A) (A) (A) (A) (A) (A) (A) (A) (A) (A)
                 (A) (A) (A) (A) (A) (A) (A) (A) (A) (A) (A) (A)
                 (A) (A) (A) (A) (A) (A) (A) (A) (A) (A) (A) (A)
                 (A) (A) (A) (A) (A) (A) (A) (A) (A) (A) (A) (A)
                 (A) (A) (A) (A) (A) (A) (A) (A) (A) (A) (A) (A)
                 (A) (A) (A) (A) (A) (A) (A) (A) (A) (A) (A) (A)
                 (A) (A) (A) (A) (A) (A) (A) (A) (A) (A) (A) (A)
                 (A) (A) (A) (A) (A) (A) (A) (A) (A) (A) (A) (A)
                 (A) (A) (A) (A) (A) (A) (A) (A) (A) (A) (A) (A)
                 (A) (A) (A) (A) (A) (A) (A) (A) (A) (A) (A) (A)
                 (A) (A) (A) (A) (A) (A) (A) (A) (A) (A) (A) (A)
                 (A) (A) (A) (A) (A) (A) (A) (A) (A) (A) (A) (A)
                 (A) (A) (A) (A) (A) (A) (A) (A) (A) (A) (A) (A)
                 (A) (A) (A) (A) (A) (A) (A) (A) (A) (A) (A) (A)
                 (A) (A) (A) (A) (A) (A) (A) (A) (A) (A) (A) (A)
                 (A) (A) (A) (A) (A) (A) (A) (A) (A) (A) (A) (A)
                 (A) (A) (A) (A) (A) (A) (A) (A) (A) (A) (A) (A)
                 (A) (A) (A) (A) (A) (A) (A) (A) (A) (A) (A) (A)
                 (A) (A) (A) (A) (A) (A) (A) (A) (A) (A) (A)
 The electronic state is 1-A.
 Alpha  occ. eigenvalues --  -19.24592 -14.41000 -10.34861 -10.27921 -10.26312
 Alpha  occ. eigenvalues --  -10.26267  -1.12941  -0.97342  -0.88352  -0.77275
 Alpha  occ. eigenvalues --   -0.74887  -0.64189  -0.61016  -0.58710  -0.53118
 Alpha  occ. eigenvalues --   -0.51177  -0.50819  -0.47388  -0.46471  -0.45419
 Alpha  occ. eigenvalues --   -0.41436  -0.40396  -0.39690  -0.37599  -0.33830
 Alpha virt. eigenvalues --    0.11222   0.14321   0.14680   0.16663   0.17765
 Alpha virt. eigenvalues --    0.18990   0.19281   0.20332   0.21948   0.23153
 Alpha virt. eigenvalues --    0.23458   0.24649   0.26406   0.28537   0.28985
 Alpha virt. eigenvalues --    0.30144   0.31460   0.33472   0.33828   0.37644
 Alpha virt. eigenvalues --    0.38532   0.40296   0.41337   0.44058   0.44955
 Alpha virt. eigenvalues --    0.45797   0.46964   0.48068   0.48512   0.50476
 Alpha virt. eigenvalues --    0.51435   0.51760   0.53758   0.54438   0.55860
 Alpha virt. eigenvalues --    0.56375   0.56579   0.57360   0.58924   0.59327
 Alpha virt. eigenvalues --    0.62137   0.62739   0.64021   0.65598   0.69154
 Alpha virt. eigenvalues --    0.70797   0.74385   0.76144   0.76912   0.81318
 Alpha virt. eigenvalues --    0.85434   0.87245   0.89973   0.91767   0.92783
 Alpha virt. eigenvalues --    0.98836   1.00118   1.03267   1.06059   1.08217
 Alpha virt. eigenvalues --    1.11379   1.13626   1.15617   1.16861   1.19424
 Alpha virt. eigenvalues --    1.20879   1.26408   1.27923   1.30616   1.32925
 Alpha virt. eigenvalues --    1.35100   1.36708   1.44851   1.48051   1.49569
 Alpha virt. eigenvalues --    1.50383   1.54370   1.58374   1.62913   1.63876
 Alpha virt. eigenvalues --    1.64761   1.65219   1.66419   1.68534   1.69223
 Alpha virt. eigenvalues --    1.70727   1.71711   1.73454   1.78515   1.80157
 Alpha virt. eigenvalues --    1.84001   1.84351   1.86148   1.89341   1.96234
 Alpha virt. eigenvalues --    1.97404   2.00273   2.01270   2.03233   2.05466
 Alpha virt. eigenvalues --    2.06268   2.08411   2.12158   2.13022   2.17343
 Alpha virt. eigenvalues --    2.18704   2.21400   2.23478   2.24573   2.26650
 Alpha virt. eigenvalues --    2.30524   2.30938   2.34453   2.37738   2.41221
 Alpha virt. eigenvalues --    2.42054   2.44143   2.46181   2.49219   2.50108
 Alpha virt. eigenvalues --    2.51322   2.53176   2.58870   2.60839   2.62124
 Alpha virt. eigenvalues --    2.63815   2.65825   2.66381   2.69072   2.69392
 Alpha virt. eigenvalues --    2.71095   2.73756   2.76591   2.79056   2.81962
 Alpha virt. eigenvalues --    2.82780   2.87024   2.89153   2.89814   2.92849
 Alpha virt. eigenvalues --    2.97114   3.00054   3.01357   3.04811   3.08079
 Alpha virt. eigenvalues --    3.14831   3.15219   3.18883   3.20366   3.21532
 Alpha virt. eigenvalues --    3.22961   3.26248   3.26712   3.31950   3.34535
 Alpha virt. eigenvalues --    3.37250   3.39811   3.41758   3.43374   3.47737
 Alpha virt. eigenvalues --    3.48939   3.50400   3.52244   3.54596   3.58003
 Alpha virt. eigenvalues --    3.60925   3.63807   3.67085   3.68510   3.70669
 Alpha virt. eigenvalues --    3.73252   3.75758   3.80192   3.80868   3.90211
 Alpha virt. eigenvalues --    3.91473   3.98645   4.04644   4.07361   4.11730
 Alpha virt. eigenvalues --    4.15868   4.17618   4.20302   4.26456   4.29957
 Alpha virt. eigenvalues --    4.32915   4.42587   4.45657   4.46702   4.48530
 Alpha virt. eigenvalues --    4.48906   4.55791   4.62161   4.68527   4.70559
 Alpha virt. eigenvalues --    4.77763   4.83258   4.91171   4.93912   4.98172
 Alpha virt. eigenvalues --    5.00799   5.03655   5.07691   5.16700   5.22102
 Alpha virt. eigenvalues --    5.32421   5.36345   5.42889   5.50274   5.60139
 Alpha virt. eigenvalues --    5.67552   5.87802   5.88597   5.90740   6.07854
 Alpha virt. eigenvalues --    6.38643   6.59697   6.80721   6.88753   7.09383
 Alpha virt. eigenvalues --    7.28660  22.46065  22.46839  22.69639  22.75254
 Alpha virt. eigenvalues --   32.08917  44.02778
          Condensed to atoms (all electrons):
               1          2          3          4          5          6
     1  O    8.138674   0.334393  -0.101544  -0.075847  -0.019586   0.003819
     2  C    0.334393   4.691041   0.301198   0.251346  -0.017425  -0.023317
     3  N   -0.101544   0.301198   6.737951  -0.013257  -0.003265  -0.016660
     4  C   -0.075847   0.251346  -0.013257   5.066560   0.291574   0.268228
     5  C   -0.019586  -0.017425  -0.003265   0.291574   5.061291  -0.039571
     6  C    0.003819  -0.023317  -0.016660   0.268228  -0.039571   5.050445
     7  H    0.305079  -0.036263   0.006328   0.011511   0.000739  -0.000696
     8  H   -0.049303   0.480309  -0.058343  -0.066221   0.004714  -0.003472
     9  H   -0.000377  -0.043493   0.375960   0.009828  -0.000351  -0.000019
    10  H    0.003235  -0.011075   0.354901  -0.017612   0.000683   0.000596
    11  H    0.008858  -0.059566   0.007720   0.434902  -0.043733  -0.032856
    12  H    0.013677   0.004091  -0.002254  -0.052118   0.410581   0.009221
    13  H   -0.000262   0.008643  -0.000044  -0.035731   0.415074  -0.004169
    14  H    0.001258  -0.014058   0.004224  -0.026562   0.404326  -0.007839
    15  H    0.000544  -0.017083   0.017322  -0.021307  -0.007674   0.397222
    16  H   -0.000122   0.009795   0.000650  -0.037929  -0.004238   0.409171
    17  H    0.000009   0.000871  -0.000041  -0.042074   0.009191   0.408199
               7          8          9         10         11         12
     1  O    0.305079  -0.049303  -0.000377   0.003235   0.008858   0.013677
     2  C   -0.036263   0.480309  -0.043493  -0.011075  -0.059566   0.004091
     3  N    0.006328  -0.058343   0.375960   0.354901   0.007720  -0.002254
     4  C    0.011511  -0.066221   0.009828  -0.017612   0.434902  -0.052118
     5  C    0.000739   0.004714  -0.000351   0.000683  -0.043733   0.410581
     6  C   -0.000696  -0.003472  -0.000019   0.000596  -0.032856   0.009221
     7  H    0.353436  -0.006078   0.004811  -0.000263  -0.000643  -0.000824
     8  H   -0.006078   0.593630  -0.007422   0.008000  -0.005864   0.000940
     9  H    0.004811  -0.007422   0.425292  -0.026228  -0.000466  -0.000179
    10  H   -0.000263   0.008000  -0.026228   0.431422  -0.000273   0.001349
    11  H   -0.000643  -0.005864  -0.000466  -0.000273   0.615544  -0.003497
    12  H   -0.000824   0.000940  -0.000179   0.001349  -0.003497   0.529618
    13  H    0.000045  -0.000165   0.000021   0.000121  -0.006892  -0.020014
    14  H   -0.000143  -0.000065  -0.000166  -0.001582   0.007440  -0.023279
    15  H   -0.000053   0.000387  -0.000516  -0.000050   0.007342  -0.000128
    16  H    0.000018  -0.000405   0.000035  -0.000097  -0.006308  -0.000076
    17  H   -0.000023   0.003332  -0.000087   0.000040  -0.004910  -0.000272
              13         14         15         16         17
     1  O   -0.000262   0.001258   0.000544  -0.000122   0.000009
     2  C    0.008643  -0.014058  -0.017083   0.009795   0.000871
     3  N   -0.000044   0.004224   0.017322   0.000650  -0.000041
     4  C   -0.035731  -0.026562  -0.021307  -0.037929  -0.042074
     5  C    0.415074   0.404326  -0.007674  -0.004238   0.009191
     6  C   -0.004169  -0.007839   0.397222   0.409171   0.408199
     7  H    0.000045  -0.000143  -0.000053   0.000018  -0.000023
     8  H   -0.000165  -0.000065   0.000387  -0.000405   0.003332
     9  H    0.000021  -0.000166  -0.000516   0.000035  -0.000087
    10  H    0.000121  -0.001582  -0.000050  -0.000097   0.000040
    11  H   -0.006892   0.007440   0.007342  -0.006308  -0.004910
    12  H   -0.020014  -0.023279  -0.000128  -0.000076  -0.000272
    13  H    0.524290  -0.023490  -0.000466   0.002616  -0.000063
    14  H   -0.023490   0.545786   0.005322  -0.000383  -0.000050
    15  H   -0.000466   0.005322   0.548455  -0.022115  -0.023264
    16  H    0.002616  -0.000383  -0.022115   0.532509  -0.019794
    17  H   -0.000063  -0.000050  -0.023264  -0.019794   0.538318
 Mulliken charges:
               1
     1  O   -0.562508
     2  C    0.140592
     3  N   -0.610847
     4  C    0.054706
     5  C   -0.462332
     6  C   -0.418303
     7  H    0.363019
     8  H    0.106026
     9  H    0.263355
    10  H    0.256832
    11  H    0.083201
    12  H    0.133161
    13  H    0.140484
    14  H    0.129261
    15  H    0.116064
    16  H    0.136672
    17  H    0.130617
 Sum of Mulliken charges =  -0.00000
 Mulliken charges with hydrogens summed into heavy atoms:
               1
     1  O   -0.199489
     2  C    0.246618
     3  N   -0.090661
     4  C    0.137907
     5  C   -0.059425
     6  C   -0.034950
 Electronic spatial extent (au):  <R**2>=            648.9396
 Charge=             -0.0000 electrons
 Dipole moment (field-independent basis, Debye):
    X=              1.9478    Y=             -0.9169    Z=              0.1969  Tot=              2.1618
 Quadrupole moment (field-independent basis, Debye-Ang):
   XX=            -30.9658   YY=            -43.2194   ZZ=            -38.9911
   XY=             -4.5411   XZ=              1.7411   YZ=              3.0490
 Traceless Quadrupole moment (field-independent basis, Debye-Ang):
   XX=              6.7596   YY=             -5.4940   ZZ=             -1.2656
   XY=             -4.5411   XZ=              1.7411   YZ=              3.0490
 Octapole moment (field-independent basis, Debye-Ang**2):
  XXX=             36.6561  YYY=              1.3242  ZZZ=              2.5207  XYY=              3.6703
  XXY=             -5.7556  XXZ=             -0.3666  XZZ=              5.7355  YZZ=             -0.0999
  YYZ=             -3.1757  XYZ=              1.5563
 Hexadecapole moment (field-independent basis, Debye-Ang**3):
 XXXX=           -356.6096 YYYY=           -261.2531 ZZZZ=           -158.9978 XXXY=            -18.6882
 XXXZ=             -4.9523 YYYX=             -5.9650 YYYZ=              3.5693 ZZZX=              5.1043
 ZZZY=              1.6661 XXYY=           -112.3695 XXZZ=            -96.5714 YYZZ=            -74.1106
 XXYZ=             -4.6239 YYXZ=              3.1051 ZZXY=             -1.6587
 N-N= 2.675931323025D+02 E-N=-1.209561179575D+03  KE= 2.874829878207D+02
 No NMR shielding tensors so no spin-rotation constants.
 Leave Link  601 at Wed Oct 22 10:13:43 2025, MaxMem=  4294967296 cpu:               1.2 elap:               0.2
 (Enter /lrz/sys/applications/gaussian/g16.C.01/x86_64_legacy/exe/l9999.exe)
 Unable to Open any file for archive entry.
 1\1\GINC-CM4R15C05S03\SP\RwB97XD\def2TZVP\C4H11N1O1\GO29TIZ2\22-Oct-20
 25\0\\#p wb97xd scrf=(smd,solvent=water) def2tzvp\\g16_g16_C3-a_9\\0,1
 \O,0,1.609244,0.705172,-0.656605\C,0,0.720266,-0.3547,-0.32089\N,0,0.9
 93253,-0.957292,0.957027\C,0,-0.699782,0.21535,-0.410018\C,0,-0.96288,
 1.2957,0.639266\C,0,-1.748947,-0.890558,-0.350414\H,0,2.503931,0.34455
 1,-0.656989\H,0,0.818454,-1.151334,-1.080477\H,0,1.920003,-1.38131,0.9
 43065\H,0,1.018131,-0.233491,1.675648\H,0,-0.758042,0.688823,-1.404669
 \H,0,-0.197442,2.084772,0.605083\H,0,-1.94269,1.767292,0.469047\H,0,-0
 .975162,0.87381,1.657679\H,0,-1.723522,-1.405263,0.622245\H,0,-2.75962
 6,-0.477133,-0.489907\H,0,-1.582706,-1.645806,-1.134737\\Version=EM64L
 -G16RevC.01\State=1-A\HF=-289.0681978\RMSD=4.236e-09\Dipole=0.7663189,
 -0.3607229,0.0774477\Quadrupole=5.0255992,-4.0846196,-0.9409797,-3.376
 2189,1.2944877,2.2668665\PG=C01 [X(C4H11N1O1)]\\@
 The archive entry for this job was punched.


 A MUSTACHE HAIR ACROSS A CHIP IS LIKE A REDWOOD
 TREE FALLING THROUGH A HOUSING PROJECT.
 - AN IBM MANAGER IN EAST FISHKILL, NEW YORK
   AS QUOTED IN "FROM SANDS TO CIRCUITS", IBM INNOVATION JANUARY 1985.
 Job cpu time:       0 days  0 hours 13 minutes 19.6 seconds.
 Elapsed time:       0 days  0 hours  1 minutes 40.4 seconds.
 File lengths (MBytes):  RWF=    288 Int=      0 D2E=      0 Chk=     12 Scr=     32
 Normal termination of Gaussian 16 at Wed Oct 22 10:13:43 2025.
