 Entering Gaussian System, Link 0=g16
 Input=../../g16_g16_C18-a_3.com
 Output=../../g16_g16_C18-a_3.log
 Initial command:
 /lrz/sys/applications/gaussian/g16.C.01/x86_64_legacy/exe/l1.exe "/dss/lxclscratch/0D/go29tiz2/Gau-227902.inp" -scrdir="/dss/lxclscratch/0D/go29tiz2/"
 Entering Link 1 = /lrz/sys/applications/gaussian/g16.C.01/x86_64_legacy/exe/l1.exe PID=    227903.
  
 Copyright (c) 1988-2019, Gaussian, Inc.  All Rights Reserved.
  
 This is part of the Gaussian(R) 16 program.  It is based on
 the Gaussian(R) 09 system (copyright 2009, Gaussian, Inc.),
 the Gaussian(R) 03 system (copyright 2003, Gaussian, Inc.),
 the Gaussian(R) 98 system (copyright 1998, Gaussian, Inc.),
 the Gaussian(R) 94 system (copyright 1995, Gaussian, Inc.),
 the Gaussian 92(TM) system (copyright 1992, Gaussian, Inc.),
 the Gaussian 90(TM) system (copyright 1990, Gaussian, Inc.),
 the Gaussian 88(TM) system (copyright 1988, Gaussian, Inc.),
 the Gaussian 86(TM) system (copyright 1986, Carnegie Mellon
 University), and the Gaussian 82(TM) system (copyright 1983,
 Carnegie Mellon University). Gaussian is a federally registered
 trademark of Gaussian, Inc.
  
 This software contains proprietary and confidential information,
 including trade secrets, belonging to Gaussian, Inc.
  
 This software is provided under written license and may be
 used, copied, transmitted, or stored only in accord with that
 written license.
  
 The following legend is applicable only to US Government
 contracts under FAR:
  
                    RESTRICTED RIGHTS LEGEND
  
 Use, reproduction and disclosure by the US Government is
 subject to restrictions as set forth in subparagraphs (a)
 and (c) of the Commercial Computer Software - Restricted
 Rights clause in FAR 52.227-19.
  
 Gaussian, Inc.
 340 Quinnipiac St., Bldg. 40, Wallingford CT 06492
  
  
 ---------------------------------------------------------------
 Warning -- This program may not be used in any manner that
 competes with the business of Gaussian, Inc. or will provide
 assistance to any competitor of Gaussian, Inc.  The licensee
 of this program is prohibited from giving any competitor of
 Gaussian, Inc. access to this program.  By using this program,
 the user acknowledges that Gaussian, Inc. is engaged in the
 business of creating and licensing software in the field of
 computational chemistry and represents and warrants to the
 licensee that it is not a competitor of Gaussian, Inc. and that
 it will not use this program in any manner prohibited above.
 ---------------------------------------------------------------
  

 Cite this work as:
 Gaussian 16, Revision C.01,
 M. J. Frisch, G. W. Trucks, H. B. Schlegel, G. E. Scuseria, 
 M. A. Robb, J. R. Cheeseman, G. Scalmani, V. Barone, 
 G. A. Petersson, H. Nakatsuji, X. Li, M. Caricato, A. V. Marenich, 
 J. Bloino, B. G. Janesko, R. Gomperts, B. Mennucci, H. P. Hratchian, 
 J. V. Ortiz, A. F. Izmaylov, J. L. Sonnenberg, D. Williams-Young, 
 F. Ding, F. Lipparini, F. Egidi, J. Goings, B. Peng, A. Petrone, 
 T. Henderson, D. Ranasinghe, V. G. Zakrzewski, J. Gao, N. Rega, 
 G. Zheng, W. Liang, M. Hada, M. Ehara, K. Toyota, R. Fukuda, 
 J. Hasegawa, M. Ishida, T. Nakajima, Y. Honda, O. Kitao, H. Nakai, 
 T. Vreven, K. Throssell, J. A. Montgomery, Jr., J. E. Peralta, 
 F. Ogliaro, M. J. Bearpark, J. J. Heyd, E. N. Brothers, K. N. Kudin, 
 V. N. Staroverov, T. A. Keith, R. Kobayashi, J. Normand, 
 K. Raghavachari, A. P. Rendell, J. C. Burant, S. S. Iyengar, 
 J. Tomasi, M. Cossi, J. M. Millam, M. Klene, C. Adamo, R. Cammi, 
 J. W. Ochterski, R. L. Martin, K. Morokuma, O. Farkas, 
 J. B. Foresman, and D. J. Fox, Gaussian, Inc., Wallingford CT, 2019.
 
 ******************************************
 Gaussian 16:  EM64L-G16RevC.01  3-Jul-2019
                22-Oct-2025 
 ******************************************
 %chk=g16_g16_C18-a_3.chk
 %nprocshared=8
 Will use up to    8 processors via shared memory.
 %mem=32GB
 -------------------------------------------
 #p wb97xd scrf=(smd,solvent=water) def2tzvp
 -------------------------------------------
 1/38=1,172=1/1;
 2/12=2,17=6,18=5,40=1/2;
 3/5=44,7=101,11=2,25=1,30=1,70=32201,72=1,74=-58/1,2,3;
 4//1;
 5/5=2,38=5,53=1/2;
 6/7=2,8=2,9=2,10=2,28=1/1;
 99/5=1,9=1/99;
 Leave Link    1 at Wed Oct 22 09:27:09 2025, MaxMem=  4294967296 cpu:               4.8 elap:               0.7
 (Enter /lrz/sys/applications/gaussian/g16.C.01/x86_64_legacy/exe/l101.exe)
 ---------------
 g16_g16_C18-a_3
 ---------------
 Symbolic Z-matrix:
 Charge =  0 Multiplicity = 1
 O                    -3.32911  -0.91654  -0.7543 
 C                    -2.80627   0.26254  -0.19449 
 N                    -3.36447   0.47826   1.1233 
 C                    -1.29294   0.14888  -0.18832 
 C                    -0.66253  -1.08398   0.0181 
 C                     0.72213  -1.16554   0.10091 
 C                     1.46763   0.00381  -0.0264 
 N                     2.92599  -0.07337   0.0577 
 O                     3.56484   0.95478  -0.05376 
 O                     3.43647  -1.16191   0.23648 
 C                     0.87026   1.24421  -0.23439 
 C                    -0.5154    1.30564  -0.3145 
 H                    -4.28525  -0.88141  -0.62342 
 H                    -3.08039   1.13903  -0.80764 
 H                    -3.18213   1.43614   1.42002 
 H                    -2.89709  -0.13006   1.79699 
 H                    -1.26218  -1.99049   0.1091 
 H                     1.22154  -2.12058   0.2604 
 H                     1.48245   2.13963  -0.33536 
 H                    -1.00248   2.26956  -0.47993 
 
 ITRead=  0  0  0  0  0  0  0  0  0  0  0  0  0  0  0  0  0  0  0  0
 MicOpt= -1 -1 -1 -1 -1 -1 -1 -1 -1 -1 -1 -1 -1 -1 -1 -1 -1 -1 -1 -1
 NAtoms=     20 NQM=       20 NQMF=       0 NMMI=      0 NMMIF=      0
                NMic=       0 NMicF=      0.
                    Isotopes and Nuclear Properties:
 (Nuclear quadrupole moments (NQMom) in fm**2, nuclear magnetic moments (NMagM)
  in nuclear magnetons)

  Atom         1           2           3           4           5           6           7           8           9          10
 IAtWgt=          16          12          14          12          12          12          12          14          16          16
 AtmWgt=  15.9949146  12.0000000  14.0030740  12.0000000  12.0000000  12.0000000  12.0000000  14.0030740  15.9949146  15.9949146
 NucSpn=           0           0           2           0           0           0           0           2           0           0
 AtZEff=  -0.0000000  -0.0000000  -0.0000000  -0.0000000  -0.0000000  -0.0000000  -0.0000000  -0.0000000  -0.0000000  -0.0000000
 NQMom=    0.0000000   0.0000000   2.0440000   0.0000000   0.0000000   0.0000000   0.0000000   2.0440000   0.0000000   0.0000000
 NMagM=    0.0000000   0.0000000   0.4037610   0.0000000   0.0000000   0.0000000   0.0000000   0.4037610   0.0000000   0.0000000
 AtZNuc=   8.0000000   6.0000000   7.0000000   6.0000000   6.0000000   6.0000000   6.0000000   7.0000000   8.0000000   8.0000000

  Atom        11          12          13          14          15          16          17          18          19          20
 IAtWgt=          12          12           1           1           1           1           1           1           1           1
 AtmWgt=  12.0000000  12.0000000   1.0078250   1.0078250   1.0078250   1.0078250   1.0078250   1.0078250   1.0078250   1.0078250
 NucSpn=           0           0           1           1           1           1           1           1           1           1
 AtZEff=  -0.0000000  -0.0000000  -0.0000000  -0.0000000  -0.0000000  -0.0000000  -0.0000000  -0.0000000  -0.0000000  -0.0000000
 NQMom=    0.0000000   0.0000000   0.0000000   0.0000000   0.0000000   0.0000000   0.0000000   0.0000000   0.0000000   0.0000000
 NMagM=    0.0000000   0.0000000   2.7928460   2.7928460   2.7928460   2.7928460   2.7928460   2.7928460   2.7928460   2.7928460
 AtZNuc=   6.0000000   6.0000000   1.0000000   1.0000000   1.0000000   1.0000000   1.0000000   1.0000000   1.0000000   1.0000000
 Leave Link  101 at Wed Oct 22 09:27:09 2025, MaxMem=  4294967296 cpu:               0.8 elap:               0.1
 (Enter /lrz/sys/applications/gaussian/g16.C.01/x86_64_legacy/exe/l202.exe)
                          Input orientation:                          
 ---------------------------------------------------------------------
 Center     Atomic      Atomic             Coordinates (Angstroms)
 Number     Number       Type             X           Y           Z
 ---------------------------------------------------------------------
      1          8           0       -3.329107   -0.916542   -0.754299
      2          6           0       -2.806267    0.262540   -0.194487
      3          7           0       -3.364469    0.478261    1.123295
      4          6           0       -1.292939    0.148875   -0.188315
      5          6           0       -0.662527   -1.083979    0.018098
      6          6           0        0.722126   -1.165540    0.100906
      7          6           0        1.467633    0.003808   -0.026398
      8          7           0        2.925987   -0.073373    0.057704
      9          8           0        3.564837    0.954781   -0.053759
     10          8           0        3.436467   -1.161908    0.236477
     11          6           0        0.870259    1.244206   -0.234393
     12          6           0       -0.515400    1.305642   -0.314495
     13          1           0       -4.285250   -0.881412   -0.623416
     14          1           0       -3.080394    1.139033   -0.807642
     15          1           0       -3.182126    1.436140    1.420021
     16          1           0       -2.897087   -0.130059    1.796987
     17          1           0       -1.262180   -1.990492    0.109103
     18          1           0        1.221539   -2.120579    0.260398
     19          1           0        1.482451    2.139629   -0.335362
     20          1           0       -1.002477    2.269561   -0.479927
 ---------------------------------------------------------------------
                    Distance matrix (angstroms):
                    1          2          3          4          5
     1  O    0.000000
     2  C    1.406053   0.000000
     3  N    2.339249   1.447299   0.000000
     4  C    2.366734   1.517603   2.473874   0.000000
     5  C    2.781237   2.540458   3.310973   1.399984   0.000000
     6  C    4.147995   3.817882   4.521904   2.423184   1.389523
     7  C    4.938178   4.285022   4.989600   2.769119   2.392246
     8  N    6.363685   5.747623   6.403875   4.231933   3.728314
     9  O    7.177679   6.410146   7.044701   4.926010   4.693859
    10  O    6.842137   6.417672   7.051903   4.926041   4.105547
    11  C    4.751190   3.805536   4.512528   2.425139   2.798862
    12  C    3.612267   2.520027   3.296816   1.399499   2.417137
    13  H    0.965699   1.918332   2.397404   3.194484   3.684657
    14  H    2.071254   1.104239   2.060543   2.135175   3.386696
    15  H    3.206927   2.031069   1.019229   2.795143   3.829460
    16  H    2.704488   2.031834   1.020960   2.567590   3.011257
    17  H    2.484154   2.748186   3.397491   2.160161   1.090702
    18  H    4.815360   4.702063   5.341351   3.416777   2.164013
    19  H    5.715486   4.683632   5.327331   3.418701   3.888125
    20  H    3.954711   2.713534   3.370175   2.160258   3.407319
                    6          7          8          9         10
     6  C    0.000000
     7  C    1.392610   0.000000
     8  N    2.460020   1.462815   0.000000
     9  O    3.549745   2.302903   1.215588   0.000000
    10  O    2.717727   2.303108   1.215507   2.140348   0.000000
    11  C    2.437467   1.392374   2.459137   2.716090   3.549159
    12  C    2.794775   2.389601   3.726038   4.103586   4.691442
    13  H    5.067463   5.851129   7.288264   8.082078   7.774510
    14  H    4.538246   4.752223   6.188325   6.690395   6.989563
    15  H    4.873601   5.075821   6.437669   6.922806   7.208079
    16  H    4.128876   4.732170   6.077541   6.808715   6.604075
    17  H    2.148973   3.383411   4.606379   5.656965   4.772846
    18  H    1.089473   2.157738   2.671569   3.879121   2.413613
    19  H    3.419439   2.158103   2.671268   2.412363   3.878830
    20  H    3.887357   3.382421   4.605564   4.771857   5.656186
                   11         12         13         14         15
    11  C    0.000000
    12  C    1.389331   0.000000
    13  H    5.590068   4.369257   0.000000
    14  H    3.993411   2.617278   2.359622   0.000000
    15  H    4.381295   3.183866   3.280787   2.249690   0.000000
    16  H    4.495331   3.491708   2.889616   2.903151   1.635949
    17  H    3.889545   3.406114   3.302362   3.733664   4.140834
    18  H    3.419063   3.884128   5.713264   5.502037   5.778169
    19  H    1.089383   2.165035   6.517364   4.695082   5.033343
    20  H    2.149135   1.092589   4.552562   2.388144   3.009196
                   16         17         18         19         20
    16  H    0.000000
    17  H    2.997179   0.000000
    18  H    4.825594   2.491721   0.000000
    19  H    5.373895   4.978800   4.309568   0.000000
    20  H    3.812094   4.308417   4.976712   2.492519   0.000000
 Stoichiometry    C7H8N2O3
 Framework group  C1[X(C7H8N2O3)]
 Deg. of freedom    54
 Full point group                 C1      NOp   1
 Largest Abelian subgroup         C1      NOp   1
 Largest concise Abelian subgroup C1      NOp   1
                         Standard orientation:                         
 ---------------------------------------------------------------------
 Center     Atomic      Atomic             Coordinates (Angstroms)
 Number     Number       Type             X           Y           Z
 ---------------------------------------------------------------------
      1          8           0       -3.329107   -0.916542   -0.754299
      2          6           0       -2.806267    0.262540   -0.194487
      3          7           0       -3.364469    0.478261    1.123295
      4          6           0       -1.292939    0.148875   -0.188315
      5          6           0       -0.662527   -1.083979    0.018098
      6          6           0        0.722126   -1.165540    0.100906
      7          6           0        1.467633    0.003808   -0.026398
      8          7           0        2.925987   -0.073373    0.057704
      9          8           0        3.564837    0.954781   -0.053759
     10          8           0        3.436467   -1.161908    0.236477
     11          6           0        0.870259    1.244206   -0.234393
     12          6           0       -0.515400    1.305642   -0.314495
     13          1           0       -4.285250   -0.881412   -0.623416
     14          1           0       -3.080394    1.139033   -0.807642
     15          1           0       -3.182126    1.436140    1.420021
     16          1           0       -2.897087   -0.130059    1.796987
     17          1           0       -1.262180   -1.990492    0.109103
     18          1           0        1.221539   -2.120579    0.260398
     19          1           0        1.482451    2.139629   -0.335362
     20          1           0       -1.002477    2.269561   -0.479927
 ---------------------------------------------------------------------
 Rotational constants (GHZ):           2.7578420           0.4588175           0.4176487
 Leave Link  202 at Wed Oct 22 09:27:09 2025, MaxMem=  4294967296 cpu:               0.0 elap:               0.0
 (Enter /lrz/sys/applications/gaussian/g16.C.01/x86_64_legacy/exe/l301.exe)
 Standard basis: def2TZVP (5D, 7F)
 Ernie: Thresh=  0.10000D-02 Tol=  0.10000D-05 Strict=F.
 There are   480 symmetry adapted cartesian basis functions of A   symmetry.
 There are   420 symmetry adapted basis functions of A   symmetry.
   420 basis functions,   676 primitive gaussians,   480 cartesian basis functions
    44 alpha electrons       44 beta electrons
       nuclear repulsion energy       678.8613304934 Hartrees.
 IExCor= 4639 DFT=T Ex+Corr=wB97XD ExCW=0 ScaHFX=  1.000000
 ScaDFX=  1.000000  1.000000  1.000000  1.000000 ScalE2=  1.000000  1.000000
 IRadAn=      5 IRanWt=     -1 IRanGd=            0 ICorTp=0 IEmpDi=121
 HFx  wShort=  0.000000 wLong=  0.200000 cFull=  0.222036 cShort=  0.000000 cLong=  0.777964
 DFx  wShort=  0.000000 wLong=  0.200000 cFull=  0.000000 cShort=  0.000000 cLong=  1.000000
 NAtoms=   20 NActive=   20 NUniq=   20 SFac= 1.00D+00 NAtFMM=   60 NAOKFM=F Big=F
 Integral buffers will be    131072 words long.
 Raffenetti 2 integral format.
 Two-electron integral symmetry is turned on.
 R6Disp:  Grimme-D2 Dispersion energy=       -0.0107529178 Hartrees.
 Nuclear repulsion after empirical dispersion term =      678.8505775756 Hartrees.
 ------------------------------------------------------------------------------
 Polarizable Continuum Model (PCM)
 =================================
 Model                : PCM.
 Atomic radii         : SMD-Coulomb.
 Polarization charges : Total charges.
 Charge compensation  : None.
 Solution method      : On-the-fly selection.
 Cavity type          : VdW (van der Waals Surface) (Alpha=1.000).
 Cavity algorithm     : GePol (No added spheres)
                        Default sphere list used, NSphG=   20.
                        Lebedev-Laikov grids with approx.  5.0 points / Ang**2.
                        Smoothing algorithm: York/Karplus (Gamma=1.0000).
                        Polarization charges: spherical gaussians, with
                                              point-specific exponents (IZeta= 3).
                        Self-potential: point-specific (ISelfS= 7).
                        Self-field    : sphere-specific E.n sum rule (ISelfD= 2).
 Solvent              : Water, Eps=  78.355300 Eps(inf)=   1.777849
 ------------------------------------------------------------------------------
 Spheres list:
 ISph  on   Nord     Re0    Alpha      Xe            Ye            Ze
    1   O      1    1.5200  1.000     -3.329107     -0.916542     -0.754299
    2   C      2    1.8500  1.000     -2.806267      0.262540     -0.194487
    3   N      3    1.8900  1.000     -3.364469      0.478261      1.123295
    4   C      4    1.8500  1.000     -1.292939      0.148875     -0.188315
    5   C      5    1.8500  1.000     -0.662527     -1.083979      0.018098
    6   C      6    1.8500  1.000      0.722126     -1.165540      0.100906
    7   C      7    1.8500  1.000      1.467633      0.003808     -0.026398
    8   N      8    1.8900  1.000      2.925987     -0.073373      0.057704
    9   O      9    1.5200  1.000      3.564837      0.954781     -0.053759
   10   O     10    1.5200  1.000      3.436467     -1.161908      0.236477
   11   C     11    1.8500  1.000      0.870259      1.244206     -0.234393
   12   C     12    1.8500  1.000     -0.515400      1.305642     -0.314495
   13   H     13    1.2000  1.000     -4.285250     -0.881412     -0.623416
   14   H     14    1.2000  1.000     -3.080394      1.139033     -0.807642
   15   H     15    1.2000  1.000     -3.182126      1.436140      1.420021
   16   H     16    1.2000  1.000     -2.897087     -0.130059      1.796987
   17   H     17    1.2000  1.000     -1.262180     -1.990492      0.109103
   18   H     18    1.2000  1.000      1.221539     -2.120579      0.260398
   19   H     19    1.2000  1.000      1.482451      2.139629     -0.335362
   20   H     20    1.2000  1.000     -1.002477      2.269561     -0.479927
 ------------------------------------------------------------------------------
 GePol: Number of generator spheres                  =      20
 GePol: Total number of spheres                      =      20
 GePol: Number of exposed spheres                    =      20 (100.00%)
 GePol: Number of points                             =    1553
 GePol: Average weight of points                     =       0.12
 GePol: Minimum weight of points                     =   0.68D-09
 GePol: Maximum weight of points                     =    0.21991
 GePol: Number of points with low weight             =      65
 GePol: Fraction of low-weight points (<1% of avg)   =       4.19%
 GePol: Cavity surface area                          =    185.214 Ang**2
 GePol: Cavity volume                                =    159.455 Ang**3
 ------------------------------------------------------------------------------
 Atomic radii for non-electrostatic terms: SMD-CDS.
 ------------------------------------------------------------------------------
 PCM non-electrostatic energy =         0.0086328296 Hartrees.
 Nuclear repulsion after PCM non-electrostatic terms =      678.8592104052 Hartrees.
 Leave Link  301 at Wed Oct 22 09:27:09 2025, MaxMem=  4294967296 cpu:               0.7 elap:               0.1
 (Enter /lrz/sys/applications/gaussian/g16.C.01/x86_64_legacy/exe/l302.exe)
 NPDir=0 NMtPBC=     1 NCelOv=     1 NCel=       1 NClECP=     1 NCelD=      1
         NCelK=      1 NCelE2=     1 NClLst=     1 CellRange=     0.0.
 One-electron integrals computed using PRISM.
 One-electron integral symmetry used in STVInt
   1 Symmetry operations used in ECPInt.
 ECPInt:  NShTT=   13530 NPrTT=   41904 LenC2=   12498 LenP2D=   29358.
 LDataN:  DoStor=T MaxTD1= 6 Len=  172
 NBasis=   420 RedAO= T EigKep=  7.80D-06  NBF=   420
 NBsUse=   420 1.00D-06 EigRej= -1.00D+00 NBFU=   420
 Precomputing XC quadrature grid using
 IXCGrd= 4 IRadAn=           5 IRanWt=          -1 IRanGd=           0 AccXCQ= 0.00D+00.
 Generated NRdTot=       0 NPtTot=           0 NUsed=           0 NTot=          32
 NSgBfM=   474   474   474   474   474 MxSgAt=    20 MxSgA2=    20.
 Leave Link  302 at Wed Oct 22 09:27:10 2025, MaxMem=  4294967296 cpu:               4.5 elap:               0.6
 (Enter /lrz/sys/applications/gaussian/g16.C.01/x86_64_legacy/exe/l303.exe)
 DipDrv:  MaxL=1.
 Leave Link  303 at Wed Oct 22 09:27:10 2025, MaxMem=  4294967296 cpu:               0.5 elap:               0.1
 (Enter /lrz/sys/applications/gaussian/g16.C.01/x86_64_legacy/exe/l401.exe)
 ExpMin= 9.52D-02 ExpMax= 2.70D+04 ExpMxC= 9.22D+02 IAcc=3 IRadAn=         5 AccDes= 0.00D+00
 Harris functional with IExCor= 4639 and IRadAn=       5 diagonalized for initial guess.
 HarFok:  IExCor= 4639 AccDes= 0.00D+00 IRadAn=         5 IDoV= 1 UseB2=F ITyADJ=14
 ICtDFT=  3500011 ScaDFX=  1.000000  1.000000  1.000000  1.000000
 FoFCou: FMM=F IPFlag=           0 FMFlag=      100000 FMFlg1=           0
         NFxFlg=           0 DoJE=T BraDBF=F KetDBF=T FulRan=T
         wScrn=  0.000000 ICntrl=       500 IOpCl=  0 I1Cent=   200000004 NGrid=           0
         NMat0=    1 NMatS0=      1 NMatT0=    0 NMatD0=    1 NMtDS0=    0 NMtDT0=    0
 Petite list used in FoFCou.
 Harris En= -582.350596193749    
 JPrj=0 DoOrth=F DoCkMO=F.
 Leave Link  401 at Wed Oct 22 09:27:14 2025, MaxMem=  4294967296 cpu:              33.4 elap:               4.2
 (Enter /lrz/sys/applications/gaussian/g16.C.01/x86_64_legacy/exe/l502.exe)
 Integral symmetry usage will be decided dynamically.
 Closed shell SCF:
 Using DIIS extrapolation, IDIIS=  1040.
 NGot=  4294967296 LenX=  4294497946 LenY=  4294267066
 Requested convergence on RMS density matrix=1.00D-08 within 128 cycles.
 Requested convergence on MAX density matrix=1.00D-06.
 Requested convergence on             energy=1.00D-06.
 No special actions if energy rises.
 Fock matrices will be formed incrementally for  20 cycles.

 Cycle   1  Pass 1  IDiag  1:
 FoFJK:  IHMeth= 1 ICntrl=       0 DoSepK=T KAlg= 0 I1Cent=           0 FoldK=F
 IRaf=         1 NMat=       1 IRICut=       1 DoRegI=T DoRafI=F ISym2E= 0 IDoP0=0 IntGTp=1.
 FoFCou: FMM=F IPFlag=           0 FMFlag=      100000 FMFlg1=           0
         NFxFlg=           0 DoJE=T BraDBF=F KetDBF=F FulRan=T
         wScrn=  0.000000 ICntrl=       500 IOpCl=  0 I1Cent=           0 NGrid=           0
         NMat0=    1 NMatS0=      1 NMatT0=    0 NMatD0=    1 NMtDS0=    0 NMtDT0=    0
 Symmetry not used in FoFCou.
 Inv3:  Mode=1 IEnd=     7235427.
 Iteration    1 A*A^-1 deviation from unit magnitude is 7.33D-15 for    137.
 Iteration    1 A*A^-1 deviation from orthogonality  is 3.80D-15 for   1471    434.
 Iteration    1 A^-1*A deviation from unit magnitude is 7.44D-15 for   1053.
 Iteration    1 A^-1*A deviation from orthogonality  is 3.16D-15 for   1328   1223.
 E= -606.414764325731    
 DIIS: error= 7.13D-02 at cycle   1 NSaved=   1.
 NSaved= 1 IEnMin= 1 EnMin= -606.414764325731     IErMin= 1 ErrMin= 7.13D-02
 ErrMax= 7.13D-02  0.00D+00 EMaxC= 1.00D-01 BMatC= 1.46D+00 BMatP= 1.46D+00
 IDIUse=3 WtCom= 2.87D-01 WtEn= 7.13D-01
 Coeff-Com:  0.100D+01
 Coeff-En:   0.100D+01
 Coeff:      0.100D+01
 Gap=     0.466 Goal=   None    Shift=    0.000
 GapD=    0.466 DampG=2.000 DampE=0.500 DampFc=1.0000 IDamp=-1.
 RMSDP=4.67D-03 MaxDP=4.01D-01              OVMax= 2.12D-01

 Cycle   2  Pass 1  IDiag  1:
 RMSU=  3.67D-03    CP:  7.30D-01
 E= -606.496670089419     Delta-E=       -0.081905763688 Rises=F Damp=F
 DIIS: error= 2.80D-02 at cycle   2 NSaved=   2.
 NSaved= 2 IEnMin= 2 EnMin= -606.496670089419     IErMin= 2 ErrMin= 2.80D-02
 ErrMax= 2.80D-02  0.00D+00 EMaxC= 1.00D-01 BMatC= 2.85D-01 BMatP= 1.46D+00
 IDIUse=3 WtCom= 7.20D-01 WtEn= 2.80D-01
 Coeff-Com:  0.254D+00 0.746D+00
 Coeff-En:   0.390D+00 0.610D+00
 Coeff:      0.292D+00 0.708D+00
 Gap=     0.402 Goal=   None    Shift=    0.000
 RMSDP=1.12D-03 MaxDP=8.54D-02 DE=-8.19D-02 OVMax= 1.70D-01

 Cycle   3  Pass 1  IDiag  1:
 RMSU=  8.72D-04    CP:  7.61D-01  8.35D-01
 E= -606.638235501668     Delta-E=       -0.141565412249 Rises=F Damp=F
 DIIS: error= 1.54D-02 at cycle   3 NSaved=   3.
 NSaved= 3 IEnMin= 3 EnMin= -606.638235501668     IErMin= 3 ErrMin= 1.54D-02
 ErrMax= 1.54D-02  0.00D+00 EMaxC= 1.00D-01 BMatC= 7.73D-02 BMatP= 2.85D-01
 IDIUse=3 WtCom= 8.46D-01 WtEn= 1.54D-01
 Coeff-Com:  0.396D-01 0.347D+00 0.613D+00
 Coeff-En:   0.000D+00 0.200D+00 0.800D+00
 Coeff:      0.335D-01 0.325D+00 0.642D+00
 Gap=     0.308 Goal=   None    Shift=    0.000
 RMSDP=5.08D-04 MaxDP=4.92D-02 DE=-1.42D-01 OVMax= 8.24D-02

 Cycle   4  Pass 1  IDiag  1:
 RMSU=  2.62D-04    CP:  7.42D-01  9.11D-01  6.95D-01
 E= -606.689634137369     Delta-E=       -0.051398635700 Rises=F Damp=F
 DIIS: error= 4.29D-03 at cycle   4 NSaved=   4.
 NSaved= 4 IEnMin= 4 EnMin= -606.689634137369     IErMin= 4 ErrMin= 4.29D-03
 ErrMax= 4.29D-03  0.00D+00 EMaxC= 1.00D-01 BMatC= 6.31D-03 BMatP= 7.73D-02
 IDIUse=3 WtCom= 9.57D-01 WtEn= 4.29D-02
 Coeff-Com:  0.839D-02 0.134D+00 0.329D+00 0.528D+00
 Coeff-En:   0.000D+00 0.000D+00 0.000D+00 0.100D+01
 Coeff:      0.803D-02 0.129D+00 0.315D+00 0.548D+00
 Gap=     0.297 Goal=   None    Shift=    0.000
 RMSDP=1.77D-04 MaxDP=8.82D-03 DE=-5.14D-02 OVMax= 1.63D-02

 Cycle   5  Pass 1  IDiag  1:
 RMSU=  8.69D-05    CP:  7.35D-01  9.35D-01  7.72D-01  7.26D-01
 E= -606.693393456010     Delta-E=       -0.003759318642 Rises=F Damp=F
 DIIS: error= 5.17D-04 at cycle   5 NSaved=   5.
 NSaved= 5 IEnMin= 5 EnMin= -606.693393456010     IErMin= 5 ErrMin= 5.17D-04
 ErrMax= 5.17D-04  0.00D+00 EMaxC= 1.00D-01 BMatC= 1.02D-04 BMatP= 6.31D-03
 IDIUse=3 WtCom= 9.95D-01 WtEn= 5.17D-03
 Coeff-Com: -0.947D-03-0.338D-02 0.115D-01 0.123D+00 0.870D+00
 Coeff-En:   0.000D+00 0.000D+00 0.000D+00 0.000D+00 0.100D+01
 Coeff:     -0.942D-03-0.336D-02 0.115D-01 0.123D+00 0.870D+00
 Gap=     0.299 Goal=   None    Shift=    0.000
 RMSDP=4.72D-05 MaxDP=3.07D-03 DE=-3.76D-03 OVMax= 4.40D-03

 Cycle   6  Pass 1  IDiag  1:
 RMSU=  2.46D-05    CP:  7.34D-01  9.40D-01  7.94D-01  8.05D-01  1.20D+00
 E= -606.693489965018     Delta-E=       -0.000096509007 Rises=F Damp=F
 DIIS: error= 1.34D-04 at cycle   6 NSaved=   6.
 NSaved= 6 IEnMin= 6 EnMin= -606.693489965018     IErMin= 6 ErrMin= 1.34D-04
 ErrMax= 1.34D-04  0.00D+00 EMaxC= 1.00D-01 BMatC= 1.18D-05 BMatP= 1.02D-04
 IDIUse=3 WtCom= 9.99D-01 WtEn= 1.34D-03
 Coeff-Com: -0.845D-03-0.103D-01-0.173D-01 0.998D-02 0.345D+00 0.674D+00
 Coeff-En:   0.000D+00 0.000D+00 0.000D+00 0.000D+00 0.000D+00 0.100D+01
 Coeff:     -0.844D-03-0.103D-01-0.173D-01 0.997D-02 0.344D+00 0.674D+00
 Gap=     0.299 Goal=   None    Shift=    0.000
 RMSDP=2.15D-05 MaxDP=2.38D-03 DE=-9.65D-05 OVMax= 1.20D-03

 Cycle   7  Pass 1  IDiag  1:
 RMSU=  7.62D-06    CP:  7.33D-01  9.43D-01  7.98D-01  8.37D-01  1.30D+00
                    CP:  9.32D-01
 E= -606.693502932961     Delta-E=       -0.000012967944 Rises=F Damp=F
 DIIS: error= 5.49D-05 at cycle   7 NSaved=   7.
 NSaved= 7 IEnMin= 7 EnMin= -606.693502932961     IErMin= 7 ErrMin= 5.49D-05
 ErrMax= 5.49D-05  0.00D+00 EMaxC= 1.00D-01 BMatC= 8.30D-07 BMatP= 1.18D-05
 IDIUse=1 WtCom= 1.00D+00 WtEn= 0.00D+00
 Coeff-Com: -0.154D-03-0.298D-02-0.732D-02-0.131D-01-0.148D-02 0.169D+00
 Coeff-Com:  0.856D+00
 Coeff:     -0.154D-03-0.298D-02-0.732D-02-0.131D-01-0.148D-02 0.169D+00
 Coeff:      0.856D+00
 Gap=     0.299 Goal=   None    Shift=    0.000
 RMSDP=8.29D-06 MaxDP=3.12D-04 DE=-1.30D-05 OVMax= 7.39D-04

 Cycle   8  Pass 1  IDiag  1:
 RMSU=  3.22D-06    CP:  7.32D-01  9.43D-01  8.01D-01  8.43D-01  1.35D+00
                    CP:  1.10D+00  1.18D+00
 E= -606.693504644808     Delta-E=       -0.000001711846 Rises=F Damp=F
 DIIS: error= 1.91D-05 at cycle   8 NSaved=   8.
 NSaved= 8 IEnMin= 8 EnMin= -606.693504644808     IErMin= 8 ErrMin= 1.91D-05
 ErrMax= 1.91D-05  0.00D+00 EMaxC= 1.00D-01 BMatC= 1.70D-07 BMatP= 8.30D-07
 IDIUse=1 WtCom= 1.00D+00 WtEn= 0.00D+00
 Coeff-Com:  0.542D-04 0.644D-03 0.235D-03-0.661D-02-0.567D-01-0.533D-01
 Coeff-Com:  0.319D+00 0.797D+00
 Coeff:      0.542D-04 0.644D-03 0.235D-03-0.661D-02-0.567D-01-0.533D-01
 Coeff:      0.319D+00 0.797D+00
 Gap=     0.299 Goal=   None    Shift=    0.000
 RMSDP=3.65D-06 MaxDP=3.18D-04 DE=-1.71D-06 OVMax= 3.81D-04

 Cycle   9  Pass 1  IDiag  1:
 RMSU=  1.15D-06    CP:  7.32D-01  9.44D-01  8.01D-01  8.48D-01  1.37D+00
                    CP:  1.14D+00  1.38D+00  1.11D+00
 E= -606.693504979306     Delta-E=       -0.000000334499 Rises=F Damp=F
 DIIS: error= 5.73D-06 at cycle   9 NSaved=   9.
 NSaved= 9 IEnMin= 9 EnMin= -606.693504979306     IErMin= 9 ErrMin= 5.73D-06
 ErrMax= 5.73D-06  0.00D+00 EMaxC= 1.00D-01 BMatC= 1.06D-08 BMatP= 1.70D-07
 IDIUse=1 WtCom= 1.00D+00 WtEn= 0.00D+00
 Coeff-Com:  0.156D-04 0.295D-03 0.554D-03 0.232D-04-0.361D-02-0.186D-01
 Coeff-Com: -0.446D-01 0.932D-01 0.973D+00
 Coeff:      0.156D-04 0.295D-03 0.554D-03 0.232D-04-0.361D-02-0.186D-01
 Coeff:     -0.446D-01 0.932D-01 0.973D+00
 Gap=     0.299 Goal=   None    Shift=    0.000
 RMSDP=7.33D-07 MaxDP=2.39D-05 DE=-3.34D-07 OVMax= 1.36D-04

 Cycle  10  Pass 1  IDiag  1:
 RMSU=  3.63D-07    CP:  7.32D-01  9.44D-01  8.01D-01  8.48D-01  1.37D+00
                    CP:  1.15D+00  1.42D+00  1.22D+00  1.22D+00
 E= -606.693505012228     Delta-E=       -0.000000032922 Rises=F Damp=F
 DIIS: error= 2.25D-06 at cycle  10 NSaved=  10.
 NSaved=10 IEnMin=10 EnMin= -606.693505012228     IErMin=10 ErrMin= 2.25D-06
 ErrMax= 2.25D-06  0.00D+00 EMaxC= 1.00D-01 BMatC= 2.97D-09 BMatP= 1.06D-08
 IDIUse=1 WtCom= 1.00D+00 WtEn= 0.00D+00
 Coeff-Com: -0.111D-05 0.587D-05 0.116D-03 0.738D-03 0.685D-02 0.106D-02
 Coeff-Com: -0.606D-01-0.688D-01 0.378D+00 0.743D+00
 Coeff:     -0.111D-05 0.587D-05 0.116D-03 0.738D-03 0.685D-02 0.106D-02
 Coeff:     -0.606D-01-0.688D-01 0.378D+00 0.743D+00
 Gap=     0.299 Goal=   None    Shift=    0.000
 RMSDP=2.80D-07 MaxDP=2.11D-05 DE=-3.29D-08 OVMax= 4.02D-05

 Cycle  11  Pass 1  IDiag  1:
 RMSU=  1.88D-07    CP:  7.32D-01  9.44D-01  8.01D-01  8.47D-01  1.37D+00
                    CP:  1.15D+00  1.42D+00  1.25D+00  1.32D+00  1.28D+00
 E= -606.693505018134     Delta-E=       -0.000000005906 Rises=F Damp=F
 DIIS: error= 9.59D-07 at cycle  11 NSaved=  11.
 NSaved=11 IEnMin=11 EnMin= -606.693505018134     IErMin=11 ErrMin= 9.59D-07
 ErrMax= 9.59D-07  0.00D+00 EMaxC= 1.00D-01 BMatC= 2.83D-10 BMatP= 2.97D-09
 IDIUse=1 WtCom= 1.00D+00 WtEn= 0.00D+00
 Coeff-Com: -0.302D-05-0.465D-04-0.695D-04 0.138D-03 0.245D-02 0.354D-02
 Coeff-Com: -0.953D-02-0.309D-01-0.613D-01 0.152D+00 0.943D+00
 Coeff:     -0.302D-05-0.465D-04-0.695D-04 0.138D-03 0.245D-02 0.354D-02
 Coeff:     -0.953D-02-0.309D-01-0.613D-01 0.152D+00 0.943D+00
 Gap=     0.299 Goal=   None    Shift=    0.000
 RMSDP=1.43D-07 MaxDP=1.19D-05 DE=-5.91D-09 OVMax= 2.64D-05

 Cycle  12  Pass 1  IDiag  1:
 RMSU=  6.07D-08    CP:  7.32D-01  9.44D-01  8.01D-01  8.47D-01  1.37D+00
                    CP:  1.15D+00  1.42D+00  1.25D+00  1.36D+00  1.52D+00
                    CP:  1.30D+00
 E= -606.693505019224     Delta-E=       -0.000000001090 Rises=F Damp=F
 DIIS: error= 4.04D-07 at cycle  12 NSaved=  12.
 NSaved=12 IEnMin=12 EnMin= -606.693505019224     IErMin=12 ErrMin= 4.04D-07
 ErrMax= 4.04D-07  0.00D+00 EMaxC= 1.00D-01 BMatC= 9.59D-11 BMatP= 2.83D-10
 IDIUse=1 WtCom= 1.00D+00 WtEn= 0.00D+00
 Coeff-Com: -0.163D-05-0.238D-04-0.507D-04-0.274D-04 0.395D-03 0.160D-02
 Coeff-Com:  0.220D-02-0.514D-02-0.651D-01-0.388D-01 0.409D+00 0.696D+00
 Coeff:     -0.163D-05-0.238D-04-0.507D-04-0.274D-04 0.395D-03 0.160D-02
 Coeff:      0.220D-02-0.514D-02-0.651D-01-0.388D-01 0.409D+00 0.696D+00
 Gap=     0.299 Goal=   None    Shift=    0.000
 RMSDP=5.31D-08 MaxDP=2.46D-06 DE=-1.09D-09 OVMax= 7.43D-06

 Cycle  13  Pass 1  IDiag  1:
 RMSU=  2.76D-08    CP:  7.32D-01  9.44D-01  8.01D-01  8.47D-01  1.37D+00
                    CP:  1.15D+00  1.42D+00  1.25D+00  1.37D+00  1.58D+00
                    CP:  1.45D+00  1.12D+00
 E= -606.693505019364     Delta-E=       -0.000000000141 Rises=F Damp=F
 DIIS: error= 1.79D-07 at cycle  13 NSaved=  13.
 NSaved=13 IEnMin=13 EnMin= -606.693505019364     IErMin=13 ErrMin= 1.79D-07
 ErrMax= 1.79D-07  0.00D+00 EMaxC= 1.00D-01 BMatC= 2.69D-11 BMatP= 9.59D-11
 IDIUse=1 WtCom= 1.00D+00 WtEn= 0.00D+00
 Coeff-Com: -0.316D-06-0.321D-05-0.153D-04-0.549D-04-0.377D-03 0.528D-04
 Coeff-Com:  0.358D-02 0.554D-02-0.193D-01-0.738D-01-0.281D-01 0.384D+00
 Coeff-Com:  0.729D+00
 Coeff:     -0.316D-06-0.321D-05-0.153D-04-0.549D-04-0.377D-03 0.528D-04
 Coeff:      0.358D-02 0.554D-02-0.193D-01-0.738D-01-0.281D-01 0.384D+00
 Coeff:      0.729D+00
 Gap=     0.299 Goal=   None    Shift=    0.000
 RMSDP=3.21D-08 MaxDP=1.44D-06 DE=-1.41D-10 OVMax= 4.36D-06

 Cycle  14  Pass 1  IDiag  1:
 RMSU=  1.09D-08    CP:  7.32D-01  9.44D-01  8.01D-01  8.47D-01  1.37D+00
                    CP:  1.15D+00  1.42D+00  1.25D+00  1.37D+00  1.61D+00
                    CP:  1.53D+00  1.38D+00  1.02D+00
 E= -606.693505019429     Delta-E=       -0.000000000065 Rises=F Damp=F
 DIIS: error= 7.32D-08 at cycle  14 NSaved=  14.
 NSaved=14 IEnMin=14 EnMin= -606.693505019429     IErMin=14 ErrMin= 7.32D-08
 ErrMax= 7.32D-08  0.00D+00 EMaxC= 1.00D-01 BMatC= 2.18D-12 BMatP= 2.69D-11
 IDIUse=1 WtCom= 1.00D+00 WtEn= 0.00D+00
 Coeff-Com:  0.378D-07 0.107D-05-0.882D-06-0.172D-04-0.158D-03-0.150D-03
 Coeff-Com:  0.859D-03 0.254D-02 0.953D-03-0.229D-01-0.505D-01 0.518D-01
 Coeff-Com:  0.260D+00 0.758D+00
 Coeff:      0.378D-07 0.107D-05-0.882D-06-0.172D-04-0.158D-03-0.150D-03
 Coeff:      0.859D-03 0.254D-02 0.953D-03-0.229D-01-0.505D-01 0.518D-01
 Coeff:      0.260D+00 0.758D+00
 Gap=     0.299 Goal=   None    Shift=    0.000
 RMSDP=8.53D-09 MaxDP=3.02D-07 DE=-6.48D-11 OVMax= 1.36D-06

 Error on total polarization charges =  0.04553
 SCF Done:  E(RwB97XD) =  -606.693505019     A.U. after   14 cycles
            NFock= 14  Conv=0.85D-08     -V/T= 2.0047
 KE= 6.038831138874D+02 PE=-2.776403228237D+03 EE= 8.869673989250D+02
 SMD-CDS (non-electrostatic) energy       (kcal/mol) =       5.42
 (included in total energy above)
 Leave Link  502 at Wed Oct 22 09:33:39 2025, MaxMem=  4294967296 cpu:            3072.3 elap:             384.6
 (Enter /lrz/sys/applications/gaussian/g16.C.01/x86_64_legacy/exe/l601.exe)
 Copying SCF densities to generalized density rwf, IOpCl= 0 IROHF=0.

 **********************************************************************

            Population analysis using the SCF Density.

 **********************************************************************

 Orbital symmetries:
       Occupied  (A) (A) (A) (A) (A) (A) (A) (A) (A) (A) (A) (A)
                 (A) (A) (A) (A) (A) (A) (A) (A) (A) (A) (A) (A)
                 (A) (A) (A) (A) (A) (A) (A) (A) (A) (A) (A) (A)
                 (A) (A) (A) (A) (A) (A) (A) (A)
       Virtual   (A) (A) (A) (A) (A) (A) (A) (A) (A) (A) (A) (A)
                 (A) (A) (A) (A) (A) (A) (A) (A) (A) (A) (A) (A)
                 (A) (A) (A) (A) (A) (A) (A) (A) (A) (A) (A) (A)
                 (A) (A) (A) (A) (A) (A) (A) (A) (A) (A) (A) (A)
                 (A) (A) (A) (A) (A) (A) (A) (A) (A) (A) (A) (A)
                 (A) (A) (A) (A) (A) (A) (A) (A) (A) (A) (A) (A)
                 (A) (A) (A) (A) (A) (A) (A) (A) (A) (A) (A) (A)
                 (A) (A) (A) (A) (A) (A) (A) (A) (A) (A) (A) (A)
                 (A) (A) (A) (A) (A) (A) (A) (A) (A) (A) (A) (A)
                 (A) (A) (A) (A) (A) (A) (A) (A) (A) (A) (A) (A)
                 (A) (A) (A) (A) (A) (A) (A) (A) (A) (A) (A) (A)
                 (A) (A) (A) (A) (A) (A) (A) (A) (A) (A) (A) (A)
                 (A) (A) (A) (A) (A) (A) (A) (A) (A) (A) (A) (A)
                 (A) (A) (A) (A) (A) (A) (A) (A) (A) (A) (A) (A)
                 (A) (A) (A) (A) (A) (A) (A) (A) (A) (A) (A) (A)
                 (A) (A) (A) (A) (A) (A) (A) (A) (A) (A) (A) (A)
                 (A) (A) (A) (A) (A) (A) (A) (A) (A) (A) (A) (A)
                 (A) (A) (A) (A) (A) (A) (A) (A) (A) (A) (A) (A)
                 (A) (A) (A) (A) (A) (A) (A) (A) (A) (A) (A) (A)
                 (A) (A) (A) (A) (A) (A) (A) (A) (A) (A) (A) (A)
                 (A) (A) (A) (A) (A) (A) (A) (A) (A) (A) (A) (A)
                 (A) (A) (A) (A) (A) (A) (A) (A) (A) (A) (A) (A)
                 (A) (A) (A) (A) (A) (A) (A) (A) (A) (A) (A) (A)
                 (A) (A) (A) (A) (A) (A) (A) (A) (A) (A) (A) (A)
                 (A) (A) (A) (A) (A) (A) (A) (A) (A) (A) (A) (A)
                 (A) (A) (A) (A) (A) (A) (A) (A) (A) (A) (A) (A)
                 (A) (A) (A) (A) (A) (A) (A) (A) (A) (A) (A) (A)
                 (A) (A) (A) (A) (A) (A) (A) (A) (A) (A) (A) (A)
                 (A) (A) (A) (A) (A) (A) (A) (A) (A) (A) (A) (A)
                 (A) (A) (A) (A) (A) (A) (A) (A) (A) (A) (A) (A)
                 (A) (A) (A) (A) (A) (A) (A) (A) (A) (A) (A) (A)
                 (A) (A) (A) (A)
 The electronic state is 1-A.
 Alpha  occ. eigenvalues --  -19.29564 -19.29562 -19.25682 -14.69169 -14.42032
 Alpha  occ. eigenvalues --  -10.36861 -10.35079 -10.31403 -10.31353 -10.31333
 Alpha  occ. eigenvalues --  -10.30333 -10.30228  -1.35852  -1.17735  -1.14521
 Alpha  occ. eigenvalues --   -0.99588  -0.97926  -0.91207  -0.86637  -0.81832
 Alpha  occ. eigenvalues --   -0.73942  -0.72429  -0.68386  -0.66347  -0.64889
 Alpha  occ. eigenvalues --   -0.63283  -0.61887  -0.59004  -0.57825  -0.55219
 Alpha  occ. eigenvalues --   -0.54276  -0.52451  -0.50793  -0.49066  -0.47685
 Alpha  occ. eigenvalues --   -0.44631  -0.43693  -0.41804  -0.41792  -0.40006
 Alpha  occ. eigenvalues --   -0.38864  -0.36233  -0.35071  -0.33226
 Alpha virt. eigenvalues --   -0.03292   0.04099   0.06837   0.12071   0.14356
 Alpha virt. eigenvalues --    0.15122   0.15719   0.17114   0.18462   0.20162
 Alpha virt. eigenvalues --    0.20916   0.21765   0.22283   0.23464   0.24725
 Alpha virt. eigenvalues --    0.27010   0.27407   0.28244   0.29491   0.30259
 Alpha virt. eigenvalues --    0.31182   0.31892   0.32272   0.33149   0.33232
 Alpha virt. eigenvalues --    0.35343   0.35980   0.36866   0.38380   0.39954
 Alpha virt. eigenvalues --    0.40312   0.41073   0.41848   0.42324   0.42940
 Alpha virt. eigenvalues --    0.43238   0.44418   0.45228   0.46233   0.47168
 Alpha virt. eigenvalues --    0.47564   0.48469   0.48945   0.49748   0.51208
 Alpha virt. eigenvalues --    0.52602   0.52982   0.54073   0.54628   0.55718
 Alpha virt. eigenvalues --    0.56114   0.57077   0.58165   0.58700   0.59617
 Alpha virt. eigenvalues --    0.61070   0.61837   0.62488   0.62786   0.64379
 Alpha virt. eigenvalues --    0.65006   0.66425   0.66809   0.69014   0.70205
 Alpha virt. eigenvalues --    0.71126   0.72442   0.72878   0.73965   0.74721
 Alpha virt. eigenvalues --    0.75507   0.76910   0.79115   0.80658   0.81083
 Alpha virt. eigenvalues --    0.82952   0.84051   0.84609   0.86817   0.88039
 Alpha virt. eigenvalues --    0.89220   0.90633   0.91820   0.92390   0.95278
 Alpha virt. eigenvalues --    0.97655   0.98460   1.00588   1.04511   1.05041
 Alpha virt. eigenvalues --    1.07236   1.08187   1.10174   1.11823   1.13073
 Alpha virt. eigenvalues --    1.13961   1.15400   1.16572   1.19779   1.22484
 Alpha virt. eigenvalues --    1.23994   1.25336   1.26288   1.27875   1.29920
 Alpha virt. eigenvalues --    1.30193   1.33523   1.36305   1.37579   1.38231
 Alpha virt. eigenvalues --    1.39379   1.40362   1.43545   1.43797   1.45132
 Alpha virt. eigenvalues --    1.47531   1.48307   1.50095   1.51519   1.52807
 Alpha virt. eigenvalues --    1.54661   1.57528   1.57589   1.58251   1.60044
 Alpha virt. eigenvalues --    1.60205   1.64113   1.64337   1.65360   1.67928
 Alpha virt. eigenvalues --    1.69241   1.70764   1.72792   1.74044   1.75097
 Alpha virt. eigenvalues --    1.76844   1.77554   1.77718   1.80136   1.82533
 Alpha virt. eigenvalues --    1.84060   1.85334   1.86262   1.87458   1.89490
 Alpha virt. eigenvalues --    1.91790   1.92602   1.94530   1.98039   1.99591
 Alpha virt. eigenvalues --    2.01122   2.03042   2.04555   2.05342   2.07604
 Alpha virt. eigenvalues --    2.08609   2.09816   2.10784   2.11525   2.13718
 Alpha virt. eigenvalues --    2.14908   2.15928   2.18668   2.19875   2.21011
 Alpha virt. eigenvalues --    2.22492   2.23744   2.24606   2.25012   2.26381
 Alpha virt. eigenvalues --    2.28621   2.32637   2.34546   2.35442   2.36901
 Alpha virt. eigenvalues --    2.38543   2.40425   2.44059   2.45992   2.48658
 Alpha virt. eigenvalues --    2.51948   2.53915   2.56492   2.57939   2.60751
 Alpha virt. eigenvalues --    2.63210   2.64843   2.66511   2.67163   2.68368
 Alpha virt. eigenvalues --    2.70115   2.70831   2.71760   2.73072   2.75028
 Alpha virt. eigenvalues --    2.75953   2.76676   2.78183   2.80151   2.82232
 Alpha virt. eigenvalues --    2.82867   2.82941   2.84746   2.86960   2.89037
 Alpha virt. eigenvalues --    2.90561   2.90808   2.92008   2.92800   2.94098
 Alpha virt. eigenvalues --    2.96362   2.98250   3.00432   3.01031   3.03097
 Alpha virt. eigenvalues --    3.03701   3.05218   3.06361   3.07132   3.08527
 Alpha virt. eigenvalues --    3.11172   3.13651   3.15409   3.17028   3.18081
 Alpha virt. eigenvalues --    3.19888   3.21220   3.22279   3.22336   3.22987
 Alpha virt. eigenvalues --    3.25380   3.27769   3.28083   3.30480   3.31398
 Alpha virt. eigenvalues --    3.33014   3.33345   3.34922   3.37131   3.39588
 Alpha virt. eigenvalues --    3.40289   3.40899   3.42666   3.45783   3.46469
 Alpha virt. eigenvalues --    3.47864   3.49303   3.49833   3.53102   3.54414
 Alpha virt. eigenvalues --    3.55708   3.58008   3.59489   3.60631   3.61235
 Alpha virt. eigenvalues --    3.64819   3.66251   3.67649   3.70191   3.76471
 Alpha virt. eigenvalues --    3.79984   3.81879   3.83506   3.87178   3.88290
 Alpha virt. eigenvalues --    3.89836   3.93008   3.94296   3.97913   3.98760
 Alpha virt. eigenvalues --    4.02720   4.05874   4.07338   4.09286   4.10663
 Alpha virt. eigenvalues --    4.14475   4.15969   4.18951   4.22641   4.24410
 Alpha virt. eigenvalues --    4.25424   4.27653   4.28965   4.29147   4.31687
 Alpha virt. eigenvalues --    4.33488   4.35089   4.39002   4.43727   4.47247
 Alpha virt. eigenvalues --    4.50517   4.59065   4.59553   4.62636   4.66299
 Alpha virt. eigenvalues --    4.66794   4.69485   4.73915   4.75704   4.76448
 Alpha virt. eigenvalues --    4.78349   4.79940   4.81864   4.87959   4.89193
 Alpha virt. eigenvalues --    4.94545   4.96199   4.98685   5.00058   5.01012
 Alpha virt. eigenvalues --    5.03063   5.09629   5.11435   5.16051   5.16514
 Alpha virt. eigenvalues --    5.20121   5.20815   5.22058   5.22289   5.25886
 Alpha virt. eigenvalues --    5.27928   5.32920   5.33661   5.36399   5.38365
 Alpha virt. eigenvalues --    5.42947   5.44834   5.46074   5.50029   5.54309
 Alpha virt. eigenvalues --    5.54552   5.59027   5.62344   5.64965   5.70277
 Alpha virt. eigenvalues --    5.71298   5.80488   5.85499   5.89557   5.91358
 Alpha virt. eigenvalues --    5.93718   6.06998   6.13939   6.31933   6.36207
 Alpha virt. eigenvalues --    6.41038   6.42993   6.48541   6.50583   6.52245
 Alpha virt. eigenvalues --    6.61274   6.82074   6.83975   6.89095   6.93026
 Alpha virt. eigenvalues --    6.95945   7.02720   7.09012   7.21950   7.27322
 Alpha virt. eigenvalues --    7.36017   7.51715   7.54500   7.61088  22.30586
 Alpha virt. eigenvalues --   22.74563  22.78377  22.82198  22.83639  23.03012
 Alpha virt. eigenvalues --   23.39465  32.13009  32.67565  43.99704  44.18148
 Alpha virt. eigenvalues --   44.23550
          Condensed to atoms (all electrons):
               1          2          3          4          5          6
     1  O    8.109862   0.348788  -0.081097  -0.158851   0.026373  -0.003118
     2  C    0.348788   4.675339   0.302460   0.224134  -0.019327  -0.003708
     3  N   -0.081097   0.302460   6.725510  -0.064570  -0.022298   0.003237
     4  C   -0.158851   0.224134  -0.064570   5.738618   0.034348   0.169520
     5  C    0.026373  -0.019327  -0.022298   0.034348   5.401817   0.256335
     6  C   -0.003118  -0.003708   0.003237   0.169520   0.256335   5.205237
     7  C    0.000687  -0.000322   0.000231  -0.162216   0.100801   0.271940
     8  N   -0.000000  -0.000002  -0.000001   0.000312   0.001121  -0.050659
     9  O   -0.000000  -0.000006   0.000000   0.001099  -0.001909   0.016446
    10  O   -0.000000  -0.000004  -0.000000   0.001043  -0.003479   0.029750
    11  C   -0.000620   0.001514   0.000855   0.100159  -0.130874   0.035584
    12  C    0.004690  -0.056500   0.033692   0.208780   0.085482  -0.115218
    13  H    0.302167  -0.030326   0.005395   0.020563  -0.002149  -0.000017
    14  H   -0.039123   0.469337  -0.053583  -0.097493   0.025861  -0.002730
    15  H    0.004980  -0.036668   0.369030   0.008699   0.000699  -0.000059
    16  H    0.006004  -0.037535   0.365547  -0.019495   0.012715  -0.001875
    17  H    0.022710   0.000925  -0.001679  -0.101266   0.468581  -0.055377
    18  H   -0.000168  -0.000365   0.000021   0.012413  -0.036277   0.435108
    19  H    0.000001  -0.000170  -0.000026   0.010384  -0.003479   0.006742
    20  H   -0.000104  -0.000168   0.000406  -0.073012   0.017820  -0.005823
               7          8          9         10         11         12
     1  O    0.000687  -0.000000  -0.000000  -0.000000  -0.000620   0.004690
     2  C   -0.000322  -0.000002  -0.000006  -0.000004   0.001514  -0.056500
     3  N    0.000231  -0.000001   0.000000  -0.000000   0.000855   0.033692
     4  C   -0.162216   0.000312   0.001099   0.001043   0.100159   0.208780
     5  C    0.100801   0.001121  -0.001909  -0.003479  -0.130874   0.085482
     6  C    0.271940  -0.050659   0.016446   0.029750   0.035584  -0.115218
     7  C    5.228834   0.396388  -0.124506  -0.123754   0.315632   0.058619
     8  N    0.396388   5.442356   0.360775   0.360778  -0.053348   0.001570
     9  O   -0.124506   0.360775   8.231737  -0.123895   0.029777  -0.003383
    10  O   -0.123754   0.360778  -0.123895   8.230947   0.015876  -0.001610
    11  C    0.315632  -0.053348   0.029777   0.015876   5.135142   0.353852
    12  C    0.058619   0.001570  -0.003383  -0.001610   0.353852   5.214326
    13  H   -0.000019   0.000000  -0.000000   0.000000   0.000082  -0.001833
    14  H    0.000853  -0.000000   0.000000  -0.000000  -0.002155  -0.000519
    15  H    0.000012   0.000000   0.000000   0.000000  -0.000017  -0.000104
    16  H    0.000560  -0.000001  -0.000000   0.000000  -0.000607   0.003448
    17  H    0.017670  -0.000137  -0.000000  -0.000110  -0.005595   0.013792
    18  H   -0.051827  -0.005916   0.000758   0.017163   0.006000  -0.002986
    19  H   -0.049550  -0.006247   0.017375   0.000743   0.433037  -0.034855
    20  H    0.014214  -0.000093  -0.000104   0.000002  -0.056507   0.456520
              13         14         15         16         17         18
     1  O    0.302167  -0.039123   0.004980   0.006004   0.022710  -0.000168
     2  C   -0.030326   0.469337  -0.036668  -0.037535   0.000925  -0.000365
     3  N    0.005395  -0.053583   0.369030   0.365547  -0.001679   0.000021
     4  C    0.020563  -0.097493   0.008699  -0.019495  -0.101266   0.012413
     5  C   -0.002149   0.025861   0.000699   0.012715   0.468581  -0.036277
     6  C   -0.000017  -0.002730  -0.000059  -0.001875  -0.055377   0.435108
     7  C   -0.000019   0.000853   0.000012   0.000560   0.017670  -0.051827
     8  N    0.000000  -0.000000   0.000000  -0.000001  -0.000137  -0.005916
     9  O   -0.000000   0.000000   0.000000  -0.000000  -0.000000   0.000758
    10  O    0.000000  -0.000000   0.000000   0.000000  -0.000110   0.017163
    11  C    0.000082  -0.002155  -0.000017  -0.000607  -0.005595   0.006000
    12  C   -0.001833  -0.000519  -0.000104   0.003448   0.013792  -0.002986
    13  H    0.340168  -0.002728  -0.000012  -0.000962  -0.000744   0.000001
    14  H   -0.002728   0.568101  -0.004935   0.007579   0.001829  -0.000017
    15  H   -0.000012  -0.004935   0.406337  -0.022456  -0.000048   0.000001
    16  H   -0.000962   0.007579  -0.022456   0.420687   0.002382  -0.000034
    17  H   -0.000744   0.001829  -0.000048   0.002382   0.470976  -0.006650
    18  H    0.000001  -0.000017   0.000001  -0.000034  -0.006650   0.440185
    19  H    0.000000  -0.000052  -0.000004  -0.000005  -0.000009  -0.000058
    20  H   -0.000058   0.004733   0.000630   0.000309   0.000163  -0.000001
              19         20
     1  O    0.000001  -0.000104
     2  C   -0.000170  -0.000168
     3  N   -0.000026   0.000406
     4  C    0.010384  -0.073012
     5  C   -0.003479   0.017820
     6  C    0.006742  -0.005823
     7  C   -0.049550   0.014214
     8  N   -0.006247  -0.000093
     9  O    0.017375  -0.000104
    10  O    0.000743   0.000002
    11  C    0.433037  -0.056507
    12  C   -0.034855   0.456520
    13  H    0.000000  -0.000058
    14  H   -0.000052   0.004733
    15  H   -0.000004   0.000630
    16  H   -0.000005   0.000309
    17  H   -0.000009   0.000163
    18  H   -0.000058  -0.000001
    19  H    0.439607  -0.005879
    20  H   -0.005879   0.473125
 Mulliken charges:
               1
     1  O   -0.543181
     2  C    0.162606
     3  N   -0.583131
     4  C    0.146829
     5  C   -0.212163
     6  C   -0.191318
     7  C    0.105752
     8  N    0.553102
     9  O   -0.404163
    10  O   -0.403450
    11  C   -0.177789
    12  C   -0.217763
    13  H    0.370471
    14  H    0.125040
    15  H    0.273913
    16  H    0.263736
    17  H    0.172585
    18  H    0.192649
    19  H    0.192444
    20  H    0.173828
 Sum of Mulliken charges =  -0.00000
 Mulliken charges with hydrogens summed into heavy atoms:
               1
     1  O   -0.172709
     2  C    0.287646
     3  N   -0.045481
     4  C    0.146829
     5  C   -0.039578
     6  C    0.001331
     7  C    0.105752
     8  N    0.553102
     9  O   -0.404163
    10  O   -0.403450
    11  C    0.014655
    12  C   -0.043935
 Electronic spatial extent (au):  <R**2>=           2538.0189
 Charge=              0.0000 electrons
 Dipole moment (field-independent basis, Debye):
    X=             -6.3393    Y=              2.3948    Z=              1.0874  Tot=              6.8633
 Quadrupole moment (field-independent basis, Debye-Ang):
   XX=            -88.3279   YY=            -63.2237   ZZ=            -68.9564
   XY=             -3.7974   XZ=             -1.8480   YZ=             -1.6294
 Traceless Quadrupole moment (field-independent basis, Debye-Ang):
   XX=            -14.8252   YY=             10.2790   ZZ=              4.5462
   XY=             -3.7974   XZ=             -1.8480   YZ=             -1.6294
 Octapole moment (field-independent basis, Debye-Ang**2):
  XXX=           -111.8208  YYY=              7.3557  ZZZ=              9.7819  XYY=            -14.5715
  XXY=              7.1004  XXZ=            -13.1689  XZZ=              3.4265  YZZ=              2.4563
  YYZ=              2.7281  XYZ=              3.9564
 Hexadecapole moment (field-independent basis, Debye-Ang**3):
 XXXX=          -2822.9816 YYYY=           -395.7839 ZZZZ=           -156.9407 XXXY=             36.7913
 XXXZ=             81.4473 YYYX=             -9.9277 YYYZ=             -3.3712 ZZZX=            -14.7467
 ZZZY=              3.0242 XXYY=           -505.3518 XXZZ=           -443.5470 YYZZ=           -101.4792
 XXYZ=              3.4940 YYXZ=            -10.9346 ZZXY=             -7.7665
 N-N= 6.788592104052D+02 E-N=-2.776403222560D+03  KE= 6.038831138874D+02
 No NMR shielding tensors so no spin-rotation constants.
 Leave Link  601 at Wed Oct 22 09:33:39 2025, MaxMem=  4294967296 cpu:               2.0 elap:               0.3
 (Enter /lrz/sys/applications/gaussian/g16.C.01/x86_64_legacy/exe/l9999.exe)
 Unable to Open any file for archive entry.
 1\1\GINC-CM4R15C05S03\SP\RwB97XD\def2TZVP\C7H8N2O3\GO29TIZ2\22-Oct-202
 5\0\\#p wb97xd scrf=(smd,solvent=water) def2tzvp\\g16_g16_C18-a_3\\0,1
 \O,0,-3.329107,-0.916542,-0.754299\C,0,-2.806267,0.26254,-0.194487\N,0
 ,-3.364469,0.478261,1.123295\C,0,-1.292939,0.148875,-0.188315\C,0,-0.6
 62527,-1.083979,0.018098\C,0,0.722126,-1.16554,0.100906\C,0,1.467633,0
 .003808,-0.026398\N,0,2.925987,-0.073373,0.057704\O,0,3.564837,0.95478
 1,-0.053759\O,0,3.436467,-1.161908,0.236477\C,0,0.870259,1.244206,-0.2
 34393\C,0,-0.5154,1.305642,-0.314495\H,0,-4.28525,-0.881412,-0.623416\
 H,0,-3.080394,1.139033,-0.807642\H,0,-3.182126,1.43614,1.420021\H,0,-2
 .897087,-0.130059,1.796987\H,0,-1.26218,-1.990492,0.109103\H,0,1.22153
 9,-2.120579,0.260398\H,0,1.482451,2.139629,-0.335362\H,0,-1.002477,2.2
 69561,-0.479927\\Version=EM64L-G16RevC.01\State=1-A\HF=-606.693505\RMS
 D=8.527e-09\Dipole=-2.4940854,0.9421673,0.4278182\Quadrupole=-11.02218
 74,7.6421911,3.3799963,-2.8232684,-1.3739237,-1.2113827\PG=C01 [X(C7H8
 N2O3)]\\@
 The archive entry for this job was punched.


 THE SOLUTION TO A PROBLEM CHANGES THE PROBLEM.

                                 -- JOHN PEERS
           PAUL DICKSON'S "THE OFFICIAL RULES"
 Job cpu time:       0 days  0 hours 51 minutes 59.9 seconds.
 Elapsed time:       0 days  0 hours  6 minutes 30.8 seconds.
 File lengths (MBytes):  RWF=    368 Int=      0 D2E=      0 Chk=     16 Scr=     32
 Normal termination of Gaussian 16 at Wed Oct 22 09:33:39 2025.
