 Entering Gaussian System, Link 0=g16
 Input=../../g16_g16_C2-w_5.com
 Output=../../g16_g16_C2-w_5.log
 Initial command:
 /lrz/sys/applications/gaussian/g16.C.01/x86_64_legacy/exe/l1.exe "/dss/lxclscratch/0D/go29tiz2/Gau-16620.inp" -scrdir="/dss/lxclscratch/0D/go29tiz2/"
 Entering Link 1 = /lrz/sys/applications/gaussian/g16.C.01/x86_64_legacy/exe/l1.exe PID=     16621.
  
 Copyright (c) 1988-2019, Gaussian, Inc.  All Rights Reserved.
  
 This is part of the Gaussian(R) 16 program.  It is based on
 the Gaussian(R) 09 system (copyright 2009, Gaussian, Inc.),
 the Gaussian(R) 03 system (copyright 2003, Gaussian, Inc.),
 the Gaussian(R) 98 system (copyright 1998, Gaussian, Inc.),
 the Gaussian(R) 94 system (copyright 1995, Gaussian, Inc.),
 the Gaussian 92(TM) system (copyright 1992, Gaussian, Inc.),
 the Gaussian 90(TM) system (copyright 1990, Gaussian, Inc.),
 the Gaussian 88(TM) system (copyright 1988, Gaussian, Inc.),
 the Gaussian 86(TM) system (copyright 1986, Carnegie Mellon
 University), and the Gaussian 82(TM) system (copyright 1983,
 Carnegie Mellon University). Gaussian is a federally registered
 trademark of Gaussian, Inc.
  
 This software contains proprietary and confidential information,
 including trade secrets, belonging to Gaussian, Inc.
  
 This software is provided under written license and may be
 used, copied, transmitted, or stored only in accord with that
 written license.
  
 The following legend is applicable only to US Government
 contracts under FAR:
  
                    RESTRICTED RIGHTS LEGEND
  
 Use, reproduction and disclosure by the US Government is
 subject to restrictions as set forth in subparagraphs (a)
 and (c) of the Commercial Computer Software - Restricted
 Rights clause in FAR 52.227-19.
  
 Gaussian, Inc.
 340 Quinnipiac St., Bldg. 40, Wallingford CT 06492
  
  
 ---------------------------------------------------------------
 Warning -- This program may not be used in any manner that
 competes with the business of Gaussian, Inc. or will provide
 assistance to any competitor of Gaussian, Inc.  The licensee
 of this program is prohibited from giving any competitor of
 Gaussian, Inc. access to this program.  By using this program,
 the user acknowledges that Gaussian, Inc. is engaged in the
 business of creating and licensing software in the field of
 computational chemistry and represents and warrants to the
 licensee that it is not a competitor of Gaussian, Inc. and that
 it will not use this program in any manner prohibited above.
 ---------------------------------------------------------------
  

 Cite this work as:
 Gaussian 16, Revision C.01,
 M. J. Frisch, G. W. Trucks, H. B. Schlegel, G. E. Scuseria, 
 M. A. Robb, J. R. Cheeseman, G. Scalmani, V. Barone, 
 G. A. Petersson, H. Nakatsuji, X. Li, M. Caricato, A. V. Marenich, 
 J. Bloino, B. G. Janesko, R. Gomperts, B. Mennucci, H. P. Hratchian, 
 J. V. Ortiz, A. F. Izmaylov, J. L. Sonnenberg, D. Williams-Young, 
 F. Ding, F. Lipparini, F. Egidi, J. Goings, B. Peng, A. Petrone, 
 T. Henderson, D. Ranasinghe, V. G. Zakrzewski, J. Gao, N. Rega, 
 G. Zheng, W. Liang, M. Hada, M. Ehara, K. Toyota, R. Fukuda, 
 J. Hasegawa, M. Ishida, T. Nakajima, Y. Honda, O. Kitao, H. Nakai, 
 T. Vreven, K. Throssell, J. A. Montgomery, Jr., J. E. Peralta, 
 F. Ogliaro, M. J. Bearpark, J. J. Heyd, E. N. Brothers, K. N. Kudin, 
 V. N. Staroverov, T. A. Keith, R. Kobayashi, J. Normand, 
 K. Raghavachari, A. P. Rendell, J. C. Burant, S. S. Iyengar, 
 J. Tomasi, M. Cossi, J. M. Millam, M. Klene, C. Adamo, R. Cammi, 
 J. W. Ochterski, R. L. Martin, K. Morokuma, O. Farkas, 
 J. B. Foresman, and D. J. Fox, Gaussian, Inc., Wallingford CT, 2019.
 
 ******************************************
 Gaussian 16:  EM64L-G16RevC.01  3-Jul-2019
                22-Oct-2025 
 ******************************************
 %chk=g16_g16_C2-w_5.chk
 %nprocshared=8
 Will use up to    8 processors via shared memory.
 %mem=32GB
 -------------------------------------------
 #p wb97xd scrf=(smd,solvent=water) def2tzvp
 -------------------------------------------
 1/38=1,172=1/1;
 2/12=2,17=6,18=5,40=1/2;
 3/5=44,7=101,11=2,25=1,30=1,70=32201,72=1,74=-58/1,2,3;
 4//1;
 5/5=2,38=5,53=1/2;
 6/7=2,8=2,9=2,10=2,28=1/1;
 99/5=1,9=1/99;
 Leave Link    1 at Wed Oct 22 10:09:41 2025, MaxMem=  4294967296 cpu:               5.2 elap:               0.7
 (Enter /lrz/sys/applications/gaussian/g16.C.01/x86_64_legacy/exe/l101.exe)
 --------------
 g16_g16_C2-w_5
 --------------
 Symbolic Z-matrix:
 Charge =  0 Multiplicity = 1
 O                    -1.06748   1.16388  -0.26324 
 C                    -0.67625  0.         0.4232 
 O                    -1.06752  -1.16384  -0.26329 
 C                     0.81322  -0.00003   0.76033 
 C                     1.74045   0.00002  -0.45086 
 H                    -0.46522   1.29995  -1.00654 
 H                    -1.2636    0.00001   1.35305 
 H                    -0.46501  -1.30018  -1.00632 
 H                     1.01319   0.88437   1.38483 
 H                     1.01316  -0.88447   1.38476 
 H                     2.7914   -0.00006  -0.12836 
 H                     1.59585   0.89111  -1.08255 
 H                     1.59578  -0.89095  -1.08271 
 
 ITRead=  0  0  0  0  0  0  0  0  0  0  0  0  0
 MicOpt= -1 -1 -1 -1 -1 -1 -1 -1 -1 -1 -1 -1 -1
 NAtoms=     13 NQM=       13 NQMF=       0 NMMI=      0 NMMIF=      0
                NMic=       0 NMicF=      0.
                    Isotopes and Nuclear Properties:
 (Nuclear quadrupole moments (NQMom) in fm**2, nuclear magnetic moments (NMagM)
  in nuclear magnetons)

  Atom         1           2           3           4           5           6           7           8           9          10
 IAtWgt=          16          12          16          12          12           1           1           1           1           1
 AtmWgt=  15.9949146  12.0000000  15.9949146  12.0000000  12.0000000   1.0078250   1.0078250   1.0078250   1.0078250   1.0078250
 NucSpn=           0           0           0           0           0           1           1           1           1           1
 AtZEff=  -0.0000000  -0.0000000  -0.0000000  -0.0000000  -0.0000000  -0.0000000  -0.0000000  -0.0000000  -0.0000000  -0.0000000
 NQMom=    0.0000000   0.0000000   0.0000000   0.0000000   0.0000000   0.0000000   0.0000000   0.0000000   0.0000000   0.0000000
 NMagM=    0.0000000   0.0000000   0.0000000   0.0000000   0.0000000   2.7928460   2.7928460   2.7928460   2.7928460   2.7928460
 AtZNuc=   8.0000000   6.0000000   8.0000000   6.0000000   6.0000000   1.0000000   1.0000000   1.0000000   1.0000000   1.0000000

  Atom        11          12          13
 IAtWgt=           1           1           1
 AtmWgt=   1.0078250   1.0078250   1.0078250
 NucSpn=           1           1           1
 AtZEff=  -0.0000000  -0.0000000  -0.0000000
 NQMom=    0.0000000   0.0000000   0.0000000
 NMagM=    2.7928460   2.7928460   2.7928460
 AtZNuc=   1.0000000   1.0000000   1.0000000
 Leave Link  101 at Wed Oct 22 10:09:41 2025, MaxMem=  4294967296 cpu:               1.3 elap:               0.2
 (Enter /lrz/sys/applications/gaussian/g16.C.01/x86_64_legacy/exe/l202.exe)
                          Input orientation:                          
 ---------------------------------------------------------------------
 Center     Atomic      Atomic             Coordinates (Angstroms)
 Number     Number       Type             X           Y           Z
 ---------------------------------------------------------------------
      1          8           0       -1.067483    1.163879   -0.263241
      2          6           0       -0.676251   -0.000002    0.423203
      3          8           0       -1.067524   -1.163842   -0.263285
      4          6           0        0.813218   -0.000028    0.760332
      5          6           0        1.740453    0.000017   -0.450861
      6          1           0       -0.465224    1.299954   -1.006536
      7          1           0       -1.263600    0.000006    1.353049
      8          1           0       -0.465008   -1.300180   -1.006322
      9          1           0        1.013188    0.884368    1.384827
     10          1           0        1.013164   -0.884473    1.384763
     11          1           0        2.791398   -0.000059   -0.128360
     12          1           0        1.595847    0.891105   -1.082550
     13          1           0        1.595778   -0.890946   -1.082712
 ---------------------------------------------------------------------
                    Distance matrix (angstroms):
                    1          2          3          4          5
     1  O    0.000000
     2  C    1.406729   0.000000
     3  O    2.327721   1.406728   0.000000
     4  C    2.437092   1.527146   2.437098   0.000000
     5  C    3.045370   2.569912   3.045404   1.525370   0.000000
     6  H    0.966292   1.943855   2.643005   2.538935   2.619852
     7  H    2.001363   1.099815   2.001380   2.159742   3.504058
     8  H    2.643243   1.943869   0.966291   2.538764   2.619753
     9  H    2.668979   2.135658   3.352730   1.100972   2.163502
    10  H    3.352724   2.135652   2.668965   1.100970   2.163513
    11  H    4.032853   3.511241   4.032849   2.168633   1.099314
    12  H    2.799821   2.867716   3.462304   2.191538   1.101807
    13  H    3.462195   2.867695   2.799841   2.191563   1.101808
                    6          7          8          9         10
     6  H    0.000000
     7  H    2.809788   0.000000
     8  H    2.600134   2.809780   0.000000
     9  H    2.842012   2.442718   3.560184   0.000000
    10  H    3.560290   2.442737   2.841671   1.768841   0.000000
    11  H    3.614805   4.317127   3.614597   2.496793   2.496767
    12  H    2.102605   3.860393   3.009097   2.535249   3.095130
    13  H    3.008916   3.860411   2.102415   3.095141   2.535333
                   11         12         13
    11  H    0.000000
    12  H    1.770309   0.000000
    13  H    1.770304   1.782051   0.000000
 Stoichiometry    C3H8O2
 Framework group  C1[X(C3H8O2)]
 Deg. of freedom    33
 Full point group                 C1      NOp   1
 Largest Abelian subgroup         C1      NOp   1
 Largest concise Abelian subgroup C1      NOp   1
                         Standard orientation:                         
 ---------------------------------------------------------------------
 Center     Atomic      Atomic             Coordinates (Angstroms)
 Number     Number       Type             X           Y           Z
 ---------------------------------------------------------------------
      1          8           0       -1.067483    1.163879   -0.263241
      2          6           0       -0.676251   -0.000002    0.423203
      3          8           0       -1.067524   -1.163842   -0.263285
      4          6           0        0.813218   -0.000028    0.760332
      5          6           0        1.740453    0.000017   -0.450861
      6          1           0       -0.465224    1.299954   -1.006536
      7          1           0       -1.263600    0.000006    1.353049
      8          1           0       -0.465008   -1.300180   -1.006322
      9          1           0        1.013188    0.884368    1.384827
     10          1           0        1.013164   -0.884473    1.384763
     11          1           0        2.791398   -0.000059   -0.128360
     12          1           0        1.595847    0.891105   -1.082550
     13          1           0        1.595778   -0.890946   -1.082712
 ---------------------------------------------------------------------
 Rotational constants (GHZ):           6.8526107           3.9867061           3.3064015
 Leave Link  202 at Wed Oct 22 10:09:41 2025, MaxMem=  4294967296 cpu:               0.1 elap:               0.0
 (Enter /lrz/sys/applications/gaussian/g16.C.01/x86_64_legacy/exe/l301.exe)
 Standard basis: def2TZVP (5D, 7F)
 Ernie: Thresh=  0.10000D-02 Tol=  0.10000D-05 Strict=F.
 There are   228 symmetry adapted cartesian basis functions of A   symmetry.
 There are   203 symmetry adapted basis functions of A   symmetry.
   203 basis functions,   319 primitive gaussians,   228 cartesian basis functions
    21 alpha electrons       21 beta electrons
       nuclear repulsion energy       196.8958071163 Hartrees.
 IExCor= 4639 DFT=T Ex+Corr=wB97XD ExCW=0 ScaHFX=  1.000000
 ScaDFX=  1.000000  1.000000  1.000000  1.000000 ScalE2=  1.000000  1.000000
 IRadAn=      5 IRanWt=     -1 IRanGd=            0 ICorTp=0 IEmpDi=121
 HFx  wShort=  0.000000 wLong=  0.200000 cFull=  0.222036 cShort=  0.000000 cLong=  0.777964
 DFx  wShort=  0.000000 wLong=  0.200000 cFull=  0.000000 cShort=  0.000000 cLong=  1.000000
 NAtoms=   13 NActive=   13 NUniq=   13 SFac= 1.00D+00 NAtFMM=   60 NAOKFM=F Big=F
 Integral buffers will be    131072 words long.
 Raffenetti 2 integral format.
 Two-electron integral symmetry is turned on.
 R6Disp:  Grimme-D2 Dispersion energy=       -0.0060402979 Hartrees.
 Nuclear repulsion after empirical dispersion term =      196.8897668184 Hartrees.
 ------------------------------------------------------------------------------
 Polarizable Continuum Model (PCM)
 =================================
 Model                : PCM.
 Atomic radii         : SMD-Coulomb.
 Polarization charges : Total charges.
 Charge compensation  : None.
 Solution method      : On-the-fly selection.
 Cavity type          : VdW (van der Waals Surface) (Alpha=1.000).
 Cavity algorithm     : GePol (No added spheres)
                        Default sphere list used, NSphG=   13.
                        Lebedev-Laikov grids with approx.  5.0 points / Ang**2.
                        Smoothing algorithm: York/Karplus (Gamma=1.0000).
                        Polarization charges: spherical gaussians, with
                                              point-specific exponents (IZeta= 3).
                        Self-potential: point-specific (ISelfS= 7).
                        Self-field    : sphere-specific E.n sum rule (ISelfD= 2).
 Solvent              : Water, Eps=  78.355300 Eps(inf)=   1.777849
 ------------------------------------------------------------------------------
 Spheres list:
 ISph  on   Nord     Re0    Alpha      Xe            Ye            Ze
    1   O      1    1.5200  1.000     -1.067483      1.163879     -0.263241
    2   C      2    1.8500  1.000     -0.676251     -0.000002      0.423203
    3   O      3    1.5200  1.000     -1.067524     -1.163842     -0.263285
    4   C      4    1.8500  1.000      0.813218     -0.000028      0.760332
    5   C      5    1.8500  1.000      1.740453      0.000017     -0.450861
    6   H      6    1.2000  1.000     -0.465224      1.299954     -1.006536
    7   H      7    1.2000  1.000     -1.263600      0.000006      1.353049
    8   H      8    1.2000  1.000     -0.465008     -1.300180     -1.006322
    9   H      9    1.2000  1.000      1.013188      0.884368      1.384827
   10   H     10    1.2000  1.000      1.013164     -0.884473      1.384763
   11   H     11    1.2000  1.000      2.791398     -0.000059     -0.128360
   12   H     12    1.2000  1.000      1.595847      0.891105     -1.082550
   13   H     13    1.2000  1.000      1.595778     -0.890946     -1.082712
 ------------------------------------------------------------------------------
 GePol: Number of generator spheres                  =      13
 GePol: Total number of spheres                      =      13
 GePol: Number of exposed spheres                    =      13 (100.00%)
 GePol: Number of points                             =     899
 GePol: Average weight of points                     =       0.12
 GePol: Minimum weight of points                     =   0.61D-11
 GePol: Maximum weight of points                     =    0.21991
 GePol: Number of points with low weight             =      57
 GePol: Fraction of low-weight points (<1% of avg)   =       6.34%
 GePol: Cavity surface area                          =    108.051 Ang**2
 GePol: Cavity volume                                =     81.978 Ang**3
 ------------------------------------------------------------------------------
 Atomic radii for non-electrostatic terms: SMD-CDS.
 ------------------------------------------------------------------------------
 PCM non-electrostatic energy =         0.0042068620 Hartrees.
 Nuclear repulsion after PCM non-electrostatic terms =      196.8939736804 Hartrees.
 Leave Link  301 at Wed Oct 22 10:09:41 2025, MaxMem=  4294967296 cpu:               0.6 elap:               0.1
 (Enter /lrz/sys/applications/gaussian/g16.C.01/x86_64_legacy/exe/l302.exe)
 NPDir=0 NMtPBC=     1 NCelOv=     1 NCel=       1 NClECP=     1 NCelD=      1
         NCelK=      1 NCelE2=     1 NClLst=     1 CellRange=     0.0.
 One-electron integrals computed using PRISM.
 One-electron integral symmetry used in STVInt
   1 Symmetry operations used in ECPInt.
 ECPInt:  NShTT=    3828 NPrTT=   11160 LenC2=    3807 LenP2D=    9422.
 LDataN:  DoStor=T MaxTD1= 6 Len=  172
 NBasis=   203 RedAO= T EigKep=  3.48D-04  NBF=   203
 NBsUse=   203 1.00D-06 EigRej= -1.00D+00 NBFU=   203
 Precomputing XC quadrature grid using
 IXCGrd= 4 IRadAn=           5 IRanWt=          -1 IRanGd=           0 AccXCQ= 0.00D+00.
 Generated NRdTot=       0 NPtTot=           0 NUsed=           0 NTot=          32
 NSgBfM=   227   227   227   227   227 MxSgAt=    13 MxSgA2=    13.
 Leave Link  302 at Wed Oct 22 10:09:41 2025, MaxMem=  4294967296 cpu:               1.9 elap:               0.3
 (Enter /lrz/sys/applications/gaussian/g16.C.01/x86_64_legacy/exe/l303.exe)
 DipDrv:  MaxL=1.
 Leave Link  303 at Wed Oct 22 10:09:41 2025, MaxMem=  4294967296 cpu:               0.3 elap:               0.1
 (Enter /lrz/sys/applications/gaussian/g16.C.01/x86_64_legacy/exe/l401.exe)
 ExpMin= 9.52D-02 ExpMax= 2.70D+04 ExpMxC= 9.22D+02 IAcc=3 IRadAn=         5 AccDes= 0.00D+00
 Harris functional with IExCor= 4639 and IRadAn=       5 diagonalized for initial guess.
 HarFok:  IExCor= 4639 AccDes= 0.00D+00 IRadAn=         5 IDoV= 1 UseB2=F ITyADJ=14
 ICtDFT=  3500011 ScaDFX=  1.000000  1.000000  1.000000  1.000000
 FoFCou: FMM=F IPFlag=           0 FMFlag=      100000 FMFlg1=           0
         NFxFlg=           0 DoJE=T BraDBF=F KetDBF=T FulRan=T
         wScrn=  0.000000 ICntrl=       500 IOpCl=  0 I1Cent=   200000004 NGrid=           0
         NMat0=    1 NMatS0=      1 NMatT0=    0 NMatD0=    1 NMtDS0=    0 NMtDT0=    0
 Petite list used in FoFCou.
 Harris En= -258.420343525394    
 JPrj=0 DoOrth=F DoCkMO=F.
 Leave Link  401 at Wed Oct 22 10:09:43 2025, MaxMem=  4294967296 cpu:              10.1 elap:               1.3
 (Enter /lrz/sys/applications/gaussian/g16.C.01/x86_64_legacy/exe/l502.exe)
 Integral symmetry usage will be decided dynamically.
 Closed shell SCF:
 Using DIIS extrapolation, IDIIS=  1040.
 NGot=  4294967296 LenX=  4294858978 LenY=  4294806553
 Requested convergence on RMS density matrix=1.00D-08 within 128 cycles.
 Requested convergence on MAX density matrix=1.00D-06.
 Requested convergence on             energy=1.00D-06.
 No special actions if energy rises.
 Fock matrices will be formed incrementally for  20 cycles.

 Cycle   1  Pass 1  IDiag  1:
 FoFJK:  IHMeth= 1 ICntrl=       0 DoSepK=T KAlg= 0 I1Cent=           0 FoldK=F
 IRaf=         1 NMat=       1 IRICut=       1 DoRegI=T DoRafI=F ISym2E= 0 IDoP0=0 IntGTp=1.
 FoFCou: FMM=F IPFlag=           0 FMFlag=      100000 FMFlg1=           0
         NFxFlg=           0 DoJE=T BraDBF=F KetDBF=F FulRan=T
         wScrn=  0.000000 ICntrl=       500 IOpCl=  0 I1Cent=           0 NGrid=           0
         NMat0=    1 NMatS0=      1 NMatT0=    0 NMatD0=    1 NMtDS0=    0 NMtDT0=    0
 Symmetry not used in FoFCou.
 Inv3:  Mode=1 IEnd=     2424603.
 Iteration    1 A*A^-1 deviation from unit magnitude is 4.66D-15 for      5.
 Iteration    1 A*A^-1 deviation from orthogonality  is 2.28D-15 for    570    127.
 Iteration    1 A^-1*A deviation from unit magnitude is 4.44D-15 for      5.
 Iteration    1 A^-1*A deviation from orthogonality  is 2.06D-15 for    775     53.
 E= -269.553201103103    
 DIIS: error= 6.12D-02 at cycle   1 NSaved=   1.
 NSaved= 1 IEnMin= 1 EnMin= -269.553201103103     IErMin= 1 ErrMin= 6.12D-02
 ErrMax= 6.12D-02  0.00D+00 EMaxC= 1.00D-01 BMatC= 5.63D-01 BMatP= 5.63D-01
 IDIUse=3 WtCom= 3.88D-01 WtEn= 6.12D-01
 Coeff-Com:  0.100D+01
 Coeff-En:   0.100D+01
 Coeff:      0.100D+01
 Gap=     0.553 Goal=   None    Shift=    0.000
 GapD=    0.553 DampG=2.000 DampE=0.500 DampFc=1.0000 IDamp=-1.
 RMSDP=1.90D-03 MaxDP=4.62D-02              OVMax= 6.87D-02

 Cycle   2  Pass 1  IDiag  1:
 RMSU=  1.86D-03    CP:  9.68D-01
 E= -269.598611181544     Delta-E=       -0.045410078441 Rises=F Damp=F
 DIIS: error= 1.07D-02 at cycle   2 NSaved=   2.
 NSaved= 2 IEnMin= 2 EnMin= -269.598611181544     IErMin= 2 ErrMin= 1.07D-02
 ErrMax= 1.07D-02  0.00D+00 EMaxC= 1.00D-01 BMatC= 4.15D-02 BMatP= 5.63D-01
 IDIUse=3 WtCom= 8.93D-01 WtEn= 1.07D-01
 Coeff-Com:  0.151D+00 0.849D+00
 Coeff-En:   0.933D-01 0.907D+00
 Coeff:      0.144D+00 0.856D+00
 Gap=     0.513 Goal=   None    Shift=    0.000
 RMSDP=8.08D-04 MaxDP=2.57D-02 DE=-4.54D-02 OVMax= 4.98D-02

 Cycle   3  Pass 1  IDiag  1:
 RMSU=  6.55D-04    CP:  9.70D-01  7.46D-01
 E= -269.612330839649     Delta-E=       -0.013719658105 Rises=F Damp=F
 DIIS: error= 8.36D-03 at cycle   3 NSaved=   3.
 NSaved= 3 IEnMin= 3 EnMin= -269.612330839649     IErMin= 3 ErrMin= 8.36D-03
 ErrMax= 8.36D-03  0.00D+00 EMaxC= 1.00D-01 BMatC= 2.06D-02 BMatP= 4.15D-02
 IDIUse=3 WtCom= 9.16D-01 WtEn= 8.36D-02
 Coeff-Com:  0.234D-01 0.422D+00 0.555D+00
 Coeff-En:   0.000D+00 0.325D+00 0.675D+00
 Coeff:      0.215D-01 0.414D+00 0.565D+00
 Gap=     0.497 Goal=   None    Shift=    0.000
 RMSDP=4.00D-04 MaxDP=1.17D-02 DE=-1.37D-02 OVMax= 2.12D-02

 Cycle   4  Pass 1  IDiag  1:
 RMSU=  1.43D-04    CP:  9.66D-01  9.13D-01  6.92D-01
 E= -269.626013950635     Delta-E=       -0.013683110986 Rises=F Damp=F
 DIIS: error= 7.24D-04 at cycle   4 NSaved=   4.
 NSaved= 4 IEnMin= 4 EnMin= -269.626013950635     IErMin= 4 ErrMin= 7.24D-04
 ErrMax= 7.24D-04  0.00D+00 EMaxC= 1.00D-01 BMatC= 1.96D-04 BMatP= 2.06D-02
 IDIUse=3 WtCom= 9.93D-01 WtEn= 7.24D-03
 Coeff-Com:  0.750D-02 0.147D+00 0.223D+00 0.622D+00
 Coeff-En:   0.000D+00 0.000D+00 0.000D+00 0.100D+01
 Coeff:      0.745D-02 0.146D+00 0.222D+00 0.625D+00
 Gap=     0.492 Goal=   None    Shift=    0.000
 RMSDP=4.70D-05 MaxDP=1.48D-03 DE=-1.37D-02 OVMax= 2.26D-03

 Cycle   5  Pass 1  IDiag  1:
 RMSU=  3.84D-05    CP:  9.66D-01  9.23D-01  7.22D-01  1.02D+00
 E= -269.626149581934     Delta-E=       -0.000135631298 Rises=F Damp=F
 DIIS: error= 1.32D-04 at cycle   5 NSaved=   5.
 NSaved= 5 IEnMin= 5 EnMin= -269.626149581934     IErMin= 5 ErrMin= 1.32D-04
 ErrMax= 1.32D-04  0.00D+00 EMaxC= 1.00D-01 BMatC= 7.89D-06 BMatP= 1.96D-04
 IDIUse=3 WtCom= 9.99D-01 WtEn= 1.32D-03
 Coeff-Com: -0.181D-02-0.293D-01-0.294D-01 0.117D+00 0.944D+00
 Coeff-En:   0.000D+00 0.000D+00 0.000D+00 0.000D+00 0.100D+01
 Coeff:     -0.181D-02-0.293D-01-0.293D-01 0.117D+00 0.944D+00
 Gap=     0.492 Goal=   None    Shift=    0.000
 RMSDP=3.63D-05 MaxDP=7.14D-04 DE=-1.36D-04 OVMax= 8.20D-04

 Cycle   6  Pass 1  IDiag  1:
 RMSU=  1.03D-05    CP:  9.65D-01  9.33D-01  7.47D-01  1.18D+00  1.19D+00
 E= -269.626160295194     Delta-E=       -0.000010713260 Rises=F Damp=F
 DIIS: error= 2.77D-05 at cycle   6 NSaved=   6.
 NSaved= 6 IEnMin= 6 EnMin= -269.626160295194     IErMin= 6 ErrMin= 2.77D-05
 ErrMax= 2.77D-05  0.00D+00 EMaxC= 1.00D-01 BMatC= 1.88D-07 BMatP= 7.89D-06
 IDIUse=1 WtCom= 1.00D+00 WtEn= 0.00D+00
 Coeff-Com: -0.446D-03-0.842D-02-0.117D-01-0.169D-01 0.539D-01 0.984D+00
 Coeff:     -0.446D-03-0.842D-02-0.117D-01-0.169D-01 0.539D-01 0.984D+00
 Gap=     0.492 Goal=   None    Shift=    0.000
 RMSDP=1.02D-05 MaxDP=2.09D-04 DE=-1.07D-05 OVMax= 2.65D-04

 Cycle   7  Pass 1  IDiag  1:
 RMSU=  3.10D-06    CP:  9.65D-01  9.35D-01  7.52D-01  1.22D+00  1.29D+00
                    CP:  1.32D+00
 E= -269.626160718723     Delta-E=       -0.000000423530 Rises=F Damp=F
 DIIS: error= 5.78D-06 at cycle   7 NSaved=   7.
 NSaved= 7 IEnMin= 7 EnMin= -269.626160718723     IErMin= 7 ErrMin= 5.78D-06
 ErrMax= 5.78D-06  0.00D+00 EMaxC= 1.00D-01 BMatC= 1.09D-08 BMatP= 1.88D-07
 IDIUse=1 WtCom= 1.00D+00 WtEn= 0.00D+00
 Coeff-Com:  0.788D-04 0.136D-02 0.129D-02-0.544D-02-0.536D-01 0.282D-01
 Coeff-Com:  0.103D+01
 Coeff:      0.788D-04 0.136D-02 0.129D-02-0.544D-02-0.536D-01 0.282D-01
 Coeff:      0.103D+01
 Gap=     0.492 Goal=   None    Shift=    0.000
 RMSDP=2.58D-06 MaxDP=4.31D-05 DE=-4.24D-07 OVMax= 8.87D-05

 Cycle   8  Pass 1  IDiag  1:
 RMSU=  5.93D-07    CP:  9.65D-01  9.35D-01  7.52D-01  1.24D+00  1.31D+00
                    CP:  1.44D+00  1.27D+00
 E= -269.626160746707     Delta-E=       -0.000000027984 Rises=F Damp=F
 DIIS: error= 1.90D-06 at cycle   8 NSaved=   8.
 NSaved= 8 IEnMin= 8 EnMin= -269.626160746707     IErMin= 8 ErrMin= 1.90D-06
 ErrMax= 1.90D-06  0.00D+00 EMaxC= 1.00D-01 BMatC= 1.29D-09 BMatP= 1.09D-08
 IDIUse=1 WtCom= 1.00D+00 WtEn= 0.00D+00
 Coeff-Com:  0.321D-04 0.528D-03 0.654D-03-0.194D-03-0.116D-01-0.389D-01
 Coeff-Com:  0.219D+00 0.831D+00
 Coeff:      0.321D-04 0.528D-03 0.654D-03-0.194D-03-0.116D-01-0.389D-01
 Coeff:      0.219D+00 0.831D+00
 Gap=     0.492 Goal=   None    Shift=    0.000
 RMSDP=4.77D-07 MaxDP=9.35D-06 DE=-2.80D-08 OVMax= 1.86D-05

 Cycle   9  Pass 1  IDiag  1:
 RMSU=  1.66D-07    CP:  9.65D-01  9.35D-01  7.52D-01  1.24D+00  1.31D+00
                    CP:  1.47D+00  1.36D+00  1.10D+00
 E= -269.626160748585     Delta-E=       -0.000000001878 Rises=F Damp=F
 DIIS: error= 8.37D-07 at cycle   9 NSaved=   9.
 NSaved= 9 IEnMin= 9 EnMin= -269.626160748585     IErMin= 9 ErrMin= 8.37D-07
 ErrMax= 8.37D-07  0.00D+00 EMaxC= 1.00D-01 BMatC= 1.67D-10 BMatP= 1.29D-09
 IDIUse=1 WtCom= 1.00D+00 WtEn= 0.00D+00
 Coeff-Com: -0.222D-05-0.953D-06 0.803D-04 0.889D-03 0.461D-02-0.194D-01
 Coeff-Com: -0.936D-01 0.224D+00 0.884D+00
 Coeff:     -0.222D-05-0.953D-06 0.803D-04 0.889D-03 0.461D-02-0.194D-01
 Coeff:     -0.936D-01 0.224D+00 0.884D+00
 Gap=     0.492 Goal=   None    Shift=    0.000
 RMSDP=1.83D-07 MaxDP=4.05D-06 DE=-1.88D-09 OVMax= 9.50D-06

 Cycle  10  Pass 1  IDiag  1:
 RMSU=  5.50D-08    CP:  9.65D-01  9.35D-01  7.52D-01  1.24D+00  1.31D+00
                    CP:  1.48D+00  1.39D+00  1.24D+00  1.23D+00
 E= -269.626160748880     Delta-E=       -0.000000000295 Rises=F Damp=F
 DIIS: error= 1.33D-07 at cycle  10 NSaved=  10.
 NSaved=10 IEnMin=10 EnMin= -269.626160748880     IErMin=10 ErrMin= 1.33D-07
 ErrMax= 1.33D-07  0.00D+00 EMaxC= 1.00D-01 BMatC= 2.30D-12 BMatP= 1.67D-10
 IDIUse=1 WtCom= 1.00D+00 WtEn= 0.00D+00
 Coeff-Com: -0.458D-06-0.143D-04-0.285D-04-0.770D-04-0.784D-04 0.284D-02
 Coeff-Com:  0.170D-02-0.462D-01-0.925D-01 0.113D+01
 Coeff:     -0.458D-06-0.143D-04-0.285D-04-0.770D-04-0.784D-04 0.284D-02
 Coeff:      0.170D-02-0.462D-01-0.925D-01 0.113D+01
 Gap=     0.492 Goal=   None    Shift=    0.000
 RMSDP=3.66D-08 MaxDP=6.24D-07 DE=-2.95D-10 OVMax= 1.99D-06

 Cycle  11  Pass 1  IDiag  1:
 RMSU=  1.03D-08    CP:  9.65D-01  9.35D-01  7.52D-01  1.24D+00  1.31D+00
                    CP:  1.48D+00  1.40D+00  1.27D+00  1.37D+00  1.35D+00
 E= -269.626160748895     Delta-E=       -0.000000000015 Rises=F Damp=F
 DIIS: error= 2.39D-08 at cycle  11 NSaved=  11.
 NSaved=11 IEnMin=11 EnMin= -269.626160748895     IErMin=11 ErrMin= 2.39D-08
 ErrMax= 2.39D-08  0.00D+00 EMaxC= 1.00D-01 BMatC= 1.81D-13 BMatP= 2.30D-12
 IDIUse=1 WtCom= 1.00D+00 WtEn= 0.00D+00
 Coeff-Com:  0.440D-07-0.176D-05-0.728D-05-0.468D-04-0.216D-03 0.122D-02
 Coeff-Com:  0.465D-02-0.160D-01-0.518D-01 0.146D+00 0.917D+00
 Coeff:      0.440D-07-0.176D-05-0.728D-05-0.468D-04-0.216D-03 0.122D-02
 Coeff:      0.465D-02-0.160D-01-0.518D-01 0.146D+00 0.917D+00
 Gap=     0.492 Goal=   None    Shift=    0.000
 RMSDP=7.99D-09 MaxDP=1.59D-07 DE=-1.52D-11 OVMax= 3.33D-07

 Error on total polarization charges =  0.04339
 SCF Done:  E(RwB97XD) =  -269.626160749     A.U. after   11 cycles
            NFock= 11  Conv=0.80D-08     -V/T= 2.0051
 KE= 2.682668338912D+02 PE=-1.025361098384D+03 EE= 2.905741300632D+02
 SMD-CDS (non-electrostatic) energy       (kcal/mol) =       2.64
 (included in total energy above)
 Leave Link  502 at Wed Oct 22 10:10:32 2025, MaxMem=  4294967296 cpu:             393.1 elap:              49.3
 (Enter /lrz/sys/applications/gaussian/g16.C.01/x86_64_legacy/exe/l601.exe)
 Copying SCF densities to generalized density rwf, IOpCl= 0 IROHF=0.

 **********************************************************************

            Population analysis using the SCF Density.

 **********************************************************************

 Orbital symmetries:
       Occupied  (A) (A) (A) (A) (A) (A) (A) (A) (A) (A) (A) (A)
                 (A) (A) (A) (A) (A) (A) (A) (A) (A)
       Virtual   (A) (A) (A) (A) (A) (A) (A) (A) (A) (A) (A) (A)
                 (A) (A) (A) (A) (A) (A) (A) (A) (A) (A) (A) (A)
                 (A) (A) (A) (A) (A) (A) (A) (A) (A) (A) (A) (A)
                 (A) (A) (A) (A) (A) (A) (A) (A) (A) (A) (A) (A)
                 (A) (A) (A) (A) (A) (A) (A) (A) (A) (A) (A) (A)
                 (A) (A) (A) (A) (A) (A) (A) (A) (A) (A) (A) (A)
                 (A) (A) (A) (A) (A) (A) (A) (A) (A) (A) (A) (A)
                 (A) (A) (A) (A) (A) (A) (A) (A) (A) (A) (A) (A)
                 (A) (A) (A) (A) (A) (A) (A) (A) (A) (A) (A) (A)
                 (A) (A) (A) (A) (A) (A) (A) (A) (A) (A) (A) (A)
                 (A) (A) (A) (A) (A) (A) (A) (A) (A) (A) (A) (A)
                 (A) (A) (A) (A) (A) (A) (A) (A) (A) (A) (A) (A)
                 (A) (A) (A) (A) (A) (A) (A) (A) (A) (A) (A) (A)
                 (A) (A) (A) (A) (A) (A) (A) (A) (A) (A) (A) (A)
                 (A) (A) (A) (A) (A) (A) (A) (A) (A) (A) (A) (A)
                 (A) (A)
 The electronic state is 1-A.
 Alpha  occ. eigenvalues --  -19.25547 -19.25547 -10.37774 -10.27714 -10.27192
 Alpha  occ. eigenvalues --   -1.16716  -1.10032  -0.86858  -0.77702  -0.69279
 Alpha  occ. eigenvalues --   -0.61845  -0.58615  -0.54797  -0.53555  -0.47432
 Alpha  occ. eigenvalues --   -0.46348  -0.45081  -0.42408  -0.42347  -0.38080
 Alpha  occ. eigenvalues --   -0.37844
 Alpha virt. eigenvalues --    0.11382   0.14827   0.15731   0.18680   0.19099
 Alpha virt. eigenvalues --    0.19291   0.20412   0.24504   0.24715   0.26694
 Alpha virt. eigenvalues --    0.28081   0.28372   0.33023   0.34704   0.35401
 Alpha virt. eigenvalues --    0.36396   0.39968   0.39999   0.41786   0.44957
 Alpha virt. eigenvalues --    0.46600   0.47859   0.49759   0.50653   0.51354
 Alpha virt. eigenvalues --    0.51682   0.54412   0.55709   0.57741   0.57953
 Alpha virt. eigenvalues --    0.62000   0.62374   0.62835   0.66132   0.67595
 Alpha virt. eigenvalues --    0.69455   0.72378   0.78353   0.81207   0.87857
 Alpha virt. eigenvalues --    0.87963   0.91488   0.92563   0.95415   0.95675
 Alpha virt. eigenvalues --    1.02978   1.07597   1.11357   1.12623   1.17165
 Alpha virt. eigenvalues --    1.20343   1.22465   1.23895   1.29229   1.33966
 Alpha virt. eigenvalues --    1.41334   1.46641   1.49909   1.55385   1.60075
 Alpha virt. eigenvalues --    1.61416   1.63499   1.64844   1.65809   1.66912
 Alpha virt. eigenvalues --    1.68995   1.71466   1.73987   1.78277   1.81428
 Alpha virt. eigenvalues --    1.82900   1.87200   1.92454   1.94184   1.96242
 Alpha virt. eigenvalues --    1.97710   2.02383   2.03296   2.05018   2.09331
 Alpha virt. eigenvalues --    2.16631   2.16760   2.20328   2.23175   2.28452
 Alpha virt. eigenvalues --    2.33393   2.34945   2.38354   2.41174   2.41575
 Alpha virt. eigenvalues --    2.44788   2.46433   2.48241   2.49968   2.55234
 Alpha virt. eigenvalues --    2.56979   2.58252   2.64251   2.65383   2.68028
 Alpha virt. eigenvalues --    2.68993   2.74182   2.74303   2.78565   2.79774
 Alpha virt. eigenvalues --    2.81810   2.87193   2.90386   2.94400   2.99756
 Alpha virt. eigenvalues --    3.01838   3.06646   3.10644   3.16039   3.16504
 Alpha virt. eigenvalues --    3.21323   3.22058   3.23646   3.28211   3.28825
 Alpha virt. eigenvalues --    3.32068   3.32491   3.38126   3.38995   3.44250
 Alpha virt. eigenvalues --    3.45602   3.52768   3.53345   3.53993   3.61280
 Alpha virt. eigenvalues --    3.62440   3.65576   3.69704   3.72643   3.87042
 Alpha virt. eigenvalues --    3.89657   3.99688   3.99925   4.08316   4.08444
 Alpha virt. eigenvalues --    4.12886   4.15607   4.21060   4.35442   4.39327
 Alpha virt. eigenvalues --    4.46913   4.58921   4.60184   4.65358   4.72118
 Alpha virt. eigenvalues --    4.72662   4.88157   4.92044   5.27118   5.35527
 Alpha virt. eigenvalues --    5.40113   5.40993   5.51451   5.52059   5.65188
 Alpha virt. eigenvalues --    5.71347   5.96537   5.99060   6.02921   6.20679
 Alpha virt. eigenvalues --    6.37487   6.37865   6.50860   6.58288   6.79221
 Alpha virt. eigenvalues --    6.79622   6.81124   7.01372   7.05477   7.08006
 Alpha virt. eigenvalues --    7.26379   7.26600  22.39696  22.53600  22.69537
 Alpha virt. eigenvalues --   43.92411  43.96777
          Condensed to atoms (all electrons):
               1          2          3          4          5          6
     1  O    8.123391   0.268060  -0.082340  -0.041099  -0.005472   0.304915
     2  C    0.268060   4.615747   0.268087   0.382161  -0.032914  -0.028116
     3  O   -0.082340   0.268087   8.123360  -0.041100  -0.005476   0.001409
     4  C   -0.041099   0.382161  -0.041100   5.012587   0.269523  -0.016167
     5  C   -0.005472  -0.032914  -0.005476   0.269523   5.009645   0.011231
     6  H    0.304915  -0.028116   0.001409  -0.016167   0.011231   0.351038
     7  H   -0.037047   0.419023  -0.037044  -0.059174   0.011528   0.007943
     8  H    0.001409  -0.028124   0.304917  -0.016165   0.011230   0.002755
     9  H    0.002219  -0.039411   0.005950   0.406850  -0.031947  -0.001101
    10  H    0.005951  -0.039416   0.002219   0.406848  -0.031945   0.000160
    11  H    0.000333   0.006482   0.000333  -0.032307   0.412795   0.000001
    12  H    0.002762  -0.006549   0.000328  -0.031500   0.404477   0.001291
    13  H    0.000326  -0.006537   0.002755  -0.031500   0.404470  -0.000983
               7          8          9         10         11         12
     1  O   -0.037047   0.001409   0.002219   0.005951   0.000333   0.002762
     2  C    0.419023  -0.028124  -0.039411  -0.039416   0.006482  -0.006549
     3  O   -0.037044   0.304917   0.005950   0.002219   0.000333   0.000328
     4  C   -0.059174  -0.016165   0.406850   0.406848  -0.032307  -0.031500
     5  C    0.011528   0.011230  -0.031947  -0.031945   0.412795   0.404477
     6  H    0.007943   0.002755  -0.001101   0.000160   0.000001   0.001291
     7  H    0.572353   0.007943  -0.003241  -0.003240  -0.000129  -0.000281
     8  H    0.007943   0.351042   0.000161  -0.001102   0.000001  -0.000983
     9  H   -0.003241   0.000161   0.565641  -0.023647  -0.004074  -0.004933
    10  H   -0.003240  -0.001102  -0.023647   0.565644  -0.004073   0.006864
    11  H   -0.000129   0.000001  -0.004074  -0.004073   0.512590  -0.019586
    12  H   -0.000281  -0.000983  -0.004933   0.006864  -0.019586   0.545372
    13  H   -0.000281   0.001295   0.006863  -0.004932  -0.019587  -0.027242
              13
     1  O    0.000326
     2  C   -0.006537
     3  O    0.002755
     4  C   -0.031500
     5  C    0.404470
     6  H   -0.000983
     7  H   -0.000281
     8  H    0.001295
     9  H    0.006863
    10  H   -0.004932
    11  H   -0.019587
    12  H   -0.027242
    13  H    0.545381
 Mulliken charges:
               1
     1  O   -0.543410
     2  C    0.221506
     3  O   -0.543398
     4  C   -0.208956
     5  C   -0.427145
     6  H    0.365625
     7  H    0.121646
     8  H    0.365621
     9  H    0.120669
    10  H    0.120668
    11  H    0.147220
    12  H    0.129980
    13  H    0.129973
 Sum of Mulliken charges =  -0.00000
 Mulliken charges with hydrogens summed into heavy atoms:
               1
     1  O   -0.177785
     2  C    0.343152
     3  O   -0.177777
     4  C    0.032381
     5  C   -0.019971
 Electronic spatial extent (au):  <R**2>=            448.9241
 Charge=             -0.0000 electrons
 Dipole moment (field-independent basis, Debye):
    X=              3.8720    Y=             -0.0006    Z=             -1.0879  Tot=              4.0219
 Quadrupole moment (field-independent basis, Debye-Ang):
   XX=            -36.7650   YY=            -34.4895   ZZ=            -27.1826
   XY=             -0.0005   XZ=             -1.1874   YZ=             -0.0001
 Traceless Quadrupole moment (field-independent basis, Debye-Ang):
   XX=             -3.9527   YY=             -1.6771   ZZ=              5.6298
   XY=             -0.0005   XZ=             -1.1874   YZ=             -0.0001
 Octapole moment (field-independent basis, Debye-Ang**2):
  XXX=              3.9969  YYY=             -0.0034  ZZZ=             -5.3465  XYY=              6.0595
  XXY=              0.0004  XXZ=              3.8096  XZZ=             -4.1741  YZZ=              0.0008
  YYZ=             -6.1639  XYZ=              0.0008
 Hexadecapole moment (field-independent basis, Debye-Ang**3):
 XXXX=           -317.9316 YYYY=           -154.1292 ZZZZ=           -100.3447 XXXY=             -0.0013
 XXXZ=             -1.0446 YYYX=              0.0002 YYYZ=              0.0015 ZZZX=              2.4980
 ZZZY=             -0.0010 XXYY=            -88.9830 XXZZ=            -69.9285 YYZZ=            -32.6801
 XXYZ=             -0.0007 YYXZ=              1.7823 ZZXY=             -0.0014
 N-N= 1.968939736804D+02 E-N=-1.025361097663D+03  KE= 2.682668338912D+02
 No NMR shielding tensors so no spin-rotation constants.
 Leave Link  601 at Wed Oct 22 10:10:32 2025, MaxMem=  4294967296 cpu:               1.1 elap:               0.2
 (Enter /lrz/sys/applications/gaussian/g16.C.01/x86_64_legacy/exe/l9999.exe)
 Unable to Open any file for archive entry.
 1\1\GINC-CM4R15C05S03\SP\RwB97XD\def2TZVP\C3H8O2\GO29TIZ2\22-Oct-2025\
 0\\#p wb97xd scrf=(smd,solvent=water) def2tzvp\\g16_g16_C2-w_5\\0,1\O,
 0,-1.067483,1.163879,-0.263241\C,0,-0.676251,-0.000002,0.423203\O,0,-1
 .067524,-1.163842,-0.263285\C,0,0.813218,-0.000028,0.760332\C,0,1.7404
 53,0.000017,-0.450861\H,0,-0.465224,1.299954,-1.006536\H,0,-1.2636,0.0
 00006,1.353049\H,0,-0.465008,-1.30018,-1.006322\H,0,1.013188,0.884368,
 1.384827\H,0,1.013164,-0.884473,1.384763\H,0,2.791398,-0.000059,-0.128
 36\H,0,1.595847,0.891105,-1.08255\H,0,1.595778,-0.890946,-1.082712\\Ve
 rsion=EM64L-G16RevC.01\State=1-A\HF=-269.6261607\RMSD=7.994e-09\Dipole
 =1.523354,-0.0002338,-0.427996\Quadrupole=-2.9387079,-1.2468997,4.1856
 076,-0.0003421,-0.8827898,-0.0000851\PG=C01 [X(C3H8O2)]\\@
 The archive entry for this job was punched.


 EVERYTHING'S GOT A MORAL, IF ONLY YOU CAN FIND IT.

                                    -- LEWIS CARROL, ALICE IN WONDERLAND
 Job cpu time:       0 days  0 hours  6 minutes 53.8 seconds.
 Elapsed time:       0 days  0 hours  0 minutes 52.1 seconds.
 File lengths (MBytes):  RWF=    272 Int=      0 D2E=      0 Chk=      8 Scr=     32
 Normal termination of Gaussian 16 at Wed Oct 22 10:10:32 2025.
