 Entering Gaussian System, Link 0=g16
 Input=../../g16_g16_C17-a_50.com
 Output=../../g16_g16_C17-a_50.log
 Initial command:
 /lrz/sys/applications/gaussian/g16.C.01/x86_64_legacy/exe/l1.exe "/dss/lxclscratch/0D/go29tiz2/Gau-5805.inp" -scrdir="/dss/lxclscratch/0D/go29tiz2/"
 Entering Link 1 = /lrz/sys/applications/gaussian/g16.C.01/x86_64_legacy/exe/l1.exe PID=      5806.
  
 Copyright (c) 1988-2019, Gaussian, Inc.  All Rights Reserved.
  
 This is part of the Gaussian(R) 16 program.  It is based on
 the Gaussian(R) 09 system (copyright 2009, Gaussian, Inc.),
 the Gaussian(R) 03 system (copyright 2003, Gaussian, Inc.),
 the Gaussian(R) 98 system (copyright 1998, Gaussian, Inc.),
 the Gaussian(R) 94 system (copyright 1995, Gaussian, Inc.),
 the Gaussian 92(TM) system (copyright 1992, Gaussian, Inc.),
 the Gaussian 90(TM) system (copyright 1990, Gaussian, Inc.),
 the Gaussian 88(TM) system (copyright 1988, Gaussian, Inc.),
 the Gaussian 86(TM) system (copyright 1986, Carnegie Mellon
 University), and the Gaussian 82(TM) system (copyright 1983,
 Carnegie Mellon University). Gaussian is a federally registered
 trademark of Gaussian, Inc.
  
 This software contains proprietary and confidential information,
 including trade secrets, belonging to Gaussian, Inc.
  
 This software is provided under written license and may be
 used, copied, transmitted, or stored only in accord with that
 written license.
  
 The following legend is applicable only to US Government
 contracts under FAR:
  
                    RESTRICTED RIGHTS LEGEND
  
 Use, reproduction and disclosure by the US Government is
 subject to restrictions as set forth in subparagraphs (a)
 and (c) of the Commercial Computer Software - Restricted
 Rights clause in FAR 52.227-19.
  
 Gaussian, Inc.
 340 Quinnipiac St., Bldg. 40, Wallingford CT 06492
  
  
 ---------------------------------------------------------------
 Warning -- This program may not be used in any manner that
 competes with the business of Gaussian, Inc. or will provide
 assistance to any competitor of Gaussian, Inc.  The licensee
 of this program is prohibited from giving any competitor of
 Gaussian, Inc. access to this program.  By using this program,
 the user acknowledges that Gaussian, Inc. is engaged in the
 business of creating and licensing software in the field of
 computational chemistry and represents and warrants to the
 licensee that it is not a competitor of Gaussian, Inc. and that
 it will not use this program in any manner prohibited above.
 ---------------------------------------------------------------
  

 Cite this work as:
 Gaussian 16, Revision C.01,
 M. J. Frisch, G. W. Trucks, H. B. Schlegel, G. E. Scuseria, 
 M. A. Robb, J. R. Cheeseman, G. Scalmani, V. Barone, 
 G. A. Petersson, H. Nakatsuji, X. Li, M. Caricato, A. V. Marenich, 
 J. Bloino, B. G. Janesko, R. Gomperts, B. Mennucci, H. P. Hratchian, 
 J. V. Ortiz, A. F. Izmaylov, J. L. Sonnenberg, D. Williams-Young, 
 F. Ding, F. Lipparini, F. Egidi, J. Goings, B. Peng, A. Petrone, 
 T. Henderson, D. Ranasinghe, V. G. Zakrzewski, J. Gao, N. Rega, 
 G. Zheng, W. Liang, M. Hada, M. Ehara, K. Toyota, R. Fukuda, 
 J. Hasegawa, M. Ishida, T. Nakajima, Y. Honda, O. Kitao, H. Nakai, 
 T. Vreven, K. Throssell, J. A. Montgomery, Jr., J. E. Peralta, 
 F. Ogliaro, M. J. Bearpark, J. J. Heyd, E. N. Brothers, K. N. Kudin, 
 V. N. Staroverov, T. A. Keith, R. Kobayashi, J. Normand, 
 K. Raghavachari, A. P. Rendell, J. C. Burant, S. S. Iyengar, 
 J. Tomasi, M. Cossi, J. M. Millam, M. Klene, C. Adamo, R. Cammi, 
 J. W. Ochterski, R. L. Martin, K. Morokuma, O. Farkas, 
 J. B. Foresman, and D. J. Fox, Gaussian, Inc., Wallingford CT, 2019.
 
 ******************************************
 Gaussian 16:  EM64L-G16RevC.01  3-Jul-2019
                22-Oct-2025 
 ******************************************
 %chk=g16_g16_C17-a_50.chk
 %nprocshared=8
 Will use up to    8 processors via shared memory.
 %mem=32GB
 -------------------------------------------
 #p wb97xd scrf=(smd,solvent=water) def2tzvp
 -------------------------------------------
 1/38=1,172=1/1;
 2/12=2,17=6,18=5,40=1/2;
 3/5=44,7=101,11=2,25=1,30=1,70=32201,72=1,74=-58/1,2,3;
 4//1;
 5/5=2,38=5,53=1/2;
 6/7=2,8=2,9=2,10=2,28=1/1;
 99/5=1,9=1/99;
 Leave Link    1 at Wed Oct 22 13:41:45 2025, MaxMem=  4294967296 cpu:               4.1 elap:               0.6
 (Enter /lrz/sys/applications/gaussian/g16.C.01/x86_64_legacy/exe/l101.exe)
 ----------------
 g16_g16_C17-a_50
 ----------------
 Symbolic Z-matrix:
 Charge =  0 Multiplicity = 1
 O                    -1.56533  -1.23467  -0.22537 
 C                    -1.2174   -0.02374   0.41479 
 N                    -1.70796   1.11263  -0.34619 
 C                     0.27796   0.01355   0.75079 
 C                     1.22064  -0.02235  -0.4502 
 C                     2.68825   0.04014  -0.04536 
 H                    -1.06922  -1.29156  -1.05152 
 H                    -1.7723   -0.0339    1.36535 
 H                    -1.0795    1.28803  -1.13219 
 H                    -1.642     1.94493   0.2396 
 H                     0.50163  -0.83859   1.41497 
 H                     0.46847   0.92805   1.33835 
 H                     0.99497   0.81941  -1.12694 
 H                     1.04498  -0.94376  -1.03201 
 H                     3.35013   0.00902  -0.92408 
 H                     2.90775   0.9677    0.50735 
 H                     2.95678  -0.806     0.60722 
 
 ITRead=  0  0  0  0  0  0  0  0  0  0  0  0  0  0  0  0  0
 MicOpt= -1 -1 -1 -1 -1 -1 -1 -1 -1 -1 -1 -1 -1 -1 -1 -1 -1
 NAtoms=     17 NQM=       17 NQMF=       0 NMMI=      0 NMMIF=      0
                NMic=       0 NMicF=      0.
                    Isotopes and Nuclear Properties:
 (Nuclear quadrupole moments (NQMom) in fm**2, nuclear magnetic moments (NMagM)
  in nuclear magnetons)

  Atom         1           2           3           4           5           6           7           8           9          10
 IAtWgt=          16          12          14          12          12          12           1           1           1           1
 AtmWgt=  15.9949146  12.0000000  14.0030740  12.0000000  12.0000000  12.0000000   1.0078250   1.0078250   1.0078250   1.0078250
 NucSpn=           0           0           2           0           0           0           1           1           1           1
 AtZEff=  -0.0000000  -0.0000000  -0.0000000  -0.0000000  -0.0000000  -0.0000000  -0.0000000  -0.0000000  -0.0000000  -0.0000000
 NQMom=    0.0000000   0.0000000   2.0440000   0.0000000   0.0000000   0.0000000   0.0000000   0.0000000   0.0000000   0.0000000
 NMagM=    0.0000000   0.0000000   0.4037610   0.0000000   0.0000000   0.0000000   2.7928460   2.7928460   2.7928460   2.7928460
 AtZNuc=   8.0000000   6.0000000   7.0000000   6.0000000   6.0000000   6.0000000   1.0000000   1.0000000   1.0000000   1.0000000

  Atom        11          12          13          14          15          16          17
 IAtWgt=           1           1           1           1           1           1           1
 AtmWgt=   1.0078250   1.0078250   1.0078250   1.0078250   1.0078250   1.0078250   1.0078250
 NucSpn=           1           1           1           1           1           1           1
 AtZEff=  -0.0000000  -0.0000000  -0.0000000  -0.0000000  -0.0000000  -0.0000000  -0.0000000
 NQMom=    0.0000000   0.0000000   0.0000000   0.0000000   0.0000000   0.0000000   0.0000000
 NMagM=    2.7928460   2.7928460   2.7928460   2.7928460   2.7928460   2.7928460   2.7928460
 AtZNuc=   1.0000000   1.0000000   1.0000000   1.0000000   1.0000000   1.0000000   1.0000000
 Leave Link  101 at Wed Oct 22 13:41:45 2025, MaxMem=  4294967296 cpu:               1.2 elap:               0.2
 (Enter /lrz/sys/applications/gaussian/g16.C.01/x86_64_legacy/exe/l202.exe)
                          Input orientation:                          
 ---------------------------------------------------------------------
 Center     Atomic      Atomic             Coordinates (Angstroms)
 Number     Number       Type             X           Y           Z
 ---------------------------------------------------------------------
      1          8           0       -1.565333   -1.234667   -0.225373
      2          6           0       -1.217402   -0.023742    0.414790
      3          7           0       -1.707960    1.112627   -0.346185
      4          6           0        0.277964    0.013549    0.750793
      5          6           0        1.220637   -0.022347   -0.450197
      6          6           0        2.688248    0.040144   -0.045355
      7          1           0       -1.069217   -1.291557   -1.051517
      8          1           0       -1.772300   -0.033902    1.365346
      9          1           0       -1.079495    1.288028   -1.132187
     10          1           0       -1.642002    1.944933    0.239599
     11          1           0        0.501630   -0.838590    1.414966
     12          1           0        0.468471    0.928053    1.338347
     13          1           0        0.994973    0.819411   -1.126938
     14          1           0        1.044976   -0.943762   -1.032010
     15          1           0        3.350131    0.009018   -0.924078
     16          1           0        2.907748    0.967695    0.507347
     17          1           0        2.956783   -0.806001    0.607220
 ---------------------------------------------------------------------
                    Distance matrix (angstroms):
                    1          2          3          4          5
     1  O    0.000000
     2  C    1.413225   0.000000
     3  N    2.354724   1.452950   0.000000
     4  C    2.430779   1.533104   2.520958   0.000000
     5  C    3.046620   2.586936   3.142557   1.527186   0.000000
     6  C    4.444154   3.933182   4.535125   2.538509   1.523707
     7  H    0.965340   1.944060   2.585650   2.601253   2.686245
     8  H    2.003761   1.100714   2.061069   2.140913   3.500572
     9  H    2.724397   2.032953   1.021535   2.648132   2.733642
    10  H    3.214332   2.021548   1.019915   2.770890   3.541287
    11  H    2.668319   2.149279   3.433830   1.103310   2.159180
    12  H    3.355434   2.145003   2.758363   1.103553   2.160533
    13  H    3.404001   2.825320   2.828674   2.165500   1.103385
    14  H    2.747545   2.838665   3.503962   2.164056   1.103797
    15  H    5.118274   4.759832   5.209242   3.499060   2.181809
    16  H    5.039418   4.243628   4.696199   2.808100   2.177939
    17  H    4.618062   4.251209   5.133219   2.805057   2.178634
                    6          7          8          9         10
     6  C    0.000000
     7  H    4.111488   0.000000
     8  H    4.678894   2.813761   0.000000
     9  H    4.115131   2.580867   2.909493   0.000000
    10  H    4.739249   3.531279   2.280367   1.621646   0.000000
    11  H    2.772365   2.959101   2.412622   3.675656   3.704679
    12  H    2.762322   3.605912   2.438676   2.937570   2.587545
    13  H    2.155054   2.953431   3.820657   2.126746   3.176139
    14  H    2.154507   2.142698   3.809489   3.082904   4.145045
    15  H    1.100551   4.608511   5.610936   4.615275   5.479352
    16  H    1.101821   4.832238   4.862325   4.323054   4.661213
    17  H    1.101783   4.381307   4.851301   4.868474   5.371369
                   11         12         13         14         15
    11  H    0.000000
    12  H    1.768615   0.000000
    13  H    3.074676   2.523220   0.000000
    14  H    2.508780   3.074840   1.766434   0.000000
    15  H    3.782000   3.777189   2.498931   2.496633   0.000000
    16  H    3.142585   2.577248   2.520235   3.081105   1.778691
    17  H    2.584820   3.119806   3.081877   2.522114   1.778722
                   16         17
    16  H    0.000000
    17  H    1.777182   0.000000
 Stoichiometry    C4H11NO
 Framework group  C1[X(C4H11NO)]
 Deg. of freedom    45
 Full point group                 C1      NOp   1
 Largest Abelian subgroup         C1      NOp   1
 Largest concise Abelian subgroup C1      NOp   1
                         Standard orientation:                         
 ---------------------------------------------------------------------
 Center     Atomic      Atomic             Coordinates (Angstroms)
 Number     Number       Type             X           Y           Z
 ---------------------------------------------------------------------
      1          8           0       -1.565333   -1.234667   -0.225373
      2          6           0       -1.217402   -0.023742    0.414790
      3          7           0       -1.707960    1.112627   -0.346185
      4          6           0        0.277964    0.013549    0.750793
      5          6           0        1.220637   -0.022347   -0.450197
      6          6           0        2.688248    0.040144   -0.045355
      7          1           0       -1.069217   -1.291557   -1.051517
      8          1           0       -1.772300   -0.033902    1.365346
      9          1           0       -1.079495    1.288028   -1.132187
     10          1           0       -1.642002    1.944933    0.239599
     11          1           0        0.501630   -0.838590    1.414966
     12          1           0        0.468471    0.928053    1.338347
     13          1           0        0.994973    0.819411   -1.126938
     14          1           0        1.044976   -0.943762   -1.032010
     15          1           0        3.350131    0.009018   -0.924078
     16          1           0        2.907748    0.967695    0.507347
     17          1           0        2.956783   -0.806001    0.607220
 ---------------------------------------------------------------------
 Rotational constants (GHZ):           6.3676940           1.8850046           1.7078038
 Leave Link  202 at Wed Oct 22 13:41:45 2025, MaxMem=  4294967296 cpu:               0.1 elap:               0.0
 (Enter /lrz/sys/applications/gaussian/g16.C.01/x86_64_legacy/exe/l301.exe)
 Standard basis: def2TZVP (5D, 7F)
 Ernie: Thresh=  0.10000D-02 Tol=  0.10000D-05 Strict=F.
 There are   282 symmetry adapted cartesian basis functions of A   symmetry.
 There are   252 symmetry adapted basis functions of A   symmetry.
   252 basis functions,   394 primitive gaussians,   282 cartesian basis functions
    25 alpha electrons       25 beta electrons
       nuclear repulsion energy       259.1760154153 Hartrees.
 IExCor= 4639 DFT=T Ex+Corr=wB97XD ExCW=0 ScaHFX=  1.000000
 ScaDFX=  1.000000  1.000000  1.000000  1.000000 ScalE2=  1.000000  1.000000
 IRadAn=      5 IRanWt=     -1 IRanGd=            0 ICorTp=0 IEmpDi=121
 HFx  wShort=  0.000000 wLong=  0.200000 cFull=  0.222036 cShort=  0.000000 cLong=  0.777964
 DFx  wShort=  0.000000 wLong=  0.200000 cFull=  0.000000 cShort=  0.000000 cLong=  1.000000
 NAtoms=   17 NActive=   17 NUniq=   17 SFac= 1.00D+00 NAtFMM=   60 NAOKFM=F Big=F
 Integral buffers will be    131072 words long.
 Raffenetti 2 integral format.
 Two-electron integral symmetry is turned on.
 R6Disp:  Grimme-D2 Dispersion energy=       -0.0095290040 Hartrees.
 Nuclear repulsion after empirical dispersion term =      259.1664864113 Hartrees.
 ------------------------------------------------------------------------------
 Polarizable Continuum Model (PCM)
 =================================
 Model                : PCM.
 Atomic radii         : SMD-Coulomb.
 Polarization charges : Total charges.
 Charge compensation  : None.
 Solution method      : On-the-fly selection.
 Cavity type          : VdW (van der Waals Surface) (Alpha=1.000).
 Cavity algorithm     : GePol (No added spheres)
                        Default sphere list used, NSphG=   17.
                        Lebedev-Laikov grids with approx.  5.0 points / Ang**2.
                        Smoothing algorithm: York/Karplus (Gamma=1.0000).
                        Polarization charges: spherical gaussians, with
                                              point-specific exponents (IZeta= 3).
                        Self-potential: point-specific (ISelfS= 7).
                        Self-field    : sphere-specific E.n sum rule (ISelfD= 2).
 Solvent              : Water, Eps=  78.355300 Eps(inf)=   1.777849
 ------------------------------------------------------------------------------
 Spheres list:
 ISph  on   Nord     Re0    Alpha      Xe            Ye            Ze
    1   O      1    1.5200  1.000     -1.565333     -1.234667     -0.225373
    2   C      2    1.8500  1.000     -1.217402     -0.023742      0.414790
    3   N      3    1.8900  1.000     -1.707960      1.112627     -0.346185
    4   C      4    1.8500  1.000      0.277964      0.013549      0.750793
    5   C      5    1.8500  1.000      1.220637     -0.022347     -0.450197
    6   C      6    1.8500  1.000      2.688248      0.040144     -0.045355
    7   H      7    1.2000  1.000     -1.069217     -1.291557     -1.051517
    8   H      8    1.2000  1.000     -1.772300     -0.033902      1.365346
    9   H      9    1.2000  1.000     -1.079495      1.288028     -1.132187
   10   H     10    1.2000  1.000     -1.642002      1.944933      0.239599
   11   H     11    1.2000  1.000      0.501630     -0.838590      1.414966
   12   H     12    1.2000  1.000      0.468471      0.928053      1.338347
   13   H     13    1.2000  1.000      0.994973      0.819411     -1.126938
   14   H     14    1.2000  1.000      1.044976     -0.943762     -1.032010
   15   H     15    1.2000  1.000      3.350131      0.009018     -0.924078
   16   H     16    1.2000  1.000      2.907748      0.967695      0.507347
   17   H     17    1.2000  1.000      2.956783     -0.806001      0.607220
 ------------------------------------------------------------------------------
 GePol: Number of generator spheres                  =      17
 GePol: Total number of spheres                      =      17
 GePol: Number of exposed spheres                    =      17 (100.00%)
 GePol: Number of points                             =    1191
 GePol: Average weight of points                     =       0.11
 GePol: Minimum weight of points                     =   0.45D-09
 GePol: Maximum weight of points                     =    0.21991
 GePol: Number of points with low weight             =      57
 GePol: Fraction of low-weight points (<1% of avg)   =       4.79%
 GePol: Cavity surface area                          =    136.421 Ang**2
 GePol: Cavity volume                                =    108.200 Ang**3
 ------------------------------------------------------------------------------
 Atomic radii for non-electrostatic terms: SMD-CDS.
 ------------------------------------------------------------------------------
 PCM non-electrostatic energy =         0.0027271554 Hartrees.
 Nuclear repulsion after PCM non-electrostatic terms =      259.1692135667 Hartrees.
 Leave Link  301 at Wed Oct 22 13:41:45 2025, MaxMem=  4294967296 cpu:               0.6 elap:               0.1
 (Enter /lrz/sys/applications/gaussian/g16.C.01/x86_64_legacy/exe/l302.exe)
 NPDir=0 NMtPBC=     1 NCelOv=     1 NCel=       1 NClECP=     1 NCelD=      1
         NCelK=      1 NCelE2=     1 NClLst=     1 CellRange=     0.0.
 One-electron integrals computed using PRISM.
 One-electron integral symmetry used in STVInt
   1 Symmetry operations used in ECPInt.
 ECPInt:  NShTT=    6105 NPrTT=   17556 LenC2=    6011 LenP2D=   14257.
 LDataN:  DoStor=T MaxTD1= 6 Len=  172
 NBasis=   252 RedAO= T EigKep=  1.75D-04  NBF=   252
 NBsUse=   252 1.00D-06 EigRej= -1.00D+00 NBFU=   252
 Precomputing XC quadrature grid using
 IXCGrd= 4 IRadAn=           5 IRanWt=          -1 IRanGd=           0 AccXCQ= 0.00D+00.
 Generated NRdTot=       0 NPtTot=           0 NUsed=           0 NTot=          32
 NSgBfM=   281   281   281   281   281 MxSgAt=    17 MxSgA2=    17.
 Leave Link  302 at Wed Oct 22 13:41:46 2025, MaxMem=  4294967296 cpu:               2.3 elap:               0.3
 (Enter /lrz/sys/applications/gaussian/g16.C.01/x86_64_legacy/exe/l303.exe)
 DipDrv:  MaxL=1.
 Leave Link  303 at Wed Oct 22 13:41:46 2025, MaxMem=  4294967296 cpu:               0.3 elap:               0.1
 (Enter /lrz/sys/applications/gaussian/g16.C.01/x86_64_legacy/exe/l401.exe)
 ExpMin= 9.52D-02 ExpMax= 2.70D+04 ExpMxC= 9.22D+02 IAcc=3 IRadAn=         5 AccDes= 0.00D+00
 Harris functional with IExCor= 4639 and IRadAn=       5 diagonalized for initial guess.
 HarFok:  IExCor= 4639 AccDes= 0.00D+00 IRadAn=         5 IDoV= 1 UseB2=F ITyADJ=14
 ICtDFT=  3500011 ScaDFX=  1.000000  1.000000  1.000000  1.000000
 FoFCou: FMM=F IPFlag=           0 FMFlag=      100000 FMFlg1=           0
         NFxFlg=           0 DoJE=T BraDBF=F KetDBF=T FulRan=T
         wScrn=  0.000000 ICntrl=       500 IOpCl=  0 I1Cent=   200000004 NGrid=           0
         NMat0=    1 NMatS0=      1 NMatT0=    0 NMatD0=    1 NMtDS0=    0 NMtDT0=    0
 Petite list used in FoFCou.
 Harris En= -276.197054824631    
 JPrj=0 DoOrth=F DoCkMO=F.
 Leave Link  401 at Wed Oct 22 13:41:48 2025, MaxMem=  4294967296 cpu:              17.4 elap:               2.2
 (Enter /lrz/sys/applications/gaussian/g16.C.01/x86_64_legacy/exe/l502.exe)
 Integral symmetry usage will be decided dynamically.
 Closed shell SCF:
 Using DIIS extrapolation, IDIIS=  1040.
 NGot=  4294967296 LenX=  4294802854 LenY=  4294722889
 Requested convergence on RMS density matrix=1.00D-08 within 128 cycles.
 Requested convergence on MAX density matrix=1.00D-06.
 Requested convergence on             energy=1.00D-06.
 No special actions if energy rises.
 Fock matrices will be formed incrementally for  20 cycles.

 Cycle   1  Pass 1  IDiag  1:
 FoFJK:  IHMeth= 1 ICntrl=       0 DoSepK=T KAlg= 0 I1Cent=           0 FoldK=F
 IRaf=         1 NMat=       1 IRICut=       1 DoRegI=T DoRafI=F ISym2E= 0 IDoP0=0 IntGTp=1.
 FoFCou: FMM=F IPFlag=           0 FMFlag=      100000 FMFlg1=           0
         NFxFlg=           0 DoJE=T BraDBF=F KetDBF=F FulRan=T
         wScrn=  0.000000 ICntrl=       500 IOpCl=  0 I1Cent=           0 NGrid=           0
         NMat0=    1 NMatS0=      1 NMatT0=    0 NMatD0=    1 NMtDS0=    0 NMtDT0=    0
 Symmetry not used in FoFCou.
 Inv3:  Mode=1 IEnd=     4255443.
 Iteration    1 A*A^-1 deviation from unit magnitude is 5.33D-15 for    666.
 Iteration    1 A*A^-1 deviation from orthogonality  is 3.94D-15 for   1000    304.
 Iteration    1 A^-1*A deviation from unit magnitude is 5.77D-15 for     91.
 Iteration    1 A^-1*A deviation from orthogonality  is 5.66D-15 for    769    767.
 E= -288.986498696039    
 DIIS: error= 4.42D-02 at cycle   1 NSaved=   1.
 NSaved= 1 IEnMin= 1 EnMin= -288.986498696039     IErMin= 1 ErrMin= 4.42D-02
 ErrMax= 4.42D-02  0.00D+00 EMaxC= 1.00D-01 BMatC= 6.10D-01 BMatP= 6.10D-01
 IDIUse=3 WtCom= 5.58D-01 WtEn= 4.42D-01
 Coeff-Com:  0.100D+01
 Coeff-En:   0.100D+01
 Coeff:      0.100D+01
 Gap=     0.459 Goal=   None    Shift=    0.000
 GapD=    0.459 DampG=2.000 DampE=0.500 DampFc=1.0000 IDamp=-1.
 RMSDP=1.62D-03 MaxDP=4.92D-02              OVMax= 5.70D-02

 Cycle   2  Pass 1  IDiag  1:
 RMSU=  1.57D-03    CP:  9.63D-01
 E= -289.041154620964     Delta-E=       -0.054655924926 Rises=F Damp=F
 DIIS: error= 6.60D-03 at cycle   2 NSaved=   2.
 NSaved= 2 IEnMin= 2 EnMin= -289.041154620964     IErMin= 2 ErrMin= 6.60D-03
 ErrMax= 6.60D-03  0.00D+00 EMaxC= 1.00D-01 BMatC= 3.19D-02 BMatP= 6.10D-01
 IDIUse=3 WtCom= 9.34D-01 WtEn= 6.60D-02
 Coeff-Com:  0.119D+00 0.881D+00
 Coeff-En:   0.000D+00 0.100D+01
 Coeff:      0.111D+00 0.889D+00
 Gap=     0.457 Goal=   None    Shift=    0.000
 RMSDP=6.70D-04 MaxDP=2.97D-02 DE=-5.47D-02 OVMax= 4.54D-02

 Cycle   3  Pass 1  IDiag  1:
 RMSU=  5.73D-04    CP:  9.68D-01  7.82D-01
 E= -289.050649376616     Delta-E=       -0.009494755651 Rises=F Damp=F
 DIIS: error= 5.48D-03 at cycle   3 NSaved=   3.
 NSaved= 3 IEnMin= 3 EnMin= -289.050649376616     IErMin= 3 ErrMin= 5.48D-03
 ErrMax= 5.48D-03  0.00D+00 EMaxC= 1.00D-01 BMatC= 1.91D-02 BMatP= 3.19D-02
 IDIUse=3 WtCom= 9.45D-01 WtEn= 5.48D-02
 Coeff-Com:  0.240D-01 0.444D+00 0.532D+00
 Coeff-En:   0.000D+00 0.363D+00 0.637D+00
 Coeff:      0.226D-01 0.439D+00 0.538D+00
 Gap=     0.455 Goal=   None    Shift=    0.000
 RMSDP=3.46D-04 MaxDP=1.50D-02 DE=-9.49D-03 OVMax= 2.55D-02

 Cycle   4  Pass 1  IDiag  1:
 RMSU=  1.40D-04    CP:  9.63D-01  9.36D-01  6.58D-01
 E= -289.064042292206     Delta-E=       -0.013392915590 Rises=F Damp=F
 DIIS: error= 5.74D-04 at cycle   4 NSaved=   4.
 NSaved= 4 IEnMin= 4 EnMin= -289.064042292206     IErMin= 4 ErrMin= 5.74D-04
 ErrMax= 5.74D-04  0.00D+00 EMaxC= 1.00D-01 BMatC= 2.00D-04 BMatP= 1.91D-02
 IDIUse=3 WtCom= 9.94D-01 WtEn= 5.74D-03
 Coeff-Com:  0.870D-02 0.164D+00 0.220D+00 0.607D+00
 Coeff-En:   0.000D+00 0.000D+00 0.000D+00 0.100D+01
 Coeff:      0.865D-02 0.163D+00 0.219D+00 0.609D+00
 Gap=     0.448 Goal=   None    Shift=    0.000
 RMSDP=3.96D-05 MaxDP=1.49D-03 DE=-1.34D-02 OVMax= 2.21D-03

 Cycle   5  Pass 1  IDiag  1:
 RMSU=  3.53D-05    CP:  9.62D-01  9.44D-01  6.80D-01  9.93D-01
 E= -289.064183240075     Delta-E=       -0.000140947869 Rises=F Damp=F
 DIIS: error= 1.23D-04 at cycle   5 NSaved=   5.
 NSaved= 5 IEnMin= 5 EnMin= -289.064183240075     IErMin= 5 ErrMin= 1.23D-04
 ErrMax= 1.23D-04  0.00D+00 EMaxC= 1.00D-01 BMatC= 9.11D-06 BMatP= 2.00D-04
 IDIUse=3 WtCom= 9.99D-01 WtEn= 1.23D-03
 Coeff-Com: -0.196D-02-0.340D-01-0.331D-01 0.122D+00 0.947D+00
 Coeff-En:   0.000D+00 0.000D+00 0.000D+00 0.000D+00 0.100D+01
 Coeff:     -0.196D-02-0.339D-01-0.330D-01 0.121D+00 0.948D+00
 Gap=     0.448 Goal=   None    Shift=    0.000
 RMSDP=3.29D-05 MaxDP=1.05D-03 DE=-1.41D-04 OVMax= 8.86D-04

 Cycle   6  Pass 1  IDiag  1:
 RMSU=  1.16D-05    CP:  9.62D-01  9.53D-01  7.01D-01  1.15D+00  1.21D+00
 E= -289.064194880235     Delta-E=       -0.000011640160 Rises=F Damp=F
 DIIS: error= 1.98D-05 at cycle   6 NSaved=   6.
 NSaved= 6 IEnMin= 6 EnMin= -289.064194880235     IErMin= 6 ErrMin= 1.98D-05
 ErrMax= 1.98D-05  0.00D+00 EMaxC= 1.00D-01 BMatC= 3.04D-07 BMatP= 9.11D-06
 IDIUse=1 WtCom= 1.00D+00 WtEn= 0.00D+00
 Coeff-Com: -0.675D-03-0.113D-01-0.129D-01 0.484D-02 0.154D+00 0.866D+00
 Coeff:     -0.675D-03-0.113D-01-0.129D-01 0.484D-02 0.154D+00 0.866D+00
 Gap=     0.448 Goal=   None    Shift=    0.000
 RMSDP=7.85D-06 MaxDP=2.26D-04 DE=-1.16D-05 OVMax= 2.95D-04

 Cycle   7  Pass 1  IDiag  1:
 RMSU=  2.78D-06    CP:  9.62D-01  9.55D-01  7.05D-01  1.18D+00  1.31D+00
                    CP:  1.21D+00
 E= -289.064195324130     Delta-E=       -0.000000443895 Rises=F Damp=F
 DIIS: error= 1.05D-05 at cycle   7 NSaved=   7.
 NSaved= 7 IEnMin= 7 EnMin= -289.064195324130     IErMin= 7 ErrMin= 1.05D-05
 ErrMax= 1.05D-05  0.00D+00 EMaxC= 1.00D-01 BMatC= 7.55D-08 BMatP= 3.04D-07
 IDIUse=1 WtCom= 1.00D+00 WtEn= 0.00D+00
 Coeff-Com: -0.198D-04-0.656D-03-0.142D-02-0.110D-01-0.511D-01 0.308D+00
 Coeff-Com:  0.756D+00
 Coeff:     -0.198D-04-0.656D-03-0.142D-02-0.110D-01-0.511D-01 0.308D+00
 Coeff:      0.756D+00
 Gap=     0.448 Goal=   None    Shift=    0.000
 RMSDP=3.11D-06 MaxDP=9.55D-05 DE=-4.44D-07 OVMax= 1.27D-04

 Cycle   8  Pass 1  IDiag  1:
 RMSU=  1.06D-06    CP:  9.62D-01  9.56D-01  7.06D-01  1.20D+00  1.34D+00
                    CP:  1.38D+00  1.19D+00
 E= -289.064195416189     Delta-E=       -0.000000092059 Rises=F Damp=F
 DIIS: error= 2.60D-06 at cycle   8 NSaved=   8.
 NSaved= 8 IEnMin= 8 EnMin= -289.064195416189     IErMin= 8 ErrMin= 2.60D-06
 ErrMax= 2.60D-06  0.00D+00 EMaxC= 1.00D-01 BMatC= 4.44D-09 BMatP= 7.55D-08
 IDIUse=1 WtCom= 1.00D+00 WtEn= 0.00D+00
 Coeff-Com:  0.510D-04 0.854D-03 0.894D-03-0.217D-02-0.225D-01-0.201D-01
 Coeff-Com:  0.152D+00 0.891D+00
 Coeff:      0.510D-04 0.854D-03 0.894D-03-0.217D-02-0.225D-01-0.201D-01
 Coeff:      0.152D+00 0.891D+00
 Gap=     0.448 Goal=   None    Shift=    0.000
 RMSDP=1.06D-06 MaxDP=2.73D-05 DE=-9.21D-08 OVMax= 5.35D-05

 Cycle   9  Pass 1  IDiag  1:
 RMSU=  2.76D-07    CP:  9.62D-01  9.56D-01  7.06D-01  1.20D+00  1.35D+00
                    CP:  1.44D+00  1.36D+00  1.24D+00
 E= -289.064195424244     Delta-E=       -0.000000008054 Rises=F Damp=F
 DIIS: error= 1.10D-06 at cycle   9 NSaved=   9.
 NSaved= 9 IEnMin= 9 EnMin= -289.064195424244     IErMin= 9 ErrMin= 1.10D-06
 ErrMax= 1.10D-06  0.00D+00 EMaxC= 1.00D-01 BMatC= 6.89D-10 BMatP= 4.44D-09
 IDIUse=1 WtCom= 1.00D+00 WtEn= 0.00D+00
 Coeff-Com:  0.158D-04 0.317D-03 0.416D-03 0.385D-03-0.141D-02-0.370D-01
 Coeff-Com: -0.351D-01 0.268D+00 0.804D+00
 Coeff:      0.158D-04 0.317D-03 0.416D-03 0.385D-03-0.141D-02-0.370D-01
 Coeff:     -0.351D-01 0.268D+00 0.804D+00
 Gap=     0.448 Goal=   None    Shift=    0.000
 RMSDP=3.39D-07 MaxDP=1.13D-05 DE=-8.05D-09 OVMax= 2.03D-05

 Cycle  10  Pass 1  IDiag  1:
 RMSU=  1.03D-07    CP:  9.62D-01  9.56D-01  7.06D-01  1.20D+00  1.35D+00
                    CP:  1.45D+00  1.41D+00  1.38D+00  1.27D+00
 E= -289.064195425375     Delta-E=       -0.000000001131 Rises=F Damp=F
 DIIS: error= 3.77D-07 at cycle  10 NSaved=  10.
 NSaved=10 IEnMin=10 EnMin= -289.064195425375     IErMin=10 ErrMin= 3.77D-07
 ErrMax= 3.77D-07  0.00D+00 EMaxC= 1.00D-01 BMatC= 7.19D-11 BMatP= 6.89D-10
 IDIUse=1 WtCom= 1.00D+00 WtEn= 0.00D+00
 Coeff-Com: -0.316D-05-0.411D-04-0.160D-04 0.484D-03 0.337D-02-0.866D-02
 Coeff-Com: -0.365D-01-0.539D-01 0.212D+00 0.883D+00
 Coeff:     -0.316D-05-0.411D-04-0.160D-04 0.484D-03 0.337D-02-0.866D-02
 Coeff:     -0.365D-01-0.539D-01 0.212D+00 0.883D+00
 Gap=     0.448 Goal=   None    Shift=    0.000
 RMSDP=1.42D-07 MaxDP=5.11D-06 DE=-1.13D-09 OVMax= 8.81D-06

 Cycle  11  Pass 1  IDiag  1:
 RMSU=  3.16D-08    CP:  9.62D-01  9.56D-01  7.06D-01  1.20D+00  1.35D+00
                    CP:  1.46D+00  1.43D+00  1.44D+00  1.51D+00  1.27D+00
 E= -289.064195425512     Delta-E=       -0.000000000137 Rises=F Damp=F
 DIIS: error= 5.63D-08 at cycle  11 NSaved=  11.
 NSaved=11 IEnMin=11 EnMin= -289.064195425512     IErMin=11 ErrMin= 5.63D-08
 ErrMax= 5.63D-08  0.00D+00 EMaxC= 1.00D-01 BMatC= 1.68D-12 BMatP= 7.19D-11
 IDIUse=1 WtCom= 1.00D+00 WtEn= 0.00D+00
 Coeff-Com: -0.409D-06-0.115D-04-0.202D-04-0.413D-04-0.211D-03 0.238D-02
 Coeff-Com:  0.439D-02-0.810D-02-0.601D-01-0.538D-01 0.112D+01
 Coeff:     -0.409D-06-0.115D-04-0.202D-04-0.413D-04-0.211D-03 0.238D-02
 Coeff:      0.439D-02-0.810D-02-0.601D-01-0.538D-01 0.112D+01
 Gap=     0.448 Goal=   None    Shift=    0.000
 RMSDP=3.28D-08 MaxDP=1.17D-06 DE=-1.37D-10 OVMax= 2.16D-06

 Cycle  12  Pass 1  IDiag  1:
 RMSU=  7.68D-09    CP:  9.62D-01  9.56D-01  7.06D-01  1.20D+00  1.35D+00
                    CP:  1.46D+00  1.43D+00  1.45D+00  1.59D+00  1.44D+00
                    CP:  1.36D+00
 E= -289.064195425522     Delta-E=       -0.000000000010 Rises=F Damp=F
 DIIS: error= 1.24D-08 at cycle  12 NSaved=  12.
 NSaved=12 IEnMin=12 EnMin= -289.064195425522     IErMin=12 ErrMin= 1.24D-08
 ErrMax= 1.24D-08  0.00D+00 EMaxC= 1.00D-01 BMatC= 1.32D-13 BMatP= 1.68D-12
 IDIUse=1 WtCom= 1.00D+00 WtEn= 0.00D+00
 Coeff-Com:  0.104D-06 0.884D-06-0.163D-05-0.336D-04-0.222D-03 0.840D-03
 Coeff-Com:  0.279D-02 0.231D-02-0.201D-01-0.601D-01 0.163D+00 0.912D+00
 Coeff:      0.104D-06 0.884D-06-0.163D-05-0.336D-04-0.222D-03 0.840D-03
 Coeff:      0.279D-02 0.231D-02-0.201D-01-0.601D-01 0.163D+00 0.912D+00
 Gap=     0.448 Goal=   None    Shift=    0.000
 RMSDP=7.06D-09 MaxDP=1.89D-07 DE=-9.89D-12 OVMax= 3.80D-07

 Error on total polarization charges =  0.04430
 SCF Done:  E(RwB97XD) =  -289.064195426     A.U. after   12 cycles
            NFock= 12  Conv=0.71D-08     -V/T= 2.0055
 KE= 2.874775417421D+02 PE=-1.192233177345D+03 EE= 3.565222266107D+02
 SMD-CDS (non-electrostatic) energy       (kcal/mol) =       1.71
 (included in total energy above)
 Leave Link  502 at Wed Oct 22 13:43:25 2025, MaxMem=  4294967296 cpu:             778.7 elap:              97.5
 (Enter /lrz/sys/applications/gaussian/g16.C.01/x86_64_legacy/exe/l601.exe)
 Copying SCF densities to generalized density rwf, IOpCl= 0 IROHF=0.

 **********************************************************************

            Population analysis using the SCF Density.

 **********************************************************************

 Orbital symmetries:
       Occupied  (A) (A) (A) (A) (A) (A) (A) (A) (A) (A) (A) (A)
                 (A) (A) (A) (A) (A) (A) (A) (A) (A) (A) (A) (A)
                 (A)
       Virtual   (A) (A) (A) (A) (A) (A) (A) (A) (A) (A) (A) (A)
                 (A) (A) (A) (A) (A) (A) (A) (A) (A) (A) (A) (A)
                 (A) (A) (A) (A) (A) (A) (A) (A) (A) (A) (A) (A)
                 (A) (A) (A) (A) (A) (A) (A) (A) (A) (A) (A) (A)
                 (A) (A) (A) (A) (A) (A) (A) (A) (A) (A) (A) (A)
                 (A) (A) (A) (A) (A) (A) (A) (A) (A) (A) (A) (A)
                 (A) (A) (A) (A) (A) (A) (A) (A) (A) (A) (A) (A)
                 (A) (A) (A) (A) (A) (A) (A) (A) (A) (A) (A) (A)
                 (A) (A) (A) (A) (A) (A) (A) (A) (A) (A) (A) (A)
                 (A) (A) (A) (A) (A) (A) (A) (A) (A) (A) (A) (A)
                 (A) (A) (A) (A) (A) (A) (A) (A) (A) (A) (A) (A)
                 (A) (A) (A) (A) (A) (A) (A) (A) (A) (A) (A) (A)
                 (A) (A) (A) (A) (A) (A) (A) (A) (A) (A) (A) (A)
                 (A) (A) (A) (A) (A) (A) (A) (A) (A) (A) (A) (A)
                 (A) (A) (A) (A) (A) (A) (A) (A) (A) (A) (A) (A)
                 (A) (A) (A) (A) (A) (A) (A) (A) (A) (A) (A) (A)
                 (A) (A) (A) (A) (A) (A) (A) (A) (A) (A) (A) (A)
                 (A) (A) (A) (A) (A) (A) (A) (A) (A) (A) (A) (A)
                 (A) (A) (A) (A) (A) (A) (A) (A) (A) (A) (A)
 The electronic state is 1-A.
 Alpha  occ. eigenvalues --  -19.24939 -14.40898 -10.35168 -10.27351 -10.26889
 Alpha  occ. eigenvalues --  -10.26508  -1.13359  -0.97214  -0.87864  -0.79583
 Alpha  occ. eigenvalues --   -0.72306  -0.66362  -0.58587  -0.58006  -0.55064
 Alpha  occ. eigenvalues --   -0.53871  -0.49735  -0.47114  -0.46538  -0.44494
 Alpha  occ. eigenvalues --   -0.42566  -0.40248  -0.39735  -0.37514  -0.33292
 Alpha virt. eigenvalues --    0.11479   0.13892   0.14182   0.15152   0.18812
 Alpha virt. eigenvalues --    0.18935   0.20149   0.21041   0.21558   0.23022
 Alpha virt. eigenvalues --    0.23536   0.24494   0.26964   0.28439   0.29255
 Alpha virt. eigenvalues --    0.31116   0.33496   0.34287   0.34998   0.35689
 Alpha virt. eigenvalues --    0.37605   0.38599   0.39521   0.42685   0.44387
 Alpha virt. eigenvalues --    0.45717   0.46876   0.48225   0.48652   0.51077
 Alpha virt. eigenvalues --    0.51471   0.52134   0.53451   0.54683   0.55370
 Alpha virt. eigenvalues --    0.56676   0.57221   0.57997   0.58723   0.59170
 Alpha virt. eigenvalues --    0.61263   0.62692   0.63503   0.64555   0.68626
 Alpha virt. eigenvalues --    0.70014   0.71907   0.73003   0.79012   0.81537
 Alpha virt. eigenvalues --    0.85651   0.87156   0.89046   0.90867   0.92766
 Alpha virt. eigenvalues --    0.93186   0.94825   0.98912   1.06308   1.08674
 Alpha virt. eigenvalues --    1.09581   1.12263   1.16064   1.19167   1.20118
 Alpha virt. eigenvalues --    1.22183   1.23957   1.26556   1.27532   1.29783
 Alpha virt. eigenvalues --    1.36102   1.37546   1.44006   1.45944   1.47299
 Alpha virt. eigenvalues --    1.49637   1.54607   1.57374   1.60476   1.61704
 Alpha virt. eigenvalues --    1.64248   1.64746   1.67241   1.68134   1.69071
 Alpha virt. eigenvalues --    1.69796   1.72744   1.75725   1.78721   1.81635
 Alpha virt. eigenvalues --    1.84479   1.85659   1.87169   1.91475   1.94186
 Alpha virt. eigenvalues --    1.96136   1.98591   1.99334   2.00485   2.03129
 Alpha virt. eigenvalues --    2.04052   2.06110   2.08678   2.11118   2.13391
 Alpha virt. eigenvalues --    2.16024   2.21270   2.22651   2.27878   2.29784
 Alpha virt. eigenvalues --    2.29887   2.32467   2.36646   2.38494   2.41473
 Alpha virt. eigenvalues --    2.42531   2.45786   2.48283   2.48633   2.50354
 Alpha virt. eigenvalues --    2.51730   2.55122   2.56584   2.59253   2.63323
 Alpha virt. eigenvalues --    2.64036   2.64180   2.65680   2.67297   2.72011
 Alpha virt. eigenvalues --    2.73689   2.74777   2.75512   2.77380   2.80298
 Alpha virt. eigenvalues --    2.81388   2.84432   2.86066   2.88733   2.91139
 Alpha virt. eigenvalues --    2.97303   3.00182   3.04083   3.07891   3.10495
 Alpha virt. eigenvalues --    3.14517   3.16320   3.17669   3.18938   3.22267
 Alpha virt. eigenvalues --    3.23092   3.25988   3.30621   3.31716   3.33708
 Alpha virt. eigenvalues --    3.34607   3.36386   3.37953   3.42171   3.44420
 Alpha virt. eigenvalues --    3.46609   3.48817   3.49770   3.52452   3.52893
 Alpha virt. eigenvalues --    3.56162   3.59235   3.61137   3.64963   3.66727
 Alpha virt. eigenvalues --    3.73638   3.76654   3.80822   3.87958   3.91652
 Alpha virt. eigenvalues --    3.93615   3.97075   3.98112   4.03659   4.07060
 Alpha virt. eigenvalues --    4.10541   4.11547   4.12989   4.25956   4.27483
 Alpha virt. eigenvalues --    4.31187   4.41579   4.42935   4.45626   4.48652
 Alpha virt. eigenvalues --    4.56551   4.61079   4.64361   4.66301   4.67360
 Alpha virt. eigenvalues --    4.72969   4.81372   4.85399   4.89440   4.94077
 Alpha virt. eigenvalues --    4.99042   5.02457   5.09131   5.20320   5.24726
 Alpha virt. eigenvalues --    5.29025   5.36405   5.41474   5.46529   5.58646
 Alpha virt. eigenvalues --    5.63317   5.79873   5.87242   5.97183   6.09933
 Alpha virt. eigenvalues --    6.40377   6.56682   6.80209   6.94399   7.07971
 Alpha virt. eigenvalues --    7.25567  22.39376  22.50761  22.58477  22.69610
 Alpha virt. eigenvalues --   32.09675  43.99155
          Condensed to atoms (all electrons):
               1          2          3          4          5          6
     1  O    8.151164   0.245596  -0.075483  -0.067810   0.003435   0.001670
     2  C    0.245596   4.674567   0.277489   0.422144  -0.048393   0.001871
     3  N   -0.075483   0.277489   6.728257  -0.082848   0.000425   0.002794
     4  C   -0.067810   0.422144  -0.082848   5.141937   0.257893  -0.038881
     5  C    0.003435  -0.048393   0.000425   0.257893   5.051399   0.289380
     6  C    0.001670   0.001871   0.002794  -0.038881   0.289380   4.945919
     7  H    0.308561  -0.023957  -0.002561  -0.019010   0.010468   0.000168
     8  H   -0.028853   0.422652  -0.031309  -0.064725   0.012484  -0.000253
     9  H    0.002664  -0.049640   0.380392  -0.010631   0.008153   0.000308
    10  H    0.005574  -0.037157   0.368935   0.007223  -0.000893   0.000034
    11  H    0.003036  -0.038071   0.010395   0.397118  -0.034488  -0.000977
    12  H    0.006525  -0.030722   0.004922   0.389854  -0.037243  -0.000353
    13  H    0.000149  -0.007811   0.008186  -0.042677   0.407283  -0.026190
    14  H    0.005857  -0.007661   0.001440  -0.040623   0.405135  -0.023144
    15  H    0.000019  -0.000572   0.000054   0.010116  -0.046119   0.421161
    16  H   -0.000050   0.000095  -0.000070  -0.005917  -0.035826   0.414182
    17  H    0.000001   0.000257  -0.000073  -0.005659  -0.036581   0.413614
               7          8          9         10         11         12
     1  O    0.308561  -0.028853   0.002664   0.005574   0.003036   0.006525
     2  C   -0.023957   0.422652  -0.049640  -0.037157  -0.038071  -0.030722
     3  N   -0.002561  -0.031309   0.380392   0.368935   0.010395   0.004922
     4  C   -0.019010  -0.064725  -0.010631   0.007223   0.397118   0.389854
     5  C    0.010468   0.012484   0.008153  -0.000893  -0.034488  -0.037243
     6  C    0.000168  -0.000253   0.000308   0.000034  -0.000977  -0.000353
     7  H    0.349159   0.007401   0.003299  -0.000237  -0.000812  -0.000049
     8  H    0.007401   0.572357   0.006992  -0.005418  -0.005017  -0.002159
     9  H    0.003299   0.006992   0.433699  -0.024915  -0.000158  -0.000332
    10  H   -0.000237  -0.005418  -0.024915   0.423512   0.000211  -0.000777
    11  H   -0.000812  -0.005017  -0.000158   0.000211   0.577258  -0.024135
    12  H   -0.000049  -0.002159  -0.000332  -0.000777  -0.024135   0.578130
    13  H   -0.000934  -0.000267   0.000832   0.000841   0.008049  -0.004953
    14  H    0.000536  -0.000275  -0.000392  -0.000086  -0.005501   0.008153
    15  H    0.000023   0.000012   0.000029   0.000001  -0.000085  -0.000040
    16  H   -0.000018  -0.000009   0.000044  -0.000005  -0.000156   0.002844
    17  H    0.000012  -0.000010  -0.000032   0.000003   0.003159  -0.000225
              13         14         15         16         17
     1  O    0.000149   0.005857   0.000019  -0.000050   0.000001
     2  C   -0.007811  -0.007661  -0.000572   0.000095   0.000257
     3  N    0.008186   0.001440   0.000054  -0.000070  -0.000073
     4  C   -0.042677  -0.040623   0.010116  -0.005917  -0.005659
     5  C    0.407283   0.405135  -0.046119  -0.035826  -0.036581
     6  C   -0.026190  -0.023144   0.421161   0.414182   0.413614
     7  H   -0.000934   0.000536   0.000023  -0.000018   0.000012
     8  H   -0.000267  -0.000275   0.000012  -0.000009  -0.000010
     9  H    0.000832  -0.000392   0.000029   0.000044  -0.000032
    10  H    0.000841  -0.000086   0.000001  -0.000005   0.000003
    11  H    0.008049  -0.005501  -0.000085  -0.000156   0.003159
    12  H   -0.004953   0.008153  -0.000040   0.002844  -0.000225
    13  H    0.594254  -0.034235  -0.004050  -0.006096   0.006869
    14  H   -0.034235   0.589863  -0.004250   0.006558  -0.005793
    15  H   -0.004050  -0.004250   0.533816  -0.022923  -0.022937
    16  H   -0.006096   0.006558  -0.022923   0.550491  -0.028213
    17  H    0.006869  -0.005793  -0.022937  -0.028213   0.550523
 Mulliken charges:
               1
     1  O   -0.562055
     2  C    0.199314
     3  N   -0.590945
     4  C   -0.247503
     5  C   -0.206511
     6  C   -0.401303
     7  H    0.367951
     8  H    0.116400
     9  H    0.249689
    10  H    0.263154
    11  H    0.110176
    12  H    0.110560
    13  H    0.100752
    14  H    0.104420
    15  H    0.135745
    16  H    0.125072
    17  H    0.125086
 Sum of Mulliken charges =  -0.00000
 Mulliken charges with hydrogens summed into heavy atoms:
               1
     1  O   -0.194104
     2  C    0.315714
     3  N   -0.078102
     4  C   -0.026767
     5  C   -0.001339
     6  C   -0.015401
 Electronic spatial extent (au):  <R**2>=            779.4100
 Charge=             -0.0000 electrons
 Dipole moment (field-independent basis, Debye):
    X=              3.4140    Y=              2.0429    Z=             -0.2482  Tot=              3.9862
 Quadrupole moment (field-independent basis, Debye-Ang):
   XX=            -50.5688   YY=            -38.4346   ZZ=            -35.6499
   XY=             -2.8733   XZ=             -2.6144   YZ=              2.2552
 Traceless Quadrupole moment (field-independent basis, Debye-Ang):
   XX=             -9.0177   YY=              3.1165   ZZ=              5.9012
   XY=             -2.8733   XZ=             -2.6144   YZ=              2.2552
 Octapole moment (field-independent basis, Debye-Ang**2):
  XXX=             18.1472  YYY=              9.2777  ZZZ=             -4.8917  XYY=              1.1125
  XXY=              1.6502  XXZ=              6.9686  XZZ=             -5.3907  YZZ=             -2.1507
  YYZ=             -1.6909  XYZ=             -3.8035
 Hexadecapole moment (field-independent basis, Debye-Ang**3):
 XXXX=           -809.6656 YYYY=           -168.6088 ZZZZ=           -121.2800 XXXY=              4.8466
 XXXZ=            -25.6639 YYYX=            -14.1247 YYYZ=              8.7216 ZZZX=              0.0325
 ZZZY=              3.0679 XXYY=           -162.0171 XXZZ=           -138.0233 YYZZ=            -42.6780
 XXYZ=              7.6246 YYXZ=              0.6449 ZZXY=              3.1188
 N-N= 2.591692135667D+02 E-N=-1.192233180649D+03  KE= 2.874775417421D+02
 No NMR shielding tensors so no spin-rotation constants.
 Leave Link  601 at Wed Oct 22 13:43:26 2025, MaxMem=  4294967296 cpu:               1.2 elap:               0.2
 (Enter /lrz/sys/applications/gaussian/g16.C.01/x86_64_legacy/exe/l9999.exe)
 Unable to Open any file for archive entry.
 1\1\GINC-CM4R13C05S08\SP\RwB97XD\def2TZVP\C4H11N1O1\GO29TIZ2\22-Oct-20
 25\0\\#p wb97xd scrf=(smd,solvent=water) def2tzvp\\g16_g16_C17-a_50\\0
 ,1\O,0,-1.565333,-1.234667,-0.225373\C,0,-1.217402,-0.023742,0.41479\N
 ,0,-1.70796,1.112627,-0.346185\C,0,0.277964,0.013549,0.750793\C,0,1.22
 0637,-0.022347,-0.450197\C,0,2.688248,0.040144,-0.045355\H,0,-1.069217
 ,-1.291557,-1.051517\H,0,-1.7723,-0.033902,1.365346\H,0,-1.079495,1.28
 8028,-1.132187\H,0,-1.642002,1.944933,0.239599\H,0,0.50163,-0.83859,1.
 414966\H,0,0.468471,0.928053,1.338347\H,0,0.994973,0.819411,-1.126938\
 H,0,1.044976,-0.943762,-1.03201\H,0,3.350131,0.009018,-0.924078\H,0,2.
 907748,0.967695,0.507347\H,0,2.956783,-0.806001,0.60722\\Version=EM64L
 -G16RevC.01\State=1-A\HF=-289.0641954\RMSD=7.058e-09\Dipole=1.343152,0
 .8037249,-0.0976653\Quadrupole=-6.7044256,2.3170647,4.387361,-2.136241
 7,-1.9437251,1.6766807\PG=C01 [X(C4H11N1O1)]\\@
 The archive entry for this job was punched.


 Sacred cows make the best hamburger.
                               -- Mark Twain
 Job cpu time:       0 days  0 hours 13 minutes 26.2 seconds.
 Elapsed time:       0 days  0 hours  1 minutes 41.2 seconds.
 File lengths (MBytes):  RWF=    288 Int=      0 D2E=      0 Chk=     12 Scr=     32
 Normal termination of Gaussian 16 at Wed Oct 22 13:43:26 2025.
