 Entering Gaussian System, Link 0=g16
 Input=../../g16_g16_C2-w_2.com
 Output=../../g16_g16_C2-w_2.log
 Initial command:
 /lrz/sys/applications/gaussian/g16.C.01/x86_64_legacy/exe/l1.exe "/dss/lxclscratch/0D/go29tiz2/Gau-16270.inp" -scrdir="/dss/lxclscratch/0D/go29tiz2/"
 Entering Link 1 = /lrz/sys/applications/gaussian/g16.C.01/x86_64_legacy/exe/l1.exe PID=     16271.
  
 Copyright (c) 1988-2019, Gaussian, Inc.  All Rights Reserved.
  
 This is part of the Gaussian(R) 16 program.  It is based on
 the Gaussian(R) 09 system (copyright 2009, Gaussian, Inc.),
 the Gaussian(R) 03 system (copyright 2003, Gaussian, Inc.),
 the Gaussian(R) 98 system (copyright 1998, Gaussian, Inc.),
 the Gaussian(R) 94 system (copyright 1995, Gaussian, Inc.),
 the Gaussian 92(TM) system (copyright 1992, Gaussian, Inc.),
 the Gaussian 90(TM) system (copyright 1990, Gaussian, Inc.),
 the Gaussian 88(TM) system (copyright 1988, Gaussian, Inc.),
 the Gaussian 86(TM) system (copyright 1986, Carnegie Mellon
 University), and the Gaussian 82(TM) system (copyright 1983,
 Carnegie Mellon University). Gaussian is a federally registered
 trademark of Gaussian, Inc.
  
 This software contains proprietary and confidential information,
 including trade secrets, belonging to Gaussian, Inc.
  
 This software is provided under written license and may be
 used, copied, transmitted, or stored only in accord with that
 written license.
  
 The following legend is applicable only to US Government
 contracts under FAR:
  
                    RESTRICTED RIGHTS LEGEND
  
 Use, reproduction and disclosure by the US Government is
 subject to restrictions as set forth in subparagraphs (a)
 and (c) of the Commercial Computer Software - Restricted
 Rights clause in FAR 52.227-19.
  
 Gaussian, Inc.
 340 Quinnipiac St., Bldg. 40, Wallingford CT 06492
  
  
 ---------------------------------------------------------------
 Warning -- This program may not be used in any manner that
 competes with the business of Gaussian, Inc. or will provide
 assistance to any competitor of Gaussian, Inc.  The licensee
 of this program is prohibited from giving any competitor of
 Gaussian, Inc. access to this program.  By using this program,
 the user acknowledges that Gaussian, Inc. is engaged in the
 business of creating and licensing software in the field of
 computational chemistry and represents and warrants to the
 licensee that it is not a competitor of Gaussian, Inc. and that
 it will not use this program in any manner prohibited above.
 ---------------------------------------------------------------
  

 Cite this work as:
 Gaussian 16, Revision C.01,
 M. J. Frisch, G. W. Trucks, H. B. Schlegel, G. E. Scuseria, 
 M. A. Robb, J. R. Cheeseman, G. Scalmani, V. Barone, 
 G. A. Petersson, H. Nakatsuji, X. Li, M. Caricato, A. V. Marenich, 
 J. Bloino, B. G. Janesko, R. Gomperts, B. Mennucci, H. P. Hratchian, 
 J. V. Ortiz, A. F. Izmaylov, J. L. Sonnenberg, D. Williams-Young, 
 F. Ding, F. Lipparini, F. Egidi, J. Goings, B. Peng, A. Petrone, 
 T. Henderson, D. Ranasinghe, V. G. Zakrzewski, J. Gao, N. Rega, 
 G. Zheng, W. Liang, M. Hada, M. Ehara, K. Toyota, R. Fukuda, 
 J. Hasegawa, M. Ishida, T. Nakajima, Y. Honda, O. Kitao, H. Nakai, 
 T. Vreven, K. Throssell, J. A. Montgomery, Jr., J. E. Peralta, 
 F. Ogliaro, M. J. Bearpark, J. J. Heyd, E. N. Brothers, K. N. Kudin, 
 V. N. Staroverov, T. A. Keith, R. Kobayashi, J. Normand, 
 K. Raghavachari, A. P. Rendell, J. C. Burant, S. S. Iyengar, 
 J. Tomasi, M. Cossi, J. M. Millam, M. Klene, C. Adamo, R. Cammi, 
 J. W. Ochterski, R. L. Martin, K. Morokuma, O. Farkas, 
 J. B. Foresman, and D. J. Fox, Gaussian, Inc., Wallingford CT, 2019.
 
 ******************************************
 Gaussian 16:  EM64L-G16RevC.01  3-Jul-2019
                22-Oct-2025 
 ******************************************
 %chk=g16_g16_C2-w_2.chk
 %nprocshared=8
 Will use up to    8 processors via shared memory.
 %mem=32GB
 -------------------------------------------
 #p wb97xd scrf=(smd,solvent=water) def2tzvp
 -------------------------------------------
 1/38=1,172=1/1;
 2/12=2,17=6,18=5,40=1/2;
 3/5=44,7=101,11=2,25=1,30=1,70=32201,72=1,74=-58/1,2,3;
 4//1;
 5/5=2,38=5,53=1/2;
 6/7=2,8=2,9=2,10=2,28=1/1;
 99/5=1,9=1/99;
 Leave Link    1 at Wed Oct 22 10:09:07 2025, MaxMem=  4294967296 cpu:               5.4 elap:               0.8
 (Enter /lrz/sys/applications/gaussian/g16.C.01/x86_64_legacy/exe/l101.exe)
 --------------
 g16_g16_C2-w_2
 --------------
 Symbolic Z-matrix:
 Charge =  0 Multiplicity = 1
 O                    -0.61803   1.29241  -0.24171 
 C                    -0.51449   0.01008   0.32383 
 O                    -1.67567  -0.74673   0.08916 
 C                     0.7244   -0.66096  -0.24253 
 C                     2.02372   0.05507   0.09693 
 H                    -1.32192   1.76258   0.22221 
 H                    -0.44137   0.08489   1.4236 
 H                    -1.7151   -0.93712  -0.85821 
 H                     0.74298  -1.69195   0.14228 
 H                     0.59648  -0.72822  -1.33756 
 H                     2.03499   1.07596  -0.31225 
 H                     2.88875  -0.48402  -0.31626 
 H                     2.16302   0.12731   1.18735 
 
 ITRead=  0  0  0  0  0  0  0  0  0  0  0  0  0
 MicOpt= -1 -1 -1 -1 -1 -1 -1 -1 -1 -1 -1 -1 -1
 NAtoms=     13 NQM=       13 NQMF=       0 NMMI=      0 NMMIF=      0
                NMic=       0 NMicF=      0.
                    Isotopes and Nuclear Properties:
 (Nuclear quadrupole moments (NQMom) in fm**2, nuclear magnetic moments (NMagM)
  in nuclear magnetons)

  Atom         1           2           3           4           5           6           7           8           9          10
 IAtWgt=          16          12          16          12          12           1           1           1           1           1
 AtmWgt=  15.9949146  12.0000000  15.9949146  12.0000000  12.0000000   1.0078250   1.0078250   1.0078250   1.0078250   1.0078250
 NucSpn=           0           0           0           0           0           1           1           1           1           1
 AtZEff=  -0.0000000  -0.0000000  -0.0000000  -0.0000000  -0.0000000  -0.0000000  -0.0000000  -0.0000000  -0.0000000  -0.0000000
 NQMom=    0.0000000   0.0000000   0.0000000   0.0000000   0.0000000   0.0000000   0.0000000   0.0000000   0.0000000   0.0000000
 NMagM=    0.0000000   0.0000000   0.0000000   0.0000000   0.0000000   2.7928460   2.7928460   2.7928460   2.7928460   2.7928460
 AtZNuc=   8.0000000   6.0000000   8.0000000   6.0000000   6.0000000   1.0000000   1.0000000   1.0000000   1.0000000   1.0000000

  Atom        11          12          13
 IAtWgt=           1           1           1
 AtmWgt=   1.0078250   1.0078250   1.0078250
 NucSpn=           1           1           1
 AtZEff=  -0.0000000  -0.0000000  -0.0000000
 NQMom=    0.0000000   0.0000000   0.0000000
 NMagM=    2.7928460   2.7928460   2.7928460
 AtZNuc=   1.0000000   1.0000000   1.0000000
 Leave Link  101 at Wed Oct 22 10:09:07 2025, MaxMem=  4294967296 cpu:               0.7 elap:               0.1
 (Enter /lrz/sys/applications/gaussian/g16.C.01/x86_64_legacy/exe/l202.exe)
                          Input orientation:                          
 ---------------------------------------------------------------------
 Center     Atomic      Atomic             Coordinates (Angstroms)
 Number     Number       Type             X           Y           Z
 ---------------------------------------------------------------------
      1          8           0       -0.618029    1.292413   -0.241714
      2          6           0       -0.514489    0.010076    0.323825
      3          8           0       -1.675671   -0.746730    0.089156
      4          6           0        0.724403   -0.660960   -0.242534
      5          6           0        2.023716    0.055069    0.096926
      6          1           0       -1.321923    1.762581    0.222211
      7          1           0       -0.441367    0.084885    1.423598
      8          1           0       -1.715100   -0.937116   -0.858205
      9          1           0        0.742982   -1.691949    0.142277
     10          1           0        0.596475   -0.728223   -1.337557
     11          1           0        2.034986    1.075957   -0.312252
     12          1           0        2.888751   -0.484021   -0.316257
     13          1           0        2.163018    0.127309    1.187347
 ---------------------------------------------------------------------
                    Distance matrix (angstroms):
                    1          2          3          4          5
     1  O    0.000000
     2  C    1.405327   0.000000
     3  O    2.320816   1.405763   0.000000
     4  C    2.370188   1.518521   2.424403   0.000000
     5  C    2.936752   2.548724   3.785288   1.521889   0.000000
     6  H    0.965273   1.932239   2.537614   3.205774   3.758270
     7  H    2.064606   1.104737   1.998956   2.165941   2.799568
     8  H    2.560161   1.932831   0.967106   2.531104   3.984401
     9  H    3.302456   2.123931   2.597334   1.100619   2.166658
    10  H    2.599781   2.130614   2.683002   1.104520   2.169863
    11  H    2.662765   2.835581   4.153588   2.177009   1.099894
    12  H    3.931766   3.497982   4.589915   2.172820   1.099829
    13  H    3.336751   2.815752   4.087236   2.176130   1.101654
                    6          7          8          9         10
     6  H    0.000000
     7  H    2.243518   0.000000
     8  H    2.934323   2.805977   0.000000
     9  H    4.025419   2.490302   2.759149   0.000000
    10  H    3.509591   3.059777   2.369978   1.772044   0.000000
    11  H    3.467844   3.182408   4.291116   3.088232   2.525001
    12  H    4.802806   3.800057   4.657730   2.504729   2.521352
    13  H    3.968679   2.615423   4.511882   2.533451   3.092108
                   11         12         13
    11  H    0.000000
    12  H    1.778331   0.000000
    13  H    1.779079   1.777987   0.000000
 Stoichiometry    C3H8O2
 Framework group  C1[X(C3H8O2)]
 Deg. of freedom    33
 Full point group                 C1      NOp   1
 Largest Abelian subgroup         C1      NOp   1
 Largest concise Abelian subgroup C1      NOp   1
                         Standard orientation:                         
 ---------------------------------------------------------------------
 Center     Atomic      Atomic             Coordinates (Angstroms)
 Number     Number       Type             X           Y           Z
 ---------------------------------------------------------------------
      1          8           0       -0.618029    1.292413   -0.241714
      2          6           0       -0.514489    0.010076    0.323825
      3          8           0       -1.675671   -0.746730    0.089156
      4          6           0        0.724403   -0.660960   -0.242534
      5          6           0        2.023716    0.055069    0.096926
      6          1           0       -1.321923    1.762581    0.222211
      7          1           0       -0.441367    0.084885    1.423598
      8          1           0       -1.715100   -0.937116   -0.858205
      9          1           0        0.742982   -1.691949    0.142277
     10          1           0        0.596475   -0.728223   -1.337557
     11          1           0        2.034986    1.075957   -0.312252
     12          1           0        2.888751   -0.484021   -0.316257
     13          1           0        2.163018    0.127309    1.187347
 ---------------------------------------------------------------------
 Rotational constants (GHZ):           8.5433481           3.5639341           2.7717187
 Leave Link  202 at Wed Oct 22 10:09:07 2025, MaxMem=  4294967296 cpu:               0.0 elap:               0.0
 (Enter /lrz/sys/applications/gaussian/g16.C.01/x86_64_legacy/exe/l301.exe)
 Standard basis: def2TZVP (5D, 7F)
 Ernie: Thresh=  0.10000D-02 Tol=  0.10000D-05 Strict=F.
 There are   228 symmetry adapted cartesian basis functions of A   symmetry.
 There are   203 symmetry adapted basis functions of A   symmetry.
   203 basis functions,   319 primitive gaussians,   228 cartesian basis functions
    21 alpha electrons       21 beta electrons
       nuclear repulsion energy       194.9389314557 Hartrees.
 IExCor= 4639 DFT=T Ex+Corr=wB97XD ExCW=0 ScaHFX=  1.000000
 ScaDFX=  1.000000  1.000000  1.000000  1.000000 ScalE2=  1.000000  1.000000
 IRadAn=      5 IRanWt=     -1 IRanGd=            0 ICorTp=0 IEmpDi=121
 HFx  wShort=  0.000000 wLong=  0.200000 cFull=  0.222036 cShort=  0.000000 cLong=  0.777964
 DFx  wShort=  0.000000 wLong=  0.200000 cFull=  0.000000 cShort=  0.000000 cLong=  1.000000
 NAtoms=   13 NActive=   13 NUniq=   13 SFac= 1.00D+00 NAtFMM=   60 NAOKFM=F Big=F
 Integral buffers will be    131072 words long.
 Raffenetti 2 integral format.
 Two-electron integral symmetry is turned on.
 R6Disp:  Grimme-D2 Dispersion energy=       -0.0054784277 Hartrees.
 Nuclear repulsion after empirical dispersion term =      194.9334530280 Hartrees.
 ------------------------------------------------------------------------------
 Polarizable Continuum Model (PCM)
 =================================
 Model                : PCM.
 Atomic radii         : SMD-Coulomb.
 Polarization charges : Total charges.
 Charge compensation  : None.
 Solution method      : On-the-fly selection.
 Cavity type          : VdW (van der Waals Surface) (Alpha=1.000).
 Cavity algorithm     : GePol (No added spheres)
                        Default sphere list used, NSphG=   13.
                        Lebedev-Laikov grids with approx.  5.0 points / Ang**2.
                        Smoothing algorithm: York/Karplus (Gamma=1.0000).
                        Polarization charges: spherical gaussians, with
                                              point-specific exponents (IZeta= 3).
                        Self-potential: point-specific (ISelfS= 7).
                        Self-field    : sphere-specific E.n sum rule (ISelfD= 2).
 Solvent              : Water, Eps=  78.355300 Eps(inf)=   1.777849
 ------------------------------------------------------------------------------
 Spheres list:
 ISph  on   Nord     Re0    Alpha      Xe            Ye            Ze
    1   O      1    1.5200  1.000     -0.618029      1.292413     -0.241714
    2   C      2    1.8500  1.000     -0.514489      0.010076      0.323825
    3   O      3    1.5200  1.000     -1.675671     -0.746730      0.089156
    4   C      4    1.8500  1.000      0.724403     -0.660960     -0.242534
    5   C      5    1.8500  1.000      2.023716      0.055069      0.096926
    6   H      6    1.2000  1.000     -1.321923      1.762581      0.222211
    7   H      7    1.2000  1.000     -0.441367      0.084885      1.423598
    8   H      8    1.2000  1.000     -1.715100     -0.937116     -0.858205
    9   H      9    1.2000  1.000      0.742982     -1.691949      0.142277
   10   H     10    1.2000  1.000      0.596475     -0.728223     -1.337557
   11   H     11    1.2000  1.000      2.034986      1.075957     -0.312252
   12   H     12    1.2000  1.000      2.888751     -0.484021     -0.316257
   13   H     13    1.2000  1.000      2.163018      0.127309      1.187347
 ------------------------------------------------------------------------------
 GePol: Number of generator spheres                  =      13
 GePol: Total number of spheres                      =      13
 GePol: Number of exposed spheres                    =      13 (100.00%)
 GePol: Number of points                             =     903
 GePol: Average weight of points                     =       0.12
 GePol: Minimum weight of points                     =   0.58D-09
 GePol: Maximum weight of points                     =    0.21991
 GePol: Number of points with low weight             =      63
 GePol: Fraction of low-weight points (<1% of avg)   =       6.98%
 GePol: Cavity surface area                          =    110.997 Ang**2
 GePol: Cavity volume                                =     82.190 Ang**3
 ------------------------------------------------------------------------------
 Atomic radii for non-electrostatic terms: SMD-CDS.
 ------------------------------------------------------------------------------
 PCM non-electrostatic energy =         0.0047150800 Hartrees.
 Nuclear repulsion after PCM non-electrostatic terms =      194.9381681080 Hartrees.
 Leave Link  301 at Wed Oct 22 10:09:07 2025, MaxMem=  4294967296 cpu:               0.9 elap:               0.1
 (Enter /lrz/sys/applications/gaussian/g16.C.01/x86_64_legacy/exe/l302.exe)
 NPDir=0 NMtPBC=     1 NCelOv=     1 NCel=       1 NClECP=     1 NCelD=      1
         NCelK=      1 NCelE2=     1 NClLst=     1 CellRange=     0.0.
 One-electron integrals computed using PRISM.
 One-electron integral symmetry used in STVInt
   1 Symmetry operations used in ECPInt.
 ECPInt:  NShTT=    3828 NPrTT=   11160 LenC2=    3797 LenP2D=    9333.
 LDataN:  DoStor=T MaxTD1= 6 Len=  172
 NBasis=   203 RedAO= T EigKep=  3.07D-04  NBF=   203
 NBsUse=   203 1.00D-06 EigRej= -1.00D+00 NBFU=   203
 Precomputing XC quadrature grid using
 IXCGrd= 4 IRadAn=           5 IRanWt=          -1 IRanGd=           0 AccXCQ= 0.00D+00.
 Generated NRdTot=       0 NPtTot=           0 NUsed=           0 NTot=          32
 NSgBfM=   228   228   228   228   228 MxSgAt=    13 MxSgA2=    13.
 Leave Link  302 at Wed Oct 22 10:09:08 2025, MaxMem=  4294967296 cpu:               1.8 elap:               0.2
 (Enter /lrz/sys/applications/gaussian/g16.C.01/x86_64_legacy/exe/l303.exe)
 DipDrv:  MaxL=1.
 Leave Link  303 at Wed Oct 22 10:09:08 2025, MaxMem=  4294967296 cpu:               0.3 elap:               0.1
 (Enter /lrz/sys/applications/gaussian/g16.C.01/x86_64_legacy/exe/l401.exe)
 ExpMin= 9.52D-02 ExpMax= 2.70D+04 ExpMxC= 9.22D+02 IAcc=3 IRadAn=         5 AccDes= 0.00D+00
 Harris functional with IExCor= 4639 and IRadAn=       5 diagonalized for initial guess.
 HarFok:  IExCor= 4639 AccDes= 0.00D+00 IRadAn=         5 IDoV= 1 UseB2=F ITyADJ=14
 ICtDFT=  3500011 ScaDFX=  1.000000  1.000000  1.000000  1.000000
 FoFCou: FMM=F IPFlag=           0 FMFlag=      100000 FMFlg1=           0
         NFxFlg=           0 DoJE=T BraDBF=F KetDBF=T FulRan=T
         wScrn=  0.000000 ICntrl=       500 IOpCl=  0 I1Cent=   200000004 NGrid=           0
         NMat0=    1 NMatS0=      1 NMatT0=    0 NMatD0=    1 NMtDS0=    0 NMtDT0=    0
 Petite list used in FoFCou.
 Harris En= -258.423676692113    
 JPrj=0 DoOrth=F DoCkMO=F.
 Leave Link  401 at Wed Oct 22 10:09:09 2025, MaxMem=  4294967296 cpu:              10.3 elap:               1.3
 (Enter /lrz/sys/applications/gaussian/g16.C.01/x86_64_legacy/exe/l502.exe)
 Integral symmetry usage will be decided dynamically.
 Closed shell SCF:
 Using DIIS extrapolation, IDIIS=  1040.
 NGot=  4294967296 LenX=  4294858978 LenY=  4294806553
 Requested convergence on RMS density matrix=1.00D-08 within 128 cycles.
 Requested convergence on MAX density matrix=1.00D-06.
 Requested convergence on             energy=1.00D-06.
 No special actions if energy rises.
 Fock matrices will be formed incrementally for  20 cycles.

 Cycle   1  Pass 1  IDiag  1:
 FoFJK:  IHMeth= 1 ICntrl=       0 DoSepK=T KAlg= 0 I1Cent=           0 FoldK=F
 IRaf=         1 NMat=       1 IRICut=       1 DoRegI=T DoRafI=F ISym2E= 0 IDoP0=0 IntGTp=1.
 FoFCou: FMM=F IPFlag=           0 FMFlag=      100000 FMFlg1=           0
         NFxFlg=           0 DoJE=T BraDBF=F KetDBF=F FulRan=T
         wScrn=  0.000000 ICntrl=       500 IOpCl=  0 I1Cent=           0 NGrid=           0
         NMat0=    1 NMatS0=      1 NMatT0=    0 NMatD0=    1 NMtDS0=    0 NMtDT0=    0
 Symmetry not used in FoFCou.
 Inv3:  Mode=1 IEnd=     2446227.
 Iteration    1 A*A^-1 deviation from unit magnitude is 4.55D-15 for    119.
 Iteration    1 A*A^-1 deviation from orthogonality  is 2.14D-15 for    829    509.
 Iteration    1 A^-1*A deviation from unit magnitude is 4.66D-15 for    372.
 Iteration    1 A^-1*A deviation from orthogonality  is 1.76D-15 for    512    242.
 E= -269.552225427083    
 DIIS: error= 4.94D-02 at cycle   1 NSaved=   1.
 NSaved= 1 IEnMin= 1 EnMin= -269.552225427083     IErMin= 1 ErrMin= 4.94D-02
 ErrMax= 4.94D-02  0.00D+00 EMaxC= 1.00D-01 BMatC= 5.66D-01 BMatP= 5.66D-01
 IDIUse=3 WtCom= 5.06D-01 WtEn= 4.94D-01
 Coeff-Com:  0.100D+01
 Coeff-En:   0.100D+01
 Coeff:      0.100D+01
 Gap=     0.559 Goal=   None    Shift=    0.000
 GapD=    0.559 DampG=2.000 DampE=0.500 DampFc=1.0000 IDamp=-1.
 RMSDP=2.05D-03 MaxDP=4.67D-02              OVMax= 6.06D-02

 Cycle   2  Pass 1  IDiag  1:
 RMSU=  2.00D-03    CP:  9.61D-01
 E= -269.597569261638     Delta-E=       -0.045343834555 Rises=F Damp=F
 DIIS: error= 1.01D-02 at cycle   2 NSaved=   2.
 NSaved= 2 IEnMin= 2 EnMin= -269.597569261638     IErMin= 2 ErrMin= 1.01D-02
 ErrMax= 1.01D-02  0.00D+00 EMaxC= 1.00D-01 BMatC= 4.50D-02 BMatP= 5.66D-01
 IDIUse=3 WtCom= 8.99D-01 WtEn= 1.01D-01
 Coeff-Com:  0.157D+00 0.843D+00
 Coeff-En:   0.126D+00 0.874D+00
 Coeff:      0.154D+00 0.846D+00
 Gap=     0.545 Goal=   None    Shift=    0.000
 RMSDP=8.37D-04 MaxDP=2.58D-02 DE=-4.53D-02 OVMax= 4.58D-02

 Cycle   3  Pass 1  IDiag  1:
 RMSU=  6.55D-04    CP:  9.66D-01  7.41D-01
 E= -269.613307837198     Delta-E=       -0.015738575560 Rises=F Damp=F
 DIIS: error= 7.74D-03 at cycle   3 NSaved=   3.
 NSaved= 3 IEnMin= 3 EnMin= -269.613307837198     IErMin= 3 ErrMin= 7.74D-03
 ErrMax= 7.74D-03  0.00D+00 EMaxC= 1.00D-01 BMatC= 2.12D-02 BMatP= 4.50D-02
 IDIUse=3 WtCom= 9.23D-01 WtEn= 7.74D-02
 Coeff-Com:  0.232D-01 0.415D+00 0.561D+00
 Coeff-En:   0.000D+00 0.311D+00 0.689D+00
 Coeff:      0.214D-01 0.407D+00 0.571D+00
 Gap=     0.502 Goal=   None    Shift=    0.000
 RMSDP=4.27D-04 MaxDP=1.17D-02 DE=-1.57D-02 OVMax= 2.10D-02

 Cycle   4  Pass 1  IDiag  1:
 RMSU=  1.40D-04    CP:  9.61D-01  9.13D-01  6.92D-01
 E= -269.627410551639     Delta-E=       -0.014102714441 Rises=F Damp=F
 DIIS: error= 6.10D-04 at cycle   4 NSaved=   4.
 NSaved= 4 IEnMin= 4 EnMin= -269.627410551639     IErMin= 4 ErrMin= 6.10D-04
 ErrMax= 6.10D-04  0.00D+00 EMaxC= 1.00D-01 BMatC= 2.05D-04 BMatP= 2.12D-02
 IDIUse=3 WtCom= 9.94D-01 WtEn= 6.10D-03
 Coeff-Com:  0.769D-02 0.148D+00 0.230D+00 0.614D+00
 Coeff-En:   0.000D+00 0.000D+00 0.000D+00 0.100D+01
 Coeff:      0.765D-02 0.147D+00 0.229D+00 0.617D+00
 Gap=     0.496 Goal=   None    Shift=    0.000
 RMSDP=4.61D-05 MaxDP=1.46D-03 DE=-1.41D-02 OVMax= 2.24D-03

 Cycle   5  Pass 1  IDiag  1:
 RMSU=  3.76D-05    CP:  9.60D-01  9.23D-01  7.20D-01  9.95D-01
 E= -269.627551456424     Delta-E=       -0.000140904784 Rises=F Damp=F
 DIIS: error= 1.21D-04 at cycle   5 NSaved=   5.
 NSaved= 5 IEnMin= 5 EnMin= -269.627551456424     IErMin= 5 ErrMin= 1.21D-04
 ErrMax= 1.21D-04  0.00D+00 EMaxC= 1.00D-01 BMatC= 7.44D-06 BMatP= 2.05D-04
 IDIUse=3 WtCom= 9.99D-01 WtEn= 1.21D-03
 Coeff-Com: -0.198D-02-0.318D-01-0.335D-01 0.105D+00 0.963D+00
 Coeff-En:   0.000D+00 0.000D+00 0.000D+00 0.000D+00 0.100D+01
 Coeff:     -0.197D-02-0.318D-01-0.334D-01 0.105D+00 0.963D+00
 Gap=     0.496 Goal=   None    Shift=    0.000
 RMSDP=3.72D-05 MaxDP=7.28D-04 DE=-1.41D-04 OVMax= 9.03D-04

 Cycle   6  Pass 1  IDiag  1:
 RMSU=  9.38D-06    CP:  9.59D-01  9.33D-01  7.45D-01  1.15D+00  1.20D+00
 E= -269.627561735641     Delta-E=       -0.000010279217 Rises=F Damp=F
 DIIS: error= 1.59D-05 at cycle   6 NSaved=   6.
 NSaved= 6 IEnMin= 6 EnMin= -269.627561735641     IErMin= 6 ErrMin= 1.59D-05
 ErrMax= 1.59D-05  0.00D+00 EMaxC= 1.00D-01 BMatC= 1.20D-07 BMatP= 7.44D-06
 IDIUse=1 WtCom= 1.00D+00 WtEn= 0.00D+00
 Coeff-Com: -0.223D-03-0.455D-02-0.724D-02-0.196D-01-0.278D-01 0.106D+01
 Coeff:     -0.223D-03-0.455D-02-0.724D-02-0.196D-01-0.278D-01 0.106D+01
 Gap=     0.496 Goal=   None    Shift=    0.000
 RMSDP=9.19D-06 MaxDP=1.97D-04 DE=-1.03D-05 OVMax= 2.62D-04

 Cycle   7  Pass 1  IDiag  1:
 RMSU=  2.30D-06    CP:  9.59D-01  9.35D-01  7.49D-01  1.19D+00  1.30D+00
                    CP:  1.34D+00
 E= -269.627562053762     Delta-E=       -0.000000318121 Rises=F Damp=F
 DIIS: error= 5.92D-06 at cycle   7 NSaved=   7.
 NSaved= 7 IEnMin= 7 EnMin= -269.627562053762     IErMin= 7 ErrMin= 5.92D-06
 ErrMax= 5.92D-06  0.00D+00 EMaxC= 1.00D-01 BMatC= 1.86D-08 BMatP= 1.20D-07
 IDIUse=1 WtCom= 1.00D+00 WtEn= 0.00D+00
 Coeff-Com:  0.221D-04 0.145D-03-0.382D-03-0.819D-02-0.475D-01 0.249D+00
 Coeff-Com:  0.807D+00
 Coeff:      0.221D-04 0.145D-03-0.382D-03-0.819D-02-0.475D-01 0.249D+00
 Coeff:      0.807D+00
 Gap=     0.496 Goal=   None    Shift=    0.000
 RMSDP=1.62D-06 MaxDP=3.21D-05 DE=-3.18D-07 OVMax= 5.86D-05

 Cycle   8  Pass 1  IDiag  1:
 RMSU=  6.53D-07    CP:  9.59D-01  9.36D-01  7.50D-01  1.19D+00  1.31D+00
                    CP:  1.43D+00  1.22D+00
 E= -269.627562071529     Delta-E=       -0.000000017767 Rises=F Damp=F
 DIIS: error= 3.95D-06 at cycle   8 NSaved=   8.
 NSaved= 8 IEnMin= 8 EnMin= -269.627562071529     IErMin= 8 ErrMin= 3.95D-06
 ErrMax= 3.95D-06  0.00D+00 EMaxC= 1.00D-01 BMatC= 7.23D-09 BMatP= 1.86D-08
 IDIUse=1 WtCom= 1.00D+00 WtEn= 0.00D+00
 Coeff-Com:  0.412D-04 0.731D-03 0.910D-03-0.818D-03-0.185D-01-0.375D-01
 Coeff-Com:  0.403D+00 0.653D+00
 Coeff:      0.412D-04 0.731D-03 0.910D-03-0.818D-03-0.185D-01-0.375D-01
 Coeff:      0.403D+00 0.653D+00
 Gap=     0.496 Goal=   None    Shift=    0.000
 RMSDP=5.86D-07 MaxDP=1.29D-05 DE=-1.78D-08 OVMax= 2.16D-05

 Cycle   9  Pass 1  IDiag  1:
 RMSU=  1.84D-07    CP:  9.59D-01  9.36D-01  7.50D-01  1.19D+00  1.32D+00
                    CP:  1.47D+00  1.36D+00  8.99D-01
 E= -269.627562077318     Delta-E=       -0.000000005789 Rises=F Damp=F
 DIIS: error= 5.22D-07 at cycle   9 NSaved=   9.
 NSaved= 9 IEnMin= 9 EnMin= -269.627562077318     IErMin= 9 ErrMin= 5.22D-07
 ErrMax= 5.22D-07  0.00D+00 EMaxC= 1.00D-01 BMatC= 1.21D-10 BMatP= 7.23D-09
 IDIUse=1 WtCom= 1.00D+00 WtEn= 0.00D+00
 Coeff-Com: -0.200D-05 0.129D-05 0.824D-04 0.852D-03 0.459D-02-0.283D-01
 Coeff-Com: -0.698D-01 0.134D-01 0.108D+01
 Coeff:     -0.200D-05 0.129D-05 0.824D-04 0.852D-03 0.459D-02-0.283D-01
 Coeff:     -0.698D-01 0.134D-01 0.108D+01
 Gap=     0.496 Goal=   None    Shift=    0.000
 RMSDP=2.40D-07 MaxDP=6.39D-06 DE=-5.79D-09 OVMax= 7.68D-06

 Cycle  10  Pass 1  IDiag  1:
 RMSU=  5.40D-08    CP:  9.59D-01  9.36D-01  7.50D-01  1.20D+00  1.32D+00
                    CP:  1.48D+00  1.42D+00  1.02D+00  1.36D+00
 E= -269.627562077590     Delta-E=       -0.000000000272 Rises=F Damp=F
 DIIS: error= 7.77D-08 at cycle  10 NSaved=  10.
 NSaved=10 IEnMin=10 EnMin= -269.627562077590     IErMin=10 ErrMin= 7.77D-08
 ErrMax= 7.77D-08  0.00D+00 EMaxC= 1.00D-01 BMatC= 3.10D-12 BMatP= 1.21D-10
 IDIUse=1 WtCom= 1.00D+00 WtEn= 0.00D+00
 Coeff-Com: -0.688D-06-0.154D-04-0.201D-04 0.463D-04 0.492D-03 0.316D-03
 Coeff-Com: -0.109D-01-0.179D-01 0.968D-02 0.102D+01
 Coeff:     -0.688D-06-0.154D-04-0.201D-04 0.463D-04 0.492D-03 0.316D-03
 Coeff:     -0.109D-01-0.179D-01 0.968D-02 0.102D+01
 Gap=     0.496 Goal=   None    Shift=    0.000
 RMSDP=3.37D-08 MaxDP=1.03D-06 DE=-2.72D-10 OVMax= 1.23D-06

 Cycle  11  Pass 1  IDiag  1:
 RMSU=  1.12D-08    CP:  9.59D-01  9.36D-01  7.50D-01  1.20D+00  1.32D+00
                    CP:  1.48D+00  1.42D+00  1.03D+00  1.46D+00  1.33D+00
 E= -269.627562077587     Delta-E=        0.000000000003 Rises=F Damp=F
 DIIS: error= 4.16D-08 at cycle  11 NSaved=  11.
 NSaved=11 IEnMin=10 EnMin= -269.627562077590     IErMin=11 ErrMin= 4.16D-08
 ErrMax= 4.16D-08  0.00D+00 EMaxC= 1.00D-01 BMatC= 7.37D-13 BMatP= 3.10D-12
 IDIUse=1 WtCom= 1.00D+00 WtEn= 0.00D+00
 Coeff-Com:  0.466D-07-0.284D-05-0.115D-04-0.641D-04-0.322D-03 0.273D-02
 Coeff-Com:  0.378D-02-0.624D-02-0.977D-01 0.331D+00 0.767D+00
 Coeff:      0.466D-07-0.284D-05-0.115D-04-0.641D-04-0.322D-03 0.273D-02
 Coeff:      0.378D-02-0.624D-02-0.977D-01 0.331D+00 0.767D+00
 Gap=     0.496 Goal=   None    Shift=    0.000
 RMSDP=9.02D-09 MaxDP=2.57D-07 DE= 2.73D-12 OVMax= 3.03D-07

 Error on total polarization charges =  0.04258
 SCF Done:  E(RwB97XD) =  -269.627562078     A.U. after   11 cycles
            NFock= 11  Conv=0.90D-08     -V/T= 2.0050
 KE= 2.682765791678D+02 PE=-1.021766543841D+03 EE= 2.889242344879D+02
 SMD-CDS (non-electrostatic) energy       (kcal/mol) =       2.96
 (included in total energy above)
 Leave Link  502 at Wed Oct 22 10:09:58 2025, MaxMem=  4294967296 cpu:             388.5 elap:              48.7
 (Enter /lrz/sys/applications/gaussian/g16.C.01/x86_64_legacy/exe/l601.exe)
 Copying SCF densities to generalized density rwf, IOpCl= 0 IROHF=0.

 **********************************************************************

            Population analysis using the SCF Density.

 **********************************************************************

 Orbital symmetries:
       Occupied  (A) (A) (A) (A) (A) (A) (A) (A) (A) (A) (A) (A)
                 (A) (A) (A) (A) (A) (A) (A) (A) (A)
       Virtual   (A) (A) (A) (A) (A) (A) (A) (A) (A) (A) (A) (A)
                 (A) (A) (A) (A) (A) (A) (A) (A) (A) (A) (A) (A)
                 (A) (A) (A) (A) (A) (A) (A) (A) (A) (A) (A) (A)
                 (A) (A) (A) (A) (A) (A) (A) (A) (A) (A) (A) (A)
                 (A) (A) (A) (A) (A) (A) (A) (A) (A) (A) (A) (A)
                 (A) (A) (A) (A) (A) (A) (A) (A) (A) (A) (A) (A)
                 (A) (A) (A) (A) (A) (A) (A) (A) (A) (A) (A) (A)
                 (A) (A) (A) (A) (A) (A) (A) (A) (A) (A) (A) (A)
                 (A) (A) (A) (A) (A) (A) (A) (A) (A) (A) (A) (A)
                 (A) (A) (A) (A) (A) (A) (A) (A) (A) (A) (A) (A)
                 (A) (A) (A) (A) (A) (A) (A) (A) (A) (A) (A) (A)
                 (A) (A) (A) (A) (A) (A) (A) (A) (A) (A) (A) (A)
                 (A) (A) (A) (A) (A) (A) (A) (A) (A) (A) (A) (A)
                 (A) (A) (A) (A) (A) (A) (A) (A) (A) (A) (A) (A)
                 (A) (A) (A) (A) (A) (A) (A) (A) (A) (A) (A) (A)
                 (A) (A)
 The electronic state is 1-A.
 Alpha  occ. eigenvalues --  -19.25541 -19.25523 -10.37671 -10.27515 -10.26717
 Alpha  occ. eigenvalues --   -1.16804  -1.09923  -0.87165  -0.76262  -0.69055
 Alpha  occ. eigenvalues --   -0.64223  -0.57375  -0.53125  -0.51822  -0.50222
 Alpha  occ. eigenvalues --   -0.47348  -0.43779  -0.41901  -0.40480  -0.40042
 Alpha  occ. eigenvalues --   -0.37198
 Alpha virt. eigenvalues --    0.12393   0.14166   0.15112   0.17294   0.18743
 Alpha virt. eigenvalues --    0.20290   0.20891   0.22557   0.24593   0.26586
 Alpha virt. eigenvalues --    0.28363   0.30761   0.31398   0.33321   0.34966
 Alpha virt. eigenvalues --    0.35787   0.39757   0.40511   0.43097   0.44278
 Alpha virt. eigenvalues --    0.46794   0.49158   0.50064   0.50590   0.51388
 Alpha virt. eigenvalues --    0.53262   0.54186   0.55461   0.57482   0.58560
 Alpha virt. eigenvalues --    0.59689   0.61410   0.65048   0.65684   0.67625
 Alpha virt. eigenvalues --    0.67776   0.71246   0.78469   0.80623   0.87633
 Alpha virt. eigenvalues --    0.89610   0.91752   0.93063   0.94412   0.97087
 Alpha virt. eigenvalues --    1.03609   1.06527   1.09741   1.12113   1.16061
 Alpha virt. eigenvalues --    1.19739   1.23092   1.23785   1.27141   1.31801
 Alpha virt. eigenvalues --    1.41565   1.47201   1.51463   1.57782   1.59846
 Alpha virt. eigenvalues --    1.62143   1.64239   1.64489   1.66288   1.67397
 Alpha virt. eigenvalues --    1.69898   1.71923   1.73427   1.76961   1.80069
 Alpha virt. eigenvalues --    1.84614   1.87699   1.91108   1.94333   1.97575
 Alpha virt. eigenvalues --    1.98302   1.99853   2.04031   2.05229   2.15276
 Alpha virt. eigenvalues --    2.18718   2.19860   2.22304   2.24797   2.27232
 Alpha virt. eigenvalues --    2.29880   2.33615   2.36561   2.37907   2.40147
 Alpha virt. eigenvalues --    2.41778   2.43073   2.49842   2.51228   2.54455
 Alpha virt. eigenvalues --    2.57469   2.58783   2.64539   2.65128   2.68642
 Alpha virt. eigenvalues --    2.72456   2.73318   2.74727   2.77950   2.81570
 Alpha virt. eigenvalues --    2.82514   2.85742   2.87382   2.90815   2.99846
 Alpha virt. eigenvalues --    3.01267   3.03558   3.11064   3.12432   3.17022
 Alpha virt. eigenvalues --    3.19868   3.22681   3.23876   3.28311   3.30604
 Alpha virt. eigenvalues --    3.32659   3.34699   3.39470   3.40656   3.43172
 Alpha virt. eigenvalues --    3.48359   3.49984   3.51982   3.60939   3.62989
 Alpha virt. eigenvalues --    3.64711   3.70690   3.71960   3.72914   3.86830
 Alpha virt. eigenvalues --    3.90564   3.94872   3.97398   4.05067   4.07126
 Alpha virt. eigenvalues --    4.13563   4.15682   4.24357   4.34061   4.39729
 Alpha virt. eigenvalues --    4.48057   4.57539   4.63033   4.64433   4.66169
 Alpha virt. eigenvalues --    4.82061   4.88963   4.95229   5.31130   5.33522
 Alpha virt. eigenvalues --    5.40123   5.44013   5.52261   5.54202   5.65743
 Alpha virt. eigenvalues --    5.79917   5.89878   5.96728   6.00966   6.23239
 Alpha virt. eigenvalues --    6.35367   6.36886   6.53413   6.58309   6.76457
 Alpha virt. eigenvalues --    6.79773   6.82643   6.99401   7.06015   7.08739
 Alpha virt. eigenvalues --    7.21034   7.31616  22.40719  22.54830  22.72013
 Alpha virt. eigenvalues --   43.90680  43.94395
          Condensed to atoms (all electrons):
               1          2          3          4          5          6
     1  O    8.139422   0.294417  -0.077778  -0.080630   0.003140   0.303559
     2  C    0.294417   4.588217   0.286204   0.337576  -0.056023  -0.026200
     3  O   -0.077778   0.286204   8.131598  -0.049779   0.009027   0.004219
     4  C   -0.080630   0.337576  -0.049779   5.037133   0.297304   0.011964
     5  C    0.003140  -0.056023   0.009027   0.297304   4.996400  -0.000154
     6  H    0.303559  -0.026200   0.004219   0.011964  -0.000154   0.341223
     7  H   -0.055100   0.449500  -0.047004  -0.057040  -0.011521  -0.008307
     8  H    0.002671  -0.019924   0.296394  -0.011325  -0.000032  -0.001053
     9  H    0.005174  -0.036948   0.003711   0.406014  -0.023721  -0.000555
    10  H    0.001831  -0.019741  -0.003910   0.397598  -0.034613  -0.000550
    11  H    0.010631  -0.008261   0.000327  -0.037353   0.409981  -0.000665
    12  H    0.000033   0.009456  -0.000309  -0.034047   0.407843   0.000050
    13  H   -0.000430   0.000753  -0.000026  -0.038865   0.406239  -0.000115
               7          8          9         10         11         12
     1  O   -0.055100   0.002671   0.005174   0.001831   0.010631   0.000033
     2  C    0.449500  -0.019924  -0.036948  -0.019741  -0.008261   0.009456
     3  O   -0.047004   0.296394   0.003711  -0.003910   0.000327  -0.000309
     4  C   -0.057040  -0.011325   0.406014   0.397598  -0.037353  -0.034047
     5  C   -0.011521  -0.000032  -0.023721  -0.034613   0.409981   0.407843
     6  H   -0.008307  -0.001053  -0.000555  -0.000550  -0.000665   0.000050
     7  H    0.597365   0.009123  -0.002858   0.008203   0.001510  -0.000419
     8  H    0.009123   0.349874  -0.000532   0.006060   0.000038  -0.000054
     9  H   -0.002858  -0.000532   0.558714  -0.024663   0.006073  -0.005073
    10  H    0.008203   0.006060  -0.024663   0.556850  -0.002593  -0.004835
    11  H    0.001510   0.000038   0.006073  -0.002593   0.542556  -0.021756
    12  H   -0.000419  -0.000054  -0.005073  -0.004835  -0.021756   0.532574
    13  H    0.003844   0.000043  -0.004192   0.006207  -0.025607  -0.022212
              13
     1  O   -0.000430
     2  C    0.000753
     3  O   -0.000026
     4  C   -0.038865
     5  C    0.406239
     6  H   -0.000115
     7  H    0.003844
     8  H    0.000043
     9  H   -0.004192
    10  H    0.006207
    11  H   -0.025607
    12  H   -0.022212
    13  H    0.548181
 Mulliken charges:
               1
     1  O   -0.546940
     2  C    0.200972
     3  O   -0.552675
     4  C   -0.178550
     5  C   -0.403871
     6  H    0.376584
     7  H    0.112705
     8  H    0.368717
     9  H    0.118855
    10  H    0.114156
    11  H    0.125117
    12  H    0.138750
    13  H    0.126179
 Sum of Mulliken charges =  -0.00000
 Mulliken charges with hydrogens summed into heavy atoms:
               1
     1  O   -0.170356
     2  C    0.313676
     3  O   -0.183957
     4  C    0.054461
     5  C   -0.013824
 Electronic spatial extent (au):  <R**2>=            479.6628
 Charge=             -0.0000 electrons
 Dipole moment (field-independent basis, Debye):
    X=              0.2927    Y=             -0.1637    Z=             -0.0120  Tot=              0.3355
 Quadrupole moment (field-independent basis, Debye-Ang):
   XX=            -32.5269   YY=            -31.4286   ZZ=            -29.6088
   XY=             -3.8598   XZ=              1.7077   YZ=              4.1042
 Traceless Quadrupole moment (field-independent basis, Debye-Ang):
   XX=             -1.3388   YY=             -0.2405   ZZ=              1.5793
   XY=             -3.8598   XZ=              1.7077   YZ=              4.1042
 Octapole moment (field-independent basis, Debye-Ang**2):
  XXX=             -6.5651  YYY=              5.9968  ZZZ=             -0.3988  XYY=             -7.9602
  XXY=              6.2084  XXZ=             -5.6149  XZZ=             -5.7456  YZZ=             -1.3783
  YYZ=              0.9110  XYZ=             -5.7853
 Hexadecapole moment (field-independent basis, Debye-Ang**3):
 XXXX=           -400.2594 YYYY=           -142.8938 ZZZZ=            -59.2631 XXXY=            -15.1339
 XXXZ=              8.4613 YYYX=            -13.9626 YYYZ=              6.0324 ZZZX=              3.8535
 ZZZY=              3.8658 XXYY=            -80.9520 XXZZ=            -70.8252 YYZZ=            -36.1935
 XXYZ=              9.8871 YYXZ=              0.1682 ZZXY=              2.4464
 N-N= 1.949381681080D+02 E-N=-1.021766549600D+03  KE= 2.682765791678D+02
 No NMR shielding tensors so no spin-rotation constants.
 Leave Link  601 at Wed Oct 22 10:09:58 2025, MaxMem=  4294967296 cpu:               1.1 elap:               0.2
 (Enter /lrz/sys/applications/gaussian/g16.C.01/x86_64_legacy/exe/l9999.exe)
 Unable to Open any file for archive entry.
 1\1\GINC-CM4R15C05S03\SP\RwB97XD\def2TZVP\C3H8O2\GO29TIZ2\22-Oct-2025\
 0\\#p wb97xd scrf=(smd,solvent=water) def2tzvp\\g16_g16_C2-w_2\\0,1\O,
 0,-0.618029,1.292413,-0.241714\C,0,-0.514489,0.010076,0.323825\O,0,-1.
 675671,-0.74673,0.089156\C,0,0.724403,-0.66096,-0.242534\C,0,2.023716,
 0.055069,0.096926\H,0,-1.321923,1.762581,0.222211\H,0,-0.441367,0.0848
 85,1.423598\H,0,-1.7151,-0.937116,-0.858205\H,0,0.742982,-1.691949,0.1
 42277\H,0,0.596475,-0.728223,-1.337557\H,0,2.034986,1.075957,-0.312252
 \H,0,2.888751,-0.484021,-0.316257\H,0,2.163018,0.127309,1.187347\\Vers
 ion=EM64L-G16RevC.01\State=1-A\HF=-269.6275621\RMSD=9.020e-09\Dipole=0
 .1151452,-0.0643925,-0.0047024\Quadrupole=-0.9953922,-0.1787972,1.1741
 894,-2.8696765,1.2696023,3.0513748\PG=C01 [X(C3H8O2)]\\@
 The archive entry for this job was punched.


 THE TRULY SUCCESSFUL PERFORMANCE OF RESEARCHES IN
 INORGANIC CHEMISTRY IS POSSIBLE ONLY TO ONE WHO IS NOT
 ONLY A THEORETICAL CHEMIST, BUT ALSO AN ACCOMPLISHED
 ANALYST AND, MOREOVER, NOT MERELY A PRACTICALLY TRAINED,
 MECHANICAL WORKER, BUT A THINKING CREATIVE ARTIST.
   --  CLEMENS WINKLER, BER. 33, 1697(1900)
 Job cpu time:       0 days  0 hours  6 minutes 49.2 seconds.
 Elapsed time:       0 days  0 hours  0 minutes 51.5 seconds.
 File lengths (MBytes):  RWF=    272 Int=      0 D2E=      0 Chk=      8 Scr=     32
 Normal termination of Gaussian 16 at Wed Oct 22 10:09:58 2025.
