 Entering Gaussian System, Link 0=g16
 Input=../../g16_g16_C2-a_16.com
 Output=../../g16_g16_C2-a_16.log
 Initial command:
 /lrz/sys/applications/gaussian/g16.C.01/x86_64_legacy/exe/l1.exe "/dss/lxclscratch/0D/go29tiz2/Gau-13687.inp" -scrdir="/dss/lxclscratch/0D/go29tiz2/"
 Entering Link 1 = /lrz/sys/applications/gaussian/g16.C.01/x86_64_legacy/exe/l1.exe PID=     13691.
  
 Copyright (c) 1988-2019, Gaussian, Inc.  All Rights Reserved.
  
 This is part of the Gaussian(R) 16 program.  It is based on
 the Gaussian(R) 09 system (copyright 2009, Gaussian, Inc.),
 the Gaussian(R) 03 system (copyright 2003, Gaussian, Inc.),
 the Gaussian(R) 98 system (copyright 1998, Gaussian, Inc.),
 the Gaussian(R) 94 system (copyright 1995, Gaussian, Inc.),
 the Gaussian 92(TM) system (copyright 1992, Gaussian, Inc.),
 the Gaussian 90(TM) system (copyright 1990, Gaussian, Inc.),
 the Gaussian 88(TM) system (copyright 1988, Gaussian, Inc.),
 the Gaussian 86(TM) system (copyright 1986, Carnegie Mellon
 University), and the Gaussian 82(TM) system (copyright 1983,
 Carnegie Mellon University). Gaussian is a federally registered
 trademark of Gaussian, Inc.
  
 This software contains proprietary and confidential information,
 including trade secrets, belonging to Gaussian, Inc.
  
 This software is provided under written license and may be
 used, copied, transmitted, or stored only in accord with that
 written license.
  
 The following legend is applicable only to US Government
 contracts under FAR:
  
                    RESTRICTED RIGHTS LEGEND
  
 Use, reproduction and disclosure by the US Government is
 subject to restrictions as set forth in subparagraphs (a)
 and (c) of the Commercial Computer Software - Restricted
 Rights clause in FAR 52.227-19.
  
 Gaussian, Inc.
 340 Quinnipiac St., Bldg. 40, Wallingford CT 06492
  
  
 ---------------------------------------------------------------
 Warning -- This program may not be used in any manner that
 competes with the business of Gaussian, Inc. or will provide
 assistance to any competitor of Gaussian, Inc.  The licensee
 of this program is prohibited from giving any competitor of
 Gaussian, Inc. access to this program.  By using this program,
 the user acknowledges that Gaussian, Inc. is engaged in the
 business of creating and licensing software in the field of
 computational chemistry and represents and warrants to the
 licensee that it is not a competitor of Gaussian, Inc. and that
 it will not use this program in any manner prohibited above.
 ---------------------------------------------------------------
  

 Cite this work as:
 Gaussian 16, Revision C.01,
 M. J. Frisch, G. W. Trucks, H. B. Schlegel, G. E. Scuseria, 
 M. A. Robb, J. R. Cheeseman, G. Scalmani, V. Barone, 
 G. A. Petersson, H. Nakatsuji, X. Li, M. Caricato, A. V. Marenich, 
 J. Bloino, B. G. Janesko, R. Gomperts, B. Mennucci, H. P. Hratchian, 
 J. V. Ortiz, A. F. Izmaylov, J. L. Sonnenberg, D. Williams-Young, 
 F. Ding, F. Lipparini, F. Egidi, J. Goings, B. Peng, A. Petrone, 
 T. Henderson, D. Ranasinghe, V. G. Zakrzewski, J. Gao, N. Rega, 
 G. Zheng, W. Liang, M. Hada, M. Ehara, K. Toyota, R. Fukuda, 
 J. Hasegawa, M. Ishida, T. Nakajima, Y. Honda, O. Kitao, H. Nakai, 
 T. Vreven, K. Throssell, J. A. Montgomery, Jr., J. E. Peralta, 
 F. Ogliaro, M. J. Bearpark, J. J. Heyd, E. N. Brothers, K. N. Kudin, 
 V. N. Staroverov, T. A. Keith, R. Kobayashi, J. Normand, 
 K. Raghavachari, A. P. Rendell, J. C. Burant, S. S. Iyengar, 
 J. Tomasi, M. Cossi, J. M. Millam, M. Klene, C. Adamo, R. Cammi, 
 J. W. Ochterski, R. L. Martin, K. Morokuma, O. Farkas, 
 J. B. Foresman, and D. J. Fox, Gaussian, Inc., Wallingford CT, 2019.
 
 ******************************************
 Gaussian 16:  EM64L-G16RevC.01  3-Jul-2019
                22-Oct-2025 
 ******************************************
 %chk=g16_g16_C2-a_16.chk
 %nprocshared=8
 Will use up to    8 processors via shared memory.
 %mem=32GB
 -------------------------------------------
 #p wb97xd scrf=(smd,solvent=water) def2tzvp
 -------------------------------------------
 1/38=1,172=1/1;
 2/12=2,17=6,18=5,40=1/2;
 3/5=44,7=101,11=2,25=1,30=1,70=32201,72=1,74=-58/1,2,3;
 4//1;
 5/5=2,38=5,53=1/2;
 6/7=2,8=2,9=2,10=2,28=1/1;
 99/5=1,9=1/99;
 Leave Link    1 at Wed Oct 22 10:06:35 2025, MaxMem=  4294967296 cpu:               5.4 elap:               0.8
 (Enter /lrz/sys/applications/gaussian/g16.C.01/x86_64_legacy/exe/l101.exe)
 ---------------
 g16_g16_C2-a_16
 ---------------
 Symbolic Z-matrix:
 Charge =  0 Multiplicity = 1
 O                    -0.53684   1.40349  -0.04435 
 C                    -0.52435   0.04061   0.33054 
 N                    -1.79441  -0.58813   0.01463 
 C                     0.68323  -0.67636  -0.27127 
 C                     2.02319  -0.05809   0.10121 
 H                    -0.47956   1.44215  -1.00812 
 H                    -0.42579   0.0457    1.42811 
 H                    -1.77921  -0.88175  -0.96436 
 H                    -1.87049  -1.45256   0.55022 
 H                     0.55701  -0.68302  -1.37015 
 H                     0.64631  -1.72915   0.05266 
 H                     2.17144  -0.06283   1.19314 
 H                     2.85808  -0.61259  -0.35249 
 H                     2.08549   0.986    -0.23958 
 
 ITRead=  0  0  0  0  0  0  0  0  0  0  0  0  0  0
 MicOpt= -1 -1 -1 -1 -1 -1 -1 -1 -1 -1 -1 -1 -1 -1
 NAtoms=     14 NQM=       14 NQMF=       0 NMMI=      0 NMMIF=      0
                NMic=       0 NMicF=      0.
                    Isotopes and Nuclear Properties:
 (Nuclear quadrupole moments (NQMom) in fm**2, nuclear magnetic moments (NMagM)
  in nuclear magnetons)

  Atom         1           2           3           4           5           6           7           8           9          10
 IAtWgt=          16          12          14          12          12           1           1           1           1           1
 AtmWgt=  15.9949146  12.0000000  14.0030740  12.0000000  12.0000000   1.0078250   1.0078250   1.0078250   1.0078250   1.0078250
 NucSpn=           0           0           2           0           0           1           1           1           1           1
 AtZEff=  -0.0000000  -0.0000000  -0.0000000  -0.0000000  -0.0000000  -0.0000000  -0.0000000  -0.0000000  -0.0000000  -0.0000000
 NQMom=    0.0000000   0.0000000   2.0440000   0.0000000   0.0000000   0.0000000   0.0000000   0.0000000   0.0000000   0.0000000
 NMagM=    0.0000000   0.0000000   0.4037610   0.0000000   0.0000000   2.7928460   2.7928460   2.7928460   2.7928460   2.7928460
 AtZNuc=   8.0000000   6.0000000   7.0000000   6.0000000   6.0000000   1.0000000   1.0000000   1.0000000   1.0000000   1.0000000

  Atom        11          12          13          14
 IAtWgt=           1           1           1           1
 AtmWgt=   1.0078250   1.0078250   1.0078250   1.0078250
 NucSpn=           1           1           1           1
 AtZEff=  -0.0000000  -0.0000000  -0.0000000  -0.0000000
 NQMom=    0.0000000   0.0000000   0.0000000   0.0000000
 NMagM=    2.7928460   2.7928460   2.7928460   2.7928460
 AtZNuc=   1.0000000   1.0000000   1.0000000   1.0000000
 Leave Link  101 at Wed Oct 22 10:06:35 2025, MaxMem=  4294967296 cpu:               1.6 elap:               0.2
 (Enter /lrz/sys/applications/gaussian/g16.C.01/x86_64_legacy/exe/l202.exe)
                          Input orientation:                          
 ---------------------------------------------------------------------
 Center     Atomic      Atomic             Coordinates (Angstroms)
 Number     Number       Type             X           Y           Z
 ---------------------------------------------------------------------
      1          8           0       -0.536844    1.403494   -0.044347
      2          6           0       -0.524352    0.040609    0.330542
      3          7           0       -1.794411   -0.588127    0.014629
      4          6           0        0.683225   -0.676360   -0.271267
      5          6           0        2.023186   -0.058085    0.101214
      6          1           0       -0.479559    1.442146   -1.008119
      7          1           0       -0.425790    0.045696    1.428108
      8          1           0       -1.779205   -0.881754   -0.964355
      9          1           0       -1.870492   -1.452556    0.550217
     10          1           0        0.557010   -0.683020   -1.370150
     11          1           0        0.646314   -1.729150    0.052656
     12          1           0        2.171438   -0.062826    1.193136
     13          1           0        2.858082   -0.612592   -0.352485
     14          1           0        2.085486    0.986003   -0.239575
 ---------------------------------------------------------------------
                    Distance matrix (angstroms):
                    1          2          3          4          5
     1  O    0.000000
     2  C    1.413561   0.000000
     3  N    2.356164   1.451950   0.000000
     4  C    2.421952   1.527894   2.495637   0.000000
     5  C    2.951467   2.559743   3.855190   1.522006   0.000000
     6  H    0.966246   1.938640   2.626187   2.526477   3.121706
     7  H    2.006009   1.101994   2.067070   2.153870   2.787275
     8  H    2.759028   2.025381   1.022183   2.566344   4.033862
     9  H    3.207670   2.022348   1.019745   2.792631   4.160154
    10  H    2.703296   2.141340   2.730531   1.106128   2.169131
    11  H    3.350034   2.140030   2.694535   1.102114   2.165778
    12  H    3.319074   2.832323   4.170465   2.176161   1.101950
    13  H    3.960439   3.511988   4.667019   2.177307   1.100169
    14  H    2.662523   2.833736   4.194771   2.175038   1.100063
                    6          7          8          9         10
     6  H    0.000000
     7  H    2.808588   0.000000
     8  H    2.662988   2.900995   0.000000
     9  H    3.569651   2.258897   1.621134   0.000000
    10  H    2.392044   3.054042   2.379509   3.189477   0.000000
    11  H    3.528449   2.488243   2.763247   2.580384   1.768259
    12  H    3.760086   2.610092   4.575259   4.322255   3.092160
    13  H    3.973871   3.793108   4.685218   4.886699   2.517049
    14  H    2.716281   3.157824   4.353121   4.713820   2.529837
                   11         12         13         14
    11  H    0.000000
    12  H    2.530481   0.000000
    13  H    2.510530   1.778389   0.000000
    14  H    3.086855   1.777664   1.779089   0.000000
 Stoichiometry    C3H9NO
 Framework group  C1[X(C3H9NO)]
 Deg. of freedom    36
 Full point group                 C1      NOp   1
 Largest Abelian subgroup         C1      NOp   1
 Largest concise Abelian subgroup C1      NOp   1
                         Standard orientation:                         
 ---------------------------------------------------------------------
 Center     Atomic      Atomic             Coordinates (Angstroms)
 Number     Number       Type             X           Y           Z
 ---------------------------------------------------------------------
      1          8           0       -0.536844    1.403494   -0.044347
      2          6           0       -0.524352    0.040609    0.330542
      3          7           0       -1.794411   -0.588126    0.014629
      4          6           0        0.683225   -0.676360   -0.271267
      5          6           0        2.023186   -0.058085    0.101214
      6          1           0       -0.479559    1.442146   -1.008119
      7          1           0       -0.425790    0.045696    1.428108
      8          1           0       -1.779205   -0.881753   -0.964355
      9          1           0       -1.870493   -1.452555    0.550217
     10          1           0        0.557010   -0.683020   -1.370150
     11          1           0        0.646313   -1.729150    0.052656
     12          1           0        2.171438   -0.062826    1.193136
     13          1           0        2.858082   -0.612593   -0.352485
     14          1           0        2.085486    0.986003   -0.239575
 ---------------------------------------------------------------------
 Rotational constants (GHZ):           8.1828808           3.5343429           2.7403843
 Leave Link  202 at Wed Oct 22 10:06:35 2025, MaxMem=  4294967296 cpu:               0.1 elap:               0.0
 (Enter /lrz/sys/applications/gaussian/g16.C.01/x86_64_legacy/exe/l301.exe)
 Standard basis: def2TZVP (5D, 7F)
 Ernie: Thresh=  0.10000D-02 Tol=  0.10000D-05 Strict=F.
 There are   234 symmetry adapted cartesian basis functions of A   symmetry.
 There are   209 symmetry adapted basis functions of A   symmetry.
   209 basis functions,   327 primitive gaussians,   234 cartesian basis functions
    21 alpha electrons       21 beta electrons
       nuclear repulsion energy       195.0683391335 Hartrees.
 IExCor= 4639 DFT=T Ex+Corr=wB97XD ExCW=0 ScaHFX=  1.000000
 ScaDFX=  1.000000  1.000000  1.000000  1.000000 ScalE2=  1.000000  1.000000
 IRadAn=      5 IRanWt=     -1 IRanGd=            0 ICorTp=0 IEmpDi=121
 HFx  wShort=  0.000000 wLong=  0.200000 cFull=  0.222036 cShort=  0.000000 cLong=  0.777964
 DFx  wShort=  0.000000 wLong=  0.200000 cFull=  0.000000 cShort=  0.000000 cLong=  1.000000
 NAtoms=   14 NActive=   14 NUniq=   14 SFac= 1.00D+00 NAtFMM=   60 NAOKFM=F Big=F
 Integral buffers will be    131072 words long.
 Raffenetti 2 integral format.
 Two-electron integral symmetry is turned on.
 R6Disp:  Grimme-D2 Dispersion energy=       -0.0067409766 Hartrees.
 Nuclear repulsion after empirical dispersion term =      195.0615981569 Hartrees.
 ------------------------------------------------------------------------------
 Polarizable Continuum Model (PCM)
 =================================
 Model                : PCM.
 Atomic radii         : SMD-Coulomb.
 Polarization charges : Total charges.
 Charge compensation  : None.
 Solution method      : On-the-fly selection.
 Cavity type          : VdW (van der Waals Surface) (Alpha=1.000).
 Cavity algorithm     : GePol (No added spheres)
                        Default sphere list used, NSphG=   14.
                        Lebedev-Laikov grids with approx.  5.0 points / Ang**2.
                        Smoothing algorithm: York/Karplus (Gamma=1.0000).
                        Polarization charges: spherical gaussians, with
                                              point-specific exponents (IZeta= 3).
                        Self-potential: point-specific (ISelfS= 7).
                        Self-field    : sphere-specific E.n sum rule (ISelfD= 2).
 Solvent              : Water, Eps=  78.355300 Eps(inf)=   1.777849
 ------------------------------------------------------------------------------
 Spheres list:
 ISph  on   Nord     Re0    Alpha      Xe            Ye            Ze
    1   O      1    1.5200  1.000     -0.536844      1.403494     -0.044347
    2   C      2    1.8500  1.000     -0.524352      0.040609      0.330542
    3   N      3    1.8900  1.000     -1.794411     -0.588126      0.014629
    4   C      4    1.8500  1.000      0.683225     -0.676360     -0.271267
    5   C      5    1.8500  1.000      2.023186     -0.058085      0.101214
    6   H      6    1.2000  1.000     -0.479559      1.442146     -1.008119
    7   H      7    1.2000  1.000     -0.425790      0.045696      1.428108
    8   H      8    1.2000  1.000     -1.779205     -0.881753     -0.964355
    9   H      9    1.2000  1.000     -1.870493     -1.452555      0.550217
   10   H     10    1.2000  1.000      0.557010     -0.683020     -1.370150
   11   H     11    1.2000  1.000      0.646313     -1.729150      0.052656
   12   H     12    1.2000  1.000      2.171438     -0.062826      1.193136
   13   H     13    1.2000  1.000      2.858082     -0.612593     -0.352485
   14   H     14    1.2000  1.000      2.085486      0.986003     -0.239575
 ------------------------------------------------------------------------------
 GePol: Number of generator spheres                  =      14
 GePol: Total number of spheres                      =      14
 GePol: Number of exposed spheres                    =      14 (100.00%)
 GePol: Number of points                             =     993
 GePol: Average weight of points                     =       0.12
 GePol: Minimum weight of points                     =   0.35D-08
 GePol: Maximum weight of points                     =    0.21991
 GePol: Number of points with low weight             =      49
 GePol: Fraction of low-weight points (<1% of avg)   =       4.93%
 GePol: Cavity surface area                          =    118.555 Ang**2
 GePol: Cavity volume                                =     90.704 Ang**3
 ------------------------------------------------------------------------------
 Atomic radii for non-electrostatic terms: SMD-CDS.
 ------------------------------------------------------------------------------
 PCM non-electrostatic energy =         0.0025317637 Hartrees.
 Nuclear repulsion after PCM non-electrostatic terms =      195.0641299206 Hartrees.
 Leave Link  301 at Wed Oct 22 10:06:35 2025, MaxMem=  4294967296 cpu:               0.6 elap:               0.1
 (Enter /lrz/sys/applications/gaussian/g16.C.01/x86_64_legacy/exe/l302.exe)
 NPDir=0 NMtPBC=     1 NCelOv=     1 NCel=       1 NClECP=     1 NCelD=      1
         NCelK=      1 NCelE2=     1 NClLst=     1 CellRange=     0.0.
 One-electron integrals computed using PRISM.
 One-electron integral symmetry used in STVInt
   1 Symmetry operations used in ECPInt.
 ECPInt:  NShTT=    4186 NPrTT=   12072 LenC2=    4158 LenP2D=   10139.
 LDataN:  DoStor=T MaxTD1= 6 Len=  172
 NBasis=   209 RedAO= T EigKep=  2.64D-04  NBF=   209
 NBsUse=   209 1.00D-06 EigRej= -1.00D+00 NBFU=   209
 Precomputing XC quadrature grid using
 IXCGrd= 4 IRadAn=           5 IRanWt=          -1 IRanGd=           0 AccXCQ= 0.00D+00.
 Generated NRdTot=       0 NPtTot=           0 NUsed=           0 NTot=          32
 NSgBfM=   234   234   234   234   234 MxSgAt=    14 MxSgA2=    14.
 Leave Link  302 at Wed Oct 22 10:06:35 2025, MaxMem=  4294967296 cpu:               1.9 elap:               0.2
 (Enter /lrz/sys/applications/gaussian/g16.C.01/x86_64_legacy/exe/l303.exe)
 DipDrv:  MaxL=1.
 Leave Link  303 at Wed Oct 22 10:06:35 2025, MaxMem=  4294967296 cpu:               0.3 elap:               0.1
 (Enter /lrz/sys/applications/gaussian/g16.C.01/x86_64_legacy/exe/l401.exe)
 ExpMin= 9.52D-02 ExpMax= 2.70D+04 ExpMxC= 9.22D+02 IAcc=3 IRadAn=         5 AccDes= 0.00D+00
 Harris functional with IExCor= 4639 and IRadAn=       5 diagonalized for initial guess.
 HarFok:  IExCor= 4639 AccDes= 0.00D+00 IRadAn=         5 IDoV= 1 UseB2=F ITyADJ=14
 ICtDFT=  3500011 ScaDFX=  1.000000  1.000000  1.000000  1.000000
 FoFCou: FMM=F IPFlag=           0 FMFlag=      100000 FMFlg1=           0
         NFxFlg=           0 DoJE=T BraDBF=F KetDBF=T FulRan=T
         wScrn=  0.000000 ICntrl=       500 IOpCl=  0 I1Cent=   200000004 NGrid=           0
         NMat0=    1 NMatS0=      1 NMatT0=    0 NMatD0=    1 NMtDS0=    0 NMtDT0=    0
 Petite list used in FoFCou.
 Harris En= -238.840626629675    
 JPrj=0 DoOrth=F DoCkMO=F.
 Leave Link  401 at Wed Oct 22 10:06:37 2025, MaxMem=  4294967296 cpu:              11.3 elap:               1.4
 (Enter /lrz/sys/applications/gaussian/g16.C.01/x86_64_legacy/exe/l502.exe)
 Integral symmetry usage will be decided dynamically.
 Closed shell SCF:
 Using DIIS extrapolation, IDIIS=  1040.
 NGot=  4294967296 LenX=  4294853286 LenY=  4294798089
 Requested convergence on RMS density matrix=1.00D-08 within 128 cycles.
 Requested convergence on MAX density matrix=1.00D-06.
 Requested convergence on             energy=1.00D-06.
 No special actions if energy rises.
 Fock matrices will be formed incrementally for  20 cycles.

 Cycle   1  Pass 1  IDiag  1:
 FoFJK:  IHMeth= 1 ICntrl=       0 DoSepK=T KAlg= 0 I1Cent=           0 FoldK=F
 IRaf=         1 NMat=       1 IRICut=       1 DoRegI=T DoRafI=F ISym2E= 0 IDoP0=0 IntGTp=1.
 FoFCou: FMM=F IPFlag=           0 FMFlag=      100000 FMFlg1=           0
         NFxFlg=           0 DoJE=T BraDBF=F KetDBF=F FulRan=T
         wScrn=  0.000000 ICntrl=       500 IOpCl=  0 I1Cent=           0 NGrid=           0
         NMat0=    1 NMatS0=      1 NMatT0=    0 NMatD0=    1 NMtDS0=    0 NMtDT0=    0
 Symmetry not used in FoFCou.
 Inv3:  Mode=1 IEnd=     2958147.
 Iteration    1 A*A^-1 deviation from unit magnitude is 4.22D-15 for     38.
 Iteration    1 A*A^-1 deviation from orthogonality  is 2.40D-15 for    886    381.
 Iteration    1 A^-1*A deviation from unit magnitude is 4.11D-15 for     38.
 Iteration    1 A^-1*A deviation from orthogonality  is 1.75D-15 for    913    868.
 E= -249.682838464670    
 DIIS: error= 4.27D-02 at cycle   1 NSaved=   1.
 NSaved= 1 IEnMin= 1 EnMin= -249.682838464670     IErMin= 1 ErrMin= 4.27D-02
 ErrMax= 4.27D-02  0.00D+00 EMaxC= 1.00D-01 BMatC= 5.27D-01 BMatP= 5.27D-01
 IDIUse=3 WtCom= 5.73D-01 WtEn= 4.27D-01
 Coeff-Com:  0.100D+01
 Coeff-En:   0.100D+01
 Coeff:      0.100D+01
 Gap=     0.464 Goal=   None    Shift=    0.000
 GapD=    0.464 DampG=2.000 DampE=0.500 DampFc=1.0000 IDamp=-1.
 RMSDP=1.67D-03 MaxDP=4.74D-02              OVMax= 5.91D-02

 Cycle   2  Pass 1  IDiag  1:
 RMSU=  1.63D-03    CP:  9.70D-01
 E= -249.727826159144     Delta-E=       -0.044987694474 Rises=F Damp=F
 DIIS: error= 7.49D-03 at cycle   2 NSaved=   2.
 NSaved= 2 IEnMin= 2 EnMin= -249.727826159144     IErMin= 2 ErrMin= 7.49D-03
 ErrMax= 7.49D-03  0.00D+00 EMaxC= 1.00D-01 BMatC= 3.08D-02 BMatP= 5.27D-01
 IDIUse=3 WtCom= 9.25D-01 WtEn= 7.49D-02
 Coeff-Com:  0.128D+00 0.872D+00
 Coeff-En:   0.000D+00 0.100D+01
 Coeff:      0.118D+00 0.882D+00
 Gap=     0.462 Goal=   None    Shift=    0.000
 RMSDP=7.49D-04 MaxDP=3.10D-02 DE=-4.50D-02 OVMax= 5.22D-02

 Cycle   3  Pass 1  IDiag  1:
 RMSU=  6.28D-04    CP:  9.73D-01  7.51D-01
 E= -249.736604488140     Delta-E=       -0.008778328996 Rises=F Damp=F
 DIIS: error= 6.49D-03 at cycle   3 NSaved=   3.
 NSaved= 3 IEnMin= 3 EnMin= -249.736604488140     IErMin= 3 ErrMin= 6.49D-03
 ErrMax= 6.49D-03  0.00D+00 EMaxC= 1.00D-01 BMatC= 1.84D-02 BMatP= 3.08D-02
 IDIUse=3 WtCom= 9.35D-01 WtEn= 6.49D-02
 Coeff-Com:  0.238D-01 0.444D+00 0.533D+00
 Coeff-En:   0.000D+00 0.367D+00 0.633D+00
 Coeff:      0.223D-01 0.439D+00 0.539D+00
 Gap=     0.452 Goal=   None    Shift=    0.000
 RMSDP=3.79D-04 MaxDP=1.57D-02 DE=-8.78D-03 OVMax= 2.63D-02

 Cycle   4  Pass 1  IDiag  1:
 RMSU=  1.46D-04    CP:  9.69D-01  9.19D-01  6.61D-01
 E= -249.749239353508     Delta-E=       -0.012634865367 Rises=F Damp=F
 DIIS: error= 6.24D-04 at cycle   4 NSaved=   4.
 NSaved= 4 IEnMin= 4 EnMin= -249.749239353508     IErMin= 4 ErrMin= 6.24D-04
 ErrMax= 6.24D-04  0.00D+00 EMaxC= 1.00D-01 BMatC= 1.87D-04 BMatP= 1.84D-02
 IDIUse=3 WtCom= 9.94D-01 WtEn= 6.24D-03
 Coeff-Com:  0.852D-02 0.164D+00 0.222D+00 0.605D+00
 Coeff-En:   0.000D+00 0.000D+00 0.000D+00 0.100D+01
 Coeff:      0.847D-02 0.163D+00 0.221D+00 0.607D+00
 Gap=     0.451 Goal=   None    Shift=    0.000
 RMSDP=4.42D-05 MaxDP=1.42D-03 DE=-1.26D-02 OVMax= 2.24D-03

 Cycle   5  Pass 1  IDiag  1:
 RMSU=  3.83D-05    CP:  9.69D-01  9.28D-01  6.87D-01  9.83D-01
 E= -249.749371425249     Delta-E=       -0.000132071741 Rises=F Damp=F
 DIIS: error= 1.29D-04 at cycle   5 NSaved=   5.
 NSaved= 5 IEnMin= 5 EnMin= -249.749371425249     IErMin= 5 ErrMin= 1.29D-04
 ErrMax= 1.29D-04  0.00D+00 EMaxC= 1.00D-01 BMatC= 7.53D-06 BMatP= 1.87D-04
 IDIUse=3 WtCom= 9.99D-01 WtEn= 1.29D-03
 Coeff-Com: -0.198D-02-0.343D-01-0.330D-01 0.110D+00 0.960D+00
 Coeff-En:   0.000D+00 0.000D+00 0.000D+00 0.000D+00 0.100D+01
 Coeff:     -0.198D-02-0.343D-01-0.330D-01 0.110D+00 0.960D+00
 Gap=     0.451 Goal=   None    Shift=    0.000
 RMSDP=3.33D-05 MaxDP=6.93D-04 DE=-1.32D-04 OVMax= 8.47D-04

 Cycle   6  Pass 1  IDiag  1:
 RMSU=  1.04D-05    CP:  9.68D-01  9.37D-01  7.09D-01  1.14D+00  1.19D+00
 E= -249.749381458567     Delta-E=       -0.000010033318 Rises=F Damp=F
 DIIS: error= 2.73D-05 at cycle   6 NSaved=   6.
 NSaved= 6 IEnMin= 6 EnMin= -249.749381458567     IErMin= 6 ErrMin= 2.73D-05
 ErrMax= 2.73D-05  0.00D+00 EMaxC= 1.00D-01 BMatC= 2.79D-07 BMatP= 7.53D-06
 IDIUse=1 WtCom= 1.00D+00 WtEn= 0.00D+00
 Coeff-Com: -0.655D-03-0.111D-01-0.125D-01 0.413D-02 0.157D+00 0.863D+00
 Coeff:     -0.655D-03-0.111D-01-0.125D-01 0.413D-02 0.157D+00 0.863D+00
 Gap=     0.451 Goal=   None    Shift=    0.000
 RMSDP=7.54D-06 MaxDP=1.43D-04 DE=-1.00D-05 OVMax= 2.52D-04

 Cycle   7  Pass 1  IDiag  1:
 RMSU=  2.87D-06    CP:  9.68D-01  9.39D-01  7.13D-01  1.17D+00  1.28D+00
                    CP:  1.18D+00
 E= -249.749381835337     Delta-E=       -0.000000376770 Rises=F Damp=F
 DIIS: error= 1.62D-05 at cycle   7 NSaved=   7.
 NSaved= 7 IEnMin= 7 EnMin= -249.749381835337     IErMin= 7 ErrMin= 1.62D-05
 ErrMax= 1.62D-05  0.00D+00 EMaxC= 1.00D-01 BMatC= 8.72D-08 BMatP= 2.79D-07
 IDIUse=1 WtCom= 1.00D+00 WtEn= 0.00D+00
 Coeff-Com: -0.132D-04-0.572D-03-0.143D-02-0.118D-01-0.585D-01 0.348D+00
 Coeff-Com:  0.725D+00
 Coeff:     -0.132D-04-0.572D-03-0.143D-02-0.118D-01-0.585D-01 0.348D+00
 Coeff:      0.725D+00
 Gap=     0.451 Goal=   None    Shift=    0.000
 RMSDP=2.81D-06 MaxDP=7.39D-05 DE=-3.77D-07 OVMax= 1.18D-04

 Cycle   8  Pass 1  IDiag  1:
 RMSU=  1.10D-06    CP:  9.68D-01  9.39D-01  7.14D-01  1.18D+00  1.30D+00
                    CP:  1.33D+00  1.10D+00
 E= -249.749381930517     Delta-E=       -0.000000095180 Rises=F Damp=F
 DIIS: error= 2.40D-06 at cycle   8 NSaved=   8.
 NSaved= 8 IEnMin= 8 EnMin= -249.749381930517     IErMin= 8 ErrMin= 2.40D-06
 ErrMax= 2.40D-06  0.00D+00 EMaxC= 1.00D-01 BMatC= 3.50D-09 BMatP= 8.72D-08
 IDIUse=1 WtCom= 1.00D+00 WtEn= 0.00D+00
 Coeff-Com:  0.474D-04 0.787D-03 0.831D-03-0.168D-02-0.206D-01-0.257D-01
 Coeff-Com:  0.117D+00 0.929D+00
 Coeff:      0.474D-04 0.787D-03 0.831D-03-0.168D-02-0.206D-01-0.257D-01
 Coeff:      0.117D+00 0.929D+00
 Gap=     0.451 Goal=   None    Shift=    0.000
 RMSDP=9.30D-07 MaxDP=1.93D-05 DE=-9.52D-08 OVMax= 4.35D-05

 Cycle   9  Pass 1  IDiag  1:
 RMSU=  2.60D-07    CP:  9.68D-01  9.39D-01  7.14D-01  1.18D+00  1.31D+00
                    CP:  1.38D+00  1.26D+00  1.25D+00
 E= -249.749381937086     Delta-E=       -0.000000006569 Rises=F Damp=F
 DIIS: error= 8.28D-07 at cycle   9 NSaved=   9.
 NSaved= 9 IEnMin= 9 EnMin= -249.749381937086     IErMin= 9 ErrMin= 8.28D-07
 ErrMax= 8.28D-07  0.00D+00 EMaxC= 1.00D-01 BMatC= 3.95D-10 BMatP= 3.50D-09
 IDIUse=1 WtCom= 1.00D+00 WtEn= 0.00D+00
 Coeff-Com:  0.111D-04 0.254D-03 0.355D-03 0.540D-03 0.749D-05-0.355D-01
 Coeff-Com: -0.354D-01 0.217D+00 0.853D+00
 Coeff:      0.111D-04 0.254D-03 0.355D-03 0.540D-03 0.749D-05-0.355D-01
 Coeff:     -0.354D-01 0.217D+00 0.853D+00
 Gap=     0.451 Goal=   None    Shift=    0.000
 RMSDP=2.67D-07 MaxDP=6.20D-06 DE=-6.57D-09 OVMax= 1.57D-05

 Cycle  10  Pass 1  IDiag  1:
 RMSU=  9.93D-08    CP:  9.68D-01  9.39D-01  7.14D-01  1.18D+00  1.31D+00
                    CP:  1.39D+00  1.30D+00  1.38D+00  1.27D+00
 E= -249.749381937810     Delta-E=       -0.000000000724 Rises=F Damp=F
 DIIS: error= 3.00D-07 at cycle  10 NSaved=  10.
 NSaved=10 IEnMin=10 EnMin= -249.749381937810     IErMin=10 ErrMin= 3.00D-07
 ErrMax= 3.00D-07  0.00D+00 EMaxC= 1.00D-01 BMatC= 4.98D-11 BMatP= 3.95D-10
 IDIUse=1 WtCom= 1.00D+00 WtEn= 0.00D+00
 Coeff-Com: -0.291D-05-0.405D-04-0.166D-04 0.411D-03 0.308D-02-0.794D-02
 Coeff-Com: -0.286D-01-0.566D-01 0.235D+00 0.855D+00
 Coeff:     -0.291D-05-0.405D-04-0.166D-04 0.411D-03 0.308D-02-0.794D-02
 Coeff:     -0.286D-01-0.566D-01 0.235D+00 0.855D+00
 Gap=     0.451 Goal=   None    Shift=    0.000
 RMSDP=1.03D-07 MaxDP=3.14D-06 DE=-7.24D-10 OVMax= 6.45D-06

 Cycle  11  Pass 1  IDiag  1:
 RMSU=  3.08D-08    CP:  9.68D-01  9.39D-01  7.14D-01  1.18D+00  1.31D+00
                    CP:  1.40D+00  1.31D+00  1.42D+00  1.48D+00  1.22D+00
 E= -249.749381937903     Delta-E=       -0.000000000093 Rises=F Damp=F
 DIIS: error= 5.51D-08 at cycle  11 NSaved=  11.
 NSaved=11 IEnMin=11 EnMin= -249.749381937903     IErMin=11 ErrMin= 5.51D-08
 ErrMax= 5.51D-08  0.00D+00 EMaxC= 1.00D-01 BMatC= 1.42D-12 BMatP= 4.98D-11
 IDIUse=1 WtCom= 1.00D+00 WtEn= 0.00D+00
 Coeff-Com: -0.219D-06-0.818D-05-0.182D-04-0.613D-04-0.367D-03 0.294D-02
 Coeff-Com:  0.483D-02-0.603D-02-0.781D-01-0.590D-01 0.114D+01
 Coeff:     -0.219D-06-0.818D-05-0.182D-04-0.613D-04-0.367D-03 0.294D-02
 Coeff:      0.483D-02-0.603D-02-0.781D-01-0.590D-01 0.114D+01
 Gap=     0.451 Goal=   None    Shift=    0.000
 RMSDP=3.07D-08 MaxDP=9.18D-07 DE=-9.34D-11 OVMax= 1.96D-06

 Cycle  12  Pass 1  IDiag  1:
 RMSU=  7.88D-09    CP:  9.68D-01  9.39D-01  7.14D-01  1.18D+00  1.31D+00
                    CP:  1.40D+00  1.31D+00  1.43D+00  1.55D+00  1.40D+00
                    CP:  1.36D+00
 E= -249.749381937912     Delta-E=       -0.000000000009 Rises=F Damp=F
 DIIS: error= 1.41D-08 at cycle  12 NSaved=  12.
 NSaved=12 IEnMin=12 EnMin= -249.749381937912     IErMin=12 ErrMin= 1.41D-08
 ErrMax= 1.41D-08  0.00D+00 EMaxC= 1.00D-01 BMatC= 6.21D-14 BMatP= 1.42D-12
 IDIUse=1 WtCom= 1.00D+00 WtEn= 0.00D+00
 Coeff-Com:  0.874D-07 0.912D-06-0.448D-06-0.218D-04-0.145D-03 0.496D-03
 Coeff-Com:  0.154D-02 0.238D-02-0.132D-01-0.457D-01 0.392D-01 0.102D+01
 Coeff:      0.874D-07 0.912D-06-0.448D-06-0.218D-04-0.145D-03 0.496D-03
 Coeff:      0.154D-02 0.238D-02-0.132D-01-0.457D-01 0.392D-01 0.102D+01
 Gap=     0.451 Goal=   None    Shift=    0.000
 RMSDP=6.56D-09 MaxDP=1.71D-07 DE=-8.64D-12 OVMax= 3.84D-07

 Error on total polarization charges =  0.03933
 SCF Done:  E(RwB97XD) =  -249.749381938     A.U. after   12 cycles
            NFock= 12  Conv=0.66D-08     -V/T= 2.0054
 KE= 2.484169341900D+02 PE=-9.732838781638D+02 EE= 2.800534321153D+02
 SMD-CDS (non-electrostatic) energy       (kcal/mol) =       1.59
 (included in total energy above)
 Leave Link  502 at Wed Oct 22 10:07:37 2025, MaxMem=  4294967296 cpu:             482.4 elap:              60.5
 (Enter /lrz/sys/applications/gaussian/g16.C.01/x86_64_legacy/exe/l601.exe)
 Copying SCF densities to generalized density rwf, IOpCl= 0 IROHF=0.

 **********************************************************************

            Population analysis using the SCF Density.

 **********************************************************************

 Orbital symmetries:
       Occupied  (A) (A) (A) (A) (A) (A) (A) (A) (A) (A) (A) (A)
                 (A) (A) (A) (A) (A) (A) (A) (A) (A)
       Virtual   (A) (A) (A) (A) (A) (A) (A) (A) (A) (A) (A) (A)
                 (A) (A) (A) (A) (A) (A) (A) (A) (A) (A) (A) (A)
                 (A) (A) (A) (A) (A) (A) (A) (A) (A) (A) (A) (A)
                 (A) (A) (A) (A) (A) (A) (A) (A) (A) (A) (A) (A)
                 (A) (A) (A) (A) (A) (A) (A) (A) (A) (A) (A) (A)
                 (A) (A) (A) (A) (A) (A) (A) (A) (A) (A) (A) (A)
                 (A) (A) (A) (A) (A) (A) (A) (A) (A) (A) (A) (A)
                 (A) (A) (A) (A) (A) (A) (A) (A) (A) (A) (A) (A)
                 (A) (A) (A) (A) (A) (A) (A) (A) (A) (A) (A) (A)
                 (A) (A) (A) (A) (A) (A) (A) (A) (A) (A) (A) (A)
                 (A) (A) (A) (A) (A) (A) (A) (A) (A) (A) (A) (A)
                 (A) (A) (A) (A) (A) (A) (A) (A) (A) (A) (A) (A)
                 (A) (A) (A) (A) (A) (A) (A) (A) (A) (A) (A) (A)
                 (A) (A) (A) (A) (A) (A) (A) (A) (A) (A) (A) (A)
                 (A) (A) (A) (A) (A) (A) (A) (A) (A) (A) (A) (A)
                 (A) (A) (A) (A) (A) (A) (A) (A)
 The electronic state is 1-A.
 Alpha  occ. eigenvalues --  -19.24843 -14.40870 -10.35065 -10.27163 -10.26481
 Alpha  occ. eigenvalues --   -1.13265  -0.97211  -0.85828  -0.74626  -0.69097
 Alpha  occ. eigenvalues --   -0.58878  -0.57055  -0.54989  -0.52161  -0.47680
 Alpha  occ. eigenvalues --   -0.46252  -0.45317  -0.41338  -0.40817  -0.37689
 Alpha  occ. eigenvalues --   -0.33374
 Alpha virt. eigenvalues --    0.11739   0.14192   0.14779   0.17219   0.19359
 Alpha virt. eigenvalues --    0.19788   0.20630   0.22015   0.23266   0.24488
 Alpha virt. eigenvalues --    0.27108   0.29044   0.29951   0.32185   0.33533
 Alpha virt. eigenvalues --    0.34922   0.36878   0.38622   0.39817   0.41192
 Alpha virt. eigenvalues --    0.45128   0.45776   0.47350   0.48919   0.50600
 Alpha virt. eigenvalues --    0.51505   0.52856   0.54168   0.54413   0.56294
 Alpha virt. eigenvalues --    0.56988   0.58362   0.59471   0.61732   0.62890
 Alpha virt. eigenvalues --    0.65779   0.66607   0.69551   0.70175   0.73560
 Alpha virt. eigenvalues --    0.77248   0.82980   0.86720   0.88536   0.92244
 Alpha virt. eigenvalues --    0.92552   0.98341   1.03887   1.06074   1.08248
 Alpha virt. eigenvalues --    1.11336   1.16195   1.18168   1.23525   1.24240
 Alpha virt. eigenvalues --    1.25439   1.32651   1.34541   1.38118   1.44494
 Alpha virt. eigenvalues --    1.46102   1.49365   1.55676   1.58193   1.59048
 Alpha virt. eigenvalues --    1.62370   1.64395   1.66312   1.67365   1.69619
 Alpha virt. eigenvalues --    1.71286   1.76994   1.78854   1.81695   1.85353
 Alpha virt. eigenvalues --    1.87247   1.91580   1.92604   1.95958   1.99275
 Alpha virt. eigenvalues --    1.99532   2.01595   2.05725   2.07353   2.08913
 Alpha virt. eigenvalues --    2.12750   2.18083   2.20598   2.21964   2.26687
 Alpha virt. eigenvalues --    2.28540   2.33908   2.34765   2.38695   2.41982
 Alpha virt. eigenvalues --    2.43725   2.47756   2.48118   2.51293   2.53086
 Alpha virt. eigenvalues --    2.53511   2.56196   2.59681   2.62082   2.65319
 Alpha virt. eigenvalues --    2.67210   2.71278   2.73481   2.74308   2.77767
 Alpha virt. eigenvalues --    2.79184   2.83254   2.84940   2.88835   2.94156
 Alpha virt. eigenvalues --    2.96636   3.02147   3.05985   3.07845   3.12865
 Alpha virt. eigenvalues --    3.14719   3.20353   3.20474   3.24177   3.26266
 Alpha virt. eigenvalues --    3.29772   3.32499   3.35350   3.37589   3.39522
 Alpha virt. eigenvalues --    3.41573   3.46514   3.48009   3.49429   3.56078
 Alpha virt. eigenvalues --    3.59147   3.64684   3.65579   3.69730   3.71089
 Alpha virt. eigenvalues --    3.81108   3.86023   3.89498   3.96270   4.00379
 Alpha virt. eigenvalues --    4.04545   4.07520   4.10800   4.15275   4.20875
 Alpha virt. eigenvalues --    4.30153   4.35623   4.42273   4.45100   4.48814
 Alpha virt. eigenvalues --    4.60141   4.63895   4.68052   4.71961   4.81912
 Alpha virt. eigenvalues --    4.84165   4.89259   4.90421   4.96779   5.00302
 Alpha virt. eigenvalues --    5.18266   5.24706   5.30337   5.37206   5.41089
 Alpha virt. eigenvalues --    5.47266   5.59009   5.62208   5.78272   5.85681
 Alpha virt. eigenvalues --    5.98109   6.10333   6.39813   6.55898   6.80965
 Alpha virt. eigenvalues --    6.93821   7.07219   7.25263  22.41233  22.54376
 Alpha virt. eigenvalues --   22.70340  32.07835  43.94147
          Condensed to atoms (all electrons):
               1          2          3          4          5          6
     1  O    8.174360   0.230747  -0.072131  -0.051016  -0.012179   0.302951
     2  C    0.230747   4.759740   0.281979   0.413878  -0.050217  -0.030787
     3  N   -0.072131   0.281979   6.729135  -0.077485   0.013670  -0.000536
     4  C   -0.051016   0.413878  -0.077485   5.040154   0.274598  -0.006926
     5  C   -0.012179  -0.050217   0.013670   0.274598   5.005543  -0.003247
     6  H    0.302951  -0.030787  -0.000536  -0.006926  -0.003247   0.351110
     7  H   -0.036436   0.407157  -0.036776  -0.059156  -0.003106   0.008571
     8  H    0.003151  -0.052352   0.368862  -0.007761   0.000934   0.003367
     9  H    0.005419  -0.035288   0.370369   0.004380   0.000206  -0.000331
    10  H   -0.004675  -0.029198  -0.004102   0.401208  -0.032204   0.004032
    11  H    0.007658  -0.055411   0.010759   0.404821  -0.024086   0.000612
    12  H   -0.000170  -0.001117   0.000172  -0.038819   0.407431   0.000152
    13  H    0.000566   0.009840  -0.000495  -0.033466   0.405964  -0.000176
    14  H    0.017698  -0.018278   0.000957  -0.030249   0.406071   0.001052
               7          8          9         10         11         12
     1  O   -0.036436   0.003151   0.005419  -0.004675   0.007658  -0.000170
     2  C    0.407157  -0.052352  -0.035288  -0.029198  -0.055411  -0.001117
     3  N   -0.036776   0.368862   0.370369  -0.004102   0.010759   0.000172
     4  C   -0.059156  -0.007761   0.004380   0.401208   0.404821  -0.038819
     5  C   -0.003106   0.000934   0.000206  -0.032204  -0.024086   0.407431
     6  H    0.008571   0.003367  -0.000331   0.004032   0.000612   0.000152
     7  H    0.598971   0.008857  -0.006799   0.007984  -0.001438   0.003527
     8  H    0.008857   0.441221  -0.025188   0.006704  -0.000107   0.000017
     9  H   -0.006799  -0.025188   0.422000   0.000141   0.000404   0.000027
    10  H    0.007984   0.006704   0.000141   0.562768  -0.027017   0.006259
    11  H   -0.001438  -0.000107   0.000404  -0.027017   0.574616  -0.004400
    12  H    0.003527   0.000017   0.000027   0.006259  -0.004400   0.550536
    13  H   -0.000538  -0.000062  -0.000020  -0.005182  -0.005011  -0.022011
    14  H    0.000165  -0.000050  -0.000079  -0.004583   0.006951  -0.026169
              13         14
     1  O    0.000566   0.017698
     2  C    0.009840  -0.018278
     3  N   -0.000495   0.000957
     4  C   -0.033466  -0.030249
     5  C    0.405964   0.406071
     6  H   -0.000176   0.001052
     7  H   -0.000538   0.000165
     8  H   -0.000062  -0.000050
     9  H   -0.000020  -0.000079
    10  H   -0.005182  -0.004583
    11  H   -0.005011   0.006951
    12  H   -0.022011  -0.026169
    13  H    0.536012  -0.021128
    14  H   -0.021128   0.549214
 Mulliken charges:
               1
     1  O   -0.565945
     2  C    0.169309
     3  N   -0.584379
     4  C   -0.234161
     5  C   -0.389379
     6  H    0.370156
     7  H    0.109019
     8  H    0.252407
     9  H    0.264759
    10  H    0.117865
    11  H    0.111648
    12  H    0.124566
    13  H    0.135707
    14  H    0.118427
 Sum of Mulliken charges =  -0.00000
 Mulliken charges with hydrogens summed into heavy atoms:
               1
     1  O   -0.195789
     2  C    0.278327
     3  N   -0.067213
     4  C   -0.004647
     5  C   -0.010679
 Electronic spatial extent (au):  <R**2>=            497.4774
 Charge=             -0.0000 electrons
 Dipole moment (field-independent basis, Debye):
    X=              1.5642    Y=             -3.2040    Z=             -1.8631  Tot=              4.0229
 Quadrupole moment (field-independent basis, Debye-Ang):
   XX=            -38.4281   YY=            -33.1202   ZZ=            -28.0454
   XY=              3.5588   XZ=              1.5606   YZ=             -3.0468
 Traceless Quadrupole moment (field-independent basis, Debye-Ang):
   XX=             -5.2302   YY=              0.0777   ZZ=              5.1525
   XY=              3.5588   XZ=              1.5606   YZ=             -3.0468
 Octapole moment (field-independent basis, Debye-Ang**2):
  XXX=             10.1090  YYY=             -6.6686  ZZZ=             -3.5493  XYY=             -4.1950
  XXY=             -6.5193  XXZ=             -3.6114  XZZ=             -5.3101  YZZ=              2.3532
  YYZ=             -3.9895  XYZ=              1.4957
 Hexadecapole moment (field-independent basis, Debye-Ang**3):
 XXXX=           -465.6128 YYYY=           -165.6178 ZZZZ=            -61.0808 XXXY=              7.6042
 XXXZ=              3.3039 YYYX=             12.3817 YYYZ=            -13.0121 ZZZX=              4.9553
 ZZZY=             -4.6115 XXYY=            -89.7068 XXZZ=            -76.1439 YYZZ=            -33.0444
 XXYZ=             -0.9554 YYXZ=              0.0489 ZZXY=              1.7728
 N-N= 1.950641299206D+02 E-N=-9.732838772336D+02  KE= 2.484169341900D+02
 No NMR shielding tensors so no spin-rotation constants.
 Leave Link  601 at Wed Oct 22 10:07:37 2025, MaxMem=  4294967296 cpu:               1.3 elap:               0.2
 (Enter /lrz/sys/applications/gaussian/g16.C.01/x86_64_legacy/exe/l9999.exe)
 Unable to Open any file for archive entry.
 1\1\GINC-CM4R15C05S03\SP\RwB97XD\def2TZVP\C3H9N1O1\GO29TIZ2\22-Oct-202
 5\0\\#p wb97xd scrf=(smd,solvent=water) def2tzvp\\g16_g16_C2-a_16\\0,1
 \O,0,-0.536844,1.403494,-0.044347\C,0,-0.524352,0.040609,0.330542\N,0,
 -1.794411,-0.588127,0.014629\C,0,0.683225,-0.67636,-0.271267\C,0,2.023
 186,-0.058085,0.101214\H,0,-0.479559,1.442146,-1.008119\H,0,-0.42579,0
 .045696,1.428108\H,0,-1.779205,-0.881754,-0.964355\H,0,-1.870492,-1.45
 2556,0.550217\H,0,0.55701,-0.68302,-1.37015\H,0,0.646314,-1.72915,0.05
 2656\H,0,2.171438,-0.062826,1.193136\H,0,2.858082,-0.612592,-0.352485\
 H,0,2.085486,0.986003,-0.239575\\Version=EM64L-G16RevC.01\State=1-A\HF
 =-249.7493819\RMSD=6.557e-09\Dipole=0.6154178,-1.2605381,-0.7330066\Qu
 adrupole=-3.8885422,0.0578028,3.8307395,2.6458573,1.1602888,-2.2652422
 \PG=C01 [X(C3H9N1O1)]\\@
 The archive entry for this job was punched.


 I am not a vegetarian because I love animals;
 I am a vegetarian because I hate plants.
                               -- A. Whitney Brown
 Job cpu time:       0 days  0 hours  8 minutes 25.0 seconds.
 Elapsed time:       0 days  0 hours  1 minutes  3.6 seconds.
 File lengths (MBytes):  RWF=    288 Int=      0 D2E=      0 Chk=      8 Scr=     32
 Normal termination of Gaussian 16 at Wed Oct 22 10:07:37 2025.
