 Entering Gaussian System, Link 0=g16
 Input=../../g16_g16_C17-a_29.com
 Output=../../g16_g16_C17-a_29.log
 Initial command:
 /lrz/sys/applications/gaussian/g16.C.01/x86_64_legacy/exe/l1.exe "/dss/lxclscratch/0D/go29tiz2/Gau-3132.inp" -scrdir="/dss/lxclscratch/0D/go29tiz2/"
 Entering Link 1 = /lrz/sys/applications/gaussian/g16.C.01/x86_64_legacy/exe/l1.exe PID=      3133.
  
 Copyright (c) 1988-2019, Gaussian, Inc.  All Rights Reserved.
  
 This is part of the Gaussian(R) 16 program.  It is based on
 the Gaussian(R) 09 system (copyright 2009, Gaussian, Inc.),
 the Gaussian(R) 03 system (copyright 2003, Gaussian, Inc.),
 the Gaussian(R) 98 system (copyright 1998, Gaussian, Inc.),
 the Gaussian(R) 94 system (copyright 1995, Gaussian, Inc.),
 the Gaussian 92(TM) system (copyright 1992, Gaussian, Inc.),
 the Gaussian 90(TM) system (copyright 1990, Gaussian, Inc.),
 the Gaussian 88(TM) system (copyright 1988, Gaussian, Inc.),
 the Gaussian 86(TM) system (copyright 1986, Carnegie Mellon
 University), and the Gaussian 82(TM) system (copyright 1983,
 Carnegie Mellon University). Gaussian is a federally registered
 trademark of Gaussian, Inc.
  
 This software contains proprietary and confidential information,
 including trade secrets, belonging to Gaussian, Inc.
  
 This software is provided under written license and may be
 used, copied, transmitted, or stored only in accord with that
 written license.
  
 The following legend is applicable only to US Government
 contracts under FAR:
  
                    RESTRICTED RIGHTS LEGEND
  
 Use, reproduction and disclosure by the US Government is
 subject to restrictions as set forth in subparagraphs (a)
 and (c) of the Commercial Computer Software - Restricted
 Rights clause in FAR 52.227-19.
  
 Gaussian, Inc.
 340 Quinnipiac St., Bldg. 40, Wallingford CT 06492
  
  
 ---------------------------------------------------------------
 Warning -- This program may not be used in any manner that
 competes with the business of Gaussian, Inc. or will provide
 assistance to any competitor of Gaussian, Inc.  The licensee
 of this program is prohibited from giving any competitor of
 Gaussian, Inc. access to this program.  By using this program,
 the user acknowledges that Gaussian, Inc. is engaged in the
 business of creating and licensing software in the field of
 computational chemistry and represents and warrants to the
 licensee that it is not a competitor of Gaussian, Inc. and that
 it will not use this program in any manner prohibited above.
 ---------------------------------------------------------------
  

 Cite this work as:
 Gaussian 16, Revision C.01,
 M. J. Frisch, G. W. Trucks, H. B. Schlegel, G. E. Scuseria, 
 M. A. Robb, J. R. Cheeseman, G. Scalmani, V. Barone, 
 G. A. Petersson, H. Nakatsuji, X. Li, M. Caricato, A. V. Marenich, 
 J. Bloino, B. G. Janesko, R. Gomperts, B. Mennucci, H. P. Hratchian, 
 J. V. Ortiz, A. F. Izmaylov, J. L. Sonnenberg, D. Williams-Young, 
 F. Ding, F. Lipparini, F. Egidi, J. Goings, B. Peng, A. Petrone, 
 T. Henderson, D. Ranasinghe, V. G. Zakrzewski, J. Gao, N. Rega, 
 G. Zheng, W. Liang, M. Hada, M. Ehara, K. Toyota, R. Fukuda, 
 J. Hasegawa, M. Ishida, T. Nakajima, Y. Honda, O. Kitao, H. Nakai, 
 T. Vreven, K. Throssell, J. A. Montgomery, Jr., J. E. Peralta, 
 F. Ogliaro, M. J. Bearpark, J. J. Heyd, E. N. Brothers, K. N. Kudin, 
 V. N. Staroverov, T. A. Keith, R. Kobayashi, J. Normand, 
 K. Raghavachari, A. P. Rendell, J. C. Burant, S. S. Iyengar, 
 J. Tomasi, M. Cossi, J. M. Millam, M. Klene, C. Adamo, R. Cammi, 
 J. W. Ochterski, R. L. Martin, K. Morokuma, O. Farkas, 
 J. B. Foresman, and D. J. Fox, Gaussian, Inc., Wallingford CT, 2019.
 
 ******************************************
 Gaussian 16:  EM64L-G16RevC.01  3-Jul-2019
                22-Oct-2025 
 ******************************************
 %chk=g16_g16_C17-a_29.chk
 %nprocshared=8
 Will use up to    8 processors via shared memory.
 %mem=32GB
 -------------------------------------------
 #p wb97xd scrf=(smd,solvent=water) def2tzvp
 -------------------------------------------
 1/38=1,172=1/1;
 2/12=2,17=6,18=5,40=1/2;
 3/5=44,7=101,11=2,25=1,30=1,70=32201,72=1,74=-58/1,2,3;
 4//1;
 5/5=2,38=5,53=1/2;
 6/7=2,8=2,9=2,10=2,28=1/1;
 99/5=1,9=1/99;
 Leave Link    1 at Wed Oct 22 13:38:17 2025, MaxMem=  4294967296 cpu:               4.5 elap:               0.6
 (Enter /lrz/sys/applications/gaussian/g16.C.01/x86_64_legacy/exe/l101.exe)
 ----------------
 g16_g16_C17-a_29
 ----------------
 Symbolic Z-matrix:
 Charge =  0 Multiplicity = 1
 O                     2.22397  -0.51982  -0.16222 
 C                     0.92356   0.02227  -0.29819 
 N                     0.92234   1.36919   0.23137 
 C                    -0.1175   -0.85521   0.39806 
 C                    -1.54299  -0.78262  -0.15552 
 C                    -2.24454   0.56698  -0.03869 
 H                     2.45412  -0.43784   0.77323 
 H                     0.7351   -0.01192  -1.38798 
 H                    -0.02789   1.69101   0.39725 
 H                     1.33289   2.00991  -0.44608 
 H                    -0.10966  -0.61682   1.47712 
 H                     0.23641  -1.89265   0.30049 
 H                    -2.14405  -1.54091   0.37202 
 H                    -1.52801  -1.09323  -1.21448 
 H                    -2.23115   0.93843   0.99935 
 H                    -1.77944   1.33321  -0.67855 
 H                    -3.29768   0.48654  -0.3481 
 
 ITRead=  0  0  0  0  0  0  0  0  0  0  0  0  0  0  0  0  0
 MicOpt= -1 -1 -1 -1 -1 -1 -1 -1 -1 -1 -1 -1 -1 -1 -1 -1 -1
 NAtoms=     17 NQM=       17 NQMF=       0 NMMI=      0 NMMIF=      0
                NMic=       0 NMicF=      0.
                    Isotopes and Nuclear Properties:
 (Nuclear quadrupole moments (NQMom) in fm**2, nuclear magnetic moments (NMagM)
  in nuclear magnetons)

  Atom         1           2           3           4           5           6           7           8           9          10
 IAtWgt=          16          12          14          12          12          12           1           1           1           1
 AtmWgt=  15.9949146  12.0000000  14.0030740  12.0000000  12.0000000  12.0000000   1.0078250   1.0078250   1.0078250   1.0078250
 NucSpn=           0           0           2           0           0           0           1           1           1           1
 AtZEff=  -0.0000000  -0.0000000  -0.0000000  -0.0000000  -0.0000000  -0.0000000  -0.0000000  -0.0000000  -0.0000000  -0.0000000
 NQMom=    0.0000000   0.0000000   2.0440000   0.0000000   0.0000000   0.0000000   0.0000000   0.0000000   0.0000000   0.0000000
 NMagM=    0.0000000   0.0000000   0.4037610   0.0000000   0.0000000   0.0000000   2.7928460   2.7928460   2.7928460   2.7928460
 AtZNuc=   8.0000000   6.0000000   7.0000000   6.0000000   6.0000000   6.0000000   1.0000000   1.0000000   1.0000000   1.0000000

  Atom        11          12          13          14          15          16          17
 IAtWgt=           1           1           1           1           1           1           1
 AtmWgt=   1.0078250   1.0078250   1.0078250   1.0078250   1.0078250   1.0078250   1.0078250
 NucSpn=           1           1           1           1           1           1           1
 AtZEff=  -0.0000000  -0.0000000  -0.0000000  -0.0000000  -0.0000000  -0.0000000  -0.0000000
 NQMom=    0.0000000   0.0000000   0.0000000   0.0000000   0.0000000   0.0000000   0.0000000
 NMagM=    2.7928460   2.7928460   2.7928460   2.7928460   2.7928460   2.7928460   2.7928460
 AtZNuc=   1.0000000   1.0000000   1.0000000   1.0000000   1.0000000   1.0000000   1.0000000
 Leave Link  101 at Wed Oct 22 13:38:17 2025, MaxMem=  4294967296 cpu:               0.7 elap:               0.1
 (Enter /lrz/sys/applications/gaussian/g16.C.01/x86_64_legacy/exe/l202.exe)
                          Input orientation:                          
 ---------------------------------------------------------------------
 Center     Atomic      Atomic             Coordinates (Angstroms)
 Number     Number       Type             X           Y           Z
 ---------------------------------------------------------------------
      1          8           0        2.223972   -0.519822   -0.162221
      2          6           0        0.923562    0.022267   -0.298191
      3          7           0        0.922343    1.369191    0.231371
      4          6           0       -0.117498   -0.855211    0.398059
      5          6           0       -1.542993   -0.782622   -0.155524
      6          6           0       -2.244539    0.566981   -0.038693
      7          1           0        2.454116   -0.437840    0.773234
      8          1           0        0.735100   -0.011916   -1.387982
      9          1           0       -0.027894    1.691013    0.397246
     10          1           0        1.332889    2.009913   -0.446083
     11          1           0       -0.109658   -0.616818    1.477119
     12          1           0        0.236411   -1.892648    0.300490
     13          1           0       -2.144045   -1.540906    0.372021
     14          1           0       -1.528011   -1.093231   -1.214481
     15          1           0       -2.231152    0.938427    0.999348
     16          1           0       -1.779438    1.333212   -0.678550
     17          1           0       -3.297685    0.486539   -0.348101
 ---------------------------------------------------------------------
                    Distance matrix (angstroms):
                    1          2          3          4          5
     1  O    0.000000
     2  C    1.415420   0.000000
     3  N    2.327557   1.447288   0.000000
     4  C    2.430819   1.529228   2.461101   0.000000
     5  C    3.776127   2.598479   3.295128   1.530934   0.000000
     6  C    4.600434   3.225045   3.278051   2.595705   1.525531
     7  H    0.966832   1.924122   2.430083   2.632139   4.118051
     8  H    1.994291   1.106495   2.136544   2.151282   2.702341
     9  H    3.204949   2.042943   1.016875   2.547800   2.952956
    10  H    2.697066   2.034738   1.018831   3.320412   4.019126
    11  H    2.853537   2.151209   2.561473   1.105108   2.178867
    12  H    2.459502   2.120730   3.333898   1.100476   2.146249
    13  H    4.517477   3.507550   4.229797   2.139567   1.102072
    14  H    3.938709   2.845019   3.762744   2.155571   1.103672
    15  H    4.829478   3.532022   3.274122   2.836586   2.183873
    16  H    4.441579   3.028111   2.851118   2.951326   2.192308
    17  H    5.615693   4.246995   4.350115   3.531379   2.174120
                    6          7          8          9         10
     6  C    0.000000
     7  H    4.873012   0.000000
     8  H    3.321739   2.794151   0.000000
     9  H    2.523293   3.291467   2.582473   0.000000
    10  H    3.878919   2.955567   2.309181   1.632370   0.000000
    11  H    2.873462   2.664662   3.047676   2.549293   3.560809
    12  H    3.509976   2.694099   2.576195   3.594697   4.121846
    13  H    2.149877   4.745610   3.704713   3.863163   5.036534
    14  H    2.156894   4.498654   2.514163   3.549652   4.290068
    15  H    1.102579   4.888453   3.924430   2.404841   3.992461
    16  H    1.101293   4.813240   2.938633   2.086448   3.193516
    17  H    1.100600   5.932544   4.194421   3.563402   4.875703
                   11         12         13         14         15
    11  H    0.000000
    12  H    1.769735   0.000000
    13  H    2.492772   2.407366   0.000000
    14  H    3.079514   2.459144   1.759801   0.000000
    15  H    2.673535   3.819981   2.558949   3.085949   0.000000
    16  H    3.352267   3.927892   3.081751   2.497612   1.781921
    17  H    3.835667   4.309412   2.441310   2.525477   1.776883
                   16         17
    16  H    0.000000
    17  H    1.769499   0.000000
 Stoichiometry    C4H11NO
 Framework group  C1[X(C4H11NO)]
 Deg. of freedom    45
 Full point group                 C1      NOp   1
 Largest Abelian subgroup         C1      NOp   1
 Largest concise Abelian subgroup C1      NOp   1
                         Standard orientation:                         
 ---------------------------------------------------------------------
 Center     Atomic      Atomic             Coordinates (Angstroms)
 Number     Number       Type             X           Y           Z
 ---------------------------------------------------------------------
      1          8           0        2.223972   -0.519822   -0.162221
      2          6           0        0.923562    0.022267   -0.298191
      3          7           0        0.922343    1.369191    0.231371
      4          6           0       -0.117498   -0.855211    0.398059
      5          6           0       -1.542993   -0.782622   -0.155524
      6          6           0       -2.244539    0.566981   -0.038693
      7          1           0        2.454116   -0.437840    0.773234
      8          1           0        0.735100   -0.011916   -1.387982
      9          1           0       -0.027894    1.691013    0.397246
     10          1           0        1.332889    2.009913   -0.446083
     11          1           0       -0.109658   -0.616818    1.477119
     12          1           0        0.236411   -1.892648    0.300490
     13          1           0       -2.144045   -1.540906    0.372021
     14          1           0       -1.528011   -1.093231   -1.214481
     15          1           0       -2.231152    0.938427    0.999348
     16          1           0       -1.779438    1.333212   -0.678550
     17          1           0       -3.297685    0.486539   -0.348101
 ---------------------------------------------------------------------
 Rotational constants (GHZ):           6.2345509           2.1282960           1.7255054
 Leave Link  202 at Wed Oct 22 13:38:17 2025, MaxMem=  4294967296 cpu:               0.0 elap:               0.0
 (Enter /lrz/sys/applications/gaussian/g16.C.01/x86_64_legacy/exe/l301.exe)
 Standard basis: def2TZVP (5D, 7F)
 Ernie: Thresh=  0.10000D-02 Tol=  0.10000D-05 Strict=F.
 There are   282 symmetry adapted cartesian basis functions of A   symmetry.
 There are   252 symmetry adapted basis functions of A   symmetry.
   252 basis functions,   394 primitive gaussians,   282 cartesian basis functions
    25 alpha electrons       25 beta electrons
       nuclear repulsion energy       260.8160022492 Hartrees.
 IExCor= 4639 DFT=T Ex+Corr=wB97XD ExCW=0 ScaHFX=  1.000000
 ScaDFX=  1.000000  1.000000  1.000000  1.000000 ScalE2=  1.000000  1.000000
 IRadAn=      5 IRanWt=     -1 IRanGd=            0 ICorTp=0 IEmpDi=121
 HFx  wShort=  0.000000 wLong=  0.200000 cFull=  0.222036 cShort=  0.000000 cLong=  0.777964
 DFx  wShort=  0.000000 wLong=  0.200000 cFull=  0.000000 cShort=  0.000000 cLong=  1.000000
 NAtoms=   17 NActive=   17 NUniq=   17 SFac= 1.00D+00 NAtFMM=   60 NAOKFM=F Big=F
 Integral buffers will be    131072 words long.
 Raffenetti 2 integral format.
 Two-electron integral symmetry is turned on.
 R6Disp:  Grimme-D2 Dispersion energy=       -0.0097884180 Hartrees.
 Nuclear repulsion after empirical dispersion term =      260.8062138312 Hartrees.
 ------------------------------------------------------------------------------
 Polarizable Continuum Model (PCM)
 =================================
 Model                : PCM.
 Atomic radii         : SMD-Coulomb.
 Polarization charges : Total charges.
 Charge compensation  : None.
 Solution method      : On-the-fly selection.
 Cavity type          : VdW (van der Waals Surface) (Alpha=1.000).
 Cavity algorithm     : GePol (No added spheres)
                        Default sphere list used, NSphG=   17.
                        Lebedev-Laikov grids with approx.  5.0 points / Ang**2.
                        Smoothing algorithm: York/Karplus (Gamma=1.0000).
                        Polarization charges: spherical gaussians, with
                                              point-specific exponents (IZeta= 3).
                        Self-potential: point-specific (ISelfS= 7).
                        Self-field    : sphere-specific E.n sum rule (ISelfD= 2).
 Solvent              : Water, Eps=  78.355300 Eps(inf)=   1.777849
 ------------------------------------------------------------------------------
 Spheres list:
 ISph  on   Nord     Re0    Alpha      Xe            Ye            Ze
    1   O      1    1.5200  1.000      2.223972     -0.519822     -0.162221
    2   C      2    1.8500  1.000      0.923562      0.022267     -0.298191
    3   N      3    1.8900  1.000      0.922343      1.369191      0.231371
    4   C      4    1.8500  1.000     -0.117498     -0.855211      0.398059
    5   C      5    1.8500  1.000     -1.542993     -0.782622     -0.155524
    6   C      6    1.8500  1.000     -2.244539      0.566981     -0.038693
    7   H      7    1.2000  1.000      2.454116     -0.437840      0.773234
    8   H      8    1.2000  1.000      0.735100     -0.011916     -1.387982
    9   H      9    1.2000  1.000     -0.027894      1.691013      0.397246
   10   H     10    1.2000  1.000      1.332889      2.009913     -0.446083
   11   H     11    1.2000  1.000     -0.109658     -0.616818      1.477119
   12   H     12    1.2000  1.000      0.236411     -1.892648      0.300490
   13   H     13    1.2000  1.000     -2.144045     -1.540906      0.372021
   14   H     14    1.2000  1.000     -1.528011     -1.093231     -1.214481
   15   H     15    1.2000  1.000     -2.231152      0.938427      0.999348
   16   H     16    1.2000  1.000     -1.779438      1.333212     -0.678550
   17   H     17    1.2000  1.000     -3.297685      0.486539     -0.348101
 ------------------------------------------------------------------------------
 GePol: Number of generator spheres                  =      17
 GePol: Total number of spheres                      =      17
 GePol: Number of exposed spheres                    =      17 (100.00%)
 GePol: Number of points                             =    1170
 GePol: Average weight of points                     =       0.12
 GePol: Minimum weight of points                     =   0.16D-09
 GePol: Maximum weight of points                     =    0.21991
 GePol: Number of points with low weight             =      66
 GePol: Fraction of low-weight points (<1% of avg)   =       5.64%
 GePol: Cavity surface area                          =    135.094 Ang**2
 GePol: Cavity volume                                =    107.893 Ang**3
 ------------------------------------------------------------------------------
 Atomic radii for non-electrostatic terms: SMD-CDS.
 ------------------------------------------------------------------------------
 PCM non-electrostatic energy =         0.0029933074 Hartrees.
 Nuclear repulsion after PCM non-electrostatic terms =      260.8092071385 Hartrees.
 Leave Link  301 at Wed Oct 22 13:38:17 2025, MaxMem=  4294967296 cpu:               0.7 elap:               0.1
 (Enter /lrz/sys/applications/gaussian/g16.C.01/x86_64_legacy/exe/l302.exe)
 NPDir=0 NMtPBC=     1 NCelOv=     1 NCel=       1 NClECP=     1 NCelD=      1
         NCelK=      1 NCelE2=     1 NClLst=     1 CellRange=     0.0.
 One-electron integrals computed using PRISM.
 One-electron integral symmetry used in STVInt
   1 Symmetry operations used in ECPInt.
 ECPInt:  NShTT=    6105 NPrTT=   17556 LenC2=    6028 LenP2D=   14365.
 LDataN:  DoStor=T MaxTD1= 6 Len=  172
 NBasis=   252 RedAO= T EigKep=  2.21D-04  NBF=   252
 NBsUse=   252 1.00D-06 EigRej= -1.00D+00 NBFU=   252
 Precomputing XC quadrature grid using
 IXCGrd= 4 IRadAn=           5 IRanWt=          -1 IRanGd=           0 AccXCQ= 0.00D+00.
 Generated NRdTot=       0 NPtTot=           0 NUsed=           0 NTot=          32
 NSgBfM=   281   281   281   281   281 MxSgAt=    17 MxSgA2=    17.
 Leave Link  302 at Wed Oct 22 13:38:17 2025, MaxMem=  4294967296 cpu:               2.3 elap:               0.3
 (Enter /lrz/sys/applications/gaussian/g16.C.01/x86_64_legacy/exe/l303.exe)
 DipDrv:  MaxL=1.
 Leave Link  303 at Wed Oct 22 13:38:17 2025, MaxMem=  4294967296 cpu:               0.3 elap:               0.1
 (Enter /lrz/sys/applications/gaussian/g16.C.01/x86_64_legacy/exe/l401.exe)
 ExpMin= 9.52D-02 ExpMax= 2.70D+04 ExpMxC= 9.22D+02 IAcc=3 IRadAn=         5 AccDes= 0.00D+00
 Harris functional with IExCor= 4639 and IRadAn=       5 diagonalized for initial guess.
 HarFok:  IExCor= 4639 AccDes= 0.00D+00 IRadAn=         5 IDoV= 1 UseB2=F ITyADJ=14
 ICtDFT=  3500011 ScaDFX=  1.000000  1.000000  1.000000  1.000000
 FoFCou: FMM=F IPFlag=           0 FMFlag=      100000 FMFlg1=           0
         NFxFlg=           0 DoJE=T BraDBF=F KetDBF=T FulRan=T
         wScrn=  0.000000 ICntrl=       500 IOpCl=  0 I1Cent=   200000004 NGrid=           0
         NMat0=    1 NMatS0=      1 NMatT0=    0 NMatD0=    1 NMtDS0=    0 NMtDT0=    0
 Petite list used in FoFCou.
 Harris En= -276.196963245653    
 JPrj=0 DoOrth=F DoCkMO=F.
 Leave Link  401 at Wed Oct 22 13:38:19 2025, MaxMem=  4294967296 cpu:              17.8 elap:               2.2
 (Enter /lrz/sys/applications/gaussian/g16.C.01/x86_64_legacy/exe/l502.exe)
 Integral symmetry usage will be decided dynamically.
 Closed shell SCF:
 Using DIIS extrapolation, IDIIS=  1040.
 NGot=  4294967296 LenX=  4294802854 LenY=  4294722889
 Requested convergence on RMS density matrix=1.00D-08 within 128 cycles.
 Requested convergence on MAX density matrix=1.00D-06.
 Requested convergence on             energy=1.00D-06.
 No special actions if energy rises.
 Fock matrices will be formed incrementally for  20 cycles.

 Cycle   1  Pass 1  IDiag  1:
 FoFJK:  IHMeth= 1 ICntrl=       0 DoSepK=T KAlg= 0 I1Cent=           0 FoldK=F
 IRaf=         1 NMat=       1 IRICut=       1 DoRegI=T DoRafI=F ISym2E= 0 IDoP0=0 IntGTp=1.
 FoFCou: FMM=F IPFlag=           0 FMFlag=      100000 FMFlg1=           0
         NFxFlg=           0 DoJE=T BraDBF=F KetDBF=F FulRan=T
         wScrn=  0.000000 ICntrl=       500 IOpCl=  0 I1Cent=           0 NGrid=           0
         NMat0=    1 NMatS0=      1 NMatT0=    0 NMatD0=    1 NMtDS0=    0 NMtDT0=    0
 Symmetry not used in FoFCou.
 Inv3:  Mode=1 IEnd=     4106700.
 Iteration    1 A*A^-1 deviation from unit magnitude is 5.22D-15 for    661.
 Iteration    1 A*A^-1 deviation from orthogonality  is 3.07D-15 for    610     26.
 Iteration    1 A^-1*A deviation from unit magnitude is 5.22D-15 for    661.
 Iteration    1 A^-1*A deviation from orthogonality  is 2.95D-15 for    860    842.
 E= -288.987471897012    
 DIIS: error= 4.16D-02 at cycle   1 NSaved=   1.
 NSaved= 1 IEnMin= 1 EnMin= -288.987471897012     IErMin= 1 ErrMin= 4.16D-02
 ErrMax= 4.16D-02  0.00D+00 EMaxC= 1.00D-01 BMatC= 6.09D-01 BMatP= 6.09D-01
 IDIUse=3 WtCom= 5.84D-01 WtEn= 4.16D-01
 Coeff-Com:  0.100D+01
 Coeff-En:   0.100D+01
 Coeff:      0.100D+01
 Gap=     0.493 Goal=   None    Shift=    0.000
 GapD=    0.493 DampG=2.000 DampE=0.500 DampFc=1.0000 IDamp=-1.
 RMSDP=1.79D-03 MaxDP=5.26D-02              OVMax= 5.65D-02

 Cycle   2  Pass 1  IDiag  1:
 RMSU=  1.73D-03    CP:  9.54D-01
 E= -289.041485552784     Delta-E=       -0.054013655772 Rises=F Damp=F
 DIIS: error= 6.82D-03 at cycle   2 NSaved=   2.
 NSaved= 2 IEnMin= 2 EnMin= -289.041485552784     IErMin= 2 ErrMin= 6.82D-03
 ErrMax= 6.82D-03  0.00D+00 EMaxC= 1.00D-01 BMatC= 3.11D-02 BMatP= 6.09D-01
 IDIUse=3 WtCom= 9.32D-01 WtEn= 6.82D-02
 Coeff-Com:  0.117D+00 0.883D+00
 Coeff-En:   0.000D+00 0.100D+01
 Coeff:      0.109D+00 0.891D+00
 Gap=     0.457 Goal=   None    Shift=    0.000
 RMSDP=6.89D-04 MaxDP=2.91D-02 DE=-5.40D-02 OVMax= 4.37D-02

 Cycle   3  Pass 1  IDiag  1:
 RMSU=  5.72D-04    CP:  9.62D-01  7.82D-01
 E= -289.050205368501     Delta-E=       -0.008719815717 Rises=F Damp=F
 DIIS: error= 6.31D-03 at cycle   3 NSaved=   3.
 NSaved= 3 IEnMin= 3 EnMin= -289.050205368501     IErMin= 3 ErrMin= 6.31D-03
 ErrMax= 6.31D-03  0.00D+00 EMaxC= 1.00D-01 BMatC= 1.93D-02 BMatP= 3.11D-02
 IDIUse=3 WtCom= 9.37D-01 WtEn= 6.31D-02
 Coeff-Com:  0.242D-01 0.448D+00 0.528D+00
 Coeff-En:   0.000D+00 0.374D+00 0.626D+00
 Coeff:      0.227D-01 0.443D+00 0.534D+00
 Gap=     0.470 Goal=   None    Shift=    0.000
 RMSDP=3.85D-04 MaxDP=1.51D-02 DE=-8.72D-03 OVMax= 2.39D-02

 Cycle   4  Pass 1  IDiag  1:
 RMSU=  1.47D-04    CP:  9.54D-01  9.44D-01  6.36D-01
 E= -289.063698972581     Delta-E=       -0.013493604080 Rises=F Damp=F
 DIIS: error= 6.44D-04 at cycle   4 NSaved=   4.
 NSaved= 4 IEnMin= 4 EnMin= -289.063698972581     IErMin= 4 ErrMin= 6.44D-04
 ErrMax= 6.44D-04  0.00D+00 EMaxC= 1.00D-01 BMatC= 2.10D-04 BMatP= 1.93D-02
 IDIUse=3 WtCom= 9.94D-01 WtEn= 6.44D-03
 Coeff-Com:  0.873D-02 0.166D+00 0.220D+00 0.606D+00
 Coeff-En:   0.000D+00 0.000D+00 0.000D+00 0.100D+01
 Coeff:      0.867D-02 0.164D+00 0.219D+00 0.608D+00
 Gap=     0.457 Goal=   None    Shift=    0.000
 RMSDP=3.95D-05 MaxDP=1.47D-03 DE=-1.35D-02 OVMax= 2.09D-03

 Cycle   5  Pass 1  IDiag  1:
 RMSU=  3.50D-05    CP:  9.54D-01  9.51D-01  6.59D-01  9.87D-01
 E= -289.063847825266     Delta-E=       -0.000148852684 Rises=F Damp=F
 DIIS: error= 9.28D-05 at cycle   5 NSaved=   5.
 NSaved= 5 IEnMin= 5 EnMin= -289.063847825266     IErMin= 5 ErrMin= 9.28D-05
 ErrMax= 9.28D-05  0.00D+00 EMaxC= 1.00D-01 BMatC= 8.73D-06 BMatP= 2.10D-04
 IDIUse=1 WtCom= 1.00D+00 WtEn= 0.00D+00
 Coeff-Com: -0.201D-02-0.348D-01-0.332D-01 0.112D+00 0.958D+00
 Coeff:     -0.201D-02-0.348D-01-0.332D-01 0.112D+00 0.958D+00
 Gap=     0.456 Goal=   None    Shift=    0.000
 RMSDP=3.33D-05 MaxDP=1.04D-03 DE=-1.49D-04 OVMax= 9.99D-04

 Cycle   6  Pass 1  IDiag  1:
 RMSU=  9.85D-06    CP:  9.53D-01  9.61D-01  6.79D-01  1.14D+00  1.22D+00
 E= -289.063859111998     Delta-E=       -0.000011286732 Rises=F Damp=F
 DIIS: error= 2.06D-05 at cycle   6 NSaved=   6.
 NSaved= 6 IEnMin= 6 EnMin= -289.063859111998     IErMin= 6 ErrMin= 2.06D-05
 ErrMax= 2.06D-05  0.00D+00 EMaxC= 1.00D-01 BMatC= 3.39D-07 BMatP= 8.73D-06
 IDIUse=1 WtCom= 1.00D+00 WtEn= 0.00D+00
 Coeff-Com: -0.719D-03-0.122D-01-0.135D-01 0.780D-02 0.181D+00 0.838D+00
 Coeff:     -0.719D-03-0.122D-01-0.135D-01 0.780D-02 0.181D+00 0.838D+00
 Gap=     0.456 Goal=   None    Shift=    0.000
 RMSDP=7.14D-06 MaxDP=1.74D-04 DE=-1.13D-05 OVMax= 3.47D-04

 Cycle   7  Pass 1  IDiag  1:
 RMSU=  2.65D-06    CP:  9.53D-01  9.63D-01  6.82D-01  1.17D+00  1.31D+00
                    CP:  1.20D+00
 E= -289.063859547698     Delta-E=       -0.000000435700 Rises=F Damp=F
 DIIS: error= 1.27D-05 at cycle   7 NSaved=   7.
 NSaved= 7 IEnMin= 7 EnMin= -289.063859547698     IErMin= 7 ErrMin= 1.27D-05
 ErrMax= 1.27D-05  0.00D+00 EMaxC= 1.00D-01 BMatC= 9.36D-08 BMatP= 3.39D-07
 IDIUse=1 WtCom= 1.00D+00 WtEn= 0.00D+00
 Coeff-Com: -0.126D-04-0.509D-03-0.126D-02-0.112D-01-0.586D-01 0.326D+00
 Coeff-Com:  0.746D+00
 Coeff:     -0.126D-04-0.509D-03-0.126D-02-0.112D-01-0.586D-01 0.326D+00
 Coeff:      0.746D+00
 Gap=     0.456 Goal=   None    Shift=    0.000
 RMSDP=2.75D-06 MaxDP=6.45D-05 DE=-4.36D-07 OVMax= 1.12D-04

 Cycle   8  Pass 1  IDiag  1:
 RMSU=  9.81D-07    CP:  9.53D-01  9.64D-01  6.83D-01  1.18D+00  1.34D+00
                    CP:  1.35D+00  1.16D+00
 E= -289.063859650056     Delta-E=       -0.000000102358 Rises=F Damp=F
 DIIS: error= 2.50D-06 at cycle   8 NSaved=   8.
 NSaved= 8 IEnMin= 8 EnMin= -289.063859650056     IErMin= 8 ErrMin= 2.50D-06
 ErrMax= 2.50D-06  0.00D+00 EMaxC= 1.00D-01 BMatC= 3.52D-09 BMatP= 9.36D-08
 IDIUse=1 WtCom= 1.00D+00 WtEn= 0.00D+00
 Coeff-Com:  0.474D-04 0.799D-03 0.829D-03-0.227D-02-0.227D-01-0.495D-02
 Coeff-Com:  0.135D+00 0.893D+00
 Coeff:      0.474D-04 0.799D-03 0.829D-03-0.227D-02-0.227D-01-0.495D-02
 Coeff:      0.135D+00 0.893D+00
 Gap=     0.456 Goal=   None    Shift=    0.000
 RMSDP=8.33D-07 MaxDP=2.06D-05 DE=-1.02D-07 OVMax= 4.54D-05

 Cycle   9  Pass 1  IDiag  1:
 RMSU=  2.25D-07    CP:  9.53D-01  9.64D-01  6.83D-01  1.18D+00  1.35D+00
                    CP:  1.39D+00  1.31D+00  1.21D+00
 E= -289.063859655989     Delta-E=       -0.000000005933 Rises=F Damp=F
 DIIS: error= 8.75D-07 at cycle   9 NSaved=   9.
 NSaved= 9 IEnMin= 9 EnMin= -289.063859655989     IErMin= 9 ErrMin= 8.75D-07
 ErrMax= 8.75D-07  0.00D+00 EMaxC= 1.00D-01 BMatC= 5.26D-10 BMatP= 3.52D-09
 IDIUse=1 WtCom= 1.00D+00 WtEn= 0.00D+00
 Coeff-Com:  0.136D-04 0.270D-03 0.361D-03 0.322D-03-0.958D-03-0.318D-01
 Coeff-Com: -0.350D-01 0.254D+00 0.813D+00
 Coeff:      0.136D-04 0.270D-03 0.361D-03 0.322D-03-0.958D-03-0.318D-01
 Coeff:     -0.350D-01 0.254D+00 0.813D+00
 Gap=     0.456 Goal=   None    Shift=    0.000
 RMSDP=2.55D-07 MaxDP=6.93D-06 DE=-5.93D-09 OVMax= 1.29D-05

 Cycle  10  Pass 1  IDiag  1:
 RMSU=  8.43D-08    CP:  9.53D-01  9.64D-01  6.83D-01  1.18D+00  1.35D+00
                    CP:  1.41D+00  1.35D+00  1.32D+00  1.22D+00
 E= -289.063859656762     Delta-E=       -0.000000000774 Rises=F Damp=F
 DIIS: error= 4.74D-07 at cycle  10 NSaved=  10.
 NSaved=10 IEnMin=10 EnMin= -289.063859656762     IErMin=10 ErrMin= 4.74D-07
 ErrMax= 4.74D-07  0.00D+00 EMaxC= 1.00D-01 BMatC= 5.25D-11 BMatP= 5.26D-10
 IDIUse=1 WtCom= 1.00D+00 WtEn= 0.00D+00
 Coeff-Com: -0.244D-05-0.291D-04-0.426D-05 0.416D-03 0.292D-02-0.867D-02
 Coeff-Com: -0.298D-01-0.443D-01 0.222D+00 0.858D+00
 Coeff:     -0.244D-05-0.291D-04-0.426D-05 0.416D-03 0.292D-02-0.867D-02
 Coeff:     -0.298D-01-0.443D-01 0.222D+00 0.858D+00
 Gap=     0.456 Goal=   None    Shift=    0.000
 RMSDP=8.94D-08 MaxDP=2.55D-06 DE=-7.74D-10 OVMax= 5.08D-06

 Cycle  11  Pass 1  IDiag  1:
 RMSU=  2.47D-08    CP:  9.53D-01  9.64D-01  6.83D-01  1.18D+00  1.35D+00
                    CP:  1.41D+00  1.37D+00  1.36D+00  1.41D+00  1.25D+00
 E= -289.063859656848     Delta-E=       -0.000000000086 Rises=F Damp=F
 DIIS: error= 4.44D-08 at cycle  11 NSaved=  11.
 NSaved=11 IEnMin=11 EnMin= -289.063859656848     IErMin=11 ErrMin= 4.44D-08
 ErrMax= 4.44D-08  0.00D+00 EMaxC= 1.00D-01 BMatC= 1.07D-12 BMatP= 5.25D-11
 IDIUse=1 WtCom= 1.00D+00 WtEn= 0.00D+00
 Coeff-Com: -0.441D-06-0.108D-04-0.169D-04-0.191D-04-0.536D-04 0.170D-02
 Coeff-Com:  0.241D-02-0.110D-01-0.486D-01-0.229D-01 0.108D+01
 Coeff:     -0.441D-06-0.108D-04-0.169D-04-0.191D-04-0.536D-04 0.170D-02
 Coeff:      0.241D-02-0.110D-01-0.486D-01-0.229D-01 0.108D+01
 Gap=     0.456 Goal=   None    Shift=    0.000
 RMSDP=2.26D-08 MaxDP=6.43D-07 DE=-8.62D-11 OVMax= 1.05D-06

 Cycle  12  Pass 1  IDiag  1:
 RMSU=  6.10D-09    CP:  9.53D-01  9.64D-01  6.83D-01  1.18D+00  1.35D+00
                    CP:  1.41D+00  1.37D+00  1.37D+00  1.47D+00  1.41D+00
                    CP:  1.36D+00
 E= -289.063859656858     Delta-E=       -0.000000000009 Rises=F Damp=F
 DIIS: error= 1.39D-08 at cycle  12 NSaved=  12.
 NSaved=12 IEnMin=12 EnMin= -289.063859656858     IErMin=12 ErrMin= 1.39D-08
 ErrMax= 1.39D-08  0.00D+00 EMaxC= 1.00D-01 BMatC= 5.22D-14 BMatP= 1.07D-12
 IDIUse=1 WtCom= 1.00D+00 WtEn= 0.00D+00
 Coeff-Com:  0.899D-07 0.821D-06-0.855D-06-0.230D-04-0.157D-03 0.565D-03
 Coeff-Com:  0.179D-02 0.176D-02-0.131D-01-0.472D-01 0.655D-01 0.991D+00
 Coeff:      0.899D-07 0.821D-06-0.855D-06-0.230D-04-0.157D-03 0.565D-03
 Coeff:      0.179D-02 0.176D-02-0.131D-01-0.472D-01 0.655D-01 0.991D+00
 Gap=     0.456 Goal=   None    Shift=    0.000
 RMSDP=5.47D-09 MaxDP=1.34D-07 DE=-9.21D-12 OVMax= 1.86D-07

 Error on total polarization charges =  0.04457
 SCF Done:  E(RwB97XD) =  -289.063859657     A.U. after   12 cycles
            NFock= 12  Conv=0.55D-08     -V/T= 2.0055
 KE= 2.874869664541D+02 PE=-1.195668893938D+03 EE= 3.583088606882D+02
 SMD-CDS (non-electrostatic) energy       (kcal/mol) =       1.88
 (included in total energy above)
 Leave Link  502 at Wed Oct 22 13:40:00 2025, MaxMem=  4294967296 cpu:             800.2 elap:             100.2
 (Enter /lrz/sys/applications/gaussian/g16.C.01/x86_64_legacy/exe/l601.exe)
 Copying SCF densities to generalized density rwf, IOpCl= 0 IROHF=0.

 **********************************************************************

            Population analysis using the SCF Density.

 **********************************************************************

 Orbital symmetries:
       Occupied  (A) (A) (A) (A) (A) (A) (A) (A) (A) (A) (A) (A)
                 (A) (A) (A) (A) (A) (A) (A) (A) (A) (A) (A) (A)
                 (A)
       Virtual   (A) (A) (A) (A) (A) (A) (A) (A) (A) (A) (A) (A)
                 (A) (A) (A) (A) (A) (A) (A) (A) (A) (A) (A) (A)
                 (A) (A) (A) (A) (A) (A) (A) (A) (A) (A) (A) (A)
                 (A) (A) (A) (A) (A) (A) (A) (A) (A) (A) (A) (A)
                 (A) (A) (A) (A) (A) (A) (A) (A) (A) (A) (A) (A)
                 (A) (A) (A) (A) (A) (A) (A) (A) (A) (A) (A) (A)
                 (A) (A) (A) (A) (A) (A) (A) (A) (A) (A) (A) (A)
                 (A) (A) (A) (A) (A) (A) (A) (A) (A) (A) (A) (A)
                 (A) (A) (A) (A) (A) (A) (A) (A) (A) (A) (A) (A)
                 (A) (A) (A) (A) (A) (A) (A) (A) (A) (A) (A) (A)
                 (A) (A) (A) (A) (A) (A) (A) (A) (A) (A) (A) (A)
                 (A) (A) (A) (A) (A) (A) (A) (A) (A) (A) (A) (A)
                 (A) (A) (A) (A) (A) (A) (A) (A) (A) (A) (A) (A)
                 (A) (A) (A) (A) (A) (A) (A) (A) (A) (A) (A) (A)
                 (A) (A) (A) (A) (A) (A) (A) (A) (A) (A) (A) (A)
                 (A) (A) (A) (A) (A) (A) (A) (A) (A) (A) (A) (A)
                 (A) (A) (A) (A) (A) (A) (A) (A) (A) (A) (A) (A)
                 (A) (A) (A) (A) (A) (A) (A) (A) (A) (A) (A) (A)
                 (A) (A) (A) (A) (A) (A) (A) (A) (A) (A) (A)
 The electronic state is 1-A.
 Alpha  occ. eigenvalues --  -19.24700 -14.41035 -10.35145 -10.27414 -10.26976
 Alpha  occ. eigenvalues --  -10.26543  -1.13230  -0.97233  -0.87852  -0.79746
 Alpha  occ. eigenvalues --   -0.71696  -0.67028  -0.59527  -0.57388  -0.54570
 Alpha  occ. eigenvalues --   -0.53225  -0.50145  -0.48381  -0.47178  -0.43394
 Alpha  occ. eigenvalues --   -0.41728  -0.40785  -0.40289  -0.36637  -0.33688
 Alpha virt. eigenvalues --    0.11930   0.13973   0.14609   0.15245   0.17705
 Alpha virt. eigenvalues --    0.18166   0.19633   0.20598   0.21250   0.22476
 Alpha virt. eigenvalues --    0.23036   0.25786   0.26190   0.28586   0.30326
 Alpha virt. eigenvalues --    0.30888   0.31385   0.33632   0.34770   0.35877
 Alpha virt. eigenvalues --    0.38929   0.40171   0.41756   0.43352   0.44979
 Alpha virt. eigenvalues --    0.45794   0.46594   0.48577   0.49515   0.50378
 Alpha virt. eigenvalues --    0.51311   0.52327   0.52872   0.53876   0.54466
 Alpha virt. eigenvalues --    0.54907   0.56737   0.57268   0.58091   0.59109
 Alpha virt. eigenvalues --    0.59361   0.61454   0.64631   0.66531   0.68594
 Alpha virt. eigenvalues --    0.70617   0.71643   0.74008   0.78284   0.83532
 Alpha virt. eigenvalues --    0.83823   0.86609   0.89040   0.92207   0.94245
 Alpha virt. eigenvalues --    0.96642   0.99158   1.01921   1.03559   1.07798
 Alpha virt. eigenvalues --    1.10735   1.12746   1.17517   1.19292   1.19549
 Alpha virt. eigenvalues --    1.21419   1.23125   1.24346   1.29306   1.32300
 Alpha virt. eigenvalues --    1.37511   1.38262   1.40527   1.42780   1.50274
 Alpha virt. eigenvalues --    1.52062   1.55260   1.58812   1.62092   1.62865
 Alpha virt. eigenvalues --    1.63918   1.65807   1.66614   1.67708   1.69134
 Alpha virt. eigenvalues --    1.70820   1.73774   1.76311   1.78302   1.80176
 Alpha virt. eigenvalues --    1.82509   1.84823   1.88474   1.89018   1.91432
 Alpha virt. eigenvalues --    1.95667   1.96389   1.99475   2.00990   2.05555
 Alpha virt. eigenvalues --    2.06580   2.09487   2.10173   2.13770   2.15509
 Alpha virt. eigenvalues --    2.15930   2.18482   2.21106   2.22974   2.28909
 Alpha virt. eigenvalues --    2.32688   2.33007   2.35505   2.38689   2.42263
 Alpha virt. eigenvalues --    2.45015   2.46565   2.48206   2.48656   2.52479
 Alpha virt. eigenvalues --    2.54321   2.55819   2.59010   2.61336   2.62558
 Alpha virt. eigenvalues --    2.64378   2.65412   2.67517   2.69756   2.72490
 Alpha virt. eigenvalues --    2.74132   2.76130   2.77645   2.78806   2.81536
 Alpha virt. eigenvalues --    2.82956   2.84491   2.85472   2.89214   2.91737
 Alpha virt. eigenvalues --    2.94110   2.98599   3.03225   3.08883   3.10376
 Alpha virt. eigenvalues --    3.12746   3.16775   3.18389   3.19730   3.22443
 Alpha virt. eigenvalues --    3.22899   3.24989   3.26106   3.31160   3.34416
 Alpha virt. eigenvalues --    3.35676   3.37920   3.39474   3.41527   3.44037
 Alpha virt. eigenvalues --    3.46678   3.48834   3.51472   3.52499   3.54205
 Alpha virt. eigenvalues --    3.55608   3.61699   3.63707   3.65919   3.67146
 Alpha virt. eigenvalues --    3.76032   3.80349   3.82547   3.85292   3.90227
 Alpha virt. eigenvalues --    3.92574   3.96943   3.99988   4.01599   4.04607
 Alpha virt. eigenvalues --    4.08953   4.12647   4.16533   4.21546   4.23945
 Alpha virt. eigenvalues --    4.31594   4.39705   4.43078   4.44385   4.48811
 Alpha virt. eigenvalues --    4.55021   4.62276   4.64311   4.68352   4.72996
 Alpha virt. eigenvalues --    4.77183   4.81519   4.85648   4.89598   4.96484
 Alpha virt. eigenvalues --    4.97327   4.99279   5.04891   5.17568   5.27769
 Alpha virt. eigenvalues --    5.31546   5.38691   5.42796   5.49072   5.57677
 Alpha virt. eigenvalues --    5.66555   5.80514   5.86415   5.96153   6.12186
 Alpha virt. eigenvalues --    6.39215   6.57921   6.81333   6.93691   7.07568
 Alpha virt. eigenvalues --    7.25090  22.43666  22.56351  22.59796  22.69892
 Alpha virt. eigenvalues --   32.12663  43.97132
          Condensed to atoms (all electrons):
               1          2          3          4          5          6
     1  O    8.160239   0.273972  -0.086123  -0.059970   0.012123  -0.000689
     2  C    0.273972   4.677938   0.271654   0.344553  -0.043026   0.012743
     3  N   -0.086123   0.271654   6.769182  -0.060745   0.015909  -0.008027
     4  C   -0.059970   0.344553  -0.060745   5.121966   0.256021  -0.036353
     5  C    0.012123  -0.043026   0.015909   0.256021   5.003188   0.271980
     6  C   -0.000689   0.012743  -0.008027  -0.036353   0.271980   5.050995
     7  H    0.295863  -0.027252   0.009548  -0.010623   0.000670  -0.000072
     8  H   -0.040304   0.433254  -0.057112  -0.061134   0.000508  -0.001117
     9  H    0.004307  -0.023542   0.374796  -0.007561  -0.006551   0.002920
    10  H    0.004734  -0.024515   0.359672   0.007670  -0.000772  -0.000488
    11  H    0.000628  -0.048054   0.005299   0.400067  -0.021876  -0.007723
    12  H    0.006094  -0.045513   0.008479   0.407348  -0.024889   0.008094
    13  H   -0.000500   0.011637  -0.000808  -0.037513   0.408672  -0.029344
    14  H    0.000267  -0.010652  -0.000106  -0.037159   0.422073  -0.040650
    15  H    0.000010  -0.004556  -0.001169   0.006465  -0.045533   0.410273
    16  H    0.000017   0.009251   0.001167  -0.013453  -0.032230   0.412247
    17  H    0.000014  -0.000677   0.000929   0.008192  -0.028751   0.399153
               7          8          9         10         11         12
     1  O    0.295863  -0.040304   0.004307   0.004734   0.000628   0.006094
     2  C   -0.027252   0.433254  -0.023542  -0.024515  -0.048054  -0.045513
     3  N    0.009548  -0.057112   0.374796   0.359672   0.005299   0.008479
     4  C   -0.010623  -0.061134  -0.007561   0.007670   0.400067   0.407348
     5  C    0.000670   0.000508  -0.006551  -0.000772  -0.021876  -0.024889
     6  C   -0.000072  -0.001117   0.002920  -0.000488  -0.007723   0.008094
     7  H    0.362411   0.010663   0.000618  -0.001715   0.004917   0.000102
     8  H    0.010663   0.602259   0.005619  -0.008863   0.008995  -0.001053
     9  H    0.000618   0.005619   0.414439  -0.026021   0.002236  -0.000183
    10  H   -0.001715  -0.008863  -0.026021   0.427397  -0.000376  -0.000602
    11  H    0.004917   0.008995   0.002236  -0.000376   0.560754  -0.021412
    12  H    0.000102  -0.001053  -0.000183  -0.000602  -0.021412   0.557944
    13  H   -0.000030  -0.000368  -0.000139   0.000058  -0.004760  -0.006953
    14  H    0.000058   0.004731   0.000356  -0.000027   0.006383  -0.003510
    15  H    0.000026   0.000412   0.000417   0.000040   0.003047   0.000078
    16  H   -0.000067  -0.001932  -0.001673   0.001677   0.000111  -0.000598
    17  H   -0.000005  -0.000263   0.000507  -0.000010  -0.000459  -0.000232
              13         14         15         16         17
     1  O   -0.000500   0.000267   0.000010   0.000017   0.000014
     2  C    0.011637  -0.010652  -0.004556   0.009251  -0.000677
     3  N   -0.000808  -0.000106  -0.001169   0.001167   0.000929
     4  C   -0.037513  -0.037159   0.006465  -0.013453   0.008192
     5  C    0.408672   0.422073  -0.045533  -0.032230  -0.028751
     6  C   -0.029344  -0.040650   0.410273   0.412247   0.399153
     7  H   -0.000030   0.000058   0.000026  -0.000067  -0.000005
     8  H   -0.000368   0.004731   0.000412  -0.001932  -0.000263
     9  H   -0.000139   0.000356   0.000417  -0.001673   0.000507
    10  H    0.000058  -0.000027   0.000040   0.001677  -0.000010
    11  H   -0.004760   0.006383   0.003047   0.000111  -0.000459
    12  H   -0.006953  -0.003510   0.000078  -0.000598  -0.000232
    13  H    0.577560  -0.028016  -0.004037   0.006034  -0.006307
    14  H   -0.028016   0.578058   0.006937  -0.004782  -0.003844
    15  H   -0.004037   0.006937   0.546916  -0.031679  -0.020005
    16  H    0.006034  -0.004782  -0.031679   0.543183  -0.017480
    17  H   -0.006307  -0.003844  -0.020005  -0.017480   0.528040
 Mulliken charges:
               1
     1  O   -0.570681
     2  C    0.192785
     3  N   -0.602545
     4  C   -0.227770
     5  C   -0.187517
     6  C   -0.443943
     7  H    0.354888
     8  H    0.105703
     9  H    0.259456
    10  H    0.262140
    11  H    0.112222
    12  H    0.116806
    13  H    0.114813
    14  H    0.109884
    15  H    0.132357
    16  H    0.130206
    17  H    0.141196
 Sum of Mulliken charges =  -0.00000
 Mulliken charges with hydrogens summed into heavy atoms:
               1
     1  O   -0.215792
     2  C    0.298488
     3  N   -0.080950
     4  C    0.001258
     5  C    0.037180
     6  C   -0.040184
 Electronic spatial extent (au):  <R**2>=            742.6844
 Charge=             -0.0000 electrons
 Dipole moment (field-independent basis, Debye):
    X=             -2.5572    Y=              0.9912    Z=              0.1671  Tot=              2.7477
 Quadrupole moment (field-independent basis, Debye-Ang):
   XX=            -43.7871   YY=            -37.9766   ZZ=            -38.3576
   XY=              1.1494   XZ=              2.0087   YZ=             -3.3981
 Traceless Quadrupole moment (field-independent basis, Debye-Ang):
   XX=             -3.7467   YY=              2.0638   ZZ=              1.6829
   XY=              1.1494   XZ=              2.0087   YZ=             -3.3981
 Octapole moment (field-independent basis, Debye-Ang**2):
  XXX=             -2.5533  YYY=              7.5905  ZZZ=             -1.0609  XYY=              1.6896
  XXY=              2.4325  XXZ=              9.0658  XZZ=              4.6424  YZZ=             -1.1142
  YYZ=             -3.7313  XYZ=             -6.7698
 Hexadecapole moment (field-independent basis, Debye-Ang**3):
 XXXX=           -657.0098 YYYY=           -221.3478 ZZZZ=            -86.0675 XXXY=              8.8741
 XXXZ=             30.4255 YYYX=              5.9404 YYYZ=            -10.0078 ZZZX=             -0.4522
 ZZZY=             -2.7260 XXYY=           -152.2459 XXZZ=           -116.7779 YYZZ=            -55.9710
 XXYZ=            -13.5705 YYXZ=             -7.3806 ZZXY=             -3.2302
 N-N= 2.608092071385D+02 E-N=-1.195668894686D+03  KE= 2.874869664541D+02
 No NMR shielding tensors so no spin-rotation constants.
 Leave Link  601 at Wed Oct 22 13:40:00 2025, MaxMem=  4294967296 cpu:               1.2 elap:               0.2
 (Enter /lrz/sys/applications/gaussian/g16.C.01/x86_64_legacy/exe/l9999.exe)
 Unable to Open any file for archive entry.
 1\1\GINC-CM4R13C05S08\SP\RwB97XD\def2TZVP\C4H11N1O1\GO29TIZ2\22-Oct-20
 25\0\\#p wb97xd scrf=(smd,solvent=water) def2tzvp\\g16_g16_C17-a_29\\0
 ,1\O,0,2.223972,-0.519822,-0.162221\C,0,0.923562,0.022267,-0.298191\N,
 0,0.922343,1.369191,0.231371\C,0,-0.117498,-0.855211,0.398059\C,0,-1.5
 42993,-0.782622,-0.155524\C,0,-2.244539,0.566981,-0.038693\H,0,2.45411
 6,-0.43784,0.773234\H,0,0.7351,-0.011916,-1.387982\H,0,-0.027894,1.691
 013,0.397246\H,0,1.332889,2.009913,-0.446083\H,0,-0.109658,-0.616818,1
 .477119\H,0,0.236411,-1.892648,0.30049\H,0,-2.144045,-1.540906,0.37202
 1\H,0,-1.528011,-1.093231,-1.214481\H,0,-2.231152,0.938427,0.999348\H,
 0,-1.779438,1.333212,-0.67855\H,0,-3.297685,0.486539,-0.348101\\Versio
 n=EM64L-G16RevC.01\State=1-A\HF=-289.0638597\RMSD=5.468e-09\Dipole=-1.
 0060844,0.3899573,0.0657309\Quadrupole=-2.7855627,1.5344031,1.2511596,
 0.8545513,1.4934476,-2.5263887\PG=C01 [X(C4H11N1O1)]\\@
 The archive entry for this job was punched.


 ALL MY ATTEMPTS TO ADAPT THE THEORETICAL FOUNDATIONS OF PHYSICS
 TO THESE NEW NOTIONS FAILED COMPLETELY. IT WAS AS IF THE GROUND HAD
 BEEN PULLED OUT FROM UNDER ONE WITH NO FIRM FOUNDATION TO BE SEEN ANYWHERE,
 UPON WHICH ONE COULD HAVE BUILT.  -- A.EINSTEIN
 Job cpu time:       0 days  0 hours 13 minutes 48.3 seconds.
 Elapsed time:       0 days  0 hours  1 minutes 43.9 seconds.
 File lengths (MBytes):  RWF=    288 Int=      0 D2E=      0 Chk=     12 Scr=     32
 Normal termination of Gaussian 16 at Wed Oct 22 13:40:00 2025.
