 Entering Gaussian System, Link 0=g16
 Input=../../g16_g16_C4-w_1.com
 Output=../../g16_g16_C4-w_1.log
 Initial command:
 /lrz/sys/applications/gaussian/g16.C.01/x86_64_legacy/exe/l1.exe "/dss/lxclscratch/0D/go29tiz2/Gau-23615.inp" -scrdir="/dss/lxclscratch/0D/go29tiz2/"
 Entering Link 1 = /lrz/sys/applications/gaussian/g16.C.01/x86_64_legacy/exe/l1.exe PID=     23616.
  
 Copyright (c) 1988-2019, Gaussian, Inc.  All Rights Reserved.
  
 This is part of the Gaussian(R) 16 program.  It is based on
 the Gaussian(R) 09 system (copyright 2009, Gaussian, Inc.),
 the Gaussian(R) 03 system (copyright 2003, Gaussian, Inc.),
 the Gaussian(R) 98 system (copyright 1998, Gaussian, Inc.),
 the Gaussian(R) 94 system (copyright 1995, Gaussian, Inc.),
 the Gaussian 92(TM) system (copyright 1992, Gaussian, Inc.),
 the Gaussian 90(TM) system (copyright 1990, Gaussian, Inc.),
 the Gaussian 88(TM) system (copyright 1988, Gaussian, Inc.),
 the Gaussian 86(TM) system (copyright 1986, Carnegie Mellon
 University), and the Gaussian 82(TM) system (copyright 1983,
 Carnegie Mellon University). Gaussian is a federally registered
 trademark of Gaussian, Inc.
  
 This software contains proprietary and confidential information,
 including trade secrets, belonging to Gaussian, Inc.
  
 This software is provided under written license and may be
 used, copied, transmitted, or stored only in accord with that
 written license.
  
 The following legend is applicable only to US Government
 contracts under FAR:
  
                    RESTRICTED RIGHTS LEGEND
  
 Use, reproduction and disclosure by the US Government is
 subject to restrictions as set forth in subparagraphs (a)
 and (c) of the Commercial Computer Software - Restricted
 Rights clause in FAR 52.227-19.
  
 Gaussian, Inc.
 340 Quinnipiac St., Bldg. 40, Wallingford CT 06492
  
  
 ---------------------------------------------------------------
 Warning -- This program may not be used in any manner that
 competes with the business of Gaussian, Inc. or will provide
 assistance to any competitor of Gaussian, Inc.  The licensee
 of this program is prohibited from giving any competitor of
 Gaussian, Inc. access to this program.  By using this program,
 the user acknowledges that Gaussian, Inc. is engaged in the
 business of creating and licensing software in the field of
 computational chemistry and represents and warrants to the
 licensee that it is not a competitor of Gaussian, Inc. and that
 it will not use this program in any manner prohibited above.
 ---------------------------------------------------------------
  

 Cite this work as:
 Gaussian 16, Revision C.01,
 M. J. Frisch, G. W. Trucks, H. B. Schlegel, G. E. Scuseria, 
 M. A. Robb, J. R. Cheeseman, G. Scalmani, V. Barone, 
 G. A. Petersson, H. Nakatsuji, X. Li, M. Caricato, A. V. Marenich, 
 J. Bloino, B. G. Janesko, R. Gomperts, B. Mennucci, H. P. Hratchian, 
 J. V. Ortiz, A. F. Izmaylov, J. L. Sonnenberg, D. Williams-Young, 
 F. Ding, F. Lipparini, F. Egidi, J. Goings, B. Peng, A. Petrone, 
 T. Henderson, D. Ranasinghe, V. G. Zakrzewski, J. Gao, N. Rega, 
 G. Zheng, W. Liang, M. Hada, M. Ehara, K. Toyota, R. Fukuda, 
 J. Hasegawa, M. Ishida, T. Nakajima, Y. Honda, O. Kitao, H. Nakai, 
 T. Vreven, K. Throssell, J. A. Montgomery, Jr., J. E. Peralta, 
 F. Ogliaro, M. J. Bearpark, J. J. Heyd, E. N. Brothers, K. N. Kudin, 
 V. N. Staroverov, T. A. Keith, R. Kobayashi, J. Normand, 
 K. Raghavachari, A. P. Rendell, J. C. Burant, S. S. Iyengar, 
 J. Tomasi, M. Cossi, J. M. Millam, M. Klene, C. Adamo, R. Cammi, 
 J. W. Ochterski, R. L. Martin, K. Morokuma, O. Farkas, 
 J. B. Foresman, and D. J. Fox, Gaussian, Inc., Wallingford CT, 2019.
 
 ******************************************
 Gaussian 16:  EM64L-G16RevC.01  3-Jul-2019
                22-Oct-2025 
 ******************************************
 %chk=g16_g16_C4-w_1.chk
 %nprocshared=8
 Will use up to    8 processors via shared memory.
 %mem=32GB
 -------------------------------------------
 #p wb97xd scrf=(smd,solvent=water) def2tzvp
 -------------------------------------------
 1/38=1,172=1/1;
 2/12=2,17=6,18=5,40=1/2;
 3/5=44,7=101,11=2,25=1,30=1,70=32201,72=1,74=-58/1,2,3;
 4//1;
 5/5=2,38=5,53=1/2;
 6/7=2,8=2,9=2,10=2,28=1/1;
 99/5=1,9=1/99;
 Leave Link    1 at Wed Oct 22 10:15:45 2025, MaxMem=  4294967296 cpu:               5.8 elap:               0.8
 (Enter /lrz/sys/applications/gaussian/g16.C.01/x86_64_legacy/exe/l101.exe)
 --------------
 g16_g16_C4-w_1
 --------------
 Symbolic Z-matrix:
 Charge =  0 Multiplicity = 1
 O                     1.56257  -1.15934  -0.10184 
 C                     0.86389   0.00702  -0.4565 
 O                     1.49928   1.14613   0.06137 
 C                    -0.60889   0.00526   0.0025 
 C                    -1.29375  -1.23862  -0.57296 
 C                    -0.69913  -0.0131    1.5335 
 C                    -1.29738   1.26178  -0.54204 
 H                     1.50868  -1.26367   0.85781 
 H                     0.89131   0.02324  -1.56114 
 H                     2.3775    1.19687  -0.3356 
 H                    -1.23643  -1.2507   -1.67344 
 H                    -2.35777  -1.25391  -0.29053 
 H                    -0.82778  -2.16197  -0.19924 
 H                    -1.7538   -0.00494   1.84906 
 H                    -0.20469   0.86299   1.97782 
 H                    -0.24098  -0.91988   1.96112 
 H                    -2.36784   1.25252  -0.28404 
 H                    -1.21637   1.31309  -1.63996 
 H                    -0.85512   2.17807  -0.12515 
 
 ITRead=  0  0  0  0  0  0  0  0  0  0  0  0  0  0  0  0  0  0  0
 MicOpt= -1 -1 -1 -1 -1 -1 -1 -1 -1 -1 -1 -1 -1 -1 -1 -1 -1 -1 -1
 NAtoms=     19 NQM=       19 NQMF=       0 NMMI=      0 NMMIF=      0
                NMic=       0 NMicF=      0.
                    Isotopes and Nuclear Properties:
 (Nuclear quadrupole moments (NQMom) in fm**2, nuclear magnetic moments (NMagM)
  in nuclear magnetons)

  Atom         1           2           3           4           5           6           7           8           9          10
 IAtWgt=          16          12          16          12          12          12          12           1           1           1
 AtmWgt=  15.9949146  12.0000000  15.9949146  12.0000000  12.0000000  12.0000000  12.0000000   1.0078250   1.0078250   1.0078250
 NucSpn=           0           0           0           0           0           0           0           1           1           1
 AtZEff=  -0.0000000  -0.0000000  -0.0000000  -0.0000000  -0.0000000  -0.0000000  -0.0000000  -0.0000000  -0.0000000  -0.0000000
 NQMom=    0.0000000   0.0000000   0.0000000   0.0000000   0.0000000   0.0000000   0.0000000   0.0000000   0.0000000   0.0000000
 NMagM=    0.0000000   0.0000000   0.0000000   0.0000000   0.0000000   0.0000000   0.0000000   2.7928460   2.7928460   2.7928460
 AtZNuc=   8.0000000   6.0000000   8.0000000   6.0000000   6.0000000   6.0000000   6.0000000   1.0000000   1.0000000   1.0000000

  Atom        11          12          13          14          15          16          17          18          19
 IAtWgt=           1           1           1           1           1           1           1           1           1
 AtmWgt=   1.0078250   1.0078250   1.0078250   1.0078250   1.0078250   1.0078250   1.0078250   1.0078250   1.0078250
 NucSpn=           1           1           1           1           1           1           1           1           1
 AtZEff=  -0.0000000  -0.0000000  -0.0000000  -0.0000000  -0.0000000  -0.0000000  -0.0000000  -0.0000000  -0.0000000
 NQMom=    0.0000000   0.0000000   0.0000000   0.0000000   0.0000000   0.0000000   0.0000000   0.0000000   0.0000000
 NMagM=    2.7928460   2.7928460   2.7928460   2.7928460   2.7928460   2.7928460   2.7928460   2.7928460   2.7928460
 AtZNuc=   1.0000000   1.0000000   1.0000000   1.0000000   1.0000000   1.0000000   1.0000000   1.0000000   1.0000000
 Leave Link  101 at Wed Oct 22 10:15:45 2025, MaxMem=  4294967296 cpu:               0.9 elap:               0.1
 (Enter /lrz/sys/applications/gaussian/g16.C.01/x86_64_legacy/exe/l202.exe)
                          Input orientation:                          
 ---------------------------------------------------------------------
 Center     Atomic      Atomic             Coordinates (Angstroms)
 Number     Number       Type             X           Y           Z
 ---------------------------------------------------------------------
      1          8           0        1.562566   -1.159339   -0.101835
      2          6           0        0.863892    0.007024   -0.456498
      3          8           0        1.499283    1.146128    0.061371
      4          6           0       -0.608885    0.005255    0.002500
      5          6           0       -1.293749   -1.238620   -0.572961
      6          6           0       -0.699129   -0.013104    1.533499
      7          6           0       -1.297381    1.261775   -0.542041
      8          1           0        1.508678   -1.263671    0.857813
      9          1           0        0.891313    0.023236   -1.561135
     10          1           0        2.377497    1.196868   -0.335601
     11          1           0       -1.236426   -1.250698   -1.673443
     12          1           0       -2.357769   -1.253910   -0.290528
     13          1           0       -0.827776   -2.161975   -0.199239
     14          1           0       -1.753801   -0.004939    1.849060
     15          1           0       -0.204692    0.862994    1.977820
     16          1           0       -0.240976   -0.919880    1.961119
     17          1           0       -2.367838    1.252521   -0.284043
     18          1           0       -1.216369    1.313088   -1.639960
     19          1           0       -0.855123    2.178070   -0.125146
 ---------------------------------------------------------------------
                    Distance matrix (angstroms):
                    1          2          3          4          5
     1  O    0.000000
     2  C    1.405110   0.000000
     3  O    2.312103   1.403377   0.000000
     4  C    2.466245   1.542645   2.397797   0.000000
     5  C    2.895994   2.494115   3.726986   1.532129   0.000000
     6  C    3.017190   2.530519   2.888597   1.533766   2.508513
     7  C    3.772913   2.500564   2.863356   1.532773   2.500589
     8  H    0.966806   1.938512   2.538019   2.612624   3.146639
     9  H    1.994648   1.105096   2.064713   2.166996   2.709846
    10  H    2.504091   1.929079   0.965102   3.233068   4.412028
    11  H    3.211332   2.733890   4.029697   2.186324   1.102040
    12  H    3.926013   3.463611   4.556409   2.174846   1.100973
    13  H    2.593935   2.762694   4.052982   2.187578   1.099720
    14  H    4.017079   3.488274   3.886302   2.172722   2.756774
    15  H    3.396763   2.792930   2.580014   2.191113   3.479843
    16  H    2.750615   2.815094   3.302413   2.197139   2.762515
    17  H    4.615013   3.467720   3.883974   2.175246   2.728172
    18  H    4.025072   2.726513   3.208920   2.185667   2.766891
    19  H    4.121172   2.788951   2.577386   2.190446   3.473716
                    6          7          8          9         10
     6  C    0.000000
     7  C    2.508204   0.000000
     8  H    2.625811   4.026343   0.000000
     9  H    3.479596   2.713469   2.808661   0.000000
    10  H    3.797788   3.681244   2.869379   2.255679   0.000000
    11  H    3.479196   2.756140   3.734036   2.482498   4.565177
    12  H    2.760029   2.741597   4.033385   3.715115   5.332081
    13  H    2.763436   3.472766   2.717228   3.095993   4.644803
    14  H    1.100899   2.744130   3.634659   4.315884   4.825423
    15  H    1.099744   2.775373   2.951738   3.798766   3.482971
    16  H    1.102273   3.484454   2.096847   3.818091   4.075775
    17  H    2.773059   1.101148   4.760508   3.710010   4.745941
    18  H    3.478098   1.102099   4.506045   2.472298   3.825014
    19  H    2.752577   1.099541   4.289446   3.123366   3.384801
                   11         12         13         14         15
    11  H    0.000000
    12  H    1.780414   0.000000
    13  H    1.780645   1.781515   0.000000
    14  H    3.771952   2.550008   3.115422   0.000000
    15  H    4.343258   3.776563   3.778658   1.780344   0.000000
    16  H    3.782909   3.108424   2.560133   1.771529   1.783321
    17  H    3.078414   2.506460   3.746701   2.551152   3.153880
    18  H    2.564083   3.116607   3.781897   3.768194   3.783439
    19  H    3.781411   3.750171   4.340764   3.077440   2.564167
                   16         17         18         19
    16  H    0.000000
    17  H    3.779368   0.000000
    18  H    4.348023   1.779905   0.000000
    19  H    3.785099   1.780504   1.781391   0.000000
 Stoichiometry    C5H12O2
 Framework group  C1[X(C5H12O2)]
 Deg. of freedom    51
 Full point group                 C1      NOp   1
 Largest Abelian subgroup         C1      NOp   1
 Largest concise Abelian subgroup C1      NOp   1
                         Standard orientation:                         
 ---------------------------------------------------------------------
 Center     Atomic      Atomic             Coordinates (Angstroms)
 Number     Number       Type             X           Y           Z
 ---------------------------------------------------------------------
      1          8           0        1.562566   -1.159339   -0.101835
      2          6           0        0.863892    0.007024   -0.456498
      3          8           0        1.499283    1.146128    0.061371
      4          6           0       -0.608885    0.005255    0.002500
      5          6           0       -1.293749   -1.238620   -0.572961
      6          6           0       -0.699129   -0.013104    1.533499
      7          6           0       -1.297381    1.261775   -0.542041
      8          1           0        1.508678   -1.263671    0.857813
      9          1           0        0.891313    0.023236   -1.561135
     10          1           0        2.377497    1.196868   -0.335601
     11          1           0       -1.236426   -1.250698   -1.673443
     12          1           0       -2.357769   -1.253910   -0.290528
     13          1           0       -0.827776   -2.161975   -0.199239
     14          1           0       -1.753801   -0.004939    1.849060
     15          1           0       -0.204692    0.862994    1.977820
     16          1           0       -0.240976   -0.919880    1.961119
     17          1           0       -2.367838    1.252521   -0.284043
     18          1           0       -1.216369    1.313088   -1.639960
     19          1           0       -0.855123    2.178070   -0.125146
 ---------------------------------------------------------------------
 Rotational constants (GHZ):           3.1709344           2.2910086           1.9244607
 Leave Link  202 at Wed Oct 22 10:15:45 2025, MaxMem=  4294967296 cpu:               0.1 elap:               0.0
 (Enter /lrz/sys/applications/gaussian/g16.C.01/x86_64_legacy/exe/l301.exe)
 Standard basis: def2TZVP (5D, 7F)
 Ernie: Thresh=  0.10000D-02 Tol=  0.10000D-05 Strict=F.
 There are   324 symmetry adapted cartesian basis functions of A   symmetry.
 There are   289 symmetry adapted basis functions of A   symmetry.
   289 basis functions,   453 primitive gaussians,   324 cartesian basis functions
    29 alpha electrons       29 beta electrons
       nuclear repulsion energy       351.6222447584 Hartrees.
 IExCor= 4639 DFT=T Ex+Corr=wB97XD ExCW=0 ScaHFX=  1.000000
 ScaDFX=  1.000000  1.000000  1.000000  1.000000 ScalE2=  1.000000  1.000000
 IRadAn=      5 IRanWt=     -1 IRanGd=            0 ICorTp=0 IEmpDi=121
 HFx  wShort=  0.000000 wLong=  0.200000 cFull=  0.222036 cShort=  0.000000 cLong=  0.777964
 DFx  wShort=  0.000000 wLong=  0.200000 cFull=  0.000000 cShort=  0.000000 cLong=  1.000000
 NAtoms=   19 NActive=   19 NUniq=   19 SFac= 1.00D+00 NAtFMM=   60 NAOKFM=F Big=F
 Integral buffers will be    131072 words long.
 Raffenetti 2 integral format.
 Two-electron integral symmetry is turned on.
 R6Disp:  Grimme-D2 Dispersion energy=       -0.0124859828 Hartrees.
 Nuclear repulsion after empirical dispersion term =      351.6097587756 Hartrees.
 ------------------------------------------------------------------------------
 Polarizable Continuum Model (PCM)
 =================================
 Model                : PCM.
 Atomic radii         : SMD-Coulomb.
 Polarization charges : Total charges.
 Charge compensation  : None.
 Solution method      : On-the-fly selection.
 Cavity type          : VdW (van der Waals Surface) (Alpha=1.000).
 Cavity algorithm     : GePol (No added spheres)
                        Default sphere list used, NSphG=   19.
                        Lebedev-Laikov grids with approx.  5.0 points / Ang**2.
                        Smoothing algorithm: York/Karplus (Gamma=1.0000).
                        Polarization charges: spherical gaussians, with
                                              point-specific exponents (IZeta= 3).
                        Self-potential: point-specific (ISelfS= 7).
                        Self-field    : sphere-specific E.n sum rule (ISelfD= 2).
 Solvent              : Water, Eps=  78.355300 Eps(inf)=   1.777849
 ------------------------------------------------------------------------------
 Spheres list:
 ISph  on   Nord     Re0    Alpha      Xe            Ye            Ze
    1   O      1    1.5200  1.000      1.562566     -1.159339     -0.101835
    2   C      2    1.8500  1.000      0.863892      0.007024     -0.456498
    3   O      3    1.5200  1.000      1.499283      1.146128      0.061371
    4   C      4    1.8500  1.000     -0.608885      0.005255      0.002500
    5   C      5    1.8500  1.000     -1.293749     -1.238620     -0.572961
    6   C      6    1.8500  1.000     -0.699129     -0.013104      1.533499
    7   C      7    1.8500  1.000     -1.297381      1.261775     -0.542041
    8   H      8    1.2000  1.000      1.508678     -1.263671      0.857813
    9   H      9    1.2000  1.000      0.891313      0.023236     -1.561135
   10   H     10    1.2000  1.000      2.377497      1.196868     -0.335601
   11   H     11    1.2000  1.000     -1.236426     -1.250698     -1.673443
   12   H     12    1.2000  1.000     -2.357769     -1.253910     -0.290528
   13   H     13    1.2000  1.000     -0.827776     -2.161975     -0.199239
   14   H     14    1.2000  1.000     -1.753801     -0.004939      1.849060
   15   H     15    1.2000  1.000     -0.204692      0.862994      1.977820
   16   H     16    1.2000  1.000     -0.240976     -0.919880      1.961119
   17   H     17    1.2000  1.000     -2.367838      1.252521     -0.284043
   18   H     18    1.2000  1.000     -1.216369      1.313088     -1.639960
   19   H     19    1.2000  1.000     -0.855123      2.178070     -0.125146
 ------------------------------------------------------------------------------
 GePol: Number of generator spheres                  =      19
 GePol: Total number of spheres                      =      19
 GePol: Number of exposed spheres                    =      19 (100.00%)
 GePol: Number of points                             =    1247
 GePol: Average weight of points                     =       0.12
 GePol: Minimum weight of points                     =   0.17D-07
 GePol: Maximum weight of points                     =    0.21991
 GePol: Number of points with low weight             =      82
 GePol: Fraction of low-weight points (<1% of avg)   =       6.58%
 GePol: Cavity surface area                          =    146.160 Ang**2
 GePol: Cavity volume                                =    116.907 Ang**3
 ------------------------------------------------------------------------------
 Atomic radii for non-electrostatic terms: SMD-CDS.
 ------------------------------------------------------------------------------
 PCM non-electrostatic energy =         0.0061008290 Hartrees.
 Nuclear repulsion after PCM non-electrostatic terms =      351.6158596046 Hartrees.
 Leave Link  301 at Wed Oct 22 10:15:45 2025, MaxMem=  4294967296 cpu:               0.8 elap:               0.1
 (Enter /lrz/sys/applications/gaussian/g16.C.01/x86_64_legacy/exe/l302.exe)
 NPDir=0 NMtPBC=     1 NCelOv=     1 NCel=       1 NClECP=     1 NCelD=      1
         NCelK=      1 NCelE2=     1 NClLst=     1 CellRange=     0.0.
 One-electron integrals computed using PRISM.
 One-electron integral symmetry used in STVInt
   1 Symmetry operations used in ECPInt.
 ECPInt:  NShTT=    7875 NPrTT=   22768 LenC2=    7812 LenP2D=   18637.
 LDataN:  DoStor=T MaxTD1= 6 Len=  172
 NBasis=   289 RedAO= T EigKep=  1.96D-04  NBF=   289
 NBsUse=   289 1.00D-06 EigRej= -1.00D+00 NBFU=   289
 Precomputing XC quadrature grid using
 IXCGrd= 4 IRadAn=           5 IRanWt=          -1 IRanGd=           0 AccXCQ= 0.00D+00.
 Generated NRdTot=       0 NPtTot=           0 NUsed=           0 NTot=          32
 NSgBfM=   323   323   323   323   323 MxSgAt=    19 MxSgA2=    19.
 Leave Link  302 at Wed Oct 22 10:15:45 2025, MaxMem=  4294967296 cpu:               2.9 elap:               0.4
 (Enter /lrz/sys/applications/gaussian/g16.C.01/x86_64_legacy/exe/l303.exe)
 DipDrv:  MaxL=1.
 Leave Link  303 at Wed Oct 22 10:15:46 2025, MaxMem=  4294967296 cpu:               0.3 elap:               0.1
 (Enter /lrz/sys/applications/gaussian/g16.C.01/x86_64_legacy/exe/l401.exe)
 ExpMin= 9.52D-02 ExpMax= 2.70D+04 ExpMxC= 9.22D+02 IAcc=3 IRadAn=         5 AccDes= 0.00D+00
 Harris functional with IExCor= 4639 and IRadAn=       5 diagonalized for initial guess.
 HarFok:  IExCor= 4639 AccDes= 0.00D+00 IRadAn=         5 IDoV= 1 UseB2=F ITyADJ=14
 ICtDFT=  3500011 ScaDFX=  1.000000  1.000000  1.000000  1.000000
 FoFCou: FMM=F IPFlag=           0 FMFlag=      100000 FMFlg1=           0
         NFxFlg=           0 DoJE=T BraDBF=F KetDBF=T FulRan=T
         wScrn=  0.000000 ICntrl=       500 IOpCl=  0 I1Cent=   200000004 NGrid=           0
         NMat0=    1 NMatS0=      1 NMatT0=    0 NMatD0=    1 NMtDS0=    0 NMtDT0=    0
 Petite list used in FoFCou.
 Harris En= -333.145667323352    
 JPrj=0 DoOrth=F DoCkMO=F.
 Leave Link  401 at Wed Oct 22 10:15:48 2025, MaxMem=  4294967296 cpu:              22.0 elap:               2.8
 (Enter /lrz/sys/applications/gaussian/g16.C.01/x86_64_legacy/exe/l502.exe)
 Integral symmetry usage will be decided dynamically.
 Closed shell SCF:
 Using DIIS extrapolation, IDIIS=  1040.
 NGot=  4294967296 LenX=  4294751202 LenY=  4294645785
 Requested convergence on RMS density matrix=1.00D-08 within 128 cycles.
 Requested convergence on MAX density matrix=1.00D-06.
 Requested convergence on             energy=1.00D-06.
 No special actions if energy rises.
 Fock matrices will be formed incrementally for  20 cycles.

 Cycle   1  Pass 1  IDiag  1:
 FoFJK:  IHMeth= 1 ICntrl=       0 DoSepK=T KAlg= 0 I1Cent=           0 FoldK=F
 IRaf=         1 NMat=       1 IRICut=       1 DoRegI=T DoRafI=F ISym2E= 0 IDoP0=0 IntGTp=1.
 FoFCou: FMM=F IPFlag=           0 FMFlag=      100000 FMFlg1=           0
         NFxFlg=           0 DoJE=T BraDBF=F KetDBF=F FulRan=T
         wScrn=  0.000000 ICntrl=       500 IOpCl=  0 I1Cent=           0 NGrid=           0
         NMat0=    1 NMatS0=      1 NMatT0=    0 NMatD0=    1 NMtDS0=    0 NMtDT0=    0
 Symmetry not used in FoFCou.
 Inv3:  Mode=1 IEnd=     4665027.
 Iteration    1 A*A^-1 deviation from unit magnitude is 6.55D-15 for     35.
 Iteration    1 A*A^-1 deviation from orthogonality  is 3.13D-15 for   1057    534.
 Iteration    1 A^-1*A deviation from unit magnitude is 6.22D-15 for    408.
 Iteration    1 A^-1*A deviation from orthogonality  is 1.09D-14 for   1097   1021.
 E= -348.153542953105    
 DIIS: error= 5.31D-02 at cycle   1 NSaved=   1.
 NSaved= 1 IEnMin= 1 EnMin= -348.153542953105     IErMin= 1 ErrMin= 5.31D-02
 ErrMax= 5.31D-02  0.00D+00 EMaxC= 1.00D-01 BMatC= 7.40D-01 BMatP= 7.40D-01
 IDIUse=3 WtCom= 4.69D-01 WtEn= 5.31D-01
 Coeff-Com:  0.100D+01
 Coeff-En:   0.100D+01
 Coeff:      0.100D+01
 Gap=     0.550 Goal=   None    Shift=    0.000
 GapD=    0.550 DampG=2.000 DampE=0.500 DampFc=1.0000 IDamp=-1.
 RMSDP=1.94D-03 MaxDP=7.12D-02              OVMax= 6.52D-02

 Cycle   2  Pass 1  IDiag  1:
 RMSU=  1.86D-03    CP:  9.44D-01
 E= -348.221390749874     Delta-E=       -0.067847796769 Rises=F Damp=F
 DIIS: error= 9.46D-03 at cycle   2 NSaved=   2.
 NSaved= 2 IEnMin= 2 EnMin= -348.221390749874     IErMin= 2 ErrMin= 9.46D-03
 ErrMax= 9.46D-03  0.00D+00 EMaxC= 1.00D-01 BMatC= 5.53D-02 BMatP= 7.40D-01
 IDIUse=3 WtCom= 9.05D-01 WtEn= 9.46D-02
 Coeff-Com:  0.149D+00 0.851D+00
 Coeff-En:   0.819D-01 0.918D+00
 Coeff:      0.143D+00 0.857D+00
 Gap=     0.546 Goal=   None    Shift=    0.000
 RMSDP=7.60D-04 MaxDP=2.74D-02 DE=-6.78D-02 OVMax= 4.82D-02

 Cycle   3  Pass 1  IDiag  1:
 RMSU=  5.95D-04    CP:  9.53D-01  7.51D-01
 E= -348.242416117965     Delta-E=       -0.021025368091 Rises=F Damp=F
 DIIS: error= 7.36D-03 at cycle   3 NSaved=   3.
 NSaved= 3 IEnMin= 3 EnMin= -348.242416117965     IErMin= 3 ErrMin= 7.36D-03
 ErrMax= 7.36D-03  0.00D+00 EMaxC= 1.00D-01 BMatC= 2.60D-02 BMatP= 5.53D-02
 IDIUse=3 WtCom= 9.26D-01 WtEn= 7.36D-02
 Coeff-Com:  0.236D-01 0.414D+00 0.562D+00
 Coeff-En:   0.000D+00 0.301D+00 0.699D+00
 Coeff:      0.219D-01 0.406D+00 0.572D+00
 Gap=     0.488 Goal=   None    Shift=    0.000
 RMSDP=3.83D-04 MaxDP=1.32D-02 DE=-2.10D-02 OVMax= 2.21D-02

 Cycle   4  Pass 1  IDiag  1:
 RMSU=  1.44D-04    CP:  9.46D-01  9.08D-01  6.87D-01
 E= -348.260299260697     Delta-E=       -0.017883142731 Rises=F Damp=F
 DIIS: error= 6.91D-04 at cycle   4 NSaved=   4.
 NSaved= 4 IEnMin= 4 EnMin= -348.260299260697     IErMin= 4 ErrMin= 6.91D-04
 ErrMax= 6.91D-04  0.00D+00 EMaxC= 1.00D-01 BMatC= 3.09D-04 BMatP= 2.60D-02
 IDIUse=3 WtCom= 9.93D-01 WtEn= 6.91D-03
 Coeff-Com:  0.852D-02 0.155D+00 0.240D+00 0.596D+00
 Coeff-En:   0.000D+00 0.000D+00 0.000D+00 0.100D+01
 Coeff:      0.846D-02 0.154D+00 0.238D+00 0.599D+00
 Gap=     0.479 Goal=   None    Shift=    0.000
 RMSDP=3.83D-05 MaxDP=1.30D-03 DE=-1.79D-02 OVMax= 2.20D-03

 Cycle   5  Pass 1  IDiag  1:
 RMSU=  3.42D-05    CP:  9.45D-01  9.14D-01  7.07D-01  9.88D-01
 E= -348.260507528622     Delta-E=       -0.000208267925 Rises=F Damp=F
 DIIS: error= 1.06D-04 at cycle   5 NSaved=   5.
 NSaved= 5 IEnMin= 5 EnMin= -348.260507528622     IErMin= 5 ErrMin= 1.06D-04
 ErrMax= 1.06D-04  0.00D+00 EMaxC= 1.00D-01 BMatC= 9.71D-06 BMatP= 3.09D-04
 IDIUse=3 WtCom= 9.99D-01 WtEn= 1.06D-03
 Coeff-Com: -0.187D-02-0.297D-01-0.313D-01 0.972D-01 0.966D+00
 Coeff-En:   0.000D+00 0.000D+00 0.000D+00 0.000D+00 0.100D+01
 Coeff:     -0.187D-02-0.297D-01-0.313D-01 0.971D-01 0.966D+00
 Gap=     0.479 Goal=   None    Shift=    0.000
 RMSDP=3.11D-05 MaxDP=8.46D-04 DE=-2.08D-04 OVMax= 1.13D-03

 Cycle   6  Pass 1  IDiag  1:
 RMSU=  1.04D-05    CP:  9.45D-01  9.22D-01  7.26D-01  1.12D+00  1.21D+00
 E= -348.260520367723     Delta-E=       -0.000012839102 Rises=F Damp=F
 DIIS: error= 1.70D-05 at cycle   6 NSaved=   6.
 NSaved= 6 IEnMin= 6 EnMin= -348.260520367723     IErMin= 6 ErrMin= 1.70D-05
 ErrMax= 1.70D-05  0.00D+00 EMaxC= 1.00D-01 BMatC= 2.47D-07 BMatP= 9.71D-06
 IDIUse=1 WtCom= 1.00D+00 WtEn= 0.00D+00
 Coeff-Com: -0.475D-03-0.788D-02-0.105D-01-0.687D-02 0.872D-01 0.938D+00
 Coeff:     -0.475D-03-0.788D-02-0.105D-01-0.687D-02 0.872D-01 0.938D+00
 Gap=     0.479 Goal=   None    Shift=    0.000
 RMSDP=7.17D-06 MaxDP=1.90D-04 DE=-1.28D-05 OVMax= 3.43D-04

 Cycle   7  Pass 1  IDiag  1:
 RMSU=  2.41D-06    CP:  9.44D-01  9.24D-01  7.29D-01  1.15D+00  1.30D+00
                    CP:  1.22D+00
 E= -348.260520803053     Delta-E=       -0.000000435330 Rises=F Damp=F
 DIIS: error= 1.01D-05 at cycle   7 NSaved=   7.
 NSaved= 7 IEnMin= 7 EnMin= -348.260520803053     IErMin= 7 ErrMin= 1.01D-05
 ErrMax= 1.01D-05  0.00D+00 EMaxC= 1.00D-01 BMatC= 6.10D-08 BMatP= 2.47D-07
 IDIUse=1 WtCom= 1.00D+00 WtEn= 0.00D+00
 Coeff-Com:  0.192D-05-0.375D-03-0.117D-02-0.988D-02-0.519D-01 0.318D+00
 Coeff-Com:  0.745D+00
 Coeff:      0.192D-05-0.375D-03-0.117D-02-0.988D-02-0.519D-01 0.318D+00
 Coeff:      0.745D+00
 Gap=     0.479 Goal=   None    Shift=    0.000
 RMSDP=1.91D-06 MaxDP=5.01D-05 DE=-4.35D-07 OVMax= 9.50D-05

 Cycle   8  Pass 1  IDiag  1:
 RMSU=  7.64D-07    CP:  9.44D-01  9.24D-01  7.29D-01  1.16D+00  1.33D+00
                    CP:  1.34D+00  1.17D+00
 E= -348.260520870870     Delta-E=       -0.000000067816 Rises=F Damp=F
 DIIS: error= 2.20D-06 at cycle   8 NSaved=   8.
 NSaved= 8 IEnMin= 8 EnMin= -348.260520870870     IErMin= 8 ErrMin= 2.20D-06
 ErrMax= 2.20D-06  0.00D+00 EMaxC= 1.00D-01 BMatC= 4.13D-09 BMatP= 6.10D-08
 IDIUse=1 WtCom= 1.00D+00 WtEn= 0.00D+00
 Coeff-Com:  0.387D-04 0.607D-03 0.674D-03-0.185D-02-0.217D-01 0.250D-02
 Coeff-Com:  0.181D+00 0.839D+00
 Coeff:      0.387D-04 0.607D-03 0.674D-03-0.185D-02-0.217D-01 0.250D-02
 Coeff:      0.181D+00 0.839D+00
 Gap=     0.479 Goal=   None    Shift=    0.000
 RMSDP=6.45D-07 MaxDP=2.01D-05 DE=-6.78D-08 OVMax= 3.79D-05

 Cycle   9  Pass 1  IDiag  1:
 RMSU=  2.18D-07    CP:  9.44D-01  9.24D-01  7.29D-01  1.16D+00  1.33D+00
                    CP:  1.37D+00  1.31D+00  1.17D+00
 E= -348.260520876073     Delta-E=       -0.000000005204 Rises=F Damp=F
 DIIS: error= 1.31D-06 at cycle   9 NSaved=   9.
 NSaved= 9 IEnMin= 9 EnMin= -348.260520876073     IErMin= 9 ErrMin= 1.31D-06
 ErrMax= 1.31D-06  0.00D+00 EMaxC= 1.00D-01 BMatC= 1.03D-09 BMatP= 4.13D-09
 IDIUse=1 WtCom= 1.00D+00 WtEn= 0.00D+00
 Coeff-Com:  0.146D-04 0.292D-03 0.417D-03 0.284D-03-0.330D-02-0.326D-01
 Coeff-Com: -0.110D-01 0.356D+00 0.690D+00
 Coeff:      0.146D-04 0.292D-03 0.417D-03 0.284D-03-0.330D-02-0.326D-01
 Coeff:     -0.110D-01 0.356D+00 0.690D+00
 Gap=     0.479 Goal=   None    Shift=    0.000
 RMSDP=2.06D-07 MaxDP=6.80D-06 DE=-5.20D-09 OVMax= 1.24D-05

 Cycle  10  Pass 1  IDiag  1:
 RMSU=  8.71D-08    CP:  9.44D-01  9.24D-01  7.29D-01  1.16D+00  1.33D+00
                    CP:  1.38D+00  1.35D+00  1.30D+00  1.07D+00
 E= -348.260520877029     Delta-E=       -0.000000000956 Rises=F Damp=F
 DIIS: error= 2.71D-07 at cycle  10 NSaved=  10.
 NSaved=10 IEnMin=10 EnMin= -348.260520877029     IErMin=10 ErrMin= 2.71D-07
 ErrMax= 2.71D-07  0.00D+00 EMaxC= 1.00D-01 BMatC= 8.01D-11 BMatP= 1.03D-09
 IDIUse=1 WtCom= 1.00D+00 WtEn= 0.00D+00
 Coeff-Com: -0.158D-05-0.109D-04 0.185D-04 0.397D-03 0.271D-02-0.106D-01
 Coeff-Com: -0.359D-01-0.286D-01 0.205D+00 0.867D+00
 Coeff:     -0.158D-05-0.109D-04 0.185D-04 0.397D-03 0.271D-02-0.106D-01
 Coeff:     -0.359D-01-0.286D-01 0.205D+00 0.867D+00
 Gap=     0.479 Goal=   None    Shift=    0.000
 RMSDP=9.15D-08 MaxDP=3.32D-06 DE=-9.56D-10 OVMax= 5.38D-06

 Cycle  11  Pass 1  IDiag  1:
 RMSU=  2.79D-08    CP:  9.44D-01  9.24D-01  7.29D-01  1.16D+00  1.33D+00
                    CP:  1.39D+00  1.37D+00  1.35D+00  1.25D+00  1.21D+00
 E= -348.260520877144     Delta-E=       -0.000000000115 Rises=F Damp=F
 DIIS: error= 6.17D-08 at cycle  11 NSaved=  11.
 NSaved=11 IEnMin=11 EnMin= -348.260520877144     IErMin=11 ErrMin= 6.17D-08
 ErrMax= 6.17D-08  0.00D+00 EMaxC= 1.00D-01 BMatC= 1.60D-12 BMatP= 8.01D-11
 IDIUse=1 WtCom= 1.00D+00 WtEn= 0.00D+00
 Coeff-Com: -0.403D-06-0.110D-04-0.178D-04-0.434D-05 0.661D-04 0.144D-02
 Coeff-Com:  0.139D-02-0.160D-01-0.349D-01-0.946D-02 0.106D+01
 Coeff:     -0.403D-06-0.110D-04-0.178D-04-0.434D-05 0.661D-04 0.144D-02
 Coeff:      0.139D-02-0.160D-01-0.349D-01-0.946D-02 0.106D+01
 Gap=     0.479 Goal=   None    Shift=    0.000
 RMSDP=2.12D-08 MaxDP=7.37D-07 DE=-1.15D-10 OVMax= 1.10D-06

 Cycle  12  Pass 1  IDiag  1:
 RMSU=  6.80D-09    CP:  9.44D-01  9.24D-01  7.29D-01  1.16D+00  1.33D+00
                    CP:  1.39D+00  1.37D+00  1.36D+00  1.30D+00  1.34D+00
                    CP:  1.32D+00
 E= -348.260520877140     Delta-E=        0.000000000004 Rises=F Damp=F
 DIIS: error= 2.76D-08 at cycle  12 NSaved=  12.
 NSaved=12 IEnMin=11 EnMin= -348.260520877144     IErMin=12 ErrMin= 2.76D-08
 ErrMax= 2.76D-08  0.00D+00 EMaxC= 1.00D-01 BMatC= 3.14D-13 BMatP= 1.60D-12
 IDIUse=1 WtCom= 1.00D+00 WtEn= 0.00D+00
 Coeff-Com:  0.559D-07-0.102D-05-0.512D-05-0.328D-04-0.232D-03 0.130D-02
 Coeff-Com:  0.360D-02-0.192D-02-0.270D-01-0.741D-01 0.338D+00 0.760D+00
 Coeff:      0.559D-07-0.102D-05-0.512D-05-0.328D-04-0.232D-03 0.130D-02
 Coeff:      0.360D-02-0.192D-02-0.270D-01-0.741D-01 0.338D+00 0.760D+00
 Gap=     0.479 Goal=   None    Shift=    0.000
 RMSDP=4.77D-09 MaxDP=1.64D-07 DE= 4.21D-12 OVMax= 2.37D-07

 Error on total polarization charges =  0.04920
 SCF Done:  E(RwB97XD) =  -348.260520877     A.U. after   12 cycles
            NFock= 12  Conv=0.48D-08     -V/T= 2.0054
 KE= 3.463876759376D+02 PE=-1.516963645595D+03 EE= 4.706995891752D+02
 SMD-CDS (non-electrostatic) energy       (kcal/mol) =       3.83
 (included in total energy above)
 Leave Link  502 at Wed Oct 22 10:18:01 2025, MaxMem=  4294967296 cpu:            1059.4 elap:             132.7
 (Enter /lrz/sys/applications/gaussian/g16.C.01/x86_64_legacy/exe/l601.exe)
 Copying SCF densities to generalized density rwf, IOpCl= 0 IROHF=0.

 **********************************************************************

            Population analysis using the SCF Density.

 **********************************************************************

 Orbital symmetries:
       Occupied  (A) (A) (A) (A) (A) (A) (A) (A) (A) (A) (A) (A)
                 (A) (A) (A) (A) (A) (A) (A) (A) (A) (A) (A) (A)
                 (A) (A) (A) (A) (A)
       Virtual   (A) (A) (A) (A) (A) (A) (A) (A) (A) (A) (A) (A)
                 (A) (A) (A) (A) (A) (A) (A) (A) (A) (A) (A) (A)
                 (A) (A) (A) (A) (A) (A) (A) (A) (A) (A) (A) (A)
                 (A) (A) (A) (A) (A) (A) (A) (A) (A) (A) (A) (A)
                 (A) (A) (A) (A) (A) (A) (A) (A) (A) (A) (A) (A)
                 (A) (A) (A) (A) (A) (A) (A) (A) (A) (A) (A) (A)
                 (A) (A) (A) (A) (A) (A) (A) (A) (A) (A) (A) (A)
                 (A) (A) (A) (A) (A) (A) (A) (A) (A) (A) (A) (A)
                 (A) (A) (A) (A) (A) (A) (A) (A) (A) (A) (A) (A)
                 (A) (A) (A) (A) (A) (A) (A) (A) (A) (A) (A) (A)
                 (A) (A) (A) (A) (A) (A) (A) (A) (A) (A) (A) (A)
                 (A) (A) (A) (A) (A) (A) (A) (A) (A) (A) (A) (A)
                 (A) (A) (A) (A) (A) (A) (A) (A) (A) (A) (A) (A)
                 (A) (A) (A) (A) (A) (A) (A) (A) (A) (A) (A) (A)
                 (A) (A) (A) (A) (A) (A) (A) (A) (A) (A) (A) (A)
                 (A) (A) (A) (A) (A) (A) (A) (A) (A) (A) (A) (A)
                 (A) (A) (A) (A) (A) (A) (A) (A) (A) (A) (A) (A)
                 (A) (A) (A) (A) (A) (A) (A) (A) (A) (A) (A) (A)
                 (A) (A) (A) (A) (A) (A) (A) (A) (A) (A) (A) (A)
                 (A) (A) (A) (A) (A) (A) (A) (A) (A) (A) (A) (A)
                 (A) (A) (A) (A) (A) (A) (A) (A) (A) (A) (A) (A)
                 (A) (A) (A) (A) (A) (A) (A) (A)
 The electronic state is 1-A.
 Alpha  occ. eigenvalues --  -19.25517 -19.25486 -10.37523 -10.29181 -10.26495
 Alpha  occ. eigenvalues --  -10.26347 -10.26326  -1.16911  -1.09888  -0.91236
 Alpha  occ. eigenvalues --   -0.77852  -0.77352  -0.75976  -0.65620  -0.61993
 Alpha  occ. eigenvalues --   -0.56908  -0.55472  -0.52662  -0.50789  -0.49502
 Alpha  occ. eigenvalues --   -0.46698  -0.45796  -0.45566  -0.43849  -0.41125
 Alpha  occ. eigenvalues --   -0.40355  -0.39720  -0.39245  -0.36611
 Alpha virt. eigenvalues --    0.11310   0.14580   0.14770   0.16597   0.16998
 Alpha virt. eigenvalues --    0.17752   0.18163   0.21231   0.21827   0.22139
 Alpha virt. eigenvalues --    0.23622   0.24379   0.24541   0.24747   0.25585
 Alpha virt. eigenvalues --    0.26505   0.27946   0.31997   0.32422   0.33681
 Alpha virt. eigenvalues --    0.34883   0.36307   0.37994   0.38391   0.40917
 Alpha virt. eigenvalues --    0.41463   0.43340   0.44162   0.45427   0.45950
 Alpha virt. eigenvalues --    0.47389   0.49137   0.50186   0.51481   0.51814
 Alpha virt. eigenvalues --    0.52615   0.53509   0.53930   0.55115   0.55672
 Alpha virt. eigenvalues --    0.56294   0.56795   0.57151   0.58488   0.59822
 Alpha virt. eigenvalues --    0.60862   0.62742   0.64963   0.68162   0.69150
 Alpha virt. eigenvalues --    0.71880   0.73020   0.75266   0.78118   0.80005
 Alpha virt. eigenvalues --    0.80318   0.83842   0.87958   0.90523   0.91313
 Alpha virt. eigenvalues --    0.92678   0.94187   0.97724   0.99659   1.00278
 Alpha virt. eigenvalues --    1.01173   1.07241   1.09478   1.09856   1.10943
 Alpha virt. eigenvalues --    1.12146   1.16269   1.20715   1.21092   1.22882
 Alpha virt. eigenvalues --    1.23619   1.24735   1.29529   1.36223   1.37018
 Alpha virt. eigenvalues --    1.37489   1.39787   1.41626   1.45206   1.48294
 Alpha virt. eigenvalues --    1.51280   1.59693   1.61520   1.62958   1.63956
 Alpha virt. eigenvalues --    1.65698   1.66286   1.67245   1.68057   1.68699
 Alpha virt. eigenvalues --    1.70729   1.71843   1.72114   1.73767   1.75030
 Alpha virt. eigenvalues --    1.76271   1.78624   1.79116   1.85980   1.87465
 Alpha virt. eigenvalues --    1.87913   1.92397   1.96306   1.98627   2.00201
 Alpha virt. eigenvalues --    2.00623   2.02862   2.04955   2.06212   2.10188
 Alpha virt. eigenvalues --    2.11653   2.16837   2.19839   2.20723   2.24581
 Alpha virt. eigenvalues --    2.26795   2.27452   2.28680   2.32727   2.33367
 Alpha virt. eigenvalues --    2.33731   2.37018   2.38280   2.39059   2.41542
 Alpha virt. eigenvalues --    2.42020   2.44067   2.45918   2.46526   2.47661
 Alpha virt. eigenvalues --    2.49853   2.52444   2.52815   2.55338   2.57096
 Alpha virt. eigenvalues --    2.58355   2.61499   2.63169   2.64476   2.65286
 Alpha virt. eigenvalues --    2.68709   2.70967   2.72548   2.72900   2.74745
 Alpha virt. eigenvalues --    2.75963   2.76655   2.78871   2.86324   2.87538
 Alpha virt. eigenvalues --    2.88378   2.89910   2.90623   2.91777   2.93872
 Alpha virt. eigenvalues --    2.96958   3.02689   3.04222   3.05631   3.10030
 Alpha virt. eigenvalues --    3.16807   3.18291   3.19467   3.22286   3.23233
 Alpha virt. eigenvalues --    3.27142   3.27553   3.29190   3.30584   3.32579
 Alpha virt. eigenvalues --    3.36233   3.38659   3.40590   3.41606   3.43246
 Alpha virt. eigenvalues --    3.43865   3.45167   3.46480   3.48435   3.48939
 Alpha virt. eigenvalues --    3.50263   3.53047   3.53943   3.54835   3.60073
 Alpha virt. eigenvalues --    3.61202   3.70312   3.73842   3.75066   3.78369
 Alpha virt. eigenvalues --    3.81060   3.81698   3.83615   3.85439   3.88782
 Alpha virt. eigenvalues --    3.93779   4.03096   4.12526   4.13821   4.16788
 Alpha virt. eigenvalues --    4.18585   4.19164   4.20739   4.22706   4.24546
 Alpha virt. eigenvalues --    4.28597   4.31410   4.35048   4.41517   4.45933
 Alpha virt. eigenvalues --    4.50338   4.50844   4.51847   4.52878   4.55585
 Alpha virt. eigenvalues --    4.71889   4.75295   4.81051   4.83202   4.91033
 Alpha virt. eigenvalues --    4.98393   5.01946   5.03215   5.08999   5.32791
 Alpha virt. eigenvalues --    5.33253   5.40741   5.45794   5.52959   5.56115
 Alpha virt. eigenvalues --    5.67629   5.81317   5.90620   5.98110   6.01987
 Alpha virt. eigenvalues --    6.25293   6.38329   6.38690   6.56682   6.61307
 Alpha virt. eigenvalues --    6.77629   6.82158   6.84879   7.02243   7.07650
 Alpha virt. eigenvalues --    7.11288   7.22973   7.35376  22.49376  22.51916
 Alpha virt. eigenvalues --   22.52709  22.75789  22.79498  43.98639  44.03979
          Condensed to atoms (all electrons):
               1          2          3          4          5          6
     1  O    8.121832   0.271923  -0.081704  -0.021868  -0.016459  -0.012453
     2  C    0.271923   4.663753   0.329212   0.280860  -0.048643  -0.024167
     3  O   -0.081704   0.329212   8.107135  -0.082150   0.004633  -0.012910
     4  C   -0.021868   0.280860  -0.082150   5.138603   0.291969   0.296187
     5  C   -0.016459  -0.048643   0.004633   0.291969   5.122760  -0.060681
     6  C   -0.012453  -0.024167  -0.012910   0.296187  -0.060681   5.107864
     7  C    0.006766  -0.072456  -0.001838   0.330123  -0.071614  -0.068444
     8  H    0.298792  -0.015564   0.002837  -0.011368  -0.002459   0.006647
     9  H   -0.042615   0.457681  -0.049362  -0.060142  -0.003553   0.009036
    10  H    0.004412  -0.028697   0.306740   0.012128  -0.000640   0.000079
    11  H   -0.000105  -0.005686  -0.000046  -0.032263   0.404769   0.011205
    12  H    0.000775   0.010318  -0.000099  -0.030390   0.407512  -0.009655
    13  H    0.014169  -0.018287   0.000536  -0.023056   0.402146  -0.008071
    14  H    0.000167   0.009664   0.000035  -0.034613  -0.007492   0.417511
    15  H   -0.000067  -0.007152   0.010645  -0.038473   0.011748   0.413219
    16  H    0.001596  -0.008949  -0.000060  -0.020255  -0.012523   0.397879
    17  H   -0.000291   0.011844   0.000338  -0.035585  -0.009302  -0.008649
    18  H   -0.000031  -0.005158  -0.000582  -0.031669  -0.008007   0.011362
    19  H    0.000407  -0.009107   0.009324  -0.033677   0.011692  -0.006091
               7          8          9         10         11         12
     1  O    0.006766   0.298792  -0.042615   0.004412  -0.000105   0.000775
     2  C   -0.072456  -0.015564   0.457681  -0.028697  -0.005686   0.010318
     3  O   -0.001838   0.002837  -0.049362   0.306740  -0.000046  -0.000099
     4  C    0.330123  -0.011368  -0.060142   0.012128  -0.032263  -0.030390
     5  C   -0.071614  -0.002459  -0.003553  -0.000640   0.404769   0.407512
     6  C   -0.068444   0.006647   0.009036   0.000079   0.011205  -0.009655
     7  C    5.116681  -0.000193  -0.014427   0.000192  -0.007801  -0.008235
     8  H   -0.000193   0.346799   0.007879  -0.000729   0.000159  -0.000134
     9  H   -0.014427   0.007879   0.577344  -0.008024   0.004606  -0.000502
    10  H    0.000192  -0.000729  -0.008024   0.340963  -0.000029   0.000020
    11  H   -0.007801   0.000159   0.004606  -0.000029   0.529424  -0.020762
    12  H   -0.008235  -0.000134  -0.000502   0.000020  -0.020762   0.525623
    13  H    0.012286   0.000639  -0.000279  -0.000058  -0.020811  -0.019005
    14  H   -0.008985   0.000035  -0.000092   0.000023   0.000011   0.002662
    15  H   -0.009512   0.000358   0.000503  -0.000585  -0.000303  -0.000079
    16  H    0.012505   0.001927  -0.000092  -0.000166  -0.000050  -0.000137
    17  H    0.413146  -0.000034  -0.000501   0.000068  -0.000339   0.002574
    18  H    0.403889   0.000025   0.004510  -0.000126   0.003074  -0.000130
    19  H    0.406581   0.000025   0.000832  -0.000559  -0.000090  -0.000174
              13         14         15         16         17         18
     1  O    0.014169   0.000167  -0.000067   0.001596  -0.000291  -0.000031
     2  C   -0.018287   0.009664  -0.007152  -0.008949   0.011844  -0.005158
     3  O    0.000536   0.000035   0.010645  -0.000060   0.000338  -0.000582
     4  C   -0.023056  -0.034613  -0.038473  -0.020255  -0.035585  -0.031669
     5  C    0.402146  -0.007492   0.011748  -0.012523  -0.009302  -0.008007
     6  C   -0.008071   0.417511   0.413219   0.397879  -0.008649   0.011362
     7  C    0.012286  -0.008985  -0.009512   0.012505   0.413146   0.403889
     8  H    0.000639   0.000035   0.000358   0.001927  -0.000034   0.000025
     9  H   -0.000279  -0.000092   0.000503  -0.000092  -0.000501   0.004510
    10  H   -0.000058   0.000023  -0.000585  -0.000166   0.000068  -0.000126
    11  H   -0.020811   0.000011  -0.000303  -0.000050  -0.000339   0.003074
    12  H   -0.019005   0.002662  -0.000079  -0.000137   0.002574  -0.000130
    13  H    0.527519  -0.000391  -0.000129   0.003662  -0.000158  -0.000121
    14  H   -0.000391   0.516737  -0.020398  -0.020660   0.002594   0.000010
    15  H   -0.000129  -0.020398   0.518493  -0.021464  -0.000374  -0.000050
    16  H    0.003662  -0.020660  -0.021464   0.532947  -0.000116  -0.000341
    17  H   -0.000158   0.002594  -0.000374  -0.000116   0.528396  -0.021457
    18  H   -0.000121   0.000010  -0.000050  -0.000341  -0.021457   0.530274
    19  H   -0.000379  -0.000514   0.003469  -0.000045  -0.020912  -0.020897
              19
     1  O    0.000407
     2  C   -0.009107
     3  O    0.009324
     4  C   -0.033677
     5  C    0.011692
     6  C   -0.006091
     7  C    0.406581
     8  H    0.000025
     9  H    0.000832
    10  H   -0.000559
    11  H   -0.000090
    12  H   -0.000174
    13  H   -0.000379
    14  H   -0.000514
    15  H    0.003469
    16  H   -0.000045
    17  H   -0.020912
    18  H   -0.020897
    19  H    0.525614
 Mulliken charges:
               1
     1  O   -0.545244
     2  C    0.208611
     3  O   -0.542683
     4  C    0.105640
     5  C   -0.415856
     6  C   -0.459867
     7  C   -0.438665
     8  H    0.364359
     9  H    0.117198
    10  H    0.374989
    11  H    0.135037
    12  H    0.139817
    13  H    0.129791
    14  H    0.143697
    15  H    0.140151
    16  H    0.134341
    17  H    0.138758
    18  H    0.135425
    19  H    0.134501
 Sum of Mulliken charges =  -0.00000
 Mulliken charges with hydrogens summed into heavy atoms:
               1
     1  O   -0.180886
     2  C    0.325810
     3  O   -0.167694
     4  C    0.105640
     5  C   -0.011211
     6  C   -0.041678
     7  C   -0.029981
 Electronic spatial extent (au):  <R**2>=            794.6276
 Charge=             -0.0000 electrons
 Dipole moment (field-independent basis, Debye):
    X=             -0.1933    Y=              0.0188    Z=              0.1050  Tot=              0.2208
 Quadrupole moment (field-independent basis, Debye-Ang):
   XX=            -42.1649   YY=            -48.8930   ZZ=            -42.8029
   XY=              2.5116   XZ=             -0.3498   YZ=             -3.9109
 Traceless Quadrupole moment (field-independent basis, Debye-Ang):
   XX=              2.4554   YY=             -4.2727   ZZ=              1.8174
   XY=              2.5116   XZ=             -0.3498   YZ=             -3.9109
 Octapole moment (field-independent basis, Debye-Ang**2):
  XXX=             22.2160  YYY=             -0.4619  ZZZ=             -3.2320  XYY=              4.1075
  XXY=             10.1868  XXZ=              0.1223  XZZ=              8.3272  YZZ=             -2.0489
  YYZ=              4.1818  XYZ=             -6.9342
 Hexadecapole moment (field-independent basis, Debye-Ang**3):
 XXXX=           -422.0985 YYYY=           -335.3869 ZZZZ=           -234.1486 XXXY=             32.5281
 XXXZ=            -11.3285 YYYX=              4.4170 YYYZ=             -8.2071 ZZZX=              1.8193
 ZZZY=             -4.0361 XXYY=           -134.5642 XXZZ=           -114.4356 YYZZ=            -92.1234
 XXYZ=            -13.4899 YYXZ=              2.6851 ZZXY=             -2.4972
 N-N= 3.516158596046D+02 E-N=-1.516963654592D+03  KE= 3.463876759376D+02
 No NMR shielding tensors so no spin-rotation constants.
 Leave Link  601 at Wed Oct 22 10:18:01 2025, MaxMem=  4294967296 cpu:               1.2 elap:               0.2
 (Enter /lrz/sys/applications/gaussian/g16.C.01/x86_64_legacy/exe/l9999.exe)
 Unable to Open any file for archive entry.
 1\1\GINC-CM4R15C05S03\SP\RwB97XD\def2TZVP\C5H12O2\GO29TIZ2\22-Oct-2025
 \0\\#p wb97xd scrf=(smd,solvent=water) def2tzvp\\g16_g16_C4-w_1\\0,1\O
 ,0,1.562566,-1.159339,-0.101835\C,0,0.863892,0.007024,-0.456498\O,0,1.
 499283,1.146128,0.061371\C,0,-0.608885,0.005255,0.0025\C,0,-1.293749,-
 1.23862,-0.572961\C,0,-0.699129,-0.013104,1.533499\C,0,-1.297381,1.261
 775,-0.542041\H,0,1.508678,-1.263671,0.857813\H,0,0.891313,0.023236,-1
 .561135\H,0,2.377497,1.196868,-0.335601\H,0,-1.236426,-1.250698,-1.673
 443\H,0,-2.357769,-1.25391,-0.290528\H,0,-0.827776,-2.161975,-0.199239
 \H,0,-1.753801,-0.004939,1.84906\H,0,-0.204692,0.862994,1.97782\H,0,-0
 .240976,-0.91988,1.961119\H,0,-2.367838,1.252521,-0.284043\H,0,-1.2163
 69,1.313088,-1.63996\H,0,-0.855123,2.17807,-0.125146\\Version=EM64L-G1
 6RevC.01\State=1-A\HF=-348.2605209\RMSD=4.768e-09\Dipole=-0.0760414,0.
 0073807,0.041325\Quadrupole=1.8255122,-3.1766771,1.3511649,1.8673444,-
 0.2600936,-2.9076365\PG=C01 [X(C5H12O2)]\\@
 The archive entry for this job was punched.


 WE ARE REACHING THE STAGE WHERE THE PROBLEMS WE MUST SOLVE ARE 
 GOING TO BECOME INSOLUBLE WITHOUT COMPUTERS.
 I DO NOT FEAR COMPUTERS.  I FEAR THE LACK OF THEM.

                                   -- ISSAC ASIMOV
 Job cpu time:       0 days  0 hours 18 minutes 13.9 seconds.
 Elapsed time:       0 days  0 hours  2 minutes 17.2 seconds.
 File lengths (MBytes):  RWF=    304 Int=      0 D2E=      0 Chk=     12 Scr=     32
 Normal termination of Gaussian 16 at Wed Oct 22 10:18:01 2025.
