 Entering Gaussian System, Link 0=g16
 Input=../../g16_g16_C3-w_3.com
 Output=../../g16_g16_C3-w_3.log
 Initial command:
 /lrz/sys/applications/gaussian/g16.C.01/x86_64_legacy/exe/l1.exe "/dss/lxclscratch/0D/go29tiz2/Gau-21115.inp" -scrdir="/dss/lxclscratch/0D/go29tiz2/"
 Entering Link 1 = /lrz/sys/applications/gaussian/g16.C.01/x86_64_legacy/exe/l1.exe PID=     21116.
  
 Copyright (c) 1988-2019, Gaussian, Inc.  All Rights Reserved.
  
 This is part of the Gaussian(R) 16 program.  It is based on
 the Gaussian(R) 09 system (copyright 2009, Gaussian, Inc.),
 the Gaussian(R) 03 system (copyright 2003, Gaussian, Inc.),
 the Gaussian(R) 98 system (copyright 1998, Gaussian, Inc.),
 the Gaussian(R) 94 system (copyright 1995, Gaussian, Inc.),
 the Gaussian 92(TM) system (copyright 1992, Gaussian, Inc.),
 the Gaussian 90(TM) system (copyright 1990, Gaussian, Inc.),
 the Gaussian 88(TM) system (copyright 1988, Gaussian, Inc.),
 the Gaussian 86(TM) system (copyright 1986, Carnegie Mellon
 University), and the Gaussian 82(TM) system (copyright 1983,
 Carnegie Mellon University). Gaussian is a federally registered
 trademark of Gaussian, Inc.
  
 This software contains proprietary and confidential information,
 including trade secrets, belonging to Gaussian, Inc.
  
 This software is provided under written license and may be
 used, copied, transmitted, or stored only in accord with that
 written license.
  
 The following legend is applicable only to US Government
 contracts under FAR:
  
                    RESTRICTED RIGHTS LEGEND
  
 Use, reproduction and disclosure by the US Government is
 subject to restrictions as set forth in subparagraphs (a)
 and (c) of the Commercial Computer Software - Restricted
 Rights clause in FAR 52.227-19.
  
 Gaussian, Inc.
 340 Quinnipiac St., Bldg. 40, Wallingford CT 06492
  
  
 ---------------------------------------------------------------
 Warning -- This program may not be used in any manner that
 competes with the business of Gaussian, Inc. or will provide
 assistance to any competitor of Gaussian, Inc.  The licensee
 of this program is prohibited from giving any competitor of
 Gaussian, Inc. access to this program.  By using this program,
 the user acknowledges that Gaussian, Inc. is engaged in the
 business of creating and licensing software in the field of
 computational chemistry and represents and warrants to the
 licensee that it is not a competitor of Gaussian, Inc. and that
 it will not use this program in any manner prohibited above.
 ---------------------------------------------------------------
  

 Cite this work as:
 Gaussian 16, Revision C.01,
 M. J. Frisch, G. W. Trucks, H. B. Schlegel, G. E. Scuseria, 
 M. A. Robb, J. R. Cheeseman, G. Scalmani, V. Barone, 
 G. A. Petersson, H. Nakatsuji, X. Li, M. Caricato, A. V. Marenich, 
 J. Bloino, B. G. Janesko, R. Gomperts, B. Mennucci, H. P. Hratchian, 
 J. V. Ortiz, A. F. Izmaylov, J. L. Sonnenberg, D. Williams-Young, 
 F. Ding, F. Lipparini, F. Egidi, J. Goings, B. Peng, A. Petrone, 
 T. Henderson, D. Ranasinghe, V. G. Zakrzewski, J. Gao, N. Rega, 
 G. Zheng, W. Liang, M. Hada, M. Ehara, K. Toyota, R. Fukuda, 
 J. Hasegawa, M. Ishida, T. Nakajima, Y. Honda, O. Kitao, H. Nakai, 
 T. Vreven, K. Throssell, J. A. Montgomery, Jr., J. E. Peralta, 
 F. Ogliaro, M. J. Bearpark, J. J. Heyd, E. N. Brothers, K. N. Kudin, 
 V. N. Staroverov, T. A. Keith, R. Kobayashi, J. Normand, 
 K. Raghavachari, A. P. Rendell, J. C. Burant, S. S. Iyengar, 
 J. Tomasi, M. Cossi, J. M. Millam, M. Klene, C. Adamo, R. Cammi, 
 J. W. Ochterski, R. L. Martin, K. Morokuma, O. Farkas, 
 J. B. Foresman, and D. J. Fox, Gaussian, Inc., Wallingford CT, 2019.
 
 ******************************************
 Gaussian 16:  EM64L-G16RevC.01  3-Jul-2019
                22-Oct-2025 
 ******************************************
 %chk=g16_g16_C3-w_3.chk
 %nprocshared=8
 Will use up to    8 processors via shared memory.
 %mem=32GB
 -------------------------------------------
 #p wb97xd scrf=(smd,solvent=water) def2tzvp
 -------------------------------------------
 1/38=1,172=1/1;
 2/12=2,17=6,18=5,40=1/2;
 3/5=44,7=101,11=2,25=1,30=1,70=32201,72=1,74=-58/1,2,3;
 4//1;
 5/5=2,38=5,53=1/2;
 6/7=2,8=2,9=2,10=2,28=1/1;
 99/5=1,9=1/99;
 Leave Link    1 at Wed Oct 22 10:13:20 2025, MaxMem=  4294967296 cpu:               4.7 elap:               0.7
 (Enter /lrz/sys/applications/gaussian/g16.C.01/x86_64_legacy/exe/l101.exe)
 --------------
 g16_g16_C3-w_3
 --------------
 Symbolic Z-matrix:
 Charge =  0 Multiplicity = 1
 O                     0.97447  -1.12764  -0.345 
 C                     0.64539  -0.00562   0.43473 
 O                     1.03258   1.18705  -0.2023 
 C                    -0.84437  -0.05799   0.74402 
 C                    -1.74567  -0.00785  -0.48428 
 H                     1.93157  -1.12283  -0.47214 
 H                     1.21845  -0.01578   1.37799 
 H                     0.52544   1.26708  -1.02144 
 H                    -1.03436  -0.98045   1.31496 
 H                    -1.07069   0.78406   1.41619 
 H                    -1.61777   0.93211  -1.04506 
 H                    -2.80343  -0.06777  -0.18977 
 H                    -1.53765  -0.843    -1.1691 
 
 ITRead=  0  0  0  0  0  0  0  0  0  0  0  0  0
 MicOpt= -1 -1 -1 -1 -1 -1 -1 -1 -1 -1 -1 -1 -1
 NAtoms=     13 NQM=       13 NQMF=       0 NMMI=      0 NMMIF=      0
                NMic=       0 NMicF=      0.
                    Isotopes and Nuclear Properties:
 (Nuclear quadrupole moments (NQMom) in fm**2, nuclear magnetic moments (NMagM)
  in nuclear magnetons)

  Atom         1           2           3           4           5           6           7           8           9          10
 IAtWgt=          16          12          16          12          12           1           1           1           1           1
 AtmWgt=  15.9949146  12.0000000  15.9949146  12.0000000  12.0000000   1.0078250   1.0078250   1.0078250   1.0078250   1.0078250
 NucSpn=           0           0           0           0           0           1           1           1           1           1
 AtZEff=  -0.0000000  -0.0000000  -0.0000000  -0.0000000  -0.0000000  -0.0000000  -0.0000000  -0.0000000  -0.0000000  -0.0000000
 NQMom=    0.0000000   0.0000000   0.0000000   0.0000000   0.0000000   0.0000000   0.0000000   0.0000000   0.0000000   0.0000000
 NMagM=    0.0000000   0.0000000   0.0000000   0.0000000   0.0000000   2.7928460   2.7928460   2.7928460   2.7928460   2.7928460
 AtZNuc=   8.0000000   6.0000000   8.0000000   6.0000000   6.0000000   1.0000000   1.0000000   1.0000000   1.0000000   1.0000000

  Atom        11          12          13
 IAtWgt=           1           1           1
 AtmWgt=   1.0078250   1.0078250   1.0078250
 NucSpn=           1           1           1
 AtZEff=  -0.0000000  -0.0000000  -0.0000000
 NQMom=    0.0000000   0.0000000   0.0000000
 NMagM=    2.7928460   2.7928460   2.7928460
 AtZNuc=   1.0000000   1.0000000   1.0000000
 Leave Link  101 at Wed Oct 22 10:13:20 2025, MaxMem=  4294967296 cpu:               0.9 elap:               0.1
 (Enter /lrz/sys/applications/gaussian/g16.C.01/x86_64_legacy/exe/l202.exe)
                          Input orientation:                          
 ---------------------------------------------------------------------
 Center     Atomic      Atomic             Coordinates (Angstroms)
 Number     Number       Type             X           Y           Z
 ---------------------------------------------------------------------
      1          8           0        0.974465   -1.127636   -0.345001
      2          6           0        0.645393   -0.005621    0.434726
      3          8           0        1.032576    1.187055   -0.202298
      4          6           0       -0.844372   -0.057992    0.744017
      5          6           0       -1.745667   -0.007849   -0.484282
      6          1           0        1.931566   -1.122828   -0.472140
      7          1           0        1.218446   -0.015777    1.377993
      8          1           0        0.525441    1.267084   -1.021444
      9          1           0       -1.034364   -0.980451    1.314959
     10          1           0       -1.070694    0.784059    1.416189
     11          1           0       -1.617765    0.932109   -1.045057
     12          1           0       -2.803425   -0.067772   -0.189771
     13          1           0       -1.537651   -0.843002   -1.169103
 ---------------------------------------------------------------------
                    Distance matrix (angstroms):
                    1          2          3          4          5
     1  O    0.000000
     2  C    1.405411   0.000000
     3  O    2.319814   1.406480   0.000000
     4  C    2.374503   1.522433   2.443069   0.000000
     5  C    2.944901   2.561591   3.037424   1.524325   0.000000
     6  H    0.965520   1.929974   2.493302   3.212280   3.842573
     7  H    2.065058   1.103742   1.994661   2.158454   3.500585
     8  H    2.528613   1.937678   0.966742   2.597897   2.659310
     9  H    2.610081   2.132296   3.357438   1.101364   2.165450
    10  H    3.307422   2.128807   2.684334   1.100948   2.166679
    11  H    3.384122   2.861989   2.792767   2.186143   1.101975
    12  H    3.926813   3.505454   4.036044   2.170241   1.099627
    13  H    2.659114   2.835340   3.414954   2.181033   1.099878
                    6          7          8          9         10
     6  H    0.000000
     7  H    2.270924   0.000000
     8  H    2.826765   2.807719   0.000000
     9  H    3.465651   2.451473   3.597664   0.000000
    10  H    4.026856   2.425151   2.953475   1.767785   0.000000
    11  H    4.141105   3.848864   2.169354   3.093205   2.525656
    12  H    4.859323   4.316947   3.681694   2.495350   2.511390
    13  H    3.549581   3.842925   2.954761   2.538258   3.090164
                   11         12         13
    11  H    0.000000
    12  H    1.771176   0.000000
    13  H    1.781242   1.778273   0.000000
 Stoichiometry    C3H8O2
 Framework group  C1[X(C3H8O2)]
 Deg. of freedom    33
 Full point group                 C1      NOp   1
 Largest Abelian subgroup         C1      NOp   1
 Largest concise Abelian subgroup C1      NOp   1
                         Standard orientation:                         
 ---------------------------------------------------------------------
 Center     Atomic      Atomic             Coordinates (Angstroms)
 Number     Number       Type             X           Y           Z
 ---------------------------------------------------------------------
      1          8           0        0.974465   -1.127636   -0.345001
      2          6           0        0.645393   -0.005621    0.434726
      3          8           0        1.032576    1.187055   -0.202298
      4          6           0       -0.844372   -0.057992    0.744017
      5          6           0       -1.745667   -0.007849   -0.484282
      6          1           0        1.931566   -1.122828   -0.472140
      7          1           0        1.218446   -0.015777    1.377993
      8          1           0        0.525441    1.267084   -1.021444
      9          1           0       -1.034364   -0.980451    1.314959
     10          1           0       -1.070694    0.784059    1.416189
     11          1           0       -1.617765    0.932109   -1.045057
     12          1           0       -2.803425   -0.067772   -0.189771
     13          1           0       -1.537651   -0.843002   -1.169103
 ---------------------------------------------------------------------
 Rotational constants (GHZ):           6.9528170           3.9927474           3.3275480
 Leave Link  202 at Wed Oct 22 10:13:20 2025, MaxMem=  4294967296 cpu:               0.0 elap:               0.0
 (Enter /lrz/sys/applications/gaussian/g16.C.01/x86_64_legacy/exe/l301.exe)
 Standard basis: def2TZVP (5D, 7F)
 Ernie: Thresh=  0.10000D-02 Tol=  0.10000D-05 Strict=F.
 There are   228 symmetry adapted cartesian basis functions of A   symmetry.
 There are   203 symmetry adapted basis functions of A   symmetry.
   203 basis functions,   319 primitive gaussians,   228 cartesian basis functions
    21 alpha electrons       21 beta electrons
       nuclear repulsion energy       197.0241744031 Hartrees.
 IExCor= 4639 DFT=T Ex+Corr=wB97XD ExCW=0 ScaHFX=  1.000000
 ScaDFX=  1.000000  1.000000  1.000000  1.000000 ScalE2=  1.000000  1.000000
 IRadAn=      5 IRanWt=     -1 IRanGd=            0 ICorTp=0 IEmpDi=121
 HFx  wShort=  0.000000 wLong=  0.200000 cFull=  0.222036 cShort=  0.000000 cLong=  0.777964
 DFx  wShort=  0.000000 wLong=  0.200000 cFull=  0.000000 cShort=  0.000000 cLong=  1.000000
 NAtoms=   13 NActive=   13 NUniq=   13 SFac= 1.00D+00 NAtFMM=   60 NAOKFM=F Big=F
 Integral buffers will be    131072 words long.
 Raffenetti 2 integral format.
 Two-electron integral symmetry is turned on.
 R6Disp:  Grimme-D2 Dispersion energy=       -0.0056878163 Hartrees.
 Nuclear repulsion after empirical dispersion term =      197.0184865868 Hartrees.
 ------------------------------------------------------------------------------
 Polarizable Continuum Model (PCM)
 =================================
 Model                : PCM.
 Atomic radii         : SMD-Coulomb.
 Polarization charges : Total charges.
 Charge compensation  : None.
 Solution method      : On-the-fly selection.
 Cavity type          : VdW (van der Waals Surface) (Alpha=1.000).
 Cavity algorithm     : GePol (No added spheres)
                        Default sphere list used, NSphG=   13.
                        Lebedev-Laikov grids with approx.  5.0 points / Ang**2.
                        Smoothing algorithm: York/Karplus (Gamma=1.0000).
                        Polarization charges: spherical gaussians, with
                                              point-specific exponents (IZeta= 3).
                        Self-potential: point-specific (ISelfS= 7).
                        Self-field    : sphere-specific E.n sum rule (ISelfD= 2).
 Solvent              : Water, Eps=  78.355300 Eps(inf)=   1.777849
 ------------------------------------------------------------------------------
 Spheres list:
 ISph  on   Nord     Re0    Alpha      Xe            Ye            Ze
    1   O      1    1.5200  1.000      0.974465     -1.127636     -0.345001
    2   C      2    1.8500  1.000      0.645393     -0.005621      0.434726
    3   O      3    1.5200  1.000      1.032576      1.187055     -0.202298
    4   C      4    1.8500  1.000     -0.844372     -0.057992      0.744017
    5   C      5    1.8500  1.000     -1.745667     -0.007849     -0.484282
    6   H      6    1.2000  1.000      1.931566     -1.122828     -0.472140
    7   H      7    1.2000  1.000      1.218446     -0.015777      1.377993
    8   H      8    1.2000  1.000      0.525441      1.267084     -1.021444
    9   H      9    1.2000  1.000     -1.034364     -0.980451      1.314959
   10   H     10    1.2000  1.000     -1.070694      0.784059      1.416189
   11   H     11    1.2000  1.000     -1.617765      0.932109     -1.045057
   12   H     12    1.2000  1.000     -2.803425     -0.067772     -0.189771
   13   H     13    1.2000  1.000     -1.537651     -0.843002     -1.169103
 ------------------------------------------------------------------------------
 GePol: Number of generator spheres                  =      13
 GePol: Total number of spheres                      =      13
 GePol: Number of exposed spheres                    =      13 (100.00%)
 GePol: Number of points                             =     903
 GePol: Average weight of points                     =       0.12
 GePol: Minimum weight of points                     =   0.12D-09
 GePol: Maximum weight of points                     =    0.21991
 GePol: Number of points with low weight             =      49
 GePol: Fraction of low-weight points (<1% of avg)   =       5.43%
 GePol: Cavity surface area                          =    109.401 Ang**2
 GePol: Cavity volume                                =     82.039 Ang**3
 ------------------------------------------------------------------------------
 Atomic radii for non-electrostatic terms: SMD-CDS.
 ------------------------------------------------------------------------------
 PCM non-electrostatic energy =         0.0045417992 Hartrees.
 Nuclear repulsion after PCM non-electrostatic terms =      197.0230283860 Hartrees.
 Leave Link  301 at Wed Oct 22 10:13:20 2025, MaxMem=  4294967296 cpu:               1.0 elap:               0.1
 (Enter /lrz/sys/applications/gaussian/g16.C.01/x86_64_legacy/exe/l302.exe)
 NPDir=0 NMtPBC=     1 NCelOv=     1 NCel=       1 NClECP=     1 NCelD=      1
         NCelK=      1 NCelE2=     1 NClLst=     1 CellRange=     0.0.
 One-electron integrals computed using PRISM.
 One-electron integral symmetry used in STVInt
   1 Symmetry operations used in ECPInt.
 ECPInt:  NShTT=    3828 NPrTT=   11160 LenC2=    3807 LenP2D=    9412.
 LDataN:  DoStor=T MaxTD1= 6 Len=  172
 NBasis=   203 RedAO= T EigKep=  3.11D-04  NBF=   203
 NBsUse=   203 1.00D-06 EigRej= -1.00D+00 NBFU=   203
 Precomputing XC quadrature grid using
 IXCGrd= 4 IRadAn=           5 IRanWt=          -1 IRanGd=           0 AccXCQ= 0.00D+00.
 Generated NRdTot=       0 NPtTot=           0 NUsed=           0 NTot=          32
 NSgBfM=   227   227   227   227   227 MxSgAt=    13 MxSgA2=    13.
 Leave Link  302 at Wed Oct 22 10:13:20 2025, MaxMem=  4294967296 cpu:               1.8 elap:               0.2
 (Enter /lrz/sys/applications/gaussian/g16.C.01/x86_64_legacy/exe/l303.exe)
 DipDrv:  MaxL=1.
 Leave Link  303 at Wed Oct 22 10:13:20 2025, MaxMem=  4294967296 cpu:               0.3 elap:               0.1
 (Enter /lrz/sys/applications/gaussian/g16.C.01/x86_64_legacy/exe/l401.exe)
 ExpMin= 9.52D-02 ExpMax= 2.70D+04 ExpMxC= 9.22D+02 IAcc=3 IRadAn=         5 AccDes= 0.00D+00
 Harris functional with IExCor= 4639 and IRadAn=       5 diagonalized for initial guess.
 HarFok:  IExCor= 4639 AccDes= 0.00D+00 IRadAn=         5 IDoV= 1 UseB2=F ITyADJ=14
 ICtDFT=  3500011 ScaDFX=  1.000000  1.000000  1.000000  1.000000
 FoFCou: FMM=F IPFlag=           0 FMFlag=      100000 FMFlg1=           0
         NFxFlg=           0 DoJE=T BraDBF=F KetDBF=T FulRan=T
         wScrn=  0.000000 ICntrl=       500 IOpCl=  0 I1Cent=   200000004 NGrid=           0
         NMat0=    1 NMatS0=      1 NMatT0=    0 NMatD0=    1 NMtDS0=    0 NMtDT0=    0
 Petite list used in FoFCou.
 Harris En= -258.422564501678    
 JPrj=0 DoOrth=F DoCkMO=F.
 Leave Link  401 at Wed Oct 22 10:13:22 2025, MaxMem=  4294967296 cpu:              10.2 elap:               1.3
 (Enter /lrz/sys/applications/gaussian/g16.C.01/x86_64_legacy/exe/l502.exe)
 Integral symmetry usage will be decided dynamically.
 Closed shell SCF:
 Using DIIS extrapolation, IDIIS=  1040.
 NGot=  4294967296 LenX=  4294858978 LenY=  4294806553
 Requested convergence on RMS density matrix=1.00D-08 within 128 cycles.
 Requested convergence on MAX density matrix=1.00D-06.
 Requested convergence on             energy=1.00D-06.
 No special actions if energy rises.
 Fock matrices will be formed incrementally for  20 cycles.

 Cycle   1  Pass 1  IDiag  1:
 FoFJK:  IHMeth= 1 ICntrl=       0 DoSepK=T KAlg= 0 I1Cent=           0 FoldK=F
 IRaf=         1 NMat=       1 IRICut=       1 DoRegI=T DoRafI=F ISym2E= 0 IDoP0=0 IntGTp=1.
 FoFCou: FMM=F IPFlag=           0 FMFlag=      100000 FMFlg1=           0
         NFxFlg=           0 DoJE=T BraDBF=F KetDBF=F FulRan=T
         wScrn=  0.000000 ICntrl=       500 IOpCl=  0 I1Cent=           0 NGrid=           0
         NMat0=    1 NMatS0=      1 NMatT0=    0 NMatD0=    1 NMtDS0=    0 NMtDT0=    0
 Symmetry not used in FoFCou.
 Inv3:  Mode=1 IEnd=     2446227.
 Iteration    1 A*A^-1 deviation from unit magnitude is 5.00D-15 for    290.
 Iteration    1 A*A^-1 deviation from orthogonality  is 3.90D-15 for    608    184.
 Iteration    1 A^-1*A deviation from unit magnitude is 4.88D-15 for    243.
 Iteration    1 A^-1*A deviation from orthogonality  is 2.33D-15 for    777    364.
 E= -269.552050412911    
 DIIS: error= 5.13D-02 at cycle   1 NSaved=   1.
 NSaved= 1 IEnMin= 1 EnMin= -269.552050412911     IErMin= 1 ErrMin= 5.13D-02
 ErrMax= 5.13D-02  0.00D+00 EMaxC= 1.00D-01 BMatC= 5.65D-01 BMatP= 5.65D-01
 IDIUse=3 WtCom= 4.87D-01 WtEn= 5.13D-01
 Coeff-Com:  0.100D+01
 Coeff-En:   0.100D+01
 Coeff:      0.100D+01
 Gap=     0.547 Goal=   None    Shift=    0.000
 GapD=    0.547 DampG=2.000 DampE=0.500 DampFc=1.0000 IDamp=-1.
 RMSDP=1.99D-03 MaxDP=4.53D-02              OVMax= 6.14D-02

 Cycle   2  Pass 1  IDiag  1:
 RMSU=  1.94D-03    CP:  9.64D-01
 E= -269.597910310595     Delta-E=       -0.045859897685 Rises=F Damp=F
 DIIS: error= 9.13D-03 at cycle   2 NSaved=   2.
 NSaved= 2 IEnMin= 2 EnMin= -269.597910310595     IErMin= 2 ErrMin= 9.13D-03
 ErrMax= 9.13D-03  0.00D+00 EMaxC= 1.00D-01 BMatC= 4.34D-02 BMatP= 5.65D-01
 IDIUse=3 WtCom= 9.09D-01 WtEn= 9.13D-02
 Coeff-Com:  0.154D+00 0.846D+00
 Coeff-En:   0.108D+00 0.892D+00
 Coeff:      0.150D+00 0.850D+00
 Gap=     0.532 Goal=   None    Shift=    0.000
 RMSDP=8.30D-04 MaxDP=2.64D-02 DE=-4.59D-02 OVMax= 4.48D-02

 Cycle   3  Pass 1  IDiag  1:
 RMSU=  6.53D-04    CP:  9.68D-01  7.38D-01
 E= -269.612955998611     Delta-E=       -0.015045688016 Rises=F Damp=F
 DIIS: error= 7.32D-03 at cycle   3 NSaved=   3.
 NSaved= 3 IEnMin= 3 EnMin= -269.612955998611     IErMin= 3 ErrMin= 7.32D-03
 ErrMax= 7.32D-03  0.00D+00 EMaxC= 1.00D-01 BMatC= 2.05D-02 BMatP= 4.34D-02
 IDIUse=3 WtCom= 9.27D-01 WtEn= 7.32D-02
 Coeff-Com:  0.232D-01 0.416D+00 0.561D+00
 Coeff-En:   0.000D+00 0.312D+00 0.688D+00
 Coeff:      0.215D-01 0.408D+00 0.570D+00
 Gap=     0.492 Goal=   None    Shift=    0.000
 RMSDP=4.15D-04 MaxDP=1.21D-02 DE=-1.50D-02 OVMax= 2.08D-02

 Cycle   4  Pass 1  IDiag  1:
 RMSU=  1.38D-04    CP:  9.63D-01  9.07D-01  6.87D-01
 E= -269.626542023190     Delta-E=       -0.013586024578 Rises=F Damp=F
 DIIS: error= 6.38D-04 at cycle   4 NSaved=   4.
 NSaved= 4 IEnMin= 4 EnMin= -269.626542023190     IErMin= 4 ErrMin= 6.38D-04
 ErrMax= 6.38D-04  0.00D+00 EMaxC= 1.00D-01 BMatC= 2.00D-04 BMatP= 2.05D-02
 IDIUse=3 WtCom= 9.94D-01 WtEn= 6.38D-03
 Coeff-Com:  0.766D-02 0.148D+00 0.229D+00 0.615D+00
 Coeff-En:   0.000D+00 0.000D+00 0.000D+00 0.100D+01
 Coeff:      0.761D-02 0.147D+00 0.228D+00 0.618D+00
 Gap=     0.486 Goal=   None    Shift=    0.000
 RMSDP=4.53D-05 MaxDP=1.46D-03 DE=-1.36D-02 OVMax= 2.14D-03

 Cycle   5  Pass 1  IDiag  1:
 RMSU=  3.77D-05    CP:  9.62D-01  9.16D-01  7.13D-01  9.96D-01
 E= -269.626680113297     Delta-E=       -0.000138090108 Rises=F Damp=F
 DIIS: error= 1.06D-04 at cycle   5 NSaved=   5.
 NSaved= 5 IEnMin= 5 EnMin= -269.626680113297     IErMin= 5 ErrMin= 1.06D-04
 ErrMax= 1.06D-04  0.00D+00 EMaxC= 1.00D-01 BMatC= 7.31D-06 BMatP= 2.00D-04
 IDIUse=3 WtCom= 9.99D-01 WtEn= 1.06D-03
 Coeff-Com: -0.188D-02-0.304D-01-0.316D-01 0.106D+00 0.958D+00
 Coeff-En:   0.000D+00 0.000D+00 0.000D+00 0.000D+00 0.100D+01
 Coeff:     -0.188D-02-0.304D-01-0.316D-01 0.106D+00 0.958D+00
 Gap=     0.486 Goal=   None    Shift=    0.000
 RMSDP=3.53D-05 MaxDP=8.23D-04 DE=-1.38D-04 OVMax= 1.02D-03

 Cycle   6  Pass 1  IDiag  1:
 RMSU=  9.79D-06    CP:  9.62D-01  9.26D-01  7.37D-01  1.15D+00  1.20D+00
 E= -269.626690196335     Delta-E=       -0.000010083037 Rises=F Damp=F
 DIIS: error= 1.99D-05 at cycle   6 NSaved=   6.
 NSaved= 6 IEnMin= 6 EnMin= -269.626690196335     IErMin= 6 ErrMin= 1.99D-05
 ErrMax= 1.99D-05  0.00D+00 EMaxC= 1.00D-01 BMatC= 1.38D-07 BMatP= 7.31D-06
 IDIUse=1 WtCom= 1.00D+00 WtEn= 0.00D+00
 Coeff-Com: -0.311D-03-0.604D-02-0.892D-02-0.182D-01 0.660D-02 0.103D+01
 Coeff:     -0.311D-03-0.604D-02-0.892D-02-0.182D-01 0.660D-02 0.103D+01
 Gap=     0.486 Goal=   None    Shift=    0.000
 RMSDP=9.06D-06 MaxDP=2.33D-04 DE=-1.01D-05 OVMax= 3.04D-04

 Cycle   7  Pass 1  IDiag  1:
 RMSU=  2.52D-06    CP:  9.62D-01  9.28D-01  7.41D-01  1.19D+00  1.30D+00
                    CP:  1.31D+00
 E= -269.626690535470     Delta-E=       -0.000000339135 Rises=F Damp=F
 DIIS: error= 7.37D-06 at cycle   7 NSaved=   7.
 NSaved= 7 IEnMin= 7 EnMin= -269.626690535470     IErMin= 7 ErrMin= 7.37D-06
 ErrMax= 7.37D-06  0.00D+00 EMaxC= 1.00D-01 BMatC= 2.00D-08 BMatP= 1.38D-07
 IDIUse=1 WtCom= 1.00D+00 WtEn= 0.00D+00
 Coeff-Com:  0.150D-04 0.662D-04-0.463D-03-0.790D-02-0.455D-01 0.223D+00
 Coeff-Com:  0.831D+00
 Coeff:      0.150D-04 0.662D-04-0.463D-03-0.790D-02-0.455D-01 0.223D+00
 Coeff:      0.831D+00
 Gap=     0.486 Goal=   None    Shift=    0.000
 RMSDP=1.80D-06 MaxDP=3.70D-05 DE=-3.39D-07 OVMax= 7.20D-05

 Cycle   8  Pass 1  IDiag  1:
 RMSU=  6.92D-07    CP:  9.62D-01  9.28D-01  7.41D-01  1.19D+00  1.32D+00
                    CP:  1.41D+00  1.22D+00
 E= -269.626690556992     Delta-E=       -0.000000021522 Rises=F Damp=F
 DIIS: error= 4.04D-06 at cycle   8 NSaved=   8.
 NSaved= 8 IEnMin= 8 EnMin= -269.626690556992     IErMin= 8 ErrMin= 4.04D-06
 ErrMax= 4.04D-06  0.00D+00 EMaxC= 1.00D-01 BMatC= 8.21D-09 BMatP= 2.00D-08
 IDIUse=1 WtCom= 1.00D+00 WtEn= 0.00D+00
 Coeff-Com:  0.473D-04 0.818D-03 0.972D-03-0.119D-02-0.228D-01-0.309D-01
 Coeff-Com:  0.419D+00 0.634D+00
 Coeff:      0.473D-04 0.818D-03 0.972D-03-0.119D-02-0.228D-01-0.309D-01
 Coeff:      0.419D+00 0.634D+00
 Gap=     0.486 Goal=   None    Shift=    0.000
 RMSDP=6.18D-07 MaxDP=1.37D-05 DE=-2.15D-08 OVMax= 2.68D-05

 Cycle   9  Pass 1  IDiag  1:
 RMSU=  2.15D-07    CP:  9.62D-01  9.28D-01  7.41D-01  1.20D+00  1.32D+00
                    CP:  1.44D+00  1.35D+00  9.11D-01
 E= -269.626690563534     Delta-E=       -0.000000006542 Rises=F Damp=F
 DIIS: error= 5.40D-07 at cycle   9 NSaved=   9.
 NSaved= 9 IEnMin= 9 EnMin= -269.626690563534     IErMin= 9 ErrMin= 5.40D-07
 ErrMax= 5.40D-07  0.00D+00 EMaxC= 1.00D-01 BMatC= 1.56D-10 BMatP= 8.21D-09
 IDIUse=1 WtCom= 1.00D+00 WtEn= 0.00D+00
 Coeff-Com: -0.120D-05 0.642D-05 0.925D-04 0.880D-03 0.462D-02-0.279D-01
 Coeff-Com: -0.722D-01 0.135D-01 0.108D+01
 Coeff:     -0.120D-05 0.642D-05 0.925D-04 0.880D-03 0.462D-02-0.279D-01
 Coeff:     -0.722D-01 0.135D-01 0.108D+01
 Gap=     0.486 Goal=   None    Shift=    0.000
 RMSDP=2.62D-07 MaxDP=6.17D-06 DE=-6.54D-09 OVMax= 1.04D-05

 Cycle  10  Pass 1  IDiag  1:
 RMSU=  7.05D-08    CP:  9.62D-01  9.28D-01  7.41D-01  1.20D+00  1.33D+00
                    CP:  1.46D+00  1.41D+00  1.04D+00  1.33D+00
 E= -269.626690563869     Delta-E=       -0.000000000336 Rises=F Damp=F
 DIIS: error= 2.01D-07 at cycle  10 NSaved=  10.
 NSaved=10 IEnMin=10 EnMin= -269.626690563869     IErMin=10 ErrMin= 2.01D-07
 ErrMax= 2.01D-07  0.00D+00 EMaxC= 1.00D-01 BMatC= 1.40D-11 BMatP= 1.56D-10
 IDIUse=1 WtCom= 1.00D+00 WtEn= 0.00D+00
 Coeff-Com: -0.136D-05-0.102D-04 0.138D-04 0.307D-03 0.190D-02-0.764D-02
 Coeff-Com: -0.335D-01-0.154D-01 0.321D+00 0.733D+00
 Coeff:     -0.136D-05-0.102D-04 0.138D-04 0.307D-03 0.190D-02-0.764D-02
 Coeff:     -0.335D-01-0.154D-01 0.321D+00 0.733D+00
 Gap=     0.486 Goal=   None    Shift=    0.000
 RMSDP=3.14D-08 MaxDP=9.56D-07 DE=-3.36D-10 OVMax= 1.55D-06

 Cycle  11  Pass 1  IDiag  1:
 RMSU=  1.68D-08    CP:  9.62D-01  9.28D-01  7.41D-01  1.20D+00  1.33D+00
                    CP:  1.46D+00  1.41D+00  1.05D+00  1.42D+00  1.15D+00
 E= -269.626690563899     Delta-E=       -0.000000000030 Rises=F Damp=F
 DIIS: error= 5.71D-08 at cycle  11 NSaved=  11.
 NSaved=11 IEnMin=11 EnMin= -269.626690563899     IErMin=11 ErrMin= 5.71D-08
 ErrMax= 5.71D-08  0.00D+00 EMaxC= 1.00D-01 BMatC= 1.27D-12 BMatP= 1.40D-11
 IDIUse=1 WtCom= 1.00D+00 WtEn= 0.00D+00
 Coeff-Com: -0.514D-07-0.580D-05-0.163D-04-0.668D-04-0.279D-03 0.274D-02
 Coeff-Com:  0.386D-02-0.601D-02-0.104D+00 0.122D+00 0.982D+00
 Coeff:     -0.514D-07-0.580D-05-0.163D-04-0.668D-04-0.279D-03 0.274D-02
 Coeff:      0.386D-02-0.601D-02-0.104D+00 0.122D+00 0.982D+00
 Gap=     0.486 Goal=   None    Shift=    0.000
 RMSDP=1.95D-08 MaxDP=5.12D-07 DE=-2.99D-11 OVMax= 7.82D-07

 Cycle  12  Pass 1  IDiag  1:
 RMSU=  5.90D-09    CP:  9.62D-01  9.28D-01  7.41D-01  1.20D+00  1.33D+00
                    CP:  1.46D+00  1.41D+00  1.06D+00  1.47D+00  1.34D+00
                    CP:  1.25D+00
 E= -269.626690563902     Delta-E=       -0.000000000003 Rises=F Damp=F
 DIIS: error= 1.00D-08 at cycle  12 NSaved=  12.
 NSaved=12 IEnMin=12 EnMin= -269.626690563902     IErMin=12 ErrMin= 1.00D-08
 ErrMax= 1.00D-08  0.00D+00 EMaxC= 1.00D-01 BMatC= 3.06D-14 BMatP= 1.27D-12
 IDIUse=1 WtCom= 1.00D+00 WtEn= 0.00D+00
 Coeff-Com:  0.525D-07 0.486D-06-0.782D-06-0.156D-04-0.102D-03 0.434D-03
 Coeff-Com:  0.191D-02 0.736D-03-0.180D-01-0.283D-01 0.185D-01 0.102D+01
 Coeff:      0.525D-07 0.486D-06-0.782D-06-0.156D-04-0.102D-03 0.434D-03
 Coeff:      0.191D-02 0.736D-03-0.180D-01-0.283D-01 0.185D-01 0.102D+01
 Gap=     0.486 Goal=   None    Shift=    0.000
 RMSDP=4.49D-09 MaxDP=1.01D-07 DE=-2.61D-12 OVMax= 1.68D-07

 Error on total polarization charges =  0.04222
 SCF Done:  E(RwB97XD) =  -269.626690564     A.U. after   12 cycles
            NFock= 12  Conv=0.45D-08     -V/T= 2.0050
 KE= 2.682745376793D+02 PE=-1.025905697593D+03 EE= 2.909814409636D+02
 SMD-CDS (non-electrostatic) energy       (kcal/mol) =       2.85
 (included in total energy above)
 Leave Link  502 at Wed Oct 22 10:14:15 2025, MaxMem=  4294967296 cpu:             424.9 elap:              53.2
 (Enter /lrz/sys/applications/gaussian/g16.C.01/x86_64_legacy/exe/l601.exe)
 Copying SCF densities to generalized density rwf, IOpCl= 0 IROHF=0.

 **********************************************************************

            Population analysis using the SCF Density.

 **********************************************************************

 Orbital symmetries:
       Occupied  (A) (A) (A) (A) (A) (A) (A) (A) (A) (A) (A) (A)
                 (A) (A) (A) (A) (A) (A) (A) (A) (A)
       Virtual   (A) (A) (A) (A) (A) (A) (A) (A) (A) (A) (A) (A)
                 (A) (A) (A) (A) (A) (A) (A) (A) (A) (A) (A) (A)
                 (A) (A) (A) (A) (A) (A) (A) (A) (A) (A) (A) (A)
                 (A) (A) (A) (A) (A) (A) (A) (A) (A) (A) (A) (A)
                 (A) (A) (A) (A) (A) (A) (A) (A) (A) (A) (A) (A)
                 (A) (A) (A) (A) (A) (A) (A) (A) (A) (A) (A) (A)
                 (A) (A) (A) (A) (A) (A) (A) (A) (A) (A) (A) (A)
                 (A) (A) (A) (A) (A) (A) (A) (A) (A) (A) (A) (A)
                 (A) (A) (A) (A) (A) (A) (A) (A) (A) (A) (A) (A)
                 (A) (A) (A) (A) (A) (A) (A) (A) (A) (A) (A) (A)
                 (A) (A) (A) (A) (A) (A) (A) (A) (A) (A) (A) (A)
                 (A) (A) (A) (A) (A) (A) (A) (A) (A) (A) (A) (A)
                 (A) (A) (A) (A) (A) (A) (A) (A) (A) (A) (A) (A)
                 (A) (A) (A) (A) (A) (A) (A) (A) (A) (A) (A) (A)
                 (A) (A) (A) (A) (A) (A) (A) (A) (A) (A) (A) (A)
                 (A) (A)
 The electronic state is 1-A.
 Alpha  occ. eigenvalues --  -19.25557 -19.25525 -10.37713 -10.27512 -10.26797
 Alpha  occ. eigenvalues --   -1.16858  -1.09871  -0.86995  -0.77073  -0.68100
 Alpha  occ. eigenvalues --   -0.64448  -0.56610  -0.54383  -0.52349  -0.49999
 Alpha  occ. eigenvalues --   -0.46582  -0.44139  -0.42088  -0.40766  -0.39783
 Alpha  occ. eigenvalues --   -0.36986
 Alpha virt. eigenvalues --    0.11659   0.14600   0.16274   0.17371   0.19007
 Alpha virt. eigenvalues --    0.19693   0.20590   0.23222   0.24625   0.26601
 Alpha virt. eigenvalues --    0.27483   0.29016   0.32715   0.34424   0.35619
 Alpha virt. eigenvalues --    0.37256   0.40335   0.40670   0.42817   0.44345
 Alpha virt. eigenvalues --    0.45572   0.48171   0.50513   0.50898   0.51876
 Alpha virt. eigenvalues --    0.52308   0.53553   0.55446   0.56864   0.57972
 Alpha virt. eigenvalues --    0.60388   0.62045   0.63993   0.66290   0.67830
 Alpha virt. eigenvalues --    0.69694   0.73279   0.78842   0.81432   0.87744
 Alpha virt. eigenvalues --    0.89258   0.92069   0.94013   0.94265   0.98132
 Alpha virt. eigenvalues --    1.04247   1.06918   1.11848   1.12389   1.16638
 Alpha virt. eigenvalues --    1.17663   1.22865   1.24215   1.26697   1.33004
 Alpha virt. eigenvalues --    1.43729   1.45649   1.53199   1.56996   1.59496
 Alpha virt. eigenvalues --    1.62092   1.63444   1.65048   1.65575   1.67571
 Alpha virt. eigenvalues --    1.69457   1.71518   1.73510   1.78316   1.79596
 Alpha virt. eigenvalues --    1.82702   1.86640   1.91195   1.93115   1.95650
 Alpha virt. eigenvalues --    1.99113   2.00199   2.04423   2.07794   2.12587
 Alpha virt. eigenvalues --    2.17555   2.19238   2.20961   2.25366   2.28323
 Alpha virt. eigenvalues --    2.29629   2.32038   2.36155   2.39715   2.41561
 Alpha virt. eigenvalues --    2.43004   2.45268   2.49904   2.51106   2.55915
 Alpha virt. eigenvalues --    2.57766   2.59145   2.64495   2.66983   2.68990
 Alpha virt. eigenvalues --    2.70678   2.73991   2.76042   2.78245   2.81474
 Alpha virt. eigenvalues --    2.81693   2.87760   2.89303   2.95054   2.96898
 Alpha virt. eigenvalues --    3.03919   3.07542   3.09009   3.12309   3.17605
 Alpha virt. eigenvalues --    3.18451   3.22818   3.24207   3.27130   3.28265
 Alpha virt. eigenvalues --    3.29722   3.33050   3.37821   3.40539   3.45122
 Alpha virt. eigenvalues --    3.47314   3.53412   3.53897   3.57864   3.60071
 Alpha virt. eigenvalues --    3.65942   3.67416   3.71965   3.75325   3.86980
 Alpha virt. eigenvalues --    3.90940   3.95547   4.00542   4.02609   4.08709
 Alpha virt. eigenvalues --    4.12490   4.16906   4.21301   4.36126   4.38471
 Alpha virt. eigenvalues --    4.46899   4.58800   4.59535   4.67488   4.70507
 Alpha virt. eigenvalues --    4.76413   4.88499   4.91654   5.31601   5.32376
 Alpha virt. eigenvalues --    5.38907   5.45231   5.51728   5.54282   5.67073
 Alpha virt. eigenvalues --    5.80162   5.88692   5.96240   6.00737   6.22484
 Alpha virt. eigenvalues --    6.34874   6.37182   6.54394   6.58557   6.76141
 Alpha virt. eigenvalues --    6.80477   6.82963   6.99179   7.06143   7.08601
 Alpha virt. eigenvalues --    7.20154   7.32834  22.40257  22.54763  22.70232
 Alpha virt. eigenvalues --   43.89075  43.98035
          Condensed to atoms (all electrons):
               1          2          3          4          5          6
     1  O    8.118571   0.317509  -0.080713  -0.078752  -0.007661   0.302333
     2  C    0.317509   4.567793   0.272678   0.311234  -0.024210  -0.026400
     3  O   -0.080713   0.272678   8.128070  -0.030931  -0.004831   0.004833
     4  C   -0.078752   0.311234  -0.030931   5.063519   0.276658   0.012725
     5  C   -0.007661  -0.024210  -0.004831   0.276658   5.006832  -0.000336
     6  H    0.302333  -0.026400   0.004833   0.012725  -0.000336   0.343137
     7  H   -0.045730   0.454732  -0.045231  -0.074226   0.009096  -0.007601
     8  H    0.003254  -0.015719   0.300018  -0.016759   0.008691  -0.000557
     9  H    0.004688  -0.038718   0.005953   0.408849  -0.031541  -0.000631
    10  H    0.004099  -0.026153  -0.000180   0.402102  -0.030841  -0.000514
    11  H    0.000495  -0.008790   0.004724  -0.031433   0.403346  -0.000203
    12  H   -0.000104   0.007354   0.000336  -0.033797   0.413138   0.000015
    13  H    0.011417  -0.003250  -0.000367  -0.043750   0.413378  -0.000560
               7          8          9         10         11         12
     1  O   -0.045730   0.003254   0.004688   0.004099   0.000495  -0.000104
     2  C    0.454732  -0.015719  -0.038718  -0.026153  -0.008790   0.007354
     3  O   -0.045231   0.300018   0.005953  -0.000180   0.004724   0.000336
     4  C   -0.074226  -0.016759   0.408849   0.402102  -0.031433  -0.033797
     5  C    0.009096   0.008691  -0.031541  -0.030841   0.403346   0.413138
     6  H   -0.007601  -0.000557  -0.000631  -0.000514  -0.000203   0.000015
     7  H    0.592531   0.008210  -0.003711  -0.001852  -0.000077  -0.000108
     8  H    0.008210   0.347047  -0.000225  -0.000451   0.000325   0.000061
     9  H   -0.003711  -0.000225   0.561909  -0.021770   0.006760  -0.004481
    10  H   -0.001852  -0.000451  -0.021770   0.558631  -0.004199  -0.004641
    11  H   -0.000077   0.000325   0.006760  -0.004199   0.550580  -0.020414
    12  H   -0.000108   0.000061  -0.004481  -0.004641  -0.020414   0.520783
    13  H    0.000430   0.000125  -0.003685   0.006293  -0.027058  -0.021559
              13
     1  O    0.011417
     2  C   -0.003250
     3  O   -0.000367
     4  C   -0.043750
     5  C    0.413378
     6  H   -0.000560
     7  H    0.000430
     8  H    0.000125
     9  H   -0.003685
    10  H    0.006293
    11  H   -0.027058
    12  H   -0.021559
    13  H    0.538307
 Mulliken charges:
               1
     1  O   -0.549408
     2  C    0.211939
     3  O   -0.554360
     4  C   -0.165439
     5  C   -0.431721
     6  H    0.373759
     7  H    0.113536
     8  H    0.365980
     9  H    0.116602
    10  H    0.119475
    11  H    0.125943
    12  H    0.143416
    13  H    0.130278
 Sum of Mulliken charges =  -0.00000
 Mulliken charges with hydrogens summed into heavy atoms:
               1
     1  O   -0.175648
     2  C    0.325475
     3  O   -0.188380
     4  C    0.070637
     5  C   -0.032084
 Electronic spatial extent (au):  <R**2>=            447.0594
 Charge=             -0.0000 electrons
 Dipole moment (field-independent basis, Debye):
    X=             -0.2287    Y=             -0.0027    Z=             -0.0131  Tot=              0.2291
 Quadrupole moment (field-independent basis, Debye-Ang):
   XX=            -28.4628   YY=            -35.5012   ZZ=            -29.3324
   XY=             -3.7519   XZ=             -0.5454   YZ=             -2.1820
 Traceless Quadrupole moment (field-independent basis, Debye-Ang):
   XX=              2.6360   YY=             -4.4024   ZZ=              1.7664
   XY=             -3.7519   XZ=             -0.5454   YZ=             -2.1820
 Octapole moment (field-independent basis, Debye-Ang**2):
  XXX=             16.6146  YYY=              0.6588  ZZZ=             -2.5653  XYY=             -0.6483
  XXY=             -9.7526  XXZ=             -0.7214  XZZ=              4.9809  YZZ=              3.0818
  YYZ=             -3.1913  XYZ=              0.6792
 Hexadecapole moment (field-independent basis, Debye-Ang**3):
 XXXX=           -284.5359 YYYY=           -155.6481 ZZZZ=           -104.0774 XXXY=            -21.8318
 XXXZ=            -10.1665 YYYX=             -7.1562 YYYZ=             -5.3286 ZZZX=             -3.4904
 ZZZY=             -3.7053 XXYY=            -76.7234 XXZZ=            -68.7242 YYZZ=            -36.4504
 XXYZ=              3.7140 YYXZ=             -3.7653 ZZXY=              0.0784
 N-N= 1.970230283860D+02 E-N=-1.025905698084D+03  KE= 2.682745376793D+02
 No NMR shielding tensors so no spin-rotation constants.
 Leave Link  601 at Wed Oct 22 10:14:15 2025, MaxMem=  4294967296 cpu:               1.1 elap:               0.2
 (Enter /lrz/sys/applications/gaussian/g16.C.01/x86_64_legacy/exe/l9999.exe)
 Unable to Open any file for archive entry.
 1\1\GINC-CM4R15C05S03\SP\RwB97XD\def2TZVP\C3H8O2\GO29TIZ2\22-Oct-2025\
 0\\#p wb97xd scrf=(smd,solvent=water) def2tzvp\\g16_g16_C3-w_3\\0,1\O,
 0,0.974465,-1.127636,-0.345001\C,0,0.645393,-0.005621,0.434726\O,0,1.0
 32576,1.187055,-0.202298\C,0,-0.844372,-0.057992,0.744017\C,0,-1.74566
 7,-0.007849,-0.484282\H,0,1.931566,-1.122828,-0.47214\H,0,1.218446,-0.
 015777,1.377993\H,0,0.525441,1.267084,-1.021444\H,0,-1.034364,-0.98045
 1,1.314959\H,0,-1.070694,0.784059,1.416189\H,0,-1.617765,0.932109,-1.0
 45057\H,0,-2.803425,-0.067772,-0.189771\H,0,-1.537651,-0.843002,-1.169
 103\\Version=EM64L-G16RevC.01\State=1-A\HF=-269.6266906\RMSD=4.491e-09
 \Dipole=-0.0899776,-0.0010673,-0.005157\Quadrupole=1.9598037,-3.273076
 6,1.3132729,-2.7894086,-0.4055079,-1.6222779\PG=C01 [X(C3H8O2)]\\@
 The archive entry for this job was punched.


 MANHOOD BEGINS BY TRYING TO SHAVE FACE,
 AND ENDS BY TRYING TO SAVE FACE.
 Job cpu time:       0 days  0 hours  7 minutes 25.2 seconds.
 Elapsed time:       0 days  0 hours  0 minutes 56.0 seconds.
 File lengths (MBytes):  RWF=    272 Int=      0 D2E=      0 Chk=      8 Scr=     32
 Normal termination of Gaussian 16 at Wed Oct 22 10:14:15 2025.
