 Entering Gaussian System, Link 0=g16
 Input=../../g16_g16_C2-a_6.com
 Output=../../g16_g16_C2-a_6.log
 Initial command:
 /lrz/sys/applications/gaussian/g16.C.01/x86_64_legacy/exe/l1.exe "/dss/lxclscratch/0D/go29tiz2/Gau-15029.inp" -scrdir="/dss/lxclscratch/0D/go29tiz2/"
 Entering Link 1 = /lrz/sys/applications/gaussian/g16.C.01/x86_64_legacy/exe/l1.exe PID=     15030.
  
 Copyright (c) 1988-2019, Gaussian, Inc.  All Rights Reserved.
  
 This is part of the Gaussian(R) 16 program.  It is based on
 the Gaussian(R) 09 system (copyright 2009, Gaussian, Inc.),
 the Gaussian(R) 03 system (copyright 2003, Gaussian, Inc.),
 the Gaussian(R) 98 system (copyright 1998, Gaussian, Inc.),
 the Gaussian(R) 94 system (copyright 1995, Gaussian, Inc.),
 the Gaussian 92(TM) system (copyright 1992, Gaussian, Inc.),
 the Gaussian 90(TM) system (copyright 1990, Gaussian, Inc.),
 the Gaussian 88(TM) system (copyright 1988, Gaussian, Inc.),
 the Gaussian 86(TM) system (copyright 1986, Carnegie Mellon
 University), and the Gaussian 82(TM) system (copyright 1983,
 Carnegie Mellon University). Gaussian is a federally registered
 trademark of Gaussian, Inc.
  
 This software contains proprietary and confidential information,
 including trade secrets, belonging to Gaussian, Inc.
  
 This software is provided under written license and may be
 used, copied, transmitted, or stored only in accord with that
 written license.
  
 The following legend is applicable only to US Government
 contracts under FAR:
  
                    RESTRICTED RIGHTS LEGEND
  
 Use, reproduction and disclosure by the US Government is
 subject to restrictions as set forth in subparagraphs (a)
 and (c) of the Commercial Computer Software - Restricted
 Rights clause in FAR 52.227-19.
  
 Gaussian, Inc.
 340 Quinnipiac St., Bldg. 40, Wallingford CT 06492
  
  
 ---------------------------------------------------------------
 Warning -- This program may not be used in any manner that
 competes with the business of Gaussian, Inc. or will provide
 assistance to any competitor of Gaussian, Inc.  The licensee
 of this program is prohibited from giving any competitor of
 Gaussian, Inc. access to this program.  By using this program,
 the user acknowledges that Gaussian, Inc. is engaged in the
 business of creating and licensing software in the field of
 computational chemistry and represents and warrants to the
 licensee that it is not a competitor of Gaussian, Inc. and that
 it will not use this program in any manner prohibited above.
 ---------------------------------------------------------------
  

 Cite this work as:
 Gaussian 16, Revision C.01,
 M. J. Frisch, G. W. Trucks, H. B. Schlegel, G. E. Scuseria, 
 M. A. Robb, J. R. Cheeseman, G. Scalmani, V. Barone, 
 G. A. Petersson, H. Nakatsuji, X. Li, M. Caricato, A. V. Marenich, 
 J. Bloino, B. G. Janesko, R. Gomperts, B. Mennucci, H. P. Hratchian, 
 J. V. Ortiz, A. F. Izmaylov, J. L. Sonnenberg, D. Williams-Young, 
 F. Ding, F. Lipparini, F. Egidi, J. Goings, B. Peng, A. Petrone, 
 T. Henderson, D. Ranasinghe, V. G. Zakrzewski, J. Gao, N. Rega, 
 G. Zheng, W. Liang, M. Hada, M. Ehara, K. Toyota, R. Fukuda, 
 J. Hasegawa, M. Ishida, T. Nakajima, Y. Honda, O. Kitao, H. Nakai, 
 T. Vreven, K. Throssell, J. A. Montgomery, Jr., J. E. Peralta, 
 F. Ogliaro, M. J. Bearpark, J. J. Heyd, E. N. Brothers, K. N. Kudin, 
 V. N. Staroverov, T. A. Keith, R. Kobayashi, J. Normand, 
 K. Raghavachari, A. P. Rendell, J. C. Burant, S. S. Iyengar, 
 J. Tomasi, M. Cossi, J. M. Millam, M. Klene, C. Adamo, R. Cammi, 
 J. W. Ochterski, R. L. Martin, K. Morokuma, O. Farkas, 
 J. B. Foresman, and D. J. Fox, Gaussian, Inc., Wallingford CT, 2019.
 
 ******************************************
 Gaussian 16:  EM64L-G16RevC.01  3-Jul-2019
                22-Oct-2025 
 ******************************************
 %chk=g16_g16_C2-a_6.chk
 %nprocshared=8
 Will use up to    8 processors via shared memory.
 %mem=32GB
 -------------------------------------------
 #p wb97xd scrf=(smd,solvent=water) def2tzvp
 -------------------------------------------
 1/38=1,172=1/1;
 2/12=2,17=6,18=5,40=1/2;
 3/5=44,7=101,11=2,25=1,30=1,70=32201,72=1,74=-58/1,2,3;
 4//1;
 5/5=2,38=5,53=1/2;
 6/7=2,8=2,9=2,10=2,28=1/1;
 99/5=1,9=1/99;
 Leave Link    1 at Wed Oct 22 10:08:04 2025, MaxMem=  4294967296 cpu:               5.5 elap:               0.8
 (Enter /lrz/sys/applications/gaussian/g16.C.01/x86_64_legacy/exe/l101.exe)
 --------------
 g16_g16_C2-a_6
 --------------
 Symbolic Z-matrix:
 Charge =  0 Multiplicity = 1
 O                     1.66097  -0.81128   0.08769 
 C                     0.52083  -0.01002   0.31951 
 N                     0.74085   1.30725  -0.23897 
 C                    -0.73044  -0.65401  -0.26768 
 C                    -2.03578   0.03669   0.10618 
 H                     1.80722  -0.81123  -0.86806 
 H                     0.42078   0.00295   1.42196 
 H                     1.40461   1.81292   0.34647 
 H                    -0.12411   1.84494  -0.20922 
 H                    -0.74768  -1.6972    0.08435 
 H                    -0.61457  -0.68864  -1.36529 
 H                    -2.10822   1.05014  -0.3193 
 H                    -2.89965  -0.53268  -0.26734 
 H                    -2.13972   0.12229   1.19974 
 
 ITRead=  0  0  0  0  0  0  0  0  0  0  0  0  0  0
 MicOpt= -1 -1 -1 -1 -1 -1 -1 -1 -1 -1 -1 -1 -1 -1
 NAtoms=     14 NQM=       14 NQMF=       0 NMMI=      0 NMMIF=      0
                NMic=       0 NMicF=      0.
                    Isotopes and Nuclear Properties:
 (Nuclear quadrupole moments (NQMom) in fm**2, nuclear magnetic moments (NMagM)
  in nuclear magnetons)

  Atom         1           2           3           4           5           6           7           8           9          10
 IAtWgt=          16          12          14          12          12           1           1           1           1           1
 AtmWgt=  15.9949146  12.0000000  14.0030740  12.0000000  12.0000000   1.0078250   1.0078250   1.0078250   1.0078250   1.0078250
 NucSpn=           0           0           2           0           0           1           1           1           1           1
 AtZEff=  -0.0000000  -0.0000000  -0.0000000  -0.0000000  -0.0000000  -0.0000000  -0.0000000  -0.0000000  -0.0000000  -0.0000000
 NQMom=    0.0000000   0.0000000   2.0440000   0.0000000   0.0000000   0.0000000   0.0000000   0.0000000   0.0000000   0.0000000
 NMagM=    0.0000000   0.0000000   0.4037610   0.0000000   0.0000000   2.7928460   2.7928460   2.7928460   2.7928460   2.7928460
 AtZNuc=   8.0000000   6.0000000   7.0000000   6.0000000   6.0000000   1.0000000   1.0000000   1.0000000   1.0000000   1.0000000

  Atom        11          12          13          14
 IAtWgt=           1           1           1           1
 AtmWgt=   1.0078250   1.0078250   1.0078250   1.0078250
 NucSpn=           1           1           1           1
 AtZEff=  -0.0000000  -0.0000000  -0.0000000  -0.0000000
 NQMom=    0.0000000   0.0000000   0.0000000   0.0000000
 NMagM=    2.7928460   2.7928460   2.7928460   2.7928460
 AtZNuc=   1.0000000   1.0000000   1.0000000   1.0000000
 Leave Link  101 at Wed Oct 22 10:08:04 2025, MaxMem=  4294967296 cpu:               1.2 elap:               0.2
 (Enter /lrz/sys/applications/gaussian/g16.C.01/x86_64_legacy/exe/l202.exe)
                          Input orientation:                          
 ---------------------------------------------------------------------
 Center     Atomic      Atomic             Coordinates (Angstroms)
 Number     Number       Type             X           Y           Z
 ---------------------------------------------------------------------
      1          8           0        1.660965   -0.811281    0.087689
      2          6           0        0.520831   -0.010017    0.319506
      3          7           0        0.740852    1.307253   -0.238974
      4          6           0       -0.730441   -0.654005   -0.267683
      5          6           0       -2.035781    0.036686    0.106176
      6          1           0        1.807215   -0.811228   -0.868064
      7          1           0        0.420776    0.002951    1.421962
      8          1           0        1.404614    1.812922    0.346466
      9          1           0       -0.124106    1.844935   -0.209222
     10          1           0       -0.747678   -1.697196    0.084354
     11          1           0       -0.614572   -0.688640   -1.365285
     12          1           0       -2.108218    1.050138   -0.319301
     13          1           0       -2.899654   -0.532684   -0.267343
     14          1           0       -2.139717    0.122294    1.199738
 ---------------------------------------------------------------------
                    Distance matrix (angstroms):
                    1          2          3          4          5
     1  O    0.000000
     2  C    1.412681   0.000000
     3  N    2.332703   1.447587   0.000000
     4  C    2.422777   1.524858   2.451950   0.000000
     5  C    3.792799   2.565922   3.072972   1.523397   0.000000
     6  H    0.966878   1.925369   2.453741   2.612446   4.054222
     7  H    1.995326   1.107063   2.135968   2.147508   2.786952
     8  H    2.649363   2.026057   1.019324   3.319845   3.879313
     9  H    3.214050   2.033800   1.018891   2.572112   2.650234
    10  H    2.566402   2.123908   3.368527   1.101124   2.160100
    11  H    2.702636   2.142006   2.662581   1.104244   2.170514
    12  H    4.223418   2.905839   2.861776   2.192040   1.101527
    13  H    4.582893   3.509600   4.079149   2.172603   1.099989
    14  H    4.068587   2.805500   3.430991   2.177619   1.101821
                    6          7          8          9         10
     6  H    0.000000
     7  H    2.798092   0.000000
     8  H    2.919475   2.323924   0.000000
     9  H    3.349519   2.520032   1.626899   0.000000
    10  H    2.866970   2.458654   4.125772   3.608562   0.000000
    11  H    2.475340   3.052702   3.642117   2.827727   1.770976
    12  H    4.369947   3.244134   3.655827   2.140215   3.092224
    13  H    4.753217   3.763763   4.940177   3.655149   2.471999
    14  H    4.552531   2.572888   4.018529   3.002557   2.548018
                   11         12         13         14
    11  H    0.000000
    12  H    2.519605   0.000000
    13  H    2.539960   1.770423   0.000000
    14  H    3.092414   1.780271   1.777309   0.000000
 Stoichiometry    C3H9NO
 Framework group  C1[X(C3H9NO)]
 Deg. of freedom    36
 Full point group                 C1      NOp   1
 Largest Abelian subgroup         C1      NOp   1
 Largest concise Abelian subgroup C1      NOp   1
                         Standard orientation:                         
 ---------------------------------------------------------------------
 Center     Atomic      Atomic             Coordinates (Angstroms)
 Number     Number       Type             X           Y           Z
 ---------------------------------------------------------------------
      1          8           0        1.660965   -0.811281    0.087689
      2          6           0        0.520831   -0.010017    0.319506
      3          7           0        0.740852    1.307253   -0.238974
      4          6           0       -0.730441   -0.654005   -0.267683
      5          6           0       -2.035781    0.036686    0.106176
      6          1           0        1.807215   -0.811228   -0.868064
      7          1           0        0.420776    0.002951    1.421962
      8          1           0        1.404614    1.812922    0.346466
      9          1           0       -0.124106    1.844935   -0.209222
     10          1           0       -0.747678   -1.697196    0.084354
     11          1           0       -0.614572   -0.688640   -1.365285
     12          1           0       -2.108218    1.050138   -0.319301
     13          1           0       -2.899654   -0.532684   -0.267343
     14          1           0       -2.139717    0.122294    1.199738
 ---------------------------------------------------------------------
 Rotational constants (GHZ):           8.2343681           3.4989092           2.7065507
 Leave Link  202 at Wed Oct 22 10:08:04 2025, MaxMem=  4294967296 cpu:               0.1 elap:               0.0
 (Enter /lrz/sys/applications/gaussian/g16.C.01/x86_64_legacy/exe/l301.exe)
 Standard basis: def2TZVP (5D, 7F)
 Ernie: Thresh=  0.10000D-02 Tol=  0.10000D-05 Strict=F.
 There are   234 symmetry adapted cartesian basis functions of A   symmetry.
 There are   209 symmetry adapted basis functions of A   symmetry.
   209 basis functions,   327 primitive gaussians,   234 cartesian basis functions
    21 alpha electrons       21 beta electrons
       nuclear repulsion energy       194.9780723342 Hartrees.
 IExCor= 4639 DFT=T Ex+Corr=wB97XD ExCW=0 ScaHFX=  1.000000
 ScaDFX=  1.000000  1.000000  1.000000  1.000000 ScalE2=  1.000000  1.000000
 IRadAn=      5 IRanWt=     -1 IRanGd=            0 ICorTp=0 IEmpDi=121
 HFx  wShort=  0.000000 wLong=  0.200000 cFull=  0.222036 cShort=  0.000000 cLong=  0.777964
 DFx  wShort=  0.000000 wLong=  0.200000 cFull=  0.000000 cShort=  0.000000 cLong=  1.000000
 NAtoms=   14 NActive=   14 NUniq=   14 SFac= 1.00D+00 NAtFMM=   60 NAOKFM=F Big=F
 Integral buffers will be    131072 words long.
 Raffenetti 2 integral format.
 Two-electron integral symmetry is turned on.
 R6Disp:  Grimme-D2 Dispersion energy=       -0.0066173157 Hartrees.
 Nuclear repulsion after empirical dispersion term =      194.9714550185 Hartrees.
 ------------------------------------------------------------------------------
 Polarizable Continuum Model (PCM)
 =================================
 Model                : PCM.
 Atomic radii         : SMD-Coulomb.
 Polarization charges : Total charges.
 Charge compensation  : None.
 Solution method      : On-the-fly selection.
 Cavity type          : VdW (van der Waals Surface) (Alpha=1.000).
 Cavity algorithm     : GePol (No added spheres)
                        Default sphere list used, NSphG=   14.
                        Lebedev-Laikov grids with approx.  5.0 points / Ang**2.
                        Smoothing algorithm: York/Karplus (Gamma=1.0000).
                        Polarization charges: spherical gaussians, with
                                              point-specific exponents (IZeta= 3).
                        Self-potential: point-specific (ISelfS= 7).
                        Self-field    : sphere-specific E.n sum rule (ISelfD= 2).
 Solvent              : Water, Eps=  78.355300 Eps(inf)=   1.777849
 ------------------------------------------------------------------------------
 Spheres list:
 ISph  on   Nord     Re0    Alpha      Xe            Ye            Ze
    1   O      1    1.5200  1.000      1.660965     -0.811281      0.087689
    2   C      2    1.8500  1.000      0.520831     -0.010017      0.319506
    3   N      3    1.8900  1.000      0.740852      1.307253     -0.238974
    4   C      4    1.8500  1.000     -0.730441     -0.654005     -0.267683
    5   C      5    1.8500  1.000     -2.035781      0.036686      0.106176
    6   H      6    1.2000  1.000      1.807215     -0.811228     -0.868064
    7   H      7    1.2000  1.000      0.420776      0.002951      1.421962
    8   H      8    1.2000  1.000      1.404614      1.812922      0.346466
    9   H      9    1.2000  1.000     -0.124106      1.844935     -0.209222
   10   H     10    1.2000  1.000     -0.747678     -1.697196      0.084354
   11   H     11    1.2000  1.000     -0.614572     -0.688640     -1.365285
   12   H     12    1.2000  1.000     -2.108218      1.050138     -0.319301
   13   H     13    1.2000  1.000     -2.899654     -0.532684     -0.267343
   14   H     14    1.2000  1.000     -2.139717      0.122294      1.199738
 ------------------------------------------------------------------------------
 GePol: Number of generator spheres                  =      14
 GePol: Total number of spheres                      =      14
 GePol: Number of exposed spheres                    =      14 (100.00%)
 GePol: Number of points                             =     986
 GePol: Average weight of points                     =       0.12
 GePol: Minimum weight of points                     =   0.17D-09
 GePol: Maximum weight of points                     =    0.21991
 GePol: Number of points with low weight             =      51
 GePol: Fraction of low-weight points (<1% of avg)   =       5.17%
 GePol: Cavity surface area                          =    116.875 Ang**2
 GePol: Cavity volume                                =     90.404 Ang**3
 ------------------------------------------------------------------------------
 Atomic radii for non-electrostatic terms: SMD-CDS.
 ------------------------------------------------------------------------------
 PCM non-electrostatic energy =         0.0026835191 Hartrees.
 Nuclear repulsion after PCM non-electrostatic terms =      194.9741385376 Hartrees.
 Leave Link  301 at Wed Oct 22 10:08:04 2025, MaxMem=  4294967296 cpu:               0.7 elap:               0.1
 (Enter /lrz/sys/applications/gaussian/g16.C.01/x86_64_legacy/exe/l302.exe)
 NPDir=0 NMtPBC=     1 NCelOv=     1 NCel=       1 NClECP=     1 NCelD=      1
         NCelK=      1 NCelE2=     1 NClLst=     1 CellRange=     0.0.
 One-electron integrals computed using PRISM.
 One-electron integral symmetry used in STVInt
   1 Symmetry operations used in ECPInt.
 ECPInt:  NShTT=    4186 NPrTT=   12072 LenC2=    4157 LenP2D=   10144.
 LDataN:  DoStor=T MaxTD1= 6 Len=  172
 NBasis=   209 RedAO= T EigKep=  2.72D-04  NBF=   209
 NBsUse=   209 1.00D-06 EigRej= -1.00D+00 NBFU=   209
 Precomputing XC quadrature grid using
 IXCGrd= 4 IRadAn=           5 IRanWt=          -1 IRanGd=           0 AccXCQ= 0.00D+00.
 Generated NRdTot=       0 NPtTot=           0 NUsed=           0 NTot=          32
 NSgBfM=   234   234   234   234   234 MxSgAt=    14 MxSgA2=    14.
 Leave Link  302 at Wed Oct 22 10:08:04 2025, MaxMem=  4294967296 cpu:               2.0 elap:               0.3
 (Enter /lrz/sys/applications/gaussian/g16.C.01/x86_64_legacy/exe/l303.exe)
 DipDrv:  MaxL=1.
 Leave Link  303 at Wed Oct 22 10:08:04 2025, MaxMem=  4294967296 cpu:               0.4 elap:               0.1
 (Enter /lrz/sys/applications/gaussian/g16.C.01/x86_64_legacy/exe/l401.exe)
 ExpMin= 9.52D-02 ExpMax= 2.70D+04 ExpMxC= 9.22D+02 IAcc=3 IRadAn=         5 AccDes= 0.00D+00
 Harris functional with IExCor= 4639 and IRadAn=       5 diagonalized for initial guess.
 HarFok:  IExCor= 4639 AccDes= 0.00D+00 IRadAn=         5 IDoV= 1 UseB2=F ITyADJ=14
 ICtDFT=  3500011 ScaDFX=  1.000000  1.000000  1.000000  1.000000
 FoFCou: FMM=F IPFlag=           0 FMFlag=      100000 FMFlg1=           0
         NFxFlg=           0 DoJE=T BraDBF=F KetDBF=T FulRan=T
         wScrn=  0.000000 ICntrl=       500 IOpCl=  0 I1Cent=   200000004 NGrid=           0
         NMat0=    1 NMatS0=      1 NMatT0=    0 NMatD0=    1 NMtDS0=    0 NMtDT0=    0
 Petite list used in FoFCou.
 Harris En= -238.840478326628    
 JPrj=0 DoOrth=F DoCkMO=F.
 Leave Link  401 at Wed Oct 22 10:08:06 2025, MaxMem=  4294967296 cpu:              10.9 elap:               1.4
 (Enter /lrz/sys/applications/gaussian/g16.C.01/x86_64_legacy/exe/l502.exe)
 Integral symmetry usage will be decided dynamically.
 Closed shell SCF:
 Using DIIS extrapolation, IDIIS=  1040.
 NGot=  4294967296 LenX=  4294853286 LenY=  4294798089
 Requested convergence on RMS density matrix=1.00D-08 within 128 cycles.
 Requested convergence on MAX density matrix=1.00D-06.
 Requested convergence on             energy=1.00D-06.
 No special actions if energy rises.
 Fock matrices will be formed incrementally for  20 cycles.

 Cycle   1  Pass 1  IDiag  1:
 FoFJK:  IHMeth= 1 ICntrl=       0 DoSepK=T KAlg= 0 I1Cent=           0 FoldK=F
 IRaf=         1 NMat=       1 IRICut=       1 DoRegI=T DoRafI=F ISym2E= 0 IDoP0=0 IntGTp=1.
 FoFCou: FMM=F IPFlag=           0 FMFlag=      100000 FMFlg1=           0
         NFxFlg=           0 DoJE=T BraDBF=F KetDBF=F FulRan=T
         wScrn=  0.000000 ICntrl=       500 IOpCl=  0 I1Cent=           0 NGrid=           0
         NMat0=    1 NMatS0=      1 NMatT0=    0 NMatD0=    1 NMtDS0=    0 NMtDT0=    0
 Symmetry not used in FoFCou.
 Inv3:  Mode=1 IEnd=     2916588.
 Iteration    1 A*A^-1 deviation from unit magnitude is 4.55D-15 for    803.
 Iteration    1 A*A^-1 deviation from orthogonality  is 3.34D-15 for    536    116.
 Iteration    1 A^-1*A deviation from unit magnitude is 4.66D-15 for    892.
 Iteration    1 A^-1*A deviation from orthogonality  is 1.93D-15 for    873    303.
 E= -249.685454694271    
 DIIS: error= 4.27D-02 at cycle   1 NSaved=   1.
 NSaved= 1 IEnMin= 1 EnMin= -249.685454694271     IErMin= 1 ErrMin= 4.27D-02
 ErrMax= 4.27D-02  0.00D+00 EMaxC= 1.00D-01 BMatC= 5.26D-01 BMatP= 5.26D-01
 IDIUse=3 WtCom= 5.73D-01 WtEn= 4.27D-01
 Coeff-Com:  0.100D+01
 Coeff-En:   0.100D+01
 Coeff:      0.100D+01
 Gap=     0.488 Goal=   None    Shift=    0.000
 GapD=    0.488 DampG=2.000 DampE=0.500 DampFc=1.0000 IDamp=-1.
 RMSDP=1.88D-03 MaxDP=4.52D-02              OVMax= 5.53D-02

 Cycle   2  Pass 1  IDiag  1:
 RMSU=  1.83D-03    CP:  9.60D-01
 E= -249.729376290590     Delta-E=       -0.043921596319 Rises=F Damp=F
 DIIS: error= 8.13D-03 at cycle   2 NSaved=   2.
 NSaved= 2 IEnMin= 2 EnMin= -249.729376290590     IErMin= 2 ErrMin= 8.13D-03
 ErrMax= 8.13D-03  0.00D+00 EMaxC= 1.00D-01 BMatC= 3.02D-02 BMatP= 5.26D-01
 IDIUse=3 WtCom= 9.19D-01 WtEn= 8.13D-02
 Coeff-Com:  0.126D+00 0.874D+00
 Coeff-En:   0.000D+00 0.100D+01
 Coeff:      0.116D+00 0.884D+00
 Gap=     0.458 Goal=   None    Shift=    0.000
 RMSDP=7.54D-04 MaxDP=2.83D-02 DE=-4.39D-02 OVMax= 4.57D-02

 Cycle   3  Pass 1  IDiag  1:
 RMSU=  6.23D-04    CP:  9.66D-01  7.71D-01
 E= -249.737430863790     Delta-E=       -0.008054573200 Rises=F Damp=F
 DIIS: error= 6.74D-03 at cycle   3 NSaved=   3.
 NSaved= 3 IEnMin= 3 EnMin= -249.737430863790     IErMin= 3 ErrMin= 6.74D-03
 ErrMax= 6.74D-03  0.00D+00 EMaxC= 1.00D-01 BMatC= 1.89D-02 BMatP= 3.02D-02
 IDIUse=3 WtCom= 9.33D-01 WtEn= 6.74D-02
 Coeff-Com:  0.241D-01 0.449D+00 0.527D+00
 Coeff-En:   0.000D+00 0.379D+00 0.621D+00
 Coeff:      0.225D-01 0.444D+00 0.534D+00
 Gap=     0.470 Goal=   None    Shift=    0.000
 RMSDP=4.25D-04 MaxDP=1.45D-02 DE=-8.05D-03 OVMax= 2.50D-02

 Cycle   4  Pass 1  IDiag  1:
 RMSU=  1.53D-04    CP:  9.60D-01  9.46D-01  6.46D-01
 E= -249.750415615049     Delta-E=       -0.012984751259 Rises=F Damp=F
 DIIS: error= 6.42D-04 at cycle   4 NSaved=   4.
 NSaved= 4 IEnMin= 4 EnMin= -249.750415615049     IErMin= 4 ErrMin= 6.42D-04
 ErrMax= 6.42D-04  0.00D+00 EMaxC= 1.00D-01 BMatC= 1.79D-04 BMatP= 1.89D-02
 IDIUse=3 WtCom= 9.94D-01 WtEn= 6.42D-03
 Coeff-Com:  0.844D-02 0.164D+00 0.218D+00 0.610D+00
 Coeff-En:   0.000D+00 0.000D+00 0.000D+00 0.100D+01
 Coeff:      0.838D-02 0.163D+00 0.216D+00 0.612D+00
 Gap=     0.457 Goal=   None    Shift=    0.000
 RMSDP=4.55D-05 MaxDP=1.30D-03 DE=-1.30D-02 OVMax= 1.99D-03

 Cycle   5  Pass 1  IDiag  1:
 RMSU=  3.81D-05    CP:  9.59D-01  9.57D-01  6.70D-01  9.96D-01
 E= -249.750542518718     Delta-E=       -0.000126903669 Rises=F Damp=F
 DIIS: error= 1.30D-04 at cycle   5 NSaved=   5.
 NSaved= 5 IEnMin= 5 EnMin= -249.750542518718     IErMin= 5 ErrMin= 1.30D-04
 ErrMax= 1.30D-04  0.00D+00 EMaxC= 1.00D-01 BMatC= 7.69D-06 BMatP= 1.79D-04
 IDIUse=3 WtCom= 9.99D-01 WtEn= 1.30D-03
 Coeff-Com: -0.201D-02-0.350D-01-0.333D-01 0.115D+00 0.955D+00
 Coeff-En:   0.000D+00 0.000D+00 0.000D+00 0.000D+00 0.100D+01
 Coeff:     -0.201D-02-0.350D-01-0.333D-01 0.115D+00 0.955D+00
 Gap=     0.456 Goal=   None    Shift=    0.000
 RMSDP=3.82D-05 MaxDP=9.99D-04 DE=-1.27D-04 OVMax= 9.81D-04

 Cycle   6  Pass 1  IDiag  1:
 RMSU=  1.08D-05    CP:  9.58D-01  9.69D-01  6.92D-01  1.15D+00  1.20D+00
 E= -249.750552493011     Delta-E=       -0.000009974293 Rises=F Damp=F
 DIIS: error= 2.77D-05 at cycle   6 NSaved=   6.
 NSaved= 6 IEnMin= 6 EnMin= -249.750552493011     IErMin= 6 ErrMin= 2.77D-05
 ErrMax= 2.77D-05  0.00D+00 EMaxC= 1.00D-01 BMatC= 2.27D-07 BMatP= 7.69D-06
 IDIUse=1 WtCom= 1.00D+00 WtEn= 0.00D+00
 Coeff-Com: -0.571D-03-0.961D-02-0.108D-01 0.292D-02 0.122D+00 0.896D+00
 Coeff:     -0.571D-03-0.961D-02-0.108D-01 0.292D-02 0.122D+00 0.896D+00
 Gap=     0.457 Goal=   None    Shift=    0.000
 RMSDP=8.60D-06 MaxDP=1.93D-04 DE=-9.97D-06 OVMax= 3.37D-04

 Cycle   7  Pass 1  IDiag  1:
 RMSU=  2.75D-06    CP:  9.58D-01  9.71D-01  6.96D-01  1.18D+00  1.29D+00
                    CP:  1.22D+00
 E= -249.750552824634     Delta-E=       -0.000000331623 Rises=F Damp=F
 DIIS: error= 1.71D-05 at cycle   7 NSaved=   7.
 NSaved= 7 IEnMin= 7 EnMin= -249.750552824634     IErMin= 7 ErrMin= 1.71D-05
 ErrMax= 1.71D-05  0.00D+00 EMaxC= 1.00D-01 BMatC= 8.37D-08 BMatP= 2.27D-07
 IDIUse=1 WtCom= 1.00D+00 WtEn= 0.00D+00
 Coeff-Com: -0.178D-05-0.373D-03-0.120D-02-0.124D-01-0.628D-01 0.375D+00
 Coeff-Com:  0.701D+00
 Coeff:     -0.178D-05-0.373D-03-0.120D-02-0.124D-01-0.628D-01 0.375D+00
 Coeff:      0.701D+00
 Gap=     0.456 Goal=   None    Shift=    0.000
 RMSDP=2.87D-06 MaxDP=7.75D-05 DE=-3.32D-07 OVMax= 1.03D-04

 Cycle   8  Pass 1  IDiag  1:
 RMSU=  1.01D-06    CP:  9.58D-01  9.71D-01  6.97D-01  1.19D+00  1.32D+00
                    CP:  1.36D+00  1.12D+00
 E= -249.750552910368     Delta-E=       -0.000000085734 Rises=F Damp=F
 DIIS: error= 3.44D-06 at cycle   8 NSaved=   8.
 NSaved= 8 IEnMin= 8 EnMin= -249.750552910368     IErMin= 8 ErrMin= 3.44D-06
 ErrMax= 3.44D-06  0.00D+00 EMaxC= 1.00D-01 BMatC= 2.77D-09 BMatP= 8.37D-08
 IDIUse=1 WtCom= 1.00D+00 WtEn= 0.00D+00
 Coeff-Com:  0.429D-04 0.723D-03 0.783D-03-0.162D-02-0.177D-01-0.246D-01
 Coeff-Com:  0.103D+00 0.940D+00
 Coeff:      0.429D-04 0.723D-03 0.783D-03-0.162D-02-0.177D-01-0.246D-01
 Coeff:      0.103D+00 0.940D+00
 Gap=     0.457 Goal=   None    Shift=    0.000
 RMSDP=9.76D-07 MaxDP=2.03D-05 DE=-8.57D-08 OVMax= 4.37D-05

 Cycle   9  Pass 1  IDiag  1:
 RMSU=  2.26D-07    CP:  9.58D-01  9.71D-01  6.97D-01  1.20D+00  1.33D+00
                    CP:  1.41D+00  1.29D+00  1.23D+00
 E= -249.750552915480     Delta-E=       -0.000000005111 Rises=F Damp=F
 DIIS: error= 9.87D-07 at cycle   9 NSaved=   9.
 NSaved= 9 IEnMin= 9 EnMin= -249.750552915480     IErMin= 9 ErrMin= 9.87D-07
 ErrMax= 9.87D-07  0.00D+00 EMaxC= 1.00D-01 BMatC= 3.12D-10 BMatP= 2.77D-09
 IDIUse=1 WtCom= 1.00D+00 WtEn= 0.00D+00
 Coeff-Com:  0.973D-05 0.226D-03 0.322D-03 0.523D-03 0.394D-03-0.349D-01
 Coeff-Com: -0.340D-01 0.220D+00 0.848D+00
 Coeff:      0.973D-05 0.226D-03 0.322D-03 0.523D-03 0.394D-03-0.349D-01
 Coeff:     -0.340D-01 0.220D+00 0.848D+00
 Gap=     0.457 Goal=   None    Shift=    0.000
 RMSDP=2.65D-07 MaxDP=6.68D-06 DE=-5.11D-09 OVMax= 1.17D-05

 Cycle  10  Pass 1  IDiag  1:
 RMSU=  8.69D-08    CP:  9.58D-01  9.71D-01  6.97D-01  1.20D+00  1.33D+00
                    CP:  1.42D+00  1.34D+00  1.34D+00  1.25D+00
 E= -249.750552916000     Delta-E=       -0.000000000520 Rises=F Damp=F
 DIIS: error= 4.72D-07 at cycle  10 NSaved=  10.
 NSaved=10 IEnMin=10 EnMin= -249.750552916000     IErMin=10 ErrMin= 4.72D-07
 ErrMax= 4.72D-07  0.00D+00 EMaxC= 1.00D-01 BMatC= 3.72D-11 BMatP= 3.12D-10
 IDIUse=1 WtCom= 1.00D+00 WtEn= 0.00D+00
 Coeff-Com: -0.245D-05-0.339D-04-0.129D-04 0.391D-03 0.265D-02-0.796D-02
 Coeff-Com: -0.251D-01-0.491D-01 0.237D+00 0.842D+00
 Coeff:     -0.245D-05-0.339D-04-0.129D-04 0.391D-03 0.265D-02-0.796D-02
 Coeff:     -0.251D-01-0.491D-01 0.237D+00 0.842D+00
 Gap=     0.457 Goal=   None    Shift=    0.000
 RMSDP=8.80D-08 MaxDP=2.15D-06 DE=-5.20D-10 OVMax= 4.09D-06

 Cycle  11  Pass 1  IDiag  1:
 RMSU=  2.51D-08    CP:  9.58D-01  9.71D-01  6.97D-01  1.20D+00  1.33D+00
                    CP:  1.43D+00  1.35D+00  1.37D+00  1.44D+00  1.18D+00
 E= -249.750552916057     Delta-E=       -0.000000000058 Rises=F Damp=F
 DIIS: error= 5.82D-08 at cycle  11 NSaved=  11.
 NSaved=11 IEnMin=11 EnMin= -249.750552916057     IErMin=11 ErrMin= 5.82D-08
 ErrMax= 5.82D-08  0.00D+00 EMaxC= 1.00D-01 BMatC= 9.00D-13 BMatP= 3.72D-11
 IDIUse=1 WtCom= 1.00D+00 WtEn= 0.00D+00
 Coeff-Com: -0.242D-06-0.762D-05-0.146D-04-0.405D-04-0.195D-03 0.217D-02
 Coeff-Com:  0.321D-02-0.930D-02-0.617D-01-0.160D-01 0.108D+01
 Coeff:     -0.242D-06-0.762D-05-0.146D-04-0.405D-04-0.195D-03 0.217D-02
 Coeff:      0.321D-02-0.930D-02-0.617D-01-0.160D-01 0.108D+01
 Gap=     0.457 Goal=   None    Shift=    0.000
 RMSDP=2.28D-08 MaxDP=6.03D-07 DE=-5.78D-11 OVMax= 8.87D-07

 Cycle  12  Pass 1  IDiag  1:
 RMSU=  5.95D-09    CP:  9.58D-01  9.71D-01  6.97D-01  1.20D+00  1.33D+00
                    CP:  1.43D+00  1.35D+00  1.38D+00  1.50D+00  1.33D+00
                    CP:  1.36D+00
 E= -249.750552916057     Delta-E=        0.000000000001 Rises=F Damp=F
 DIIS: error= 1.28D-08 at cycle  12 NSaved=  12.
 NSaved=12 IEnMin=11 EnMin= -249.750552916057     IErMin=12 ErrMin= 1.28D-08
 ErrMax= 1.28D-08  0.00D+00 EMaxC= 1.00D-01 BMatC= 4.37D-14 BMatP= 9.00D-13
 IDIUse=1 WtCom= 1.00D+00 WtEn= 0.00D+00
 Coeff-Com:  0.640D-07 0.311D-06-0.140D-05-0.223D-04-0.138D-03 0.621D-03
 Coeff-Com:  0.159D-02 0.117D-02-0.164D-01-0.423D-01 0.110D+00 0.945D+00
 Coeff:      0.640D-07 0.311D-06-0.140D-05-0.223D-04-0.138D-03 0.621D-03
 Coeff:      0.159D-02 0.117D-02-0.164D-01-0.423D-01 0.110D+00 0.945D+00
 Gap=     0.457 Goal=   None    Shift=    0.000
 RMSDP=4.98D-09 MaxDP=1.21D-07 DE= 7.39D-13 OVMax= 1.39D-07

 Error on total polarization charges =  0.04034
 SCF Done:  E(RwB97XD) =  -249.750552916     A.U. after   12 cycles
            NFock= 12  Conv=0.50D-08     -V/T= 2.0053
 KE= 2.484218680370D+02 PE=-9.731218997452D+02 EE= 2.799753402546D+02
 SMD-CDS (non-electrostatic) energy       (kcal/mol) =       1.68
 (included in total energy above)
 Leave Link  502 at Wed Oct 22 10:09:05 2025, MaxMem=  4294967296 cpu:             470.3 elap:              58.9
 (Enter /lrz/sys/applications/gaussian/g16.C.01/x86_64_legacy/exe/l601.exe)
 Copying SCF densities to generalized density rwf, IOpCl= 0 IROHF=0.

 **********************************************************************

            Population analysis using the SCF Density.

 **********************************************************************

 Orbital symmetries:
       Occupied  (A) (A) (A) (A) (A) (A) (A) (A) (A) (A) (A) (A)
                 (A) (A) (A) (A) (A) (A) (A) (A) (A)
       Virtual   (A) (A) (A) (A) (A) (A) (A) (A) (A) (A) (A) (A)
                 (A) (A) (A) (A) (A) (A) (A) (A) (A) (A) (A) (A)
                 (A) (A) (A) (A) (A) (A) (A) (A) (A) (A) (A) (A)
                 (A) (A) (A) (A) (A) (A) (A) (A) (A) (A) (A) (A)
                 (A) (A) (A) (A) (A) (A) (A) (A) (A) (A) (A) (A)
                 (A) (A) (A) (A) (A) (A) (A) (A) (A) (A) (A) (A)
                 (A) (A) (A) (A) (A) (A) (A) (A) (A) (A) (A) (A)
                 (A) (A) (A) (A) (A) (A) (A) (A) (A) (A) (A) (A)
                 (A) (A) (A) (A) (A) (A) (A) (A) (A) (A) (A) (A)
                 (A) (A) (A) (A) (A) (A) (A) (A) (A) (A) (A) (A)
                 (A) (A) (A) (A) (A) (A) (A) (A) (A) (A) (A) (A)
                 (A) (A) (A) (A) (A) (A) (A) (A) (A) (A) (A) (A)
                 (A) (A) (A) (A) (A) (A) (A) (A) (A) (A) (A) (A)
                 (A) (A) (A) (A) (A) (A) (A) (A) (A) (A) (A) (A)
                 (A) (A) (A) (A) (A) (A) (A) (A) (A) (A) (A) (A)
                 (A) (A) (A) (A) (A) (A) (A) (A)
 The electronic state is 1-A.
 Alpha  occ. eigenvalues --  -19.24879 -14.41080 -10.35137 -10.27199 -10.26815
 Alpha  occ. eigenvalues --   -1.13403  -0.97309  -0.86002  -0.75212  -0.68196
 Alpha  occ. eigenvalues --   -0.60069  -0.57405  -0.54743  -0.51292  -0.49138
 Alpha  occ. eigenvalues --   -0.46943  -0.43631  -0.42259  -0.41224  -0.37253
 Alpha  occ. eigenvalues --   -0.33654
 Alpha virt. eigenvalues --    0.11996   0.14265   0.15351   0.16297   0.18449
 Alpha virt. eigenvalues --    0.20004   0.20495   0.22001   0.22772   0.26564
 Alpha virt. eigenvalues --    0.27267   0.29111   0.30536   0.31658   0.33139
 Alpha virt. eigenvalues --    0.34350   0.38822   0.39253   0.39682   0.42290
 Alpha virt. eigenvalues --    0.45363   0.46027   0.47843   0.49091   0.49633
 Alpha virt. eigenvalues --    0.50716   0.51723   0.53828   0.54999   0.56086
 Alpha virt. eigenvalues --    0.56905   0.57820   0.59877   0.61522   0.62920
 Alpha virt. eigenvalues --    0.65366   0.66635   0.67865   0.69924   0.75926
 Alpha virt. eigenvalues --    0.81539   0.84933   0.85945   0.90058   0.91816
 Alpha virt. eigenvalues --    0.94103   0.95079   1.02935   1.06575   1.10877
 Alpha virt. eigenvalues --    1.11189   1.16572   1.18963   1.20004   1.22379
 Alpha virt. eigenvalues --    1.24260   1.30933   1.35773   1.41312   1.42723
 Alpha virt. eigenvalues --    1.46585   1.50389   1.52875   1.58802   1.59592
 Alpha virt. eigenvalues --    1.63561   1.63689   1.65528   1.66952   1.70193
 Alpha virt. eigenvalues --    1.71432   1.75929   1.77749   1.82401   1.83104
 Alpha virt. eigenvalues --    1.87758   1.89433   1.92835   1.94030   1.98604
 Alpha virt. eigenvalues --    1.99640   2.02907   2.06560   2.09030   2.11193
 Alpha virt. eigenvalues --    2.12407   2.17295   2.19766   2.20774   2.23660
 Alpha virt. eigenvalues --    2.29691   2.31659   2.35289   2.37759   2.40474
 Alpha virt. eigenvalues --    2.42079   2.47049   2.48497   2.51216   2.54214
 Alpha virt. eigenvalues --    2.55950   2.58615   2.61866   2.64428   2.65685
 Alpha virt. eigenvalues --    2.68658   2.69179   2.74011   2.74888   2.76241
 Alpha virt. eigenvalues --    2.81929   2.83547   2.84977   2.88078   2.90047
 Alpha virt. eigenvalues --    2.93041   3.01356   3.06227   3.10594   3.12510
 Alpha virt. eigenvalues --    3.18191   3.19863   3.21315   3.23131   3.26365
 Alpha virt. eigenvalues --    3.28907   3.32556   3.35772   3.38234   3.39750
 Alpha virt. eigenvalues --    3.43152   3.45947   3.48823   3.49741   3.51591
 Alpha virt. eigenvalues --    3.58292   3.62543   3.66296   3.67244   3.72446
 Alpha virt. eigenvalues --    3.80203   3.86807   3.88551   3.96633   3.98515
 Alpha virt. eigenvalues --    4.02228   4.10190   4.11546   4.15885   4.20421
 Alpha virt. eigenvalues --    4.32042   4.39867   4.43916   4.44236   4.49758
 Alpha virt. eigenvalues --    4.58534   4.62548   4.65338   4.69672   4.77813
 Alpha virt. eigenvalues --    4.87195   4.89725   4.94961   4.98499   5.02106
 Alpha virt. eigenvalues --    5.17128   5.26508   5.30133   5.36070   5.41749
 Alpha virt. eigenvalues --    5.48826   5.56409   5.66152   5.80812   5.85667
 Alpha virt. eigenvalues --    5.95723   6.11707   6.39158   6.57345   6.81004
 Alpha virt. eigenvalues --    6.94209   7.07182   7.24949  22.40459  22.55800
 Alpha virt. eigenvalues --   22.69998  32.07887  43.96268
          Condensed to atoms (all electrons):
               1          2          3          4          5          6
     1  O    8.153010   0.269865  -0.078215  -0.054152   0.011022   0.296267
     2  C    0.269865   4.683319   0.251634   0.371586  -0.059382  -0.022145
     3  N   -0.078215   0.251634   6.796989  -0.061693   0.021939   0.007223
     4  C   -0.054152   0.371586  -0.061693   5.025788   0.266692  -0.012421
     5  C    0.011022  -0.059382   0.021939   0.266692   5.027764  -0.000620
     6  H    0.296267  -0.022145   0.007223  -0.012421  -0.000620   0.358220
     7  H   -0.041726   0.439495  -0.059967  -0.051240  -0.012888   0.010583
     8  H    0.004919  -0.022519   0.356104   0.007181  -0.000545  -0.001796
     9  H    0.005279  -0.020793   0.364738  -0.009992  -0.000364  -0.000061
    10  H    0.004490  -0.054418   0.008847   0.414984  -0.020025   0.000244
    11  H   -0.001358  -0.025109   0.001390   0.397209  -0.036311   0.006273
    12  H   -0.000072  -0.013182   0.000073  -0.026426   0.408679   0.000133
    13  H   -0.000326   0.009465  -0.000266  -0.029609   0.405822  -0.000060
    14  H   -0.000042   0.003659  -0.001901  -0.042197   0.405654   0.000063
               7          8          9         10         11         12
     1  O   -0.041726   0.004919   0.005279   0.004490  -0.001358  -0.000072
     2  C    0.439495  -0.022519  -0.020793  -0.054418  -0.025109  -0.013182
     3  N   -0.059967   0.356104   0.364738   0.008847   0.001390   0.000073
     4  C   -0.051240   0.007181  -0.009992   0.414984   0.397209  -0.026426
     5  C   -0.012888  -0.000545  -0.000364  -0.020025  -0.036311   0.408679
     6  H    0.010583  -0.001796  -0.000061   0.000244   0.006273   0.000133
     7  H    0.605813  -0.008851   0.001747  -0.002975   0.009088   0.001481
     8  H   -0.008851   0.428150  -0.023029  -0.000570  -0.000512  -0.000269
     9  H    0.001747  -0.023029   0.421574  -0.000013   0.000292   0.000959
    10  H   -0.002975  -0.000570  -0.000013   0.568669  -0.026943   0.005979
    11  H    0.009088  -0.000512   0.000292  -0.026943   0.572530  -0.003977
    12  H    0.001481  -0.000269   0.000959   0.005979  -0.003977   0.546658
    13  H   -0.000655   0.000047   0.000207  -0.006604  -0.004675  -0.021775
    14  H    0.004630  -0.000114   0.000024  -0.004208   0.006882  -0.027494
              13         14
     1  O   -0.000326  -0.000042
     2  C    0.009465   0.003659
     3  N   -0.000266  -0.001901
     4  C   -0.029609  -0.042197
     5  C    0.405822   0.405654
     6  H   -0.000060   0.000063
     7  H   -0.000655   0.004630
     8  H    0.000047  -0.000114
     9  H    0.000207   0.000024
    10  H   -0.006604  -0.004208
    11  H   -0.004675   0.006882
    12  H   -0.021775  -0.027494
    13  H    0.530445  -0.022090
    14  H   -0.022090   0.548529
 Mulliken charges:
               1
     1  O   -0.568960
     2  C    0.188525
     3  N   -0.606894
     4  C   -0.195711
     5  C   -0.417439
     6  H    0.358098
     7  H    0.105466
     8  H    0.261806
     9  H    0.259432
    10  H    0.112544
    11  H    0.105222
    12  H    0.129232
    13  H    0.140074
    14  H    0.128604
 Sum of Mulliken charges =  -0.00000
 Mulliken charges with hydrogens summed into heavy atoms:
               1
     1  O   -0.210862
     2  C    0.293991
     3  N   -0.085656
     4  C    0.022055
     5  C   -0.019529
 Electronic spatial extent (au):  <R**2>=            498.8792
 Charge=             -0.0000 electrons
 Dipole moment (field-independent basis, Debye):
    X=             -2.0389    Y=              1.4386    Z=              0.0796  Tot=              2.4966
 Quadrupole moment (field-independent basis, Debye-Ang):
   XX=            -34.8350   YY=            -31.2193   ZZ=            -31.8898
   XY=              1.5629   XZ=             -1.1549   YZ=              3.8689
 Traceless Quadrupole moment (field-independent basis, Debye-Ang):
   XX=             -2.1870   YY=              1.4287   ZZ=              0.7582
   XY=              1.5629   XZ=             -1.1549   YZ=              3.8689
 Octapole moment (field-independent basis, Debye-Ang**2):
  XXX=              2.8771  YYY=              9.1959  ZZZ=              1.2392  XYY=              0.3445
  XXY=              3.2884  XXZ=             -5.0165  XZZ=              4.0202  YZZ=             -3.2207
  YYZ=              1.7176  XYZ=              6.7731
 Hexadecapole moment (field-independent basis, Debye-Ang**3):
 XXXX=           -412.1225 YYYY=           -158.3262 ZZZZ=            -66.5117 XXXY=              8.7194
 XXXZ=             -7.8898 YYYX=              2.9431 YYYZ=              6.2960 ZZZX=             -2.3397
 ZZZY=              5.6732 XXYY=            -93.7362 XXZZ=            -74.7952 YYZZ=            -42.9406
 XXYZ=             11.4663 YYXZ=              3.0429 ZZXY=             -4.8893
 N-N= 1.949741385376D+02 E-N=-9.731218990990D+02  KE= 2.484218680370D+02
 No NMR shielding tensors so no spin-rotation constants.
 Leave Link  601 at Wed Oct 22 10:09:05 2025, MaxMem=  4294967296 cpu:               1.1 elap:               0.2
 (Enter /lrz/sys/applications/gaussian/g16.C.01/x86_64_legacy/exe/l9999.exe)
 Unable to Open any file for archive entry.
 1\1\GINC-CM4R15C05S03\SP\RwB97XD\def2TZVP\C3H9N1O1\GO29TIZ2\22-Oct-202
 5\0\\#p wb97xd scrf=(smd,solvent=water) def2tzvp\\g16_g16_C2-a_6\\0,1\
 O,0,1.660965,-0.811281,0.087689\C,0,0.520831,-0.010017,0.319506\N,0,0.
 740852,1.307253,-0.238974\C,0,-0.730441,-0.654005,-0.267683\C,0,-2.035
 781,0.036686,0.106176\H,0,1.807215,-0.811228,-0.868064\H,0,0.420776,0.
 002951,1.421962\H,0,1.404614,1.812922,0.346466\H,0,-0.124106,1.844935,
 -0.209222\H,0,-0.747678,-1.697196,0.084354\H,0,-0.614572,-0.68864,-1.3
 65285\H,0,-2.108218,1.050138,-0.319301\H,0,-2.899654,-0.532684,-0.2673
 43\H,0,-2.139717,0.122294,1.199738\\Version=EM64L-G16RevC.01\State=1-A
 \HF=-249.7505529\RMSD=4.976e-09\Dipole=-0.8021755,0.5659968,0.0313076\
 Quadrupole=-1.6259522,1.0622226,0.5637296,1.1619646,-0.8586173,2.87645
 33\PG=C01 [X(C3H9N1O1)]\\@
 The archive entry for this job was punched.


 THE 2ND LAW OF THERMODYNAMICS HAS THE SAME
 DEGREE OF TRUTH AS THE STATEMENT THAT IF YOU THROW
 A TUMBLERFULL OF WATER INTO THE SEA, YOU CANNOT GET
 THE SAME TUMBLERFULL OF WATER OUT AGAIN.
          - J.C. MAXWELL, LETTER TO LORD RAYLEIGH, DECEMBER 6,1870
 Job cpu time:       0 days  0 hours  8 minutes 12.3 seconds.
 Elapsed time:       0 days  0 hours  1 minutes  1.9 seconds.
 File lengths (MBytes):  RWF=    288 Int=      0 D2E=      0 Chk=      8 Scr=     32
 Normal termination of Gaussian 16 at Wed Oct 22 10:09:05 2025.
