 Entering Gaussian System, Link 0=g16
 Input=../../g16_g16_C17-a_59.com
 Output=../../g16_g16_C17-a_59.log
 Initial command:
 /lrz/sys/applications/gaussian/g16.C.01/x86_64_legacy/exe/l1.exe "/dss/lxclscratch/0D/go29tiz2/Gau-7187.inp" -scrdir="/dss/lxclscratch/0D/go29tiz2/"
 Entering Link 1 = /lrz/sys/applications/gaussian/g16.C.01/x86_64_legacy/exe/l1.exe PID=      7196.
  
 Copyright (c) 1988-2019, Gaussian, Inc.  All Rights Reserved.
  
 This is part of the Gaussian(R) 16 program.  It is based on
 the Gaussian(R) 09 system (copyright 2009, Gaussian, Inc.),
 the Gaussian(R) 03 system (copyright 2003, Gaussian, Inc.),
 the Gaussian(R) 98 system (copyright 1998, Gaussian, Inc.),
 the Gaussian(R) 94 system (copyright 1995, Gaussian, Inc.),
 the Gaussian 92(TM) system (copyright 1992, Gaussian, Inc.),
 the Gaussian 90(TM) system (copyright 1990, Gaussian, Inc.),
 the Gaussian 88(TM) system (copyright 1988, Gaussian, Inc.),
 the Gaussian 86(TM) system (copyright 1986, Carnegie Mellon
 University), and the Gaussian 82(TM) system (copyright 1983,
 Carnegie Mellon University). Gaussian is a federally registered
 trademark of Gaussian, Inc.
  
 This software contains proprietary and confidential information,
 including trade secrets, belonging to Gaussian, Inc.
  
 This software is provided under written license and may be
 used, copied, transmitted, or stored only in accord with that
 written license.
  
 The following legend is applicable only to US Government
 contracts under FAR:
  
                    RESTRICTED RIGHTS LEGEND
  
 Use, reproduction and disclosure by the US Government is
 subject to restrictions as set forth in subparagraphs (a)
 and (c) of the Commercial Computer Software - Restricted
 Rights clause in FAR 52.227-19.
  
 Gaussian, Inc.
 340 Quinnipiac St., Bldg. 40, Wallingford CT 06492
  
  
 ---------------------------------------------------------------
 Warning -- This program may not be used in any manner that
 competes with the business of Gaussian, Inc. or will provide
 assistance to any competitor of Gaussian, Inc.  The licensee
 of this program is prohibited from giving any competitor of
 Gaussian, Inc. access to this program.  By using this program,
 the user acknowledges that Gaussian, Inc. is engaged in the
 business of creating and licensing software in the field of
 computational chemistry and represents and warrants to the
 licensee that it is not a competitor of Gaussian, Inc. and that
 it will not use this program in any manner prohibited above.
 ---------------------------------------------------------------
  

 Cite this work as:
 Gaussian 16, Revision C.01,
 M. J. Frisch, G. W. Trucks, H. B. Schlegel, G. E. Scuseria, 
 M. A. Robb, J. R. Cheeseman, G. Scalmani, V. Barone, 
 G. A. Petersson, H. Nakatsuji, X. Li, M. Caricato, A. V. Marenich, 
 J. Bloino, B. G. Janesko, R. Gomperts, B. Mennucci, H. P. Hratchian, 
 J. V. Ortiz, A. F. Izmaylov, J. L. Sonnenberg, D. Williams-Young, 
 F. Ding, F. Lipparini, F. Egidi, J. Goings, B. Peng, A. Petrone, 
 T. Henderson, D. Ranasinghe, V. G. Zakrzewski, J. Gao, N. Rega, 
 G. Zheng, W. Liang, M. Hada, M. Ehara, K. Toyota, R. Fukuda, 
 J. Hasegawa, M. Ishida, T. Nakajima, Y. Honda, O. Kitao, H. Nakai, 
 T. Vreven, K. Throssell, J. A. Montgomery, Jr., J. E. Peralta, 
 F. Ogliaro, M. J. Bearpark, J. J. Heyd, E. N. Brothers, K. N. Kudin, 
 V. N. Staroverov, T. A. Keith, R. Kobayashi, J. Normand, 
 K. Raghavachari, A. P. Rendell, J. C. Burant, S. S. Iyengar, 
 J. Tomasi, M. Cossi, J. M. Millam, M. Klene, C. Adamo, R. Cammi, 
 J. W. Ochterski, R. L. Martin, K. Morokuma, O. Farkas, 
 J. B. Foresman, and D. J. Fox, Gaussian, Inc., Wallingford CT, 2019.
 
 ******************************************
 Gaussian 16:  EM64L-G16RevC.01  3-Jul-2019
                22-Oct-2025 
 ******************************************
 %chk=g16_g16_C17-a_59.chk
 %nprocshared=8
 Will use up to    8 processors via shared memory.
 %mem=32GB
 -------------------------------------------
 #p wb97xd scrf=(smd,solvent=water) def2tzvp
 -------------------------------------------
 1/38=1,172=1/1;
 2/12=2,17=6,18=5,40=1/2;
 3/5=44,7=101,11=2,25=1,30=1,70=32201,72=1,74=-58/1,2,3;
 4//1;
 5/5=2,38=5,53=1/2;
 6/7=2,8=2,9=2,10=2,28=1/1;
 99/5=1,9=1/99;
 Leave Link    1 at Wed Oct 22 13:43:27 2025, MaxMem=  4294967296 cpu:               5.3 elap:               0.8
 (Enter /lrz/sys/applications/gaussian/g16.C.01/x86_64_legacy/exe/l101.exe)
 ----------------
 g16_g16_C17-a_59
 ----------------
 Symbolic Z-matrix:
 Charge =  0 Multiplicity = 1
 O                     1.28571  -0.79456   1.00555 
 C                     1.1356   -0.16221  -0.25037 
 N                     1.30852   1.27663  -0.13496 
 C                    -0.15116  -0.62837  -0.95165 
 C                    -1.43945  -0.62156  -0.1232 
 C                    -1.89043   0.72899   0.42766 
 H                     0.55027  -0.52453   1.56953 
 H                     1.98428  -0.52555  -0.84905 
 H                     0.41953   1.71834   0.09485 
 H                     1.56295   1.64485  -1.0505 
 H                     0.01558  -1.66005  -1.30243 
 H                    -0.28089  -0.01008  -1.85605 
 H                    -1.33444  -1.33669   0.71071 
 H                    -2.24042  -1.0307   -0.75999 
 H                    -2.89435   0.65088   0.87207 
 H                    -1.22026   1.09814   1.22081 
 H                    -1.93501   1.4943   -0.36418 
 
 ITRead=  0  0  0  0  0  0  0  0  0  0  0  0  0  0  0  0  0
 MicOpt= -1 -1 -1 -1 -1 -1 -1 -1 -1 -1 -1 -1 -1 -1 -1 -1 -1
 NAtoms=     17 NQM=       17 NQMF=       0 NMMI=      0 NMMIF=      0
                NMic=       0 NMicF=      0.
                    Isotopes and Nuclear Properties:
 (Nuclear quadrupole moments (NQMom) in fm**2, nuclear magnetic moments (NMagM)
  in nuclear magnetons)

  Atom         1           2           3           4           5           6           7           8           9          10
 IAtWgt=          16          12          14          12          12          12           1           1           1           1
 AtmWgt=  15.9949146  12.0000000  14.0030740  12.0000000  12.0000000  12.0000000   1.0078250   1.0078250   1.0078250   1.0078250
 NucSpn=           0           0           2           0           0           0           1           1           1           1
 AtZEff=  -0.0000000  -0.0000000  -0.0000000  -0.0000000  -0.0000000  -0.0000000  -0.0000000  -0.0000000  -0.0000000  -0.0000000
 NQMom=    0.0000000   0.0000000   2.0440000   0.0000000   0.0000000   0.0000000   0.0000000   0.0000000   0.0000000   0.0000000
 NMagM=    0.0000000   0.0000000   0.4037610   0.0000000   0.0000000   0.0000000   2.7928460   2.7928460   2.7928460   2.7928460
 AtZNuc=   8.0000000   6.0000000   7.0000000   6.0000000   6.0000000   6.0000000   1.0000000   1.0000000   1.0000000   1.0000000

  Atom        11          12          13          14          15          16          17
 IAtWgt=           1           1           1           1           1           1           1
 AtmWgt=   1.0078250   1.0078250   1.0078250   1.0078250   1.0078250   1.0078250   1.0078250
 NucSpn=           1           1           1           1           1           1           1
 AtZEff=  -0.0000000  -0.0000000  -0.0000000  -0.0000000  -0.0000000  -0.0000000  -0.0000000
 NQMom=    0.0000000   0.0000000   0.0000000   0.0000000   0.0000000   0.0000000   0.0000000
 NMagM=    2.7928460   2.7928460   2.7928460   2.7928460   2.7928460   2.7928460   2.7928460
 AtZNuc=   1.0000000   1.0000000   1.0000000   1.0000000   1.0000000   1.0000000   1.0000000
 Leave Link  101 at Wed Oct 22 13:43:27 2025, MaxMem=  4294967296 cpu:               1.0 elap:               0.1
 (Enter /lrz/sys/applications/gaussian/g16.C.01/x86_64_legacy/exe/l202.exe)
                          Input orientation:                          
 ---------------------------------------------------------------------
 Center     Atomic      Atomic             Coordinates (Angstroms)
 Number     Number       Type             X           Y           Z
 ---------------------------------------------------------------------
      1          8           0        1.285714   -0.794559    1.005546
      2          6           0        1.135597   -0.162210   -0.250374
      3          7           0        1.308522    1.276634   -0.134964
      4          6           0       -0.151155   -0.628366   -0.951654
      5          6           0       -1.439452   -0.621556   -0.123200
      6          6           0       -1.890425    0.728985    0.427664
      7          1           0        0.550268   -0.524530    1.569534
      8          1           0        1.984281   -0.525548   -0.849048
      9          1           0        0.419527    1.718342    0.094851
     10          1           0        1.562946    1.644852   -1.050502
     11          1           0        0.015578   -1.660054   -1.302431
     12          1           0       -0.280887   -0.010081   -1.856053
     13          1           0       -1.334439   -1.336691    0.710705
     14          1           0       -2.240418   -1.030700   -0.759993
     15          1           0       -2.894345    0.650877    0.872069
     16          1           0       -1.220263    1.098144    1.220815
     17          1           0       -1.935007    1.494302   -0.364178
 ---------------------------------------------------------------------
                    Distance matrix (angstroms):
                    1          2          3          4          5
     1  O    0.000000
     2  C    1.414120   0.000000
     3  N    2.364556   1.453786   0.000000
     4  C    2.433689   1.537799   2.535087   0.000000
     5  C    2.954747   2.618788   3.339854   1.531696   0.000000
     6  C    3.569733   3.226573   3.293893   2.601919   1.526692
     7  H    0.965339   1.945752   2.593155   2.619001   2.614144
     8  H    1.999970   1.100313   2.052907   2.140371   3.501146
     9  H    2.809683   2.041669   1.018937   2.632088   2.996410
    10  H    3.202330   2.021956   1.019081   2.848760   3.874389
    11  H    2.772920   2.145881   3.414501   1.102372   2.141536
    12  H    3.355353   2.146573   2.672827   1.103197   2.172315
    13  H    2.691847   2.898992   3.811806   2.159936   1.103559
    14  H    3.950506   3.522991   4.278952   2.136265   1.102021
    15  H    4.424929   4.261622   4.366896   3.533768   2.174019
    16  H    3.147791   3.050076   2.874848   2.973794   2.193579
    17  H    4.181874   3.490787   3.258895   2.834250   2.186436
                    6          7          8          9         10
     6  C    0.000000
     7  H    2.971893   0.000000
     8  H    4.268160   2.811749   0.000000
     9  H    2.534851   2.687426   2.893863   0.000000
    10  H    3.866466   3.549130   2.220077   1.620074   0.000000
    11  H    3.511920   3.134245   2.316992   3.678197   3.657898
    12  H    2.890016   3.562320   2.531946   2.698898   2.605271
    13  H    2.157835   2.224705   3.755620   3.576157   4.515118
    14  H    2.151631   3.670263   4.255724   3.919604   4.659244
    15  H    1.100660   3.705860   5.305395   3.567253   4.954968
    16  H    1.102036   2.426820   4.146060   2.083591   3.633734
    17  H    1.102139   3.740524   4.435731   2.409301   3.567826
                   11         12         13         14         15
    11  H    0.000000
    12  H    1.765446   0.000000
    13  H    2.445368   3.075404   0.000000
    14  H    2.404130   2.466328   1.754247   0.000000
    15  H    4.305404   3.835320   2.531753   2.432889   0.000000
    16  H    3.937224   3.402603   2.490315   3.081606   1.767547
    17  H    3.825580   2.687931   3.087163   2.574020   1.777639
                   16         17
    16  H    0.000000
    17  H    1.783256   0.000000
 Stoichiometry    C4H11NO
 Framework group  C1[X(C4H11NO)]
 Deg. of freedom    45
 Full point group                 C1      NOp   1
 Largest Abelian subgroup         C1      NOp   1
 Largest concise Abelian subgroup C1      NOp   1
                         Standard orientation:                         
 ---------------------------------------------------------------------
 Center     Atomic      Atomic             Coordinates (Angstroms)
 Number     Number       Type             X           Y           Z
 ---------------------------------------------------------------------
      1          8           0       -1.285714   -0.794559   -1.005546
      2          6           0       -1.135597   -0.162210    0.250374
      3          7           0       -1.308522    1.276634    0.134964
      4          6           0        0.151155   -0.628366    0.951654
      5          6           0        1.439452   -0.621556    0.123200
      6          6           0        1.890425    0.728985   -0.427664
      7          1           0       -0.550268   -0.524530   -1.569534
      8          1           0       -1.984281   -0.525548    0.849048
      9          1           0       -0.419527    1.718342   -0.094851
     10          1           0       -1.562946    1.644852    1.050502
     11          1           0       -0.015578   -1.660054    1.302431
     12          1           0        0.280887   -0.010081    1.856053
     13          1           0        1.334439   -1.336691   -0.710705
     14          1           0        2.240418   -1.030700    0.759993
     15          1           0        2.894345    0.650877   -0.872069
     16          1           0        1.220263    1.098144   -1.220815
     17          1           0        1.935007    1.494302    0.364178
 ---------------------------------------------------------------------
 Rotational constants (GHZ):           4.6794406           2.4716949           2.2345063
 Leave Link  202 at Wed Oct 22 13:43:27 2025, MaxMem=  4294967296 cpu:               0.0 elap:               0.0
 (Enter /lrz/sys/applications/gaussian/g16.C.01/x86_64_legacy/exe/l301.exe)
 Standard basis: def2TZVP (5D, 7F)
 Ernie: Thresh=  0.10000D-02 Tol=  0.10000D-05 Strict=F.
 There are   282 symmetry adapted cartesian basis functions of A   symmetry.
 There are   252 symmetry adapted basis functions of A   symmetry.
   252 basis functions,   394 primitive gaussians,   282 cartesian basis functions
    25 alpha electrons       25 beta electrons
       nuclear repulsion energy       264.8731931572 Hartrees.
 IExCor= 4639 DFT=T Ex+Corr=wB97XD ExCW=0 ScaHFX=  1.000000
 ScaDFX=  1.000000  1.000000  1.000000  1.000000 ScalE2=  1.000000  1.000000
 IRadAn=      5 IRanWt=     -1 IRanGd=            0 ICorTp=0 IEmpDi=121
 HFx  wShort=  0.000000 wLong=  0.200000 cFull=  0.222036 cShort=  0.000000 cLong=  0.777964
 DFx  wShort=  0.000000 wLong=  0.200000 cFull=  0.000000 cShort=  0.000000 cLong=  1.000000
 NAtoms=   17 NActive=   17 NUniq=   17 SFac= 1.00D+00 NAtFMM=   60 NAOKFM=F Big=F
 Integral buffers will be    131072 words long.
 Raffenetti 2 integral format.
 Two-electron integral symmetry is turned on.
 R6Disp:  Grimme-D2 Dispersion energy=       -0.0104791485 Hartrees.
 Nuclear repulsion after empirical dispersion term =      264.8627140088 Hartrees.
 ------------------------------------------------------------------------------
 Polarizable Continuum Model (PCM)
 =================================
 Model                : PCM.
 Atomic radii         : SMD-Coulomb.
 Polarization charges : Total charges.
 Charge compensation  : None.
 Solution method      : On-the-fly selection.
 Cavity type          : VdW (van der Waals Surface) (Alpha=1.000).
 Cavity algorithm     : GePol (No added spheres)
                        Default sphere list used, NSphG=   17.
                        Lebedev-Laikov grids with approx.  5.0 points / Ang**2.
                        Smoothing algorithm: York/Karplus (Gamma=1.0000).
                        Polarization charges: spherical gaussians, with
                                              point-specific exponents (IZeta= 3).
                        Self-potential: point-specific (ISelfS= 7).
                        Self-field    : sphere-specific E.n sum rule (ISelfD= 2).
 Solvent              : Water, Eps=  78.355300 Eps(inf)=   1.777849
 ------------------------------------------------------------------------------
 Spheres list:
 ISph  on   Nord     Re0    Alpha      Xe            Ye            Ze
    1   O      1    1.5200  1.000     -1.285714     -0.794559     -1.005546
    2   C      2    1.8500  1.000     -1.135597     -0.162210      0.250374
    3   N      3    1.8900  1.000     -1.308522      1.276634      0.134964
    4   C      4    1.8500  1.000      0.151155     -0.628366      0.951654
    5   C      5    1.8500  1.000      1.439452     -0.621556      0.123200
    6   C      6    1.8500  1.000      1.890425      0.728985     -0.427664
    7   H      7    1.2000  1.000     -0.550268     -0.524530     -1.569534
    8   H      8    1.2000  1.000     -1.984281     -0.525548      0.849048
    9   H      9    1.2000  1.000     -0.419527      1.718342     -0.094851
   10   H     10    1.2000  1.000     -1.562946      1.644852      1.050502
   11   H     11    1.2000  1.000     -0.015578     -1.660054      1.302431
   12   H     12    1.2000  1.000      0.280887     -0.010081      1.856053
   13   H     13    1.2000  1.000      1.334439     -1.336691     -0.710705
   14   H     14    1.2000  1.000      2.240418     -1.030700      0.759993
   15   H     15    1.2000  1.000      2.894345      0.650877     -0.872069
   16   H     16    1.2000  1.000      1.220263      1.098144     -1.220815
   17   H     17    1.2000  1.000      1.935007      1.494302      0.364178
 ------------------------------------------------------------------------------
 GePol: Number of generator spheres                  =      17
 GePol: Total number of spheres                      =      17
 GePol: Number of exposed spheres                    =      17 (100.00%)
 GePol: Number of points                             =    1176
 GePol: Average weight of points                     =       0.11
 GePol: Minimum weight of points                     =   0.26D-08
 GePol: Maximum weight of points                     =    0.21991
 GePol: Number of points with low weight             =      74
 GePol: Fraction of low-weight points (<1% of avg)   =       6.29%
 GePol: Cavity surface area                          =    134.665 Ang**2
 GePol: Cavity volume                                =    108.371 Ang**3
 ------------------------------------------------------------------------------
 Atomic radii for non-electrostatic terms: SMD-CDS.
 ------------------------------------------------------------------------------
 PCM non-electrostatic energy =         0.0023615790 Hartrees.
 Nuclear repulsion after PCM non-electrostatic terms =      264.8650755878 Hartrees.
 Leave Link  301 at Wed Oct 22 13:43:27 2025, MaxMem=  4294967296 cpu:               0.6 elap:               0.1
 (Enter /lrz/sys/applications/gaussian/g16.C.01/x86_64_legacy/exe/l302.exe)
 NPDir=0 NMtPBC=     1 NCelOv=     1 NCel=       1 NClECP=     1 NCelD=      1
         NCelK=      1 NCelE2=     1 NClLst=     1 CellRange=     0.0.
 One-electron integrals computed using PRISM.
 One-electron integral symmetry used in STVInt
   1 Symmetry operations used in ECPInt.
 ECPInt:  NShTT=    6105 NPrTT=   17556 LenC2=    6059 LenP2D=   14550.
 LDataN:  DoStor=T MaxTD1= 6 Len=  172
 NBasis=   252 RedAO= T EigKep=  2.06D-04  NBF=   252
 NBsUse=   252 1.00D-06 EigRej= -1.00D+00 NBFU=   252
 Precomputing XC quadrature grid using
 IXCGrd= 4 IRadAn=           5 IRanWt=          -1 IRanGd=           0 AccXCQ= 0.00D+00.
 Generated NRdTot=       0 NPtTot=           0 NUsed=           0 NTot=          32
 NSgBfM=   281   281   281   281   281 MxSgAt=    17 MxSgA2=    17.
 Leave Link  302 at Wed Oct 22 13:43:27 2025, MaxMem=  4294967296 cpu:               2.5 elap:               0.3
 (Enter /lrz/sys/applications/gaussian/g16.C.01/x86_64_legacy/exe/l303.exe)
 DipDrv:  MaxL=1.
 Leave Link  303 at Wed Oct 22 13:43:27 2025, MaxMem=  4294967296 cpu:               0.3 elap:               0.1
 (Enter /lrz/sys/applications/gaussian/g16.C.01/x86_64_legacy/exe/l401.exe)
 ExpMin= 9.52D-02 ExpMax= 2.70D+04 ExpMxC= 9.22D+02 IAcc=3 IRadAn=         5 AccDes= 0.00D+00
 Harris functional with IExCor= 4639 and IRadAn=       5 diagonalized for initial guess.
 HarFok:  IExCor= 4639 AccDes= 0.00D+00 IRadAn=         5 IDoV= 1 UseB2=F ITyADJ=14
 ICtDFT=  3500011 ScaDFX=  1.000000  1.000000  1.000000  1.000000
 FoFCou: FMM=F IPFlag=           0 FMFlag=      100000 FMFlg1=           0
         NFxFlg=           0 DoJE=T BraDBF=F KetDBF=T FulRan=T
         wScrn=  0.000000 ICntrl=       500 IOpCl=  0 I1Cent=   200000004 NGrid=           0
         NMat0=    1 NMatS0=      1 NMatT0=    0 NMatD0=    1 NMtDS0=    0 NMtDT0=    0
 Petite list used in FoFCou.
 Harris En= -276.194875779604    
 JPrj=0 DoOrth=F DoCkMO=F.
 Leave Link  401 at Wed Oct 22 13:43:30 2025, MaxMem=  4294967296 cpu:              18.4 elap:               2.3
 (Enter /lrz/sys/applications/gaussian/g16.C.01/x86_64_legacy/exe/l502.exe)
 Integral symmetry usage will be decided dynamically.
 Closed shell SCF:
 Using DIIS extrapolation, IDIIS=  1040.
 NGot=  4294967296 LenX=  4294802854 LenY=  4294722889
 Requested convergence on RMS density matrix=1.00D-08 within 128 cycles.
 Requested convergence on MAX density matrix=1.00D-06.
 Requested convergence on             energy=1.00D-06.
 No special actions if energy rises.
 Fock matrices will be formed incrementally for  20 cycles.

 Cycle   1  Pass 1  IDiag  1:
 FoFJK:  IHMeth= 1 ICntrl=       0 DoSepK=T KAlg= 0 I1Cent=           0 FoldK=F
 IRaf=         1 NMat=       1 IRICut=       1 DoRegI=T DoRafI=F ISym2E= 0 IDoP0=0 IntGTp=1.
 FoFCou: FMM=F IPFlag=           0 FMFlag=      100000 FMFlg1=           0
         NFxFlg=           0 DoJE=T BraDBF=F KetDBF=F FulRan=T
         wScrn=  0.000000 ICntrl=       500 IOpCl=  0 I1Cent=           0 NGrid=           0
         NMat0=    1 NMatS0=      1 NMatT0=    0 NMatD0=    1 NMtDS0=    0 NMtDT0=    0
 Symmetry not used in FoFCou.
 Inv3:  Mode=1 IEnd=     4148928.
 Iteration    1 A*A^-1 deviation from unit magnitude is 4.88D-15 for    718.
 Iteration    1 A*A^-1 deviation from orthogonality  is 3.77D-15 for    650    175.
 Iteration    1 A^-1*A deviation from unit magnitude is 4.88D-15 for    718.
 Iteration    1 A^-1*A deviation from orthogonality  is 1.89D-15 for    574    291.
 E= -288.984848343957    
 DIIS: error= 3.92D-02 at cycle   1 NSaved=   1.
 NSaved= 1 IEnMin= 1 EnMin= -288.984848343957     IErMin= 1 ErrMin= 3.92D-02
 ErrMax= 3.92D-02  0.00D+00 EMaxC= 1.00D-01 BMatC= 6.10D-01 BMatP= 6.10D-01
 IDIUse=3 WtCom= 6.08D-01 WtEn= 3.92D-01
 Coeff-Com:  0.100D+01
 Coeff-En:   0.100D+01
 Coeff:      0.100D+01
 Gap=     0.454 Goal=   None    Shift=    0.000
 GapD=    0.454 DampG=2.000 DampE=0.500 DampFc=1.0000 IDamp=-1.
 RMSDP=1.66D-03 MaxDP=4.48D-02              OVMax= 6.03D-02

 Cycle   2  Pass 1  IDiag  1:
 RMSU=  1.62D-03    CP:  9.64D-01
 E= -289.039606228804     Delta-E=       -0.054757884846 Rises=F Damp=F
 DIIS: error= 8.36D-03 at cycle   2 NSaved=   2.
 NSaved= 2 IEnMin= 2 EnMin= -289.039606228804     IErMin= 2 ErrMin= 8.36D-03
 ErrMax= 8.36D-03  0.00D+00 EMaxC= 1.00D-01 BMatC= 3.12D-02 BMatP= 6.10D-01
 IDIUse=3 WtCom= 9.16D-01 WtEn= 8.36D-02
 Coeff-Com:  0.118D+00 0.882D+00
 Coeff-En:   0.000D+00 0.100D+01
 Coeff:      0.108D+00 0.892D+00
 Gap=     0.451 Goal=   None    Shift=    0.000
 RMSDP=6.83D-04 MaxDP=2.93D-02 DE=-5.48D-02 OVMax= 4.69D-02

 Cycle   3  Pass 1  IDiag  1:
 RMSU=  5.81D-04    CP:  9.70D-01  7.80D-01
 E= -289.048222389219     Delta-E=       -0.008616160415 Rises=F Damp=F
 DIIS: error= 7.26D-03 at cycle   3 NSaved=   3.
 NSaved= 3 IEnMin= 3 EnMin= -289.048222389219     IErMin= 3 ErrMin= 7.26D-03
 ErrMax= 7.26D-03  0.00D+00 EMaxC= 1.00D-01 BMatC= 1.94D-02 BMatP= 3.12D-02
 IDIUse=3 WtCom= 9.27D-01 WtEn= 7.26D-02
 Coeff-Com:  0.243D-01 0.448D+00 0.528D+00
 Coeff-En:   0.000D+00 0.374D+00 0.626D+00
 Coeff:      0.225D-01 0.443D+00 0.535D+00
 Gap=     0.448 Goal=   None    Shift=    0.000
 RMSDP=3.56D-04 MaxDP=1.51D-02 DE=-8.62D-03 OVMax= 2.53D-02

 Cycle   4  Pass 1  IDiag  1:
 RMSU=  1.44D-04    CP:  9.65D-01  9.30D-01  6.37D-01
 E= -289.061589755760     Delta-E=       -0.013367366541 Rises=F Damp=F
 DIIS: error= 5.96D-04 at cycle   4 NSaved=   4.
 NSaved= 4 IEnMin= 4 EnMin= -289.061589755760     IErMin= 4 ErrMin= 5.96D-04
 ErrMax= 5.96D-04  0.00D+00 EMaxC= 1.00D-01 BMatC= 2.14D-04 BMatP= 1.94D-02
 IDIUse=3 WtCom= 9.94D-01 WtEn= 5.96D-03
 Coeff-Com:  0.861D-02 0.163D+00 0.219D+00 0.609D+00
 Coeff-En:   0.000D+00 0.000D+00 0.000D+00 0.100D+01
 Coeff:      0.856D-02 0.162D+00 0.218D+00 0.611D+00
 Gap=     0.442 Goal=   None    Shift=    0.000
 RMSDP=3.93D-05 MaxDP=1.45D-03 DE=-1.34D-02 OVMax= 2.21D-03

 Cycle   5  Pass 1  IDiag  1:
 RMSU=  3.50D-05    CP:  9.64D-01  9.37D-01  6.58D-01  9.80D-01
 E= -289.061740134303     Delta-E=       -0.000150378544 Rises=F Damp=F
 DIIS: error= 1.06D-04 at cycle   5 NSaved=   5.
 NSaved= 5 IEnMin= 5 EnMin= -289.061740134303     IErMin= 5 ErrMin= 1.06D-04
 ErrMax= 1.06D-04  0.00D+00 EMaxC= 1.00D-01 BMatC= 8.62D-06 BMatP= 2.14D-04
 IDIUse=3 WtCom= 9.99D-01 WtEn= 1.06D-03
 Coeff-Com: -0.183D-02-0.316D-01-0.289D-01 0.115D+00 0.947D+00
 Coeff-En:   0.000D+00 0.000D+00 0.000D+00 0.000D+00 0.100D+01
 Coeff:     -0.183D-02-0.316D-01-0.289D-01 0.115D+00 0.947D+00
 Gap=     0.442 Goal=   None    Shift=    0.000
 RMSDP=2.94D-05 MaxDP=8.19D-04 DE=-1.50D-04 OVMax= 8.20D-04

 Cycle   6  Pass 1  IDiag  1:
 RMSU=  1.05D-05    CP:  9.64D-01  9.46D-01  6.76D-01  1.12D+00  1.20D+00
 E= -289.061751206936     Delta-E=       -0.000011072633 Rises=F Damp=F
 DIIS: error= 1.89D-05 at cycle   6 NSaved=   6.
 NSaved= 6 IEnMin= 6 EnMin= -289.061751206936     IErMin= 6 ErrMin= 1.89D-05
 ErrMax= 1.89D-05  0.00D+00 EMaxC= 1.00D-01 BMatC= 3.18D-07 BMatP= 8.62D-06
 IDIUse=1 WtCom= 1.00D+00 WtEn= 0.00D+00
 Coeff-Com: -0.694D-03-0.119D-01-0.133D-01 0.269D-02 0.165D+00 0.859D+00
 Coeff:     -0.694D-03-0.119D-01-0.133D-01 0.269D-02 0.165D+00 0.859D+00
 Gap=     0.442 Goal=   None    Shift=    0.000
 RMSDP=6.70D-06 MaxDP=1.72D-04 DE=-1.11D-05 OVMax= 2.28D-04

 Cycle   7  Pass 1  IDiag  1:
 RMSU=  2.90D-06    CP:  9.64D-01  9.47D-01  6.78D-01  1.15D+00  1.28D+00
                    CP:  1.19D+00
 E= -289.061751643689     Delta-E=       -0.000000436752 Rises=F Damp=F
 DIIS: error= 1.08D-05 at cycle   7 NSaved=   7.
 NSaved= 7 IEnMin= 7 EnMin= -289.061751643689     IErMin= 7 ErrMin= 1.08D-05
 ErrMax= 1.08D-05  0.00D+00 EMaxC= 1.00D-01 BMatC= 6.95D-08 BMatP= 3.18D-07
 IDIUse=1 WtCom= 1.00D+00 WtEn= 0.00D+00
 Coeff-Com: -0.550D-04-0.124D-02-0.204D-02-0.963D-02-0.388D-01 0.293D+00
 Coeff-Com:  0.758D+00
 Coeff:     -0.550D-04-0.124D-02-0.204D-02-0.963D-02-0.388D-01 0.293D+00
 Coeff:      0.758D+00
 Gap=     0.442 Goal=   None    Shift=    0.000
 RMSDP=2.46D-06 MaxDP=5.45D-05 DE=-4.37D-07 OVMax= 1.03D-04

 Cycle   8  Pass 1  IDiag  1:
 RMSU=  1.02D-06    CP:  9.64D-01  9.47D-01  6.78D-01  1.15D+00  1.30D+00
                    CP:  1.34D+00  1.22D+00
 E= -289.061751724128     Delta-E=       -0.000000080440 Rises=F Damp=F
 DIIS: error= 3.40D-06 at cycle   8 NSaved=   8.
 NSaved= 8 IEnMin= 8 EnMin= -289.061751724128     IErMin= 8 ErrMin= 3.40D-06
 ErrMax= 3.40D-06  0.00D+00 EMaxC= 1.00D-01 BMatC= 5.69D-09 BMatP= 6.95D-08
 IDIUse=1 WtCom= 1.00D+00 WtEn= 0.00D+00
 Coeff-Com:  0.538D-04 0.903D-03 0.897D-03-0.226D-02-0.261D-01-0.187D-01
 Coeff-Com:  0.206D+00 0.840D+00
 Coeff:      0.538D-04 0.903D-03 0.897D-03-0.226D-02-0.261D-01-0.187D-01
 Coeff:      0.206D+00 0.840D+00
 Gap=     0.442 Goal=   None    Shift=    0.000
 RMSDP=8.69D-07 MaxDP=2.06D-05 DE=-8.04D-08 OVMax= 3.92D-05

 Cycle   9  Pass 1  IDiag  1:
 RMSU=  2.58D-07    CP:  9.64D-01  9.47D-01  6.78D-01  1.16D+00  1.31D+00
                    CP:  1.39D+00  1.38D+00  1.17D+00
 E= -289.061751732359     Delta-E=       -0.000000008231 Rises=F Damp=F
 DIIS: error= 8.59D-07 at cycle   9 NSaved=   9.
 NSaved= 9 IEnMin= 9 EnMin= -289.061751732359     IErMin= 9 ErrMin= 8.59D-07
 ErrMax= 8.59D-07  0.00D+00 EMaxC= 1.00D-01 BMatC= 4.20D-10 BMatP= 5.69D-09
 IDIUse=1 WtCom= 1.00D+00 WtEn= 0.00D+00
 Coeff-Com:  0.132D-04 0.257D-03 0.337D-03 0.320D-03-0.133D-02-0.287D-01
 Coeff-Com: -0.253D-01 0.160D+00 0.894D+00
 Coeff:      0.132D-04 0.257D-03 0.337D-03 0.320D-03-0.133D-02-0.287D-01
 Coeff:     -0.253D-01 0.160D+00 0.894D+00
 Gap=     0.442 Goal=   None    Shift=    0.000
 RMSDP=2.98D-07 MaxDP=7.30D-06 DE=-8.23D-09 OVMax= 1.50D-05

 Cycle  10  Pass 1  IDiag  1:
 RMSU=  8.75D-08    CP:  9.64D-01  9.47D-01  6.78D-01  1.16D+00  1.31D+00
                    CP:  1.40D+00  1.44D+00  1.31D+00  1.29D+00
 E= -289.061751733129     Delta-E=       -0.000000000770 Rises=F Damp=F
 DIIS: error= 3.56D-07 at cycle  10 NSaved=  10.
 NSaved=10 IEnMin=10 EnMin= -289.061751733129     IErMin=10 ErrMin= 3.56D-07
 ErrMax= 3.56D-07  0.00D+00 EMaxC= 1.00D-01 BMatC= 7.82D-11 BMatP= 4.20D-10
 IDIUse=1 WtCom= 1.00D+00 WtEn= 0.00D+00
 Coeff-Com: -0.252D-05-0.279D-04 0.542D-05 0.465D-03 0.332D-02-0.878D-02
 Coeff-Com: -0.396D-01-0.560D-01 0.315D+00 0.785D+00
 Coeff:     -0.252D-05-0.279D-04 0.542D-05 0.465D-03 0.332D-02-0.878D-02
 Coeff:     -0.396D-01-0.560D-01 0.315D+00 0.785D+00
 Gap=     0.442 Goal=   None    Shift=    0.000
 RMSDP=1.04D-07 MaxDP=2.63D-06 DE=-7.70D-10 OVMax= 5.78D-06

 Cycle  11  Pass 1  IDiag  1:
 RMSU=  3.23D-08    CP:  9.64D-01  9.47D-01  6.78D-01  1.16D+00  1.31D+00
                    CP:  1.41D+00  1.45D+00  1.36D+00  1.46D+00  1.24D+00
 E= -289.061751733259     Delta-E=       -0.000000000129 Rises=F Damp=F
 DIIS: error= 5.08D-08 at cycle  11 NSaved=  11.
 NSaved=11 IEnMin=11 EnMin= -289.061751733259     IErMin=11 ErrMin= 5.08D-08
 ErrMax= 5.08D-08  0.00D+00 EMaxC= 1.00D-01 BMatC= 1.57D-12 BMatP= 7.82D-11
 IDIUse=1 WtCom= 1.00D+00 WtEn= 0.00D+00
 Coeff-Com: -0.389D-06-0.107D-04-0.195D-04-0.381D-04-0.176D-03 0.211D-02
 Coeff-Com:  0.394D-02-0.423D-02-0.767D-01-0.496D-01 0.112D+01
 Coeff:     -0.389D-06-0.107D-04-0.195D-04-0.381D-04-0.176D-03 0.211D-02
 Coeff:      0.394D-02-0.423D-02-0.767D-01-0.496D-01 0.112D+01
 Gap=     0.442 Goal=   None    Shift=    0.000
 RMSDP=2.97D-08 MaxDP=8.00D-07 DE=-1.29D-10 OVMax= 1.95D-06

 Cycle  12  Pass 1  IDiag  1:
 RMSU=  7.13D-09    CP:  9.64D-01  9.47D-01  6.78D-01  1.16D+00  1.31D+00
                    CP:  1.41D+00  1.45D+00  1.37D+00  1.52D+00  1.44D+00
                    CP:  1.37D+00
 E= -289.061751733252     Delta-E=        0.000000000006 Rises=F Damp=F
 DIIS: error= 1.25D-08 at cycle  12 NSaved=  12.
 NSaved=12 IEnMin=11 EnMin= -289.061751733259     IErMin=12 ErrMin= 1.25D-08
 ErrMax= 1.25D-08  0.00D+00 EMaxC= 1.00D-01 BMatC= 7.26D-14 BMatP= 1.57D-12
 IDIUse=1 WtCom= 1.00D+00 WtEn= 0.00D+00
 Coeff-Com:  0.104D-06 0.117D-05-0.612D-06-0.244D-04-0.170D-03 0.473D-03
 Coeff-Com:  0.220D-02 0.317D-02-0.165D-01-0.438D-01 0.231D-01 0.103D+01
 Coeff:      0.104D-06 0.117D-05-0.612D-06-0.244D-04-0.170D-03 0.473D-03
 Coeff:      0.220D-02 0.317D-02-0.165D-01-0.438D-01 0.231D-01 0.103D+01
 Gap=     0.442 Goal=   None    Shift=    0.000
 RMSDP=6.72D-09 MaxDP=1.52D-07 DE= 6.48D-12 OVMax= 3.97D-07

 Error on total polarization charges =  0.04363
 SCF Done:  E(RwB97XD) =  -289.061751733     A.U. after   12 cycles
            NFock= 12  Conv=0.67D-08     -V/T= 2.0055
 KE= 2.874732951227D+02 PE=-1.203629768956D+03 EE= 3.622296465123D+02
 SMD-CDS (non-electrostatic) energy       (kcal/mol) =       1.48
 (included in total energy above)
 Leave Link  502 at Wed Oct 22 13:45:13 2025, MaxMem=  4294967296 cpu:             825.7 elap:             103.4
 (Enter /lrz/sys/applications/gaussian/g16.C.01/x86_64_legacy/exe/l601.exe)
 Copying SCF densities to generalized density rwf, IOpCl= 0 IROHF=0.

 **********************************************************************

            Population analysis using the SCF Density.

 **********************************************************************

 Orbital symmetries:
       Occupied  (A) (A) (A) (A) (A) (A) (A) (A) (A) (A) (A) (A)
                 (A) (A) (A) (A) (A) (A) (A) (A) (A) (A) (A) (A)
                 (A)
       Virtual   (A) (A) (A) (A) (A) (A) (A) (A) (A) (A) (A) (A)
                 (A) (A) (A) (A) (A) (A) (A) (A) (A) (A) (A) (A)
                 (A) (A) (A) (A) (A) (A) (A) (A) (A) (A) (A) (A)
                 (A) (A) (A) (A) (A) (A) (A) (A) (A) (A) (A) (A)
                 (A) (A) (A) (A) (A) (A) (A) (A) (A) (A) (A) (A)
                 (A) (A) (A) (A) (A) (A) (A) (A) (A) (A) (A) (A)
                 (A) (A) (A) (A) (A) (A) (A) (A) (A) (A) (A) (A)
                 (A) (A) (A) (A) (A) (A) (A) (A) (A) (A) (A) (A)
                 (A) (A) (A) (A) (A) (A) (A) (A) (A) (A) (A) (A)
                 (A) (A) (A) (A) (A) (A) (A) (A) (A) (A) (A) (A)
                 (A) (A) (A) (A) (A) (A) (A) (A) (A) (A) (A) (A)
                 (A) (A) (A) (A) (A) (A) (A) (A) (A) (A) (A) (A)
                 (A) (A) (A) (A) (A) (A) (A) (A) (A) (A) (A) (A)
                 (A) (A) (A) (A) (A) (A) (A) (A) (A) (A) (A) (A)
                 (A) (A) (A) (A) (A) (A) (A) (A) (A) (A) (A) (A)
                 (A) (A) (A) (A) (A) (A) (A) (A) (A) (A) (A) (A)
                 (A) (A) (A) (A) (A) (A) (A) (A) (A) (A) (A) (A)
                 (A) (A) (A) (A) (A) (A) (A) (A) (A) (A) (A) (A)
                 (A) (A) (A) (A) (A) (A) (A) (A) (A) (A) (A)
 The electronic state is 1-A.
 Alpha  occ. eigenvalues --  -19.24887 -14.40791 -10.35150 -10.27403 -10.26967
 Alpha  occ. eigenvalues --  -10.26632  -1.13247  -0.97151  -0.87664  -0.79883
 Alpha  occ. eigenvalues --   -0.72319  -0.66298  -0.59255  -0.57861  -0.55366
 Alpha  occ. eigenvalues --   -0.51318  -0.50074  -0.49037  -0.47076  -0.43805
 Alpha  occ. eigenvalues --   -0.42300  -0.40484  -0.39452  -0.37417  -0.33188
 Alpha virt. eigenvalues --    0.10978   0.13893   0.14770   0.16367   0.17712
 Alpha virt. eigenvalues --    0.18832   0.19642   0.20687   0.21088   0.23101
 Alpha virt. eigenvalues --    0.23890   0.26319   0.27221   0.27568   0.29875
 Alpha virt. eigenvalues --    0.30531   0.32291   0.33274   0.34665   0.36030
 Alpha virt. eigenvalues --    0.37260   0.38799   0.40877   0.41643   0.44806
 Alpha virt. eigenvalues --    0.45410   0.47704   0.49209   0.49651   0.50751
 Alpha virt. eigenvalues --    0.51253   0.51772   0.53781   0.54117   0.54476
 Alpha virt. eigenvalues --    0.54774   0.56492   0.57247   0.58435   0.58909
 Alpha virt. eigenvalues --    0.61278   0.63776   0.64184   0.67346   0.69616
 Alpha virt. eigenvalues --    0.72361   0.72711   0.75145   0.79214   0.80848
 Alpha virt. eigenvalues --    0.84569   0.86962   0.89344   0.91556   0.94147
 Alpha virt. eigenvalues --    0.96535   0.98261   1.01728   1.03418   1.09415
 Alpha virt. eigenvalues --    1.10855   1.13127   1.17508   1.20005   1.21000
 Alpha virt. eigenvalues --    1.22623   1.23897   1.25770   1.28327   1.30841
 Alpha virt. eigenvalues --    1.36212   1.39422   1.42972   1.45539   1.47941
 Alpha virt. eigenvalues --    1.51401   1.57019   1.59457   1.60394   1.62405
 Alpha virt. eigenvalues --    1.64404   1.66192   1.66867   1.68818   1.70858
 Alpha virt. eigenvalues --    1.71739   1.73987   1.76104   1.78863   1.81104
 Alpha virt. eigenvalues --    1.84696   1.85076   1.88314   1.89732   1.92949
 Alpha virt. eigenvalues --    1.93763   1.95173   1.98830   2.02584   2.04878
 Alpha virt. eigenvalues --    2.06246   2.08068   2.09514   2.12085   2.15146
 Alpha virt. eigenvalues --    2.17015   2.19286   2.24304   2.26870   2.30318
 Alpha virt. eigenvalues --    2.34138   2.35292   2.36289   2.42031   2.43586
 Alpha virt. eigenvalues --    2.44629   2.47580   2.49093   2.50052   2.52856
 Alpha virt. eigenvalues --    2.54441   2.58358   2.60200   2.61858   2.62390
 Alpha virt. eigenvalues --    2.65042   2.65658   2.69324   2.70093   2.72772
 Alpha virt. eigenvalues --    2.73591   2.74741   2.77358   2.78767   2.81577
 Alpha virt. eigenvalues --    2.83370   2.84417   2.87551   2.89749   2.91839
 Alpha virt. eigenvalues --    2.95827   3.00801   3.04860   3.07762   3.11607
 Alpha virt. eigenvalues --    3.13667   3.15595   3.17469   3.20330   3.22580
 Alpha virt. eigenvalues --    3.25931   3.27272   3.29413   3.29658   3.33915
 Alpha virt. eigenvalues --    3.36167   3.37323   3.38656   3.40672   3.43391
 Alpha virt. eigenvalues --    3.44211   3.47158   3.50545   3.51493   3.53409
 Alpha virt. eigenvalues --    3.57372   3.59571   3.61971   3.64186   3.65475
 Alpha virt. eigenvalues --    3.76511   3.80410   3.81421   3.85362   3.90299
 Alpha virt. eigenvalues --    3.92708   3.97977   3.99846   4.04995   4.06407
 Alpha virt. eigenvalues --    4.12020   4.12441   4.14140   4.19192   4.24412
 Alpha virt. eigenvalues --    4.33572   4.36003   4.43723   4.45110   4.46712
 Alpha virt. eigenvalues --    4.50851   4.62271   4.63185   4.66462   4.74129
 Alpha virt. eigenvalues --    4.77456   4.81468   4.86924   4.89733   4.96618
 Alpha virt. eigenvalues --    4.98505   5.01871   5.04533   5.18925   5.23856
 Alpha virt. eigenvalues --    5.27928   5.36177   5.42311   5.48022   5.59673
 Alpha virt. eigenvalues --    5.63622   5.81391   5.87284   5.97571   6.09143
 Alpha virt. eigenvalues --    6.40740   6.56284   6.80650   6.93935   7.08554
 Alpha virt. eigenvalues --    7.25974  22.43904  22.56721  22.57624  22.69569
 Alpha virt. eigenvalues --   32.12508  44.00047
          Condensed to atoms (all electrons):
               1          2          3          4          5          6
     1  O    8.164383   0.221192  -0.073589  -0.074700   0.022994  -0.007018
     2  C    0.221192   4.794614   0.270916   0.361652  -0.055271   0.020396
     3  N   -0.073589   0.270916   6.727893  -0.084211   0.004738   0.004330
     4  C   -0.074700   0.361652  -0.084211   5.163443   0.253853  -0.046877
     5  C    0.022994  -0.055271   0.004738   0.253853   5.050538   0.260136
     6  C   -0.007018   0.020396   0.004330  -0.046877   0.260136   5.053621
     7  H    0.309203  -0.022695  -0.002014  -0.020732   0.017363  -0.005959
     8  H   -0.030813   0.427860  -0.034812  -0.061556   0.010139  -0.000515
     9  H    0.002045  -0.045863   0.384303  -0.004567   0.000079   0.002929
    10  H    0.005426  -0.033789   0.369737   0.005130  -0.000162   0.000276
    11  H    0.003828  -0.033490   0.008836   0.403095  -0.038676   0.010204
    12  H    0.006649  -0.059281   0.010562   0.404515  -0.022720  -0.006122
    13  H    0.007166  -0.020809   0.001430  -0.026731   0.422553  -0.045341
    14  H    0.000966   0.010670  -0.000365  -0.043376   0.416578  -0.028986
    15  H    0.000238  -0.002331   0.000923   0.007949  -0.030689   0.402116
    16  H   -0.000816   0.024260  -0.010019  -0.018874  -0.029143   0.405940
    17  H    0.000374  -0.008327  -0.000213   0.012340  -0.049217   0.413726
               7          8          9         10         11         12
     1  O    0.309203  -0.030813   0.002045   0.005426   0.003828   0.006649
     2  C   -0.022695   0.427860  -0.045863  -0.033789  -0.033490  -0.059281
     3  N   -0.002014  -0.034812   0.384303   0.369737   0.008836   0.010562
     4  C   -0.020732  -0.061556  -0.004567   0.005130   0.403095   0.404515
     5  C    0.017363   0.010139   0.000079  -0.000162  -0.038676  -0.022720
     6  C   -0.005959  -0.000515   0.002929   0.000276   0.010204  -0.006122
     7  H    0.344118   0.007158   0.002421  -0.000249  -0.000419  -0.000075
     8  H    0.007158   0.575323   0.007037  -0.007813  -0.007247  -0.000118
     9  H    0.002421   0.007037   0.431084  -0.024926  -0.000406   0.000591
    10  H   -0.000249  -0.007813  -0.024926   0.420684   0.000077   0.000057
    11  H   -0.000419  -0.007247  -0.000406   0.000077   0.562500  -0.018762
    12  H   -0.000075  -0.000118   0.000591   0.000057  -0.018762   0.565920
    13  H   -0.002178  -0.000703   0.000035  -0.000074  -0.004124   0.006122
    14  H   -0.000002  -0.000166  -0.000183   0.000006  -0.005397  -0.003034
    15  H    0.000285   0.000046   0.000927  -0.000026  -0.000175   0.000009
    16  H    0.001705   0.000257  -0.002142  -0.000045  -0.000615   0.000813
    17  H    0.000147  -0.000146   0.000059   0.000431  -0.000001   0.001122
              13         14         15         16         17
     1  O    0.007166   0.000966   0.000238  -0.000816   0.000374
     2  C   -0.020809   0.010670  -0.002331   0.024260  -0.008327
     3  N    0.001430  -0.000365   0.000923  -0.010019  -0.000213
     4  C   -0.026731  -0.043376   0.007949  -0.018874   0.012340
     5  C    0.422553   0.416578  -0.030689  -0.029143  -0.049217
     6  C   -0.045341  -0.028986   0.402116   0.405940   0.413726
     7  H   -0.002178  -0.000002   0.000285   0.001705   0.000147
     8  H   -0.000703  -0.000166   0.000046   0.000257  -0.000146
     9  H    0.000035  -0.000183   0.000927  -0.002142   0.000059
    10  H   -0.000074   0.000006  -0.000026  -0.000045   0.000431
    11  H   -0.004124  -0.005397  -0.000175  -0.000615  -0.000001
    12  H    0.006122  -0.003034   0.000009   0.000813   0.001122
    13  H    0.564532  -0.020839  -0.003361  -0.003866   0.006144
    14  H   -0.020839   0.559676  -0.007158   0.005499  -0.002738
    15  H   -0.003361  -0.007158   0.530219  -0.020922  -0.019555
    16  H   -0.003866   0.005499  -0.020922   0.545740  -0.029909
    17  H    0.006144  -0.002738  -0.019555  -0.029909   0.540678
 Mulliken charges:
               1
     1  O   -0.557526
     2  C    0.150294
     3  N   -0.578443
     4  C   -0.230353
     5  C   -0.233092
     6  C   -0.432857
     7  H    0.371923
     8  H    0.116069
     9  H    0.246577
    10  H    0.265260
    11  H    0.120771
    12  H    0.113753
    13  H    0.120044
    14  H    0.118850
    15  H    0.141506
    16  H    0.132138
    17  H    0.135086
 Sum of Mulliken charges =  -0.00000
 Mulliken charges with hydrogens summed into heavy atoms:
               1
     1  O   -0.185604
     2  C    0.266364
     3  N   -0.066606
     4  C    0.004171
     5  C    0.005802
     6  C   -0.024127
 Electronic spatial extent (au):  <R**2>=            671.2599
 Charge=             -0.0000 electrons
 Dipole moment (field-independent basis, Debye):
    X=              3.2737    Y=              1.0392    Z=              2.0493  Tot=              3.9996
 Quadrupole moment (field-independent basis, Debye-Ang):
   XX=            -44.8967   YY=            -40.4642   ZZ=            -36.5210
   XY=             -0.1417   XZ=             -6.1256   YZ=              0.9967
 Traceless Quadrupole moment (field-independent basis, Debye-Ang):
   XX=             -4.2694   YY=              0.1632   ZZ=              4.1063
   XY=             -0.1417   XZ=             -6.1256   YZ=              0.9967
 Octapole moment (field-independent basis, Debye-Ang**2):
  XXX=              6.7089  YYY=              3.4148  ZZZ=             -4.4231  XYY=              3.0239
  XXY=             -2.7453  XXZ=             11.2729  XZZ=             -0.9788  YZZ=              2.0117
  YYZ=              5.9747  XYZ=             -0.9970
 Hexadecapole moment (field-independent basis, Debye-Ang**3):
 XXXX=           -504.6979 YYYY=           -224.1981 ZZZZ=           -153.5461 XXXY=              5.5764
 XXXZ=            -20.6434 YYYX=              0.7095 YYYZ=              8.9276 ZZZX=             -2.9851
 ZZZY=             10.3997 XXYY=           -132.8105 XXZZ=           -111.5607 YYZZ=            -62.1027
 XXYZ=              3.7416 YYXZ=             -9.2303 ZZXY=             -5.4604
 N-N= 2.648650755878D+02 E-N=-1.203629770063D+03  KE= 2.874732951227D+02
 No NMR shielding tensors so no spin-rotation constants.
 Leave Link  601 at Wed Oct 22 13:45:13 2025, MaxMem=  4294967296 cpu:               1.1 elap:               0.2
 (Enter /lrz/sys/applications/gaussian/g16.C.01/x86_64_legacy/exe/l9999.exe)
 Unable to Open any file for archive entry.
 1\1\GINC-CM4R13C05S08\SP\RwB97XD\def2TZVP\C4H11N1O1\GO29TIZ2\22-Oct-20
 25\0\\#p wb97xd scrf=(smd,solvent=water) def2tzvp\\g16_g16_C17-a_59\\0
 ,1\O,0,1.285714,-0.794559,1.005546\C,0,1.135597,-0.16221,-0.250374\N,0
 ,1.308522,1.276634,-0.134964\C,0,-0.151155,-0.628366,-0.951654\C,0,-1.
 439452,-0.621556,-0.1232\C,0,-1.890425,0.728985,0.427664\H,0,0.550268,
 -0.52453,1.569534\H,0,1.984281,-0.525548,-0.849048\H,0,0.419527,1.7183
 42,0.094851\H,0,1.562946,1.644852,-1.050502\H,0,0.015578,-1.660054,-1.
 302431\H,0,-0.280887,-0.010081,-1.856053\H,0,-1.334439,-1.336691,0.710
 705\H,0,-2.240418,-1.0307,-0.759993\H,0,-2.894345,0.650877,0.872069\H,
 0,-1.220263,1.098144,1.220815\H,0,-1.935007,1.494302,-0.364178\\Versio
 n=EM64L-G16RevC.01\State=1-A\HF=-289.0617517\RMSD=6.717e-09\Dipole=-1.
 287991,0.408842,-0.8062476\Quadrupole=-3.1742108,0.1213024,3.0529083,0
 .1053769,-4.5542605,-0.7410302\PG=C01 [X(C4H11N1O1)]\\@
 The archive entry for this job was punched.


 KEEP CLOSE TO NATURES HEART, YOURSELF;
 AND BREAK CLEAR AWAY, ONCE IN A WHILE, AND
 CLIMB A MOUNTAIN OR SPEND A WEEK IN THE
 WOODS.  WASH YOUR SPIRIT CLEAN...
                                         -- JOHN MUIR
 Job cpu time:       0 days  0 hours 14 minutes 15.1 seconds.
 Elapsed time:       0 days  0 hours  1 minutes 47.3 seconds.
 File lengths (MBytes):  RWF=    288 Int=      0 D2E=      0 Chk=     12 Scr=     32
 Normal termination of Gaussian 16 at Wed Oct 22 13:45:13 2025.
