 Entering Gaussian System, Link 0=g16
 Input=g16_C1_h_2.com
 Output=g16_C1_h_2.log
 Initial command:
 /lrz/sys/applications/gaussian/g16.C.01/x86_64_legacy/exe/l1.exe "/dss/lxclscratch/0D/go29tiz2/Gau-24624.inp" -scrdir="/dss/lxclscratch/0D/go29tiz2/"
 Entering Link 1 = /lrz/sys/applications/gaussian/g16.C.01/x86_64_legacy/exe/l1.exe PID=     24681.
  
 Copyright (c) 1988-2019, Gaussian, Inc.  All Rights Reserved.
  
 This is part of the Gaussian(R) 16 program.  It is based on
 the Gaussian(R) 09 system (copyright 2009, Gaussian, Inc.),
 the Gaussian(R) 03 system (copyright 2003, Gaussian, Inc.),
 the Gaussian(R) 98 system (copyright 1998, Gaussian, Inc.),
 the Gaussian(R) 94 system (copyright 1995, Gaussian, Inc.),
 the Gaussian 92(TM) system (copyright 1992, Gaussian, Inc.),
 the Gaussian 90(TM) system (copyright 1990, Gaussian, Inc.),
 the Gaussian 88(TM) system (copyright 1988, Gaussian, Inc.),
 the Gaussian 86(TM) system (copyright 1986, Carnegie Mellon
 University), and the Gaussian 82(TM) system (copyright 1983,
 Carnegie Mellon University). Gaussian is a federally registered
 trademark of Gaussian, Inc.
  
 This software contains proprietary and confidential information,
 including trade secrets, belonging to Gaussian, Inc.
  
 This software is provided under written license and may be
 used, copied, transmitted, or stored only in accord with that
 written license.
  
 The following legend is applicable only to US Government
 contracts under FAR:
  
                    RESTRICTED RIGHTS LEGEND
  
 Use, reproduction and disclosure by the US Government is
 subject to restrictions as set forth in subparagraphs (a)
 and (c) of the Commercial Computer Software - Restricted
 Rights clause in FAR 52.227-19.
  
 Gaussian, Inc.
 340 Quinnipiac St., Bldg. 40, Wallingford CT 06492
  
  
 ---------------------------------------------------------------
 Warning -- This program may not be used in any manner that
 competes with the business of Gaussian, Inc. or will provide
 assistance to any competitor of Gaussian, Inc.  The licensee
 of this program is prohibited from giving any competitor of
 Gaussian, Inc. access to this program.  By using this program,
 the user acknowledges that Gaussian, Inc. is engaged in the
 business of creating and licensing software in the field of
 computational chemistry and represents and warrants to the
 licensee that it is not a competitor of Gaussian, Inc. and that
 it will not use this program in any manner prohibited above.
 ---------------------------------------------------------------
  

 Cite this work as:
 Gaussian 16, Revision C.01,
 M. J. Frisch, G. W. Trucks, H. B. Schlegel, G. E. Scuseria, 
 M. A. Robb, J. R. Cheeseman, G. Scalmani, V. Barone, 
 G. A. Petersson, H. Nakatsuji, X. Li, M. Caricato, A. V. Marenich, 
 J. Bloino, B. G. Janesko, R. Gomperts, B. Mennucci, H. P. Hratchian, 
 J. V. Ortiz, A. F. Izmaylov, J. L. Sonnenberg, D. Williams-Young, 
 F. Ding, F. Lipparini, F. Egidi, J. Goings, B. Peng, A. Petrone, 
 T. Henderson, D. Ranasinghe, V. G. Zakrzewski, J. Gao, N. Rega, 
 G. Zheng, W. Liang, M. Hada, M. Ehara, K. Toyota, R. Fukuda, 
 J. Hasegawa, M. Ishida, T. Nakajima, Y. Honda, O. Kitao, H. Nakai, 
 T. Vreven, K. Throssell, J. A. Montgomery, Jr., J. E. Peralta, 
 F. Ogliaro, M. J. Bearpark, J. J. Heyd, E. N. Brothers, K. N. Kudin, 
 V. N. Staroverov, T. A. Keith, R. Kobayashi, J. Normand, 
 K. Raghavachari, A. P. Rendell, J. C. Burant, S. S. Iyengar, 
 J. Tomasi, M. Cossi, J. M. Millam, M. Klene, C. Adamo, R. Cammi, 
 J. W. Ochterski, R. L. Martin, K. Morokuma, O. Farkas, 
 J. B. Foresman, and D. J. Fox, Gaussian, Inc., Wallingford CT, 2019.
 
 ******************************************
 Gaussian 16:  EM64L-G16RevC.01  3-Jul-2019
                16-Jun-2026 
 ******************************************
 %chk=g16_C1_h_2.chk
 %nprocshared=8
 Will use up to    8 processors via shared memory.
 %mem=32GB
 -------------------------------------------
 #p wb97xd scrf=(smd,solvent=water) def2tzvp
 -------------------------------------------
 1/38=1,172=1/1;
 2/12=2,17=6,18=5,40=1/2;
 3/5=44,7=101,11=2,25=1,30=1,70=32201,72=1,74=-58/1,2,3;
 4//1;
 5/5=2,38=5,53=1/2;
 6/7=2,8=2,9=2,10=2,28=1/1;
 99/5=1,9=1/99;
 Leave Link    1 at Tue Jun 16 15:32:22 2026, MaxMem=  4294967296 cpu:               4.7 elap:               0.7
 (Enter /lrz/sys/applications/gaussian/g16.C.01/x86_64_legacy/exe/l101.exe)
 ----------
 g16_C1_h_2
 ----------
 Symbolic Z-matrix:
 Charge =  1 Multiplicity = 1
 C                     1.18898  -0.18372   0. 
 C                    -0.11285   0.4524    0.00002 
 H                     1.1378   -1.27918  -0.00002 
 H                     1.73666   0.20242  -0.87717 
 H                     1.73665   0.20238   0.87719 
 H                    -0.20463   1.54631   0.00001 
 O                    -1.21612  -0.14527  -0.00002 
 H                    -1.13428  -1.12183  -0.00004 
 
 ITRead=  0  0  0  0  0  0  0  0
 MicOpt= -1 -1 -1 -1 -1 -1 -1 -1
 NAtoms=      8 NQM=        8 NQMF=       0 NMMI=      0 NMMIF=      0
                NMic=       0 NMicF=      0.
                    Isotopes and Nuclear Properties:
 (Nuclear quadrupole moments (NQMom) in fm**2, nuclear magnetic moments (NMagM)
  in nuclear magnetons)

  Atom         1           2           3           4           5           6           7           8
 IAtWgt=          12          12           1           1           1           1          16           1
 AtmWgt=  12.0000000  12.0000000   1.0078250   1.0078250   1.0078250   1.0078250  15.9949146   1.0078250
 NucSpn=           0           0           1           1           1           1           0           1
 AtZEff=  -0.0000000  -0.0000000  -0.0000000  -0.0000000  -0.0000000  -0.0000000  -0.0000000  -0.0000000
 NQMom=    0.0000000   0.0000000   0.0000000   0.0000000   0.0000000   0.0000000   0.0000000   0.0000000
 NMagM=    0.0000000   0.0000000   2.7928460   2.7928460   2.7928460   2.7928460   0.0000000   2.7928460
 AtZNuc=   6.0000000   6.0000000   1.0000000   1.0000000   1.0000000   1.0000000   8.0000000   1.0000000
 Leave Link  101 at Tue Jun 16 15:32:22 2026, MaxMem=  4294967296 cpu:               1.1 elap:               0.2
 (Enter /lrz/sys/applications/gaussian/g16.C.01/x86_64_legacy/exe/l202.exe)
                          Input orientation:                          
 ---------------------------------------------------------------------
 Center     Atomic      Atomic             Coordinates (Angstroms)
 Number     Number       Type             X           Y           Z
 ---------------------------------------------------------------------
      1          6           0        1.188977   -0.183720    0.000003
      2          6           0       -0.112847    0.452397    0.000023
      3          1           0        1.137796   -1.279178   -0.000019
      4          1           0        1.736656    0.202417   -0.877165
      5          1           0        1.736653    0.202382    0.877188
      6          1           0       -0.204628    1.546311    0.000010
      7          8           0       -1.216122   -0.145270   -0.000016
      8          1           0       -1.134284   -1.121834   -0.000042
 ---------------------------------------------------------------------
                    Distance matrix (angstroms):
                    1          2          3          4          5
     1  C    0.000000
     2  C    1.448927   0.000000
     3  H    1.096653   2.135992   0.000000
     4  H    1.103847   2.062186   1.822949   0.000000
     5  H    1.103847   2.062178   1.822949   1.754353   0.000000
     6  H    2.221518   1.097758   3.128177   2.518744   2.518761
     7  O    2.405406   1.254760   2.612791   3.099867   3.099876
     8  H    2.505514   1.876576   2.277522   3.281049   3.281061
                    6          7          8
     6  H    0.000000
     7  O    1.970930   0.000000
     8  H    2.825466   0.979987   0.000000
 Stoichiometry    C2H5O(1+)
 Framework group  C1[X(C2H5O)]
 Deg. of freedom    18
 Full point group                 C1      NOp   1
 Largest Abelian subgroup         C1      NOp   1
 Largest concise Abelian subgroup C1      NOp   1
                         Standard orientation:                         
 ---------------------------------------------------------------------
 Center     Atomic      Atomic             Coordinates (Angstroms)
 Number     Number       Type             X           Y           Z
 ---------------------------------------------------------------------
      1          6           0        1.188977   -0.183720    0.000003
      2          6           0       -0.112847    0.452397    0.000023
      3          1           0        1.137796   -1.279178   -0.000019
      4          1           0        1.736656    0.202417   -0.877165
      5          1           0        1.736653    0.202382    0.877188
      6          1           0       -0.204628    1.546311    0.000010
      7          8           0       -1.216122   -0.145270   -0.000016
      8          1           0       -1.134284   -1.121834   -0.000042
 ---------------------------------------------------------------------
 Rotational constants (GHZ):          49.7708210           9.9457194           8.7336080
 Leave Link  202 at Tue Jun 16 15:32:22 2026, MaxMem=  4294967296 cpu:               0.1 elap:               0.0
 (Enter /lrz/sys/applications/gaussian/g16.C.01/x86_64_legacy/exe/l301.exe)
 Standard basis: def2TZVP (5D, 7F)
 Ernie: Thresh=  0.10000D-02 Tol=  0.10000D-05 Strict=F.
 There are   138 symmetry adapted cartesian basis functions of A   symmetry.
 There are   123 symmetry adapted basis functions of A   symmetry.
   123 basis functions,   193 primitive gaussians,   138 cartesian basis functions
    12 alpha electrons       12 beta electrons
       nuclear repulsion energy        77.4786466340 Hartrees.
 IExCor= 4639 DFT=T Ex+Corr=wB97XD ExCW=0 ScaHFX=  1.000000
 ScaDFX=  1.000000  1.000000  1.000000  1.000000 ScalE2=  1.000000  1.000000
 IRadAn=      5 IRanWt=     -1 IRanGd=            0 ICorTp=0 IEmpDi=121
 HFx  wShort=  0.000000 wLong=  0.200000 cFull=  0.222036 cShort=  0.000000 cLong=  0.777964
 DFx  wShort=  0.000000 wLong=  0.200000 cFull=  0.000000 cShort=  0.000000 cLong=  1.000000
 NAtoms=    8 NActive=    8 NUniq=    8 SFac= 1.00D+00 NAtFMM=   60 NAOKFM=F Big=F
 Integral buffers will be    131072 words long.
 Raffenetti 2 integral format.
 Two-electron integral symmetry is turned on.
 R6Disp:  Grimme-D2 Dispersion energy=       -0.0017897769 Hartrees.
 Nuclear repulsion after empirical dispersion term =       77.4768568571 Hartrees.
 ------------------------------------------------------------------------------
 Polarizable Continuum Model (PCM)
 =================================
 Model                : PCM.
 Atomic radii         : SMD-Coulomb.
 Polarization charges : Total charges.
 Charge compensation  : None.
 Solution method      : On-the-fly selection.
 Cavity type          : VdW (van der Waals Surface) (Alpha=1.000).
 Cavity algorithm     : GePol (No added spheres)
                        Default sphere list used, NSphG=    8.
                        Lebedev-Laikov grids with approx.  5.0 points / Ang**2.
                        Smoothing algorithm: York/Karplus (Gamma=1.0000).
                        Polarization charges: spherical gaussians, with
                                              point-specific exponents (IZeta= 3).
                        Self-potential: point-specific (ISelfS= 7).
                        Self-field    : sphere-specific E.n sum rule (ISelfD= 2).
 Solvent              : Water, Eps=  78.355300 Eps(inf)=   1.777849
 ------------------------------------------------------------------------------
 Spheres list:
 ISph  on   Nord     Re0    Alpha      Xe            Ye            Ze
    1   C      1    1.8500  1.000      1.188977     -0.183720      0.000003
    2   C      2    1.8500  1.000     -0.112847      0.452397      0.000023
    3   H      3    1.2000  1.000      1.137796     -1.279178     -0.000019
    4   H      4    1.2000  1.000      1.736656      0.202417     -0.877165
    5   H      5    1.2000  1.000      1.736653      0.202382      0.877188
    6   H      6    1.2000  1.000     -0.204628      1.546311      0.000010
    7   O      7    1.5200  1.000     -1.216122     -0.145270     -0.000016
    8   H      8    1.2000  1.000     -1.134284     -1.121834     -0.000042
 ------------------------------------------------------------------------------
 GePol: Number of generator spheres                  =       8
 GePol: Total number of spheres                      =       8
 GePol: Number of exposed spheres                    =       8 (100.00%)
 GePol: Number of points                             =     635
 GePol: Average weight of points                     =       0.12
 GePol: Minimum weight of points                     =   0.35D-07
 GePol: Maximum weight of points                     =    0.21991
 GePol: Number of points with low weight             =      32
 GePol: Fraction of low-weight points (<1% of avg)   =       5.04%
 GePol: Cavity surface area                          =     77.094 Ang**2
 GePol: Cavity volume                                =     53.932 Ang**3
 ------------------------------------------------------------------------------
 Atomic radii for non-electrostatic terms: SMD-CDS.
 ------------------------------------------------------------------------------
 PCM non-electrostatic energy =         0.0057619565 Hartrees.
 Nuclear repulsion after PCM non-electrostatic terms =       77.4826188136 Hartrees.
 Leave Link  301 at Tue Jun 16 15:32:22 2026, MaxMem=  4294967296 cpu:               0.5 elap:               0.1
 (Enter /lrz/sys/applications/gaussian/g16.C.01/x86_64_legacy/exe/l302.exe)
 NPDir=0 NMtPBC=     1 NCelOv=     1 NCel=       1 NClECP=     1 NCelD=      1
         NCelK=      1 NCelE2=     1 NClLst=     1 CellRange=     0.0.
 One-electron integrals computed using PRISM.
 One-electron integral symmetry used in STVInt
   1 Symmetry operations used in ECPInt.
 ECPInt:  NShTT=    1431 NPrTT=    4176 LenC2=    1430 LenP2D=    3725.
 LDataN:  DoStor=T MaxTD1= 6 Len=  172
 NBasis=   123 RedAO= T EigKep=  3.71D-04  NBF=   123
 NBsUse=   123 1.00D-06 EigRej= -1.00D+00 NBFU=   123
 Precomputing XC quadrature grid using
 IXCGrd= 4 IRadAn=           5 IRanWt=          -1 IRanGd=           0 AccXCQ= 0.00D+00.
 Generated NRdTot=       0 NPtTot=           0 NUsed=           0 NTot=          32
 NSgBfM=   138   138   138   138   138 MxSgAt=     8 MxSgA2=     8.
 Leave Link  302 at Tue Jun 16 15:32:23 2026, MaxMem=  4294967296 cpu:               1.3 elap:               0.2
 (Enter /lrz/sys/applications/gaussian/g16.C.01/x86_64_legacy/exe/l303.exe)
 DipDrv:  MaxL=1.
 Leave Link  303 at Tue Jun 16 15:32:23 2026, MaxMem=  4294967296 cpu:               0.2 elap:               0.1
 (Enter /lrz/sys/applications/gaussian/g16.C.01/x86_64_legacy/exe/l401.exe)
 ExpMin= 9.52D-02 ExpMax= 2.70D+04 ExpMxC= 9.22D+02 IAcc=3 IRadAn=         5 AccDes= 0.00D+00
 Harris functional with IExCor= 4639 and IRadAn=       5 diagonalized for initial guess.
 HarFok:  IExCor= 4639 AccDes= 0.00D+00 IRadAn=         5 IDoV= 1 UseB2=F ITyADJ=14
 ICtDFT=  3500011 ScaDFX=  1.000000  1.000000  1.000000  1.000000
 FoFCou: FMM=F IPFlag=           0 FMFlag=      100000 FMFlg1=           0
         NFxFlg=           0 DoJE=T BraDBF=F KetDBF=T FulRan=T
         wScrn=  0.000000 ICntrl=       500 IOpCl=  0 I1Cent=   200000004 NGrid=           0
         NMat0=    1 NMatS0=      1 NMatT0=    0 NMatD0=    1 NMtDS0=    0 NMtDT0=    0
 Petite list used in FoFCou.
 Harris En= -147.815733572067    
 JPrj=0 DoOrth=F DoCkMO=F.
 Leave Link  401 at Tue Jun 16 15:32:23 2026, MaxMem=  4294967296 cpu:               5.7 elap:               0.7
 (Enter /lrz/sys/applications/gaussian/g16.C.01/x86_64_legacy/exe/l502.exe)
 Keep R1 ints in memory in canonical form, NReq=66830138.
 FoFCou: FMM=F IPFlag=           0 FMFlag=           0 FMFlg1=           0
         NFxFlg=           0 DoJE=F BraDBF=F KetDBF=F FulRan=T
         wScrn=  0.000000 ICntrl=       600 IOpCl=  0 I1Cent=           0 NGrid=           0
         NMat0=    1 NMatS0=   7626 NMatT0=    0 NMatD0=    1 NMtDS0=    0 NMtDT0=    0
 Symmetry not used in FoFCou.
 Two-electron integral symmetry not used.
 Closed shell SCF:
 Using DIIS extrapolation, IDIIS=  1040.
 NGot=  4294967296 LenX=  4236763000 LenY=  4236743515
 Requested convergence on RMS density matrix=1.00D-08 within 128 cycles.
 Requested convergence on MAX density matrix=1.00D-06.
 Requested convergence on             energy=1.00D-06.
 No special actions if energy rises.

 Cycle   1  Pass 1  IDiag  1:
 Inv3:  Mode=1 IEnd=     1209675.
 Iteration    1 A*A^-1 deviation from unit magnitude is 3.55D-15 for    513.
 Iteration    1 A*A^-1 deviation from orthogonality  is 3.19D-15 for    424    233.
 Iteration    1 A^-1*A deviation from unit magnitude is 3.33D-15 for    259.
 Iteration    1 A^-1*A deviation from orthogonality  is 2.61D-15 for    432    368.
 E= -154.171138638058    
 DIIS: error= 4.40D-02 at cycle   1 NSaved=   1.
 NSaved= 1 IEnMin= 1 EnMin= -154.171138638058     IErMin= 1 ErrMin= 4.40D-02
 ErrMax= 4.40D-02  0.00D+00 EMaxC= 1.00D-01 BMatC= 3.94D-01 BMatP= 3.94D-01
 IDIUse=3 WtCom= 5.60D-01 WtEn= 4.40D-01
 Coeff-Com:  0.100D+01
 Coeff-En:   0.100D+01
 Coeff:      0.100D+01
 Gap=     0.497 Goal=   None    Shift=    0.000
 GapD=    0.497 DampG=2.000 DampE=0.500 DampFc=1.0000 IDamp=-1.
 RMSDP=3.13D-03 MaxDP=7.10D-02              OVMax= 1.41D-01

 Cycle   2  Pass 1  IDiag  1:
 E= -154.201878697045     Delta-E=       -0.030740058988 Rises=F Damp=F
 DIIS: error= 2.95D-02 at cycle   2 NSaved=   2.
 NSaved= 2 IEnMin= 2 EnMin= -154.201878697045     IErMin= 2 ErrMin= 2.95D-02
 ErrMax= 2.95D-02  0.00D+00 EMaxC= 1.00D-01 BMatC= 1.10D-01 BMatP= 3.94D-01
 IDIUse=3 WtCom= 7.05D-01 WtEn= 2.95D-01
 Coeff-Com:  0.306D+00 0.694D+00
 Coeff-En:   0.381D+00 0.619D+00
 Coeff:      0.328D+00 0.672D+00
 Gap=     0.503 Goal=   None    Shift=    0.000
 RMSDP=1.45D-03 MaxDP=5.86D-02 DE=-3.07D-02 OVMax= 1.10D-01

 Cycle   3  Pass 1  IDiag  1:
 E= -154.254729581294     Delta-E=       -0.052850884249 Rises=F Damp=F
 DIIS: error= 1.24D-02 at cycle   3 NSaved=   3.
 NSaved= 3 IEnMin= 3 EnMin= -154.254729581294     IErMin= 3 ErrMin= 1.24D-02
 ErrMax= 1.24D-02  0.00D+00 EMaxC= 1.00D-01 BMatC= 2.12D-02 BMatP= 1.10D-01
 IDIUse=3 WtCom= 8.76D-01 WtEn= 1.24D-01
 Coeff-Com:  0.345D-01 0.312D+00 0.653D+00
 Coeff-En:   0.000D+00 0.131D+00 0.869D+00
 Coeff:      0.302D-01 0.290D+00 0.680D+00
 Gap=     0.479 Goal=   None    Shift=    0.000
 RMSDP=5.85D-04 MaxDP=2.20D-02 DE=-5.29D-02 OVMax= 4.37D-02

 Cycle   4  Pass 1  IDiag  1:
 E= -154.267592626448     Delta-E=       -0.012863045153 Rises=F Damp=F
 DIIS: error= 2.79D-03 at cycle   4 NSaved=   4.
 NSaved= 4 IEnMin= 4 EnMin= -154.267592626448     IErMin= 4 ErrMin= 2.79D-03
 ErrMax= 2.79D-03  0.00D+00 EMaxC= 1.00D-01 BMatC= 1.22D-03 BMatP= 2.12D-02
 IDIUse=3 WtCom= 9.72D-01 WtEn= 2.79D-02
 Coeff-Com:  0.475D-02 0.936D-01 0.309D+00 0.593D+00
 Coeff-En:   0.000D+00 0.000D+00 0.000D+00 0.100D+01
 Coeff:      0.462D-02 0.910D-01 0.300D+00 0.604D+00
 Gap=     0.466 Goal=   None    Shift=    0.000
 RMSDP=1.33D-04 MaxDP=4.12D-03 DE=-1.29D-02 OVMax= 8.40D-03

 Cycle   5  Pass 1  IDiag  1:
 E= -154.268429070865     Delta-E=       -0.000836444418 Rises=F Damp=F
 DIIS: error= 2.66D-04 at cycle   5 NSaved=   5.
 NSaved= 5 IEnMin= 5 EnMin= -154.268429070865     IErMin= 5 ErrMin= 2.66D-04
 ErrMax= 2.66D-04  0.00D+00 EMaxC= 1.00D-01 BMatC= 8.84D-06 BMatP= 1.22D-03
 IDIUse=3 WtCom= 9.97D-01 WtEn= 2.66D-03
 Coeff-Com: -0.157D-02-0.126D-01-0.901D-02 0.461D-01 0.977D+00
 Coeff-En:   0.000D+00 0.000D+00 0.000D+00 0.000D+00 0.100D+01
 Coeff:     -0.157D-02-0.126D-01-0.898D-02 0.460D-01 0.977D+00
 Gap=     0.467 Goal=   None    Shift=    0.000
 RMSDP=4.50D-05 MaxDP=8.51D-04 DE=-8.36D-04 OVMax= 2.03D-03

 Cycle   6  Pass 1  IDiag  1:
 E= -154.268442566922     Delta-E=       -0.000013496057 Rises=F Damp=F
 DIIS: error= 8.96D-05 at cycle   6 NSaved=   6.
 NSaved= 6 IEnMin= 6 EnMin= -154.268442566922     IErMin= 6 ErrMin= 8.96D-05
 ErrMax= 8.96D-05  0.00D+00 EMaxC= 1.00D-01 BMatC= 9.15D-07 BMatP= 8.84D-06
 IDIUse=1 WtCom= 1.00D+00 WtEn= 0.00D+00
 Coeff-Com: -0.442D-03-0.754D-02-0.187D-01-0.298D-01 0.198D+00 0.858D+00
 Coeff:     -0.442D-03-0.754D-02-0.187D-01-0.298D-01 0.198D+00 0.858D+00
 Gap=     0.467 Goal=   None    Shift=    0.000
 RMSDP=1.08D-05 MaxDP=2.24D-04 DE=-1.35D-05 OVMax= 5.30D-04

 Cycle   7  Pass 1  IDiag  1:
 E= -154.268443827283     Delta-E=       -0.000001260361 Rises=F Damp=F
 DIIS: error= 2.88D-05 at cycle   7 NSaved=   7.
 NSaved= 7 IEnMin= 7 EnMin= -154.268443827283     IErMin= 7 ErrMin= 2.88D-05
 ErrMax= 2.88D-05  0.00D+00 EMaxC= 1.00D-01 BMatC= 9.30D-08 BMatP= 9.15D-07
 IDIUse=1 WtCom= 1.00D+00 WtEn= 0.00D+00
 Coeff-Com:  0.894D-04 0.590D-03-0.107D-02-0.121D-01-0.787D-01 0.164D+00
 Coeff-Com:  0.927D+00
 Coeff:      0.894D-04 0.590D-03-0.107D-02-0.121D-01-0.787D-01 0.164D+00
 Coeff:      0.927D+00
 Gap=     0.467 Goal=   None    Shift=    0.000
 RMSDP=3.41D-06 MaxDP=5.88D-05 DE=-1.26D-06 OVMax= 2.10D-04

 Cycle   8  Pass 1  IDiag  1:
 E= -154.268443979323     Delta-E=       -0.000000152040 Rises=F Damp=F
 DIIS: error= 4.86D-06 at cycle   8 NSaved=   8.
 NSaved= 8 IEnMin= 8 EnMin= -154.268443979323     IErMin= 8 ErrMin= 4.86D-06
 ErrMax= 4.86D-06  0.00D+00 EMaxC= 1.00D-01 BMatC= 3.53D-09 BMatP= 9.30D-08
 IDIUse=1 WtCom= 1.00D+00 WtEn= 0.00D+00
 Coeff-Com:  0.292D-04 0.395D-03 0.102D-02 0.527D-03-0.102D-01-0.446D-01
 Coeff-Com: -0.113D-01 0.106D+01
 Coeff:      0.292D-04 0.395D-03 0.102D-02 0.527D-03-0.102D-01-0.446D-01
 Coeff:     -0.113D-01 0.106D+01
 Gap=     0.467 Goal=   None    Shift=    0.000
 RMSDP=7.74D-07 MaxDP=1.49D-05 DE=-1.52D-07 OVMax= 4.80D-05

 Cycle   9  Pass 1  IDiag  1:
 E= -154.268443985851     Delta-E=       -0.000000006528 Rises=F Damp=F
 DIIS: error= 9.62D-07 at cycle   9 NSaved=   9.
 NSaved= 9 IEnMin= 9 EnMin= -154.268443985851     IErMin= 9 ErrMin= 9.62D-07
 ErrMax= 9.62D-07  0.00D+00 EMaxC= 1.00D-01 BMatC= 1.09D-10 BMatP= 3.53D-09
 IDIUse=1 WtCom= 1.00D+00 WtEn= 0.00D+00
 Coeff-Com: -0.164D-05-0.783D-05 0.123D-03 0.540D-03 0.331D-02-0.945D-02
 Coeff-Com: -0.412D-01 0.109D-01 0.104D+01
 Coeff:     -0.164D-05-0.783D-05 0.123D-03 0.540D-03 0.331D-02-0.945D-02
 Coeff:     -0.412D-01 0.109D-01 0.104D+01
 Gap=     0.467 Goal=   None    Shift=    0.000
 RMSDP=1.91D-07 MaxDP=3.95D-06 DE=-6.53D-09 OVMax= 6.50D-06

 Cycle  10  Pass 1  IDiag  1:
 E= -154.268443986042     Delta-E=       -0.000000000190 Rises=F Damp=F
 DIIS: error= 1.56D-07 at cycle  10 NSaved=  10.
 NSaved=10 IEnMin=10 EnMin= -154.268443986042     IErMin=10 ErrMin= 1.56D-07
 ErrMax= 1.56D-07  0.00D+00 EMaxC= 1.00D-01 BMatC= 1.57D-12 BMatP= 1.09D-10
 IDIUse=1 WtCom= 1.00D+00 WtEn= 0.00D+00
 Coeff-Com:  0.222D-06-0.902D-06-0.219D-04-0.636D-04-0.333D-03 0.171D-02
 Coeff-Com:  0.581D-02-0.192D-01-0.110D+00 0.112D+01
 Coeff:      0.222D-06-0.902D-06-0.219D-04-0.636D-04-0.333D-03 0.171D-02
 Coeff:      0.581D-02-0.192D-01-0.110D+00 0.112D+01
 Gap=     0.467 Goal=   None    Shift=    0.000
 RMSDP=3.41D-08 MaxDP=6.25D-07 DE=-1.90D-10 OVMax= 1.80D-06

 Cycle  11  Pass 1  IDiag  1:
 E= -154.268443986048     Delta-E=       -0.000000000007 Rises=F Damp=F
 DIIS: error= 3.39D-08 at cycle  11 NSaved=  11.
 NSaved=11 IEnMin=11 EnMin= -154.268443986048     IErMin=11 ErrMin= 3.39D-08
 ErrMax= 3.39D-08  0.00D+00 EMaxC= 1.00D-01 BMatC= 1.45D-13 BMatP= 1.57D-12
 IDIUse=1 WtCom= 1.00D+00 WtEn= 0.00D+00
 Coeff-Com:  0.417D-07 0.884D-06-0.282D-06-0.136D-04-0.125D-03 0.153D-03
 Coeff-Com:  0.137D-02 0.190D-02-0.394D-01-0.105D+00 0.114D+01
 Coeff:      0.417D-07 0.884D-06-0.282D-06-0.136D-04-0.125D-03 0.153D-03
 Coeff:      0.137D-02 0.190D-02-0.394D-01-0.105D+00 0.114D+01
 Gap=     0.467 Goal=   None    Shift=    0.000
 RMSDP=7.98D-09 MaxDP=1.02D-07 DE=-6.54D-12 OVMax= 5.46D-07

 Error on total polarization charges =  0.02020
 SCF Done:  E(RwB97XD) =  -154.268443986     A.U. after   11 cycles
            NFock= 11  Conv=0.80D-08     -V/T= 2.0057
 KE= 1.533963788773D+02 PE=-5.083494955965D+02 EE= 1.232020539195D+02
 SMD-CDS (non-electrostatic) energy       (kcal/mol) =       3.62
 (included in total energy above)
 Leave Link  502 at Tue Jun 16 15:32:35 2026, MaxMem=  4294967296 cpu:              86.4 elap:              11.3
 (Enter /lrz/sys/applications/gaussian/g16.C.01/x86_64_legacy/exe/l601.exe)
 Copying SCF densities to generalized density rwf, IOpCl= 0 IROHF=0.

 **********************************************************************

            Population analysis using the SCF Density.

 **********************************************************************

 Orbital symmetries:
       Occupied  (A) (A) (A) (A) (A) (A) (A) (A) (A) (A) (A) (A)
       Virtual   (A) (A) (A) (A) (A) (A) (A) (A) (A) (A) (A) (A)
                 (A) (A) (A) (A) (A) (A) (A) (A) (A) (A) (A) (A)
                 (A) (A) (A) (A) (A) (A) (A) (A) (A) (A) (A) (A)
                 (A) (A) (A) (A) (A) (A) (A) (A) (A) (A) (A) (A)
                 (A) (A) (A) (A) (A) (A) (A) (A) (A) (A) (A) (A)
                 (A) (A) (A) (A) (A) (A) (A) (A) (A) (A) (A) (A)
                 (A) (A) (A) (A) (A) (A) (A) (A) (A) (A) (A) (A)
                 (A) (A) (A) (A) (A) (A) (A) (A) (A) (A) (A) (A)
                 (A) (A) (A) (A) (A) (A) (A) (A) (A) (A) (A) (A)
                 (A) (A) (A)
 The electronic state is 1-A.
 Alpha  occ. eigenvalues --  -19.38223 -10.45940 -10.31465  -1.27964  -0.90726
 Alpha  occ. eigenvalues --   -0.80499  -0.65149  -0.63509  -0.58965  -0.50837
 Alpha  occ. eigenvalues --   -0.50355  -0.49175
 Alpha virt. eigenvalues --   -0.02523   0.11893   0.14384   0.16451   0.18608
 Alpha virt. eigenvalues --    0.18767   0.24129   0.26960   0.28975   0.32707
 Alpha virt. eigenvalues --    0.32907   0.34228   0.39754   0.41435   0.45607
 Alpha virt. eigenvalues --    0.47824   0.48474   0.51326   0.51720   0.56643
 Alpha virt. eigenvalues --    0.56940   0.58151   0.64061   0.68627   0.73761
 Alpha virt. eigenvalues --    0.77803   0.82110   0.83976   0.98709   1.02368
 Alpha virt. eigenvalues --    1.05225   1.07164   1.08845   1.16664   1.24926
 Alpha virt. eigenvalues --    1.33769   1.47314   1.47351   1.56262   1.57577
 Alpha virt. eigenvalues --    1.57984   1.62084   1.63088   1.70066   1.70463
 Alpha virt. eigenvalues --    1.76727   1.82539   1.85608   1.86117   2.02781
 Alpha virt. eigenvalues --    2.04548   2.07212   2.16114   2.19188   2.25554
 Alpha virt. eigenvalues --    2.31751   2.32917   2.33773   2.40415   2.42125
 Alpha virt. eigenvalues --    2.51597   2.56440   2.60369   2.65475   2.65826
 Alpha virt. eigenvalues --    2.71839   2.83402   2.85232   2.86968   2.88935
 Alpha virt. eigenvalues --    2.95788   3.00179   3.06828   3.13876   3.14219
 Alpha virt. eigenvalues --    3.15351   3.15605   3.29392   3.30021   3.38987
 Alpha virt. eigenvalues --    3.45775   3.48300   3.56128   3.57223   3.80910
 Alpha virt. eigenvalues --    3.85921   3.95529   3.98020   4.05790   4.08997
 Alpha virt. eigenvalues --    4.27344   4.43059   4.45400   4.51547   4.60787
 Alpha virt. eigenvalues --    4.71172   5.25153   5.39676   5.54578   5.96964
 Alpha virt. eigenvalues --    5.97977   6.32660   6.34882   6.40166   6.74417
 Alpha virt. eigenvalues --    6.75210   6.98797   7.18203  22.34391  22.74525
 Alpha virt. eigenvalues --   43.72439
          Condensed to atoms (all electrons):
               1          2          3          4          5          6
     1  C    4.884690   0.396157   0.402484   0.374638   0.374640  -0.027087
     2  C    0.396157   4.566043  -0.026852  -0.009261  -0.009263   0.388220
     3  H    0.402484  -0.026852   0.457791  -0.011901  -0.011901   0.002941
     4  H    0.374638  -0.009261  -0.011901   0.446086  -0.012789  -0.000660
     5  H    0.374640  -0.009263  -0.011901  -0.012789   0.446088  -0.000661
     6  H   -0.027087   0.388220   0.002941  -0.000660  -0.000661   0.418847
     7  O   -0.052875   0.448599  -0.001929   0.000881   0.000882  -0.028543
     8  H   -0.003719  -0.026331   0.004403   0.000127   0.000127   0.004686
               7          8
     1  C   -0.052875  -0.003719
     2  C    0.448599  -0.026331
     3  H   -0.001929   0.004403
     4  H    0.000881   0.000127
     5  H    0.000882   0.000127
     6  H   -0.028543   0.004686
     7  O    7.559190   0.294806
     8  H    0.294806   0.281630
 Mulliken charges:
               1
     1  C   -0.348928
     2  C    0.272688
     3  H    0.184965
     4  H    0.212879
     5  H    0.212877
     6  H    0.242257
     7  O   -0.221010
     8  H    0.444272
 Sum of Mulliken charges =   1.00000
 Mulliken charges with hydrogens summed into heavy atoms:
               1
     1  C    0.261793
     2  C    0.514945
     7  O    0.223262
 Electronic spatial extent (au):  <R**2>=            163.9757
 Charge=              1.0000 electrons
 Dipole moment (field-independent basis, Debye):
    X=              0.8053    Y=             -0.6178    Z=             -0.0000  Tot=              1.0150
 Quadrupole moment (field-independent basis, Debye-Ang):
   XX=            -13.3253   YY=            -10.7356   ZZ=            -16.1267
   XY=              2.3629   XZ=              0.0001   YZ=              0.0001
 Traceless Quadrupole moment (field-independent basis, Debye-Ang):
   XX=              0.0706   YY=              2.6602   ZZ=             -2.7308
   XY=              2.3629   XZ=              0.0001   YZ=              0.0001
 Octapole moment (field-independent basis, Debye-Ang**2):
  XXX=              0.7289  YYY=             -2.2637  ZZZ=             -0.0000  XYY=             -5.1597
  XXY=             -3.2697  XXZ=             -0.0002  XZZ=              0.3781  YZZ=              0.4697
  YYZ=             -0.0002  XYZ=             -0.0002
 Hexadecapole moment (field-independent basis, Debye-Ang**3):
 XXXX=           -126.5221 YYYY=            -24.8860 ZZZZ=            -19.3322 XXXY=              8.2171
 XXXZ=             -0.0003 YYYX=              3.7729 YYYZ=             -0.0000 ZZZX=             -0.0003
 ZZZY=             -0.0002 XXYY=            -23.7014 XXZZ=            -21.6841 YYZZ=            -10.1783
 XXYZ=              0.0000 YYXZ=             -0.0001 ZZXY=              1.9409
 N-N= 7.748261881359D+01 E-N=-5.083494957444D+02  KE= 1.533963788773D+02
 No NMR shielding tensors so no spin-rotation constants.
 Leave Link  601 at Tue Jun 16 15:32:35 2026, MaxMem=  4294967296 cpu:               1.0 elap:               0.1
 (Enter /lrz/sys/applications/gaussian/g16.C.01/x86_64_legacy/exe/l9999.exe)
 Unable to Open any file for archive entry.
 1\1\GINC-CM4R07C01S03\SP\RwB97XD\def2TZVP\C2H5O1(1+)\GO29TIZ2\16-Jun-2
 026\0\\#p wb97xd scrf=(smd,solvent=water) def2tzvp\\g16_C1_h_2\\1,1\C,
 0,1.188977,-0.18372,0.000003\C,0,-0.112847,0.452397,0.000023\H,0,1.137
 796,-1.279178,-0.000019\H,0,1.736656,0.202417,-0.877165\H,0,1.736653,0
 .202382,0.877188\H,0,-0.204628,1.546311,0.00001\O,0,-1.216122,-0.14527
 ,-0.000016\H,0,-1.134284,-1.121834,-0.000042\\Version=EM64L-G16RevC.01
 \State=1-A\HF=-154.268444\RMSD=7.982e-09\Dipole=0.316837,-0.243046,-0.
 0000065\Quadrupole=0.0524631,1.9778119,-2.030275,1.7567213,0.0000443,0
 .0001041\PG=C01 [X(C2H5O1)]\\@
 The archive entry for this job was punched.


 ROSE IS A RED
 TY COBB IS BLUE
 'CAUSE PETE JUST HIT
 NO. 4592.
 Job cpu time:       0 days  0 hours  1 minutes 41.2 seconds.
 Elapsed time:       0 days  0 hours  0 minutes 13.4 seconds.
 File lengths (MBytes):  RWF=    272 Int=      0 D2E=      0 Chk=      8 Scr=     32
 Normal termination of Gaussian 16 at Tue Jun 16 15:32:35 2026.
