 Entering Gaussian System, Link 0=g16
 Input=../../g16_g16_C4-a_2.com
 Output=../../g16_g16_C4-a_2.log
 Initial command:
 /lrz/sys/applications/gaussian/g16.C.01/x86_64_legacy/exe/l1.exe "/dss/lxclscratch/0D/go29tiz2/Gau-22219.inp" -scrdir="/dss/lxclscratch/0D/go29tiz2/"
 Entering Link 1 = /lrz/sys/applications/gaussian/g16.C.01/x86_64_legacy/exe/l1.exe PID=     22220.
  
 Copyright (c) 1988-2019, Gaussian, Inc.  All Rights Reserved.
  
 This is part of the Gaussian(R) 16 program.  It is based on
 the Gaussian(R) 09 system (copyright 2009, Gaussian, Inc.),
 the Gaussian(R) 03 system (copyright 2003, Gaussian, Inc.),
 the Gaussian(R) 98 system (copyright 1998, Gaussian, Inc.),
 the Gaussian(R) 94 system (copyright 1995, Gaussian, Inc.),
 the Gaussian 92(TM) system (copyright 1992, Gaussian, Inc.),
 the Gaussian 90(TM) system (copyright 1990, Gaussian, Inc.),
 the Gaussian 88(TM) system (copyright 1988, Gaussian, Inc.),
 the Gaussian 86(TM) system (copyright 1986, Carnegie Mellon
 University), and the Gaussian 82(TM) system (copyright 1983,
 Carnegie Mellon University). Gaussian is a federally registered
 trademark of Gaussian, Inc.
  
 This software contains proprietary and confidential information,
 including trade secrets, belonging to Gaussian, Inc.
  
 This software is provided under written license and may be
 used, copied, transmitted, or stored only in accord with that
 written license.
  
 The following legend is applicable only to US Government
 contracts under FAR:
  
                    RESTRICTED RIGHTS LEGEND
  
 Use, reproduction and disclosure by the US Government is
 subject to restrictions as set forth in subparagraphs (a)
 and (c) of the Commercial Computer Software - Restricted
 Rights clause in FAR 52.227-19.
  
 Gaussian, Inc.
 340 Quinnipiac St., Bldg. 40, Wallingford CT 06492
  
  
 ---------------------------------------------------------------
 Warning -- This program may not be used in any manner that
 competes with the business of Gaussian, Inc. or will provide
 assistance to any competitor of Gaussian, Inc.  The licensee
 of this program is prohibited from giving any competitor of
 Gaussian, Inc. access to this program.  By using this program,
 the user acknowledges that Gaussian, Inc. is engaged in the
 business of creating and licensing software in the field of
 computational chemistry and represents and warrants to the
 licensee that it is not a competitor of Gaussian, Inc. and that
 it will not use this program in any manner prohibited above.
 ---------------------------------------------------------------
  

 Cite this work as:
 Gaussian 16, Revision C.01,
 M. J. Frisch, G. W. Trucks, H. B. Schlegel, G. E. Scuseria, 
 M. A. Robb, J. R. Cheeseman, G. Scalmani, V. Barone, 
 G. A. Petersson, H. Nakatsuji, X. Li, M. Caricato, A. V. Marenich, 
 J. Bloino, B. G. Janesko, R. Gomperts, B. Mennucci, H. P. Hratchian, 
 J. V. Ortiz, A. F. Izmaylov, J. L. Sonnenberg, D. Williams-Young, 
 F. Ding, F. Lipparini, F. Egidi, J. Goings, B. Peng, A. Petrone, 
 T. Henderson, D. Ranasinghe, V. G. Zakrzewski, J. Gao, N. Rega, 
 G. Zheng, W. Liang, M. Hada, M. Ehara, K. Toyota, R. Fukuda, 
 J. Hasegawa, M. Ishida, T. Nakajima, Y. Honda, O. Kitao, H. Nakai, 
 T. Vreven, K. Throssell, J. A. Montgomery, Jr., J. E. Peralta, 
 F. Ogliaro, M. J. Bearpark, J. J. Heyd, E. N. Brothers, K. N. Kudin, 
 V. N. Staroverov, T. A. Keith, R. Kobayashi, J. Normand, 
 K. Raghavachari, A. P. Rendell, J. C. Burant, S. S. Iyengar, 
 J. Tomasi, M. Cossi, J. M. Millam, M. Klene, C. Adamo, R. Cammi, 
 J. W. Ochterski, R. L. Martin, K. Morokuma, O. Farkas, 
 J. B. Foresman, and D. J. Fox, Gaussian, Inc., Wallingford CT, 2019.
 
 ******************************************
 Gaussian 16:  EM64L-G16RevC.01  3-Jul-2019
                22-Oct-2025 
 ******************************************
 %chk=g16_g16_C4-a_2.chk
 %nprocshared=8
 Will use up to    8 processors via shared memory.
 %mem=32GB
 -------------------------------------------
 #p wb97xd scrf=(smd,solvent=water) def2tzvp
 -------------------------------------------
 1/38=1,172=1/1;
 2/12=2,17=6,18=5,40=1/2;
 3/5=44,7=101,11=2,25=1,30=1,70=32201,72=1,74=-58/1,2,3;
 4//1;
 5/5=2,38=5,53=1/2;
 6/7=2,8=2,9=2,10=2,28=1/1;
 99/5=1,9=1/99;
 Leave Link    1 at Wed Oct 22 10:14:13 2025, MaxMem=  4294967296 cpu:               4.6 elap:               0.7
 (Enter /lrz/sys/applications/gaussian/g16.C.01/x86_64_legacy/exe/l101.exe)
 --------------
 g16_g16_C4-a_2
 --------------
 Symbolic Z-matrix:
 Charge =  0 Multiplicity = 1
 O                    -1.52471   1.18426   0.07186 
 C                    -0.86634   0.03211  -0.4501 
 N                    -1.60456  -1.14041  -0.08553 
 C                     0.61439  -0.03429   0.00415 
 C                     0.71026  -0.18537   1.52681 
 C                     1.30038  -1.21813  -0.68537 
 C                     1.3208    1.26037  -0.42124 
 H                    -1.15034   1.96967  -0.34438 
 H                    -0.8691    0.09969  -1.55423 
 H                    -2.55879  -1.04752  -0.43041 
 H                    -1.67586  -1.19247   0.93093 
 H                     0.31083  -1.15247   1.87086 
 H                     1.7615   -0.13259   1.85056 
 H                     0.15765   0.61703   2.03879 
 H                     2.36595  -1.25853  -0.40923 
 H                     0.83602  -2.17288  -0.40172 
 H                     1.24189  -1.12593  -1.78231 
 H                     0.923     2.13927   0.10989 
 H                     2.39688   1.20163  -0.19601 
 H                     1.21305   1.43566  -1.5044 
 
 ITRead=  0  0  0  0  0  0  0  0  0  0  0  0  0  0  0  0  0  0  0  0
 MicOpt= -1 -1 -1 -1 -1 -1 -1 -1 -1 -1 -1 -1 -1 -1 -1 -1 -1 -1 -1 -1
 NAtoms=     20 NQM=       20 NQMF=       0 NMMI=      0 NMMIF=      0
                NMic=       0 NMicF=      0.
                    Isotopes and Nuclear Properties:
 (Nuclear quadrupole moments (NQMom) in fm**2, nuclear magnetic moments (NMagM)
  in nuclear magnetons)

  Atom         1           2           3           4           5           6           7           8           9          10
 IAtWgt=          16          12          14          12          12          12          12           1           1           1
 AtmWgt=  15.9949146  12.0000000  14.0030740  12.0000000  12.0000000  12.0000000  12.0000000   1.0078250   1.0078250   1.0078250
 NucSpn=           0           0           2           0           0           0           0           1           1           1
 AtZEff=  -0.0000000  -0.0000000  -0.0000000  -0.0000000  -0.0000000  -0.0000000  -0.0000000  -0.0000000  -0.0000000  -0.0000000
 NQMom=    0.0000000   0.0000000   2.0440000   0.0000000   0.0000000   0.0000000   0.0000000   0.0000000   0.0000000   0.0000000
 NMagM=    0.0000000   0.0000000   0.4037610   0.0000000   0.0000000   0.0000000   0.0000000   2.7928460   2.7928460   2.7928460
 AtZNuc=   8.0000000   6.0000000   7.0000000   6.0000000   6.0000000   6.0000000   6.0000000   1.0000000   1.0000000   1.0000000

  Atom        11          12          13          14          15          16          17          18          19          20
 IAtWgt=           1           1           1           1           1           1           1           1           1           1
 AtmWgt=   1.0078250   1.0078250   1.0078250   1.0078250   1.0078250   1.0078250   1.0078250   1.0078250   1.0078250   1.0078250
 NucSpn=           1           1           1           1           1           1           1           1           1           1
 AtZEff=  -0.0000000  -0.0000000  -0.0000000  -0.0000000  -0.0000000  -0.0000000  -0.0000000  -0.0000000  -0.0000000  -0.0000000
 NQMom=    0.0000000   0.0000000   0.0000000   0.0000000   0.0000000   0.0000000   0.0000000   0.0000000   0.0000000   0.0000000
 NMagM=    2.7928460   2.7928460   2.7928460   2.7928460   2.7928460   2.7928460   2.7928460   2.7928460   2.7928460   2.7928460
 AtZNuc=   1.0000000   1.0000000   1.0000000   1.0000000   1.0000000   1.0000000   1.0000000   1.0000000   1.0000000   1.0000000
 Leave Link  101 at Wed Oct 22 10:14:13 2025, MaxMem=  4294967296 cpu:               1.2 elap:               0.2
 (Enter /lrz/sys/applications/gaussian/g16.C.01/x86_64_legacy/exe/l202.exe)
                          Input orientation:                          
 ---------------------------------------------------------------------
 Center     Atomic      Atomic             Coordinates (Angstroms)
 Number     Number       Type             X           Y           Z
 ---------------------------------------------------------------------
      1          8           0       -1.524711    1.184261    0.071861
      2          6           0       -0.866341    0.032114   -0.450097
      3          7           0       -1.604556   -1.140405   -0.085529
      4          6           0        0.614394   -0.034292    0.004149
      5          6           0        0.710263   -0.185369    1.526808
      6          6           0        1.300376   -1.218126   -0.685372
      7          6           0        1.320795    1.260371   -0.421241
      8          1           0       -1.150338    1.969672   -0.344377
      9          1           0       -0.869102    0.099685   -1.554233
     10          1           0       -2.558793   -1.047517   -0.430408
     11          1           0       -1.675859   -1.192472    0.930926
     12          1           0        0.310826   -1.152469    1.870861
     13          1           0        1.761495   -0.132590    1.850562
     14          1           0        0.157650    0.617030    2.038789
     15          1           0        2.365954   -1.258530   -0.409233
     16          1           0        0.836017   -2.172879   -0.401716
     17          1           0        1.241891   -1.125928   -1.782310
     18          1           0        0.922995    2.139267    0.109886
     19          1           0        2.396878    1.201633   -0.196008
     20          1           0        1.213052    1.435657   -1.504400
 ---------------------------------------------------------------------
                    Distance matrix (angstroms):
                    1          2          3          4          5
     1  O    0.000000
     2  C    1.425950   0.000000
     3  N    2.331356   1.432715   0.000000
     4  C    2.462768   1.550266   2.480981   0.000000
     5  C    2.997977   2.537939   2.978273   1.533136   0.000000
     6  C    3.784968   2.512592   2.967235   1.532147   2.511685
     7  C    2.888918   2.508588   3.799224   1.534963   2.501561
     8  H    0.964510   1.961112   3.153711   2.692883   3.406959
     9  H    2.061628   1.106205   2.058108   2.155752   3.473969
    10  H    2.510465   2.007582   1.018891   3.359253   3.906497
    11  H    2.531738   2.015479   1.020282   2.728654   2.657614
    12  H    3.473601   2.859336   2.737936   2.197063   1.101456
    13  H    3.961947   3.496524   4.011787   2.175947   1.101222
    14  H    2.649697   2.754131   3.272106   2.184627   1.100613
    15  H    4.619086   3.480684   3.985434   2.176604   2.764280
    16  H    4.131307   2.786101   2.668778   2.188012   2.772222
    17  H    4.053272   2.749635   3.313840   2.185602   3.481026
    18  H    2.627689   2.820532   4.145232   2.197902   2.730724
    19  H    3.930765   3.475764   4.637760   2.178261   2.781464
    20  H    3.169092   2.721280   4.072862   2.189717   3.474010
                    6          7          8          9         10
     6  C    0.000000
     7  C    2.492615   0.000000
     8  H    4.035385   2.572064   0.000000
     9  H    2.682942   2.725163   2.244927   0.000000
    10  H    3.871343   4.514159   3.330852   2.331118   0.000000
    11  H    3.386894   4.101796   3.449888   2.914883   1.629053
    12  H    2.741869   3.477868   4.097566   3.832935   3.679887
    13  H    2.796780   2.701045   4.209042   4.308900   4.970393
    14  H    3.477740   2.796166   3.036438   3.772489   4.030721
    15  H    1.101518   2.727153   4.773867   3.690713   4.929311
    16  H    1.098928   3.467362   4.594521   3.065987   3.576590
    17  H    1.102358   2.748301   4.168111   2.451619   4.034723
    18  H    3.470870   1.101271   2.129279   3.184462   4.750827
    19  H    2.701301   1.100970   3.632443   3.704820   5.447228
    20  H    2.778668   1.102528   2.686343   2.474403   4.641813
                   11         12         13         14         15
    11  H    0.000000
    12  H    2.198180   0.000000
    13  H    3.712746   1.773416   0.000000
    14  H    2.804178   1.784037   1.780359   0.000000
    15  H    4.258714   3.071421   2.596110   3.793039   0.000000
    16  H    3.007766   2.545912   3.176798   3.768267   1.782357
    17  H    3.984889   3.770046   3.801903   4.337543   1.779450
    18  H    4.304490   3.783029   2.982343   2.573640   3.727820
    19  H    4.856841   3.763689   2.524344   3.217176   2.469580
    20  H    4.602573   4.347964   3.743789   3.786583   3.128453
                   16         17         18         19         20
    16  H    0.000000
    17  H    1.779573   0.000000
    18  H    4.343260   3.787294   0.000000
    19  H    3.723699   3.044321   1.773432   0.000000
    20  H    3.792044   2.576778   1.784690   1.779916   0.000000
 Stoichiometry    C5H13NO
 Framework group  C1[X(C5H13NO)]
 Deg. of freedom    54
 Full point group                 C1      NOp   1
 Largest Abelian subgroup         C1      NOp   1
 Largest concise Abelian subgroup C1      NOp   1
                         Standard orientation:                         
 ---------------------------------------------------------------------
 Center     Atomic      Atomic             Coordinates (Angstroms)
 Number     Number       Type             X           Y           Z
 ---------------------------------------------------------------------
      1          8           0       -1.524711    1.184261    0.071861
      2          6           0       -0.866341    0.032114   -0.450097
      3          7           0       -1.604556   -1.140405   -0.085529
      4          6           0        0.614394   -0.034292    0.004149
      5          6           0        0.710263   -0.185369    1.526808
      6          6           0        1.300376   -1.218126   -0.685372
      7          6           0        1.320795    1.260371   -0.421241
      8          1           0       -1.150338    1.969672   -0.344377
      9          1           0       -0.869102    0.099685   -1.554233
     10          1           0       -2.558793   -1.047517   -0.430408
     11          1           0       -1.675859   -1.192472    0.930926
     12          1           0        0.310826   -1.152469    1.870861
     13          1           0        1.761495   -0.132590    1.850562
     14          1           0        0.157650    0.617030    2.038789
     15          1           0        2.365954   -1.258530   -0.409233
     16          1           0        0.836017   -2.172879   -0.401716
     17          1           0        1.241891   -1.125928   -1.782310
     18          1           0        0.922995    2.139267    0.109886
     19          1           0        2.396878    1.201633   -0.196008
     20          1           0        1.213052    1.435657   -1.504400
 ---------------------------------------------------------------------
 Rotational constants (GHZ):           3.1419169           2.2596253           1.8956942
 Leave Link  202 at Wed Oct 22 10:14:13 2025, MaxMem=  4294967296 cpu:               0.0 elap:               0.0
 (Enter /lrz/sys/applications/gaussian/g16.C.01/x86_64_legacy/exe/l301.exe)
 Standard basis: def2TZVP (5D, 7F)
 Ernie: Thresh=  0.10000D-02 Tol=  0.10000D-05 Strict=F.
 There are   330 symmetry adapted cartesian basis functions of A   symmetry.
 There are   295 symmetry adapted basis functions of A   symmetry.
   295 basis functions,   461 primitive gaussians,   330 cartesian basis functions
    29 alpha electrons       29 beta electrons
       nuclear repulsion energy       350.8954473490 Hartrees.
 IExCor= 4639 DFT=T Ex+Corr=wB97XD ExCW=0 ScaHFX=  1.000000
 ScaDFX=  1.000000  1.000000  1.000000  1.000000 ScalE2=  1.000000  1.000000
 IRadAn=      5 IRanWt=     -1 IRanGd=            0 ICorTp=0 IEmpDi=121
 HFx  wShort=  0.000000 wLong=  0.200000 cFull=  0.222036 cShort=  0.000000 cLong=  0.777964
 DFx  wShort=  0.000000 wLong=  0.200000 cFull=  0.000000 cShort=  0.000000 cLong=  1.000000
 NAtoms=   20 NActive=   20 NUniq=   20 SFac= 1.00D+00 NAtFMM=   60 NAOKFM=F Big=F
 Integral buffers will be    131072 words long.
 Raffenetti 2 integral format.
 Two-electron integral symmetry is turned on.
 R6Disp:  Grimme-D2 Dispersion energy=       -0.0138292209 Hartrees.
 Nuclear repulsion after empirical dispersion term =      350.8816181280 Hartrees.
 ------------------------------------------------------------------------------
 Polarizable Continuum Model (PCM)
 =================================
 Model                : PCM.
 Atomic radii         : SMD-Coulomb.
 Polarization charges : Total charges.
 Charge compensation  : None.
 Solution method      : On-the-fly selection.
 Cavity type          : VdW (van der Waals Surface) (Alpha=1.000).
 Cavity algorithm     : GePol (No added spheres)
                        Default sphere list used, NSphG=   20.
                        Lebedev-Laikov grids with approx.  5.0 points / Ang**2.
                        Smoothing algorithm: York/Karplus (Gamma=1.0000).
                        Polarization charges: spherical gaussians, with
                                              point-specific exponents (IZeta= 3).
                        Self-potential: point-specific (ISelfS= 7).
                        Self-field    : sphere-specific E.n sum rule (ISelfD= 2).
 Solvent              : Water, Eps=  78.355300 Eps(inf)=   1.777849
 ------------------------------------------------------------------------------
 Spheres list:
 ISph  on   Nord     Re0    Alpha      Xe            Ye            Ze
    1   O      1    1.5200  1.000     -1.524711      1.184261      0.071861
    2   C      2    1.8500  1.000     -0.866341      0.032114     -0.450097
    3   N      3    1.8900  1.000     -1.604556     -1.140405     -0.085529
    4   C      4    1.8500  1.000      0.614394     -0.034292      0.004149
    5   C      5    1.8500  1.000      0.710263     -0.185369      1.526808
    6   C      6    1.8500  1.000      1.300376     -1.218126     -0.685372
    7   C      7    1.8500  1.000      1.320795      1.260371     -0.421241
    8   H      8    1.2000  1.000     -1.150338      1.969672     -0.344377
    9   H      9    1.2000  1.000     -0.869102      0.099685     -1.554233
   10   H     10    1.2000  1.000     -2.558793     -1.047517     -0.430408
   11   H     11    1.2000  1.000     -1.675859     -1.192472      0.930926
   12   H     12    1.2000  1.000      0.310826     -1.152469      1.870861
   13   H     13    1.2000  1.000      1.761495     -0.132590      1.850562
   14   H     14    1.2000  1.000      0.157650      0.617030      2.038789
   15   H     15    1.2000  1.000      2.365954     -1.258530     -0.409233
   16   H     16    1.2000  1.000      0.836017     -2.172879     -0.401716
   17   H     17    1.2000  1.000      1.241891     -1.125928     -1.782310
   18   H     18    1.2000  1.000      0.922995      2.139267      0.109886
   19   H     19    1.2000  1.000      2.396878      1.201633     -0.196008
   20   H     20    1.2000  1.000      1.213052      1.435657     -1.504400
 ------------------------------------------------------------------------------
 GePol: Number of generator spheres                  =      20
 GePol: Total number of spheres                      =      20
 GePol: Number of exposed spheres                    =      20 (100.00%)
 GePol: Number of points                             =    1299
 GePol: Average weight of points                     =       0.12
 GePol: Minimum weight of points                     =   0.47D-11
 GePol: Maximum weight of points                     =    0.21991
 GePol: Number of points with low weight             =      85
 GePol: Fraction of low-weight points (<1% of avg)   =       6.54%
 GePol: Cavity surface area                          =    151.087 Ang**2
 GePol: Cavity volume                                =    124.750 Ang**3
 ------------------------------------------------------------------------------
 Atomic radii for non-electrostatic terms: SMD-CDS.
 ------------------------------------------------------------------------------
 PCM non-electrostatic energy =         0.0044380893 Hartrees.
 Nuclear repulsion after PCM non-electrostatic terms =      350.8860562173 Hartrees.
 Leave Link  301 at Wed Oct 22 10:14:13 2025, MaxMem=  4294967296 cpu:               0.6 elap:               0.1
 (Enter /lrz/sys/applications/gaussian/g16.C.01/x86_64_legacy/exe/l302.exe)
 NPDir=0 NMtPBC=     1 NCelOv=     1 NCel=       1 NClECP=     1 NCelD=      1
         NCelK=      1 NCelE2=     1 NClLst=     1 CellRange=     0.0.
 One-electron integrals computed using PRISM.
 One-electron integral symmetry used in STVInt
   1 Symmetry operations used in ECPInt.
 ECPInt:  NShTT=    8385 NPrTT=   24064 LenC2=    8321 LenP2D=   19754.
 LDataN:  DoStor=T MaxTD1= 6 Len=  172
 NBasis=   295 RedAO= T EigKep=  1.57D-04  NBF=   295
 NBsUse=   295 1.00D-06 EigRej= -1.00D+00 NBFU=   295
 Precomputing XC quadrature grid using
 IXCGrd= 4 IRadAn=           5 IRanWt=          -1 IRanGd=           0 AccXCQ= 0.00D+00.
 Generated NRdTot=       0 NPtTot=           0 NUsed=           0 NTot=          32
 NSgBfM=   329   329   329   329   329 MxSgAt=    20 MxSgA2=    20.
 Leave Link  302 at Wed Oct 22 10:14:14 2025, MaxMem=  4294967296 cpu:               3.0 elap:               0.4
 (Enter /lrz/sys/applications/gaussian/g16.C.01/x86_64_legacy/exe/l303.exe)
 DipDrv:  MaxL=1.
 Leave Link  303 at Wed Oct 22 10:14:14 2025, MaxMem=  4294967296 cpu:               0.4 elap:               0.1
 (Enter /lrz/sys/applications/gaussian/g16.C.01/x86_64_legacy/exe/l401.exe)
 ExpMin= 9.52D-02 ExpMax= 2.70D+04 ExpMxC= 9.22D+02 IAcc=3 IRadAn=         5 AccDes= 0.00D+00
 Harris functional with IExCor= 4639 and IRadAn=       5 diagonalized for initial guess.
 HarFok:  IExCor= 4639 AccDes= 0.00D+00 IRadAn=         5 IDoV= 1 UseB2=F ITyADJ=14
 ICtDFT=  3500011 ScaDFX=  1.000000  1.000000  1.000000  1.000000
 FoFCou: FMM=F IPFlag=           0 FMFlag=      100000 FMFlg1=           0
         NFxFlg=           0 DoJE=T BraDBF=F KetDBF=T FulRan=T
         wScrn=  0.000000 ICntrl=       500 IOpCl=  0 I1Cent=   200000004 NGrid=           0
         NMat0=    1 NMatS0=      1 NMatT0=    0 NMatD0=    1 NMtDS0=    0 NMtDT0=    0
 Petite list used in FoFCou.
 Harris En= -313.563522440006    
 JPrj=0 DoOrth=F DoCkMO=F.
 Leave Link  401 at Wed Oct 22 10:14:17 2025, MaxMem=  4294967296 cpu:              22.8 elap:               2.9
 (Enter /lrz/sys/applications/gaussian/g16.C.01/x86_64_legacy/exe/l502.exe)
 Integral symmetry usage will be decided dynamically.
 Closed shell SCF:
 Using DIIS extrapolation, IDIIS=  1040.
 NGot=  4294967296 LenX=  4294743206 LenY=  4294633865
 Requested convergence on RMS density matrix=1.00D-08 within 128 cycles.
 Requested convergence on MAX density matrix=1.00D-06.
 Requested convergence on             energy=1.00D-06.
 No special actions if energy rises.
 Fock matrices will be formed incrementally for  20 cycles.

 Cycle   1  Pass 1  IDiag  1:
 FoFJK:  IHMeth= 1 ICntrl=       0 DoSepK=T KAlg= 0 I1Cent=           0 FoldK=F
 IRaf=         1 NMat=       1 IRICut=       1 DoRegI=T DoRafI=F ISym2E= 0 IDoP0=0 IntGTp=1.
 FoFCou: FMM=F IPFlag=           0 FMFlag=      100000 FMFlg1=           0
         NFxFlg=           0 DoJE=T BraDBF=F KetDBF=F FulRan=T
         wScrn=  0.000000 ICntrl=       500 IOpCl=  0 I1Cent=           0 NGrid=           0
         NMat0=    1 NMatS0=      1 NMatT0=    0 NMatD0=    1 NMtDS0=    0 NMtDT0=    0
 Symmetry not used in FoFCou.
 Inv3:  Mode=1 IEnd=     5062203.
 Iteration    1 A*A^-1 deviation from unit magnitude is 5.44D-15 for     30.
 Iteration    1 A*A^-1 deviation from orthogonality  is 3.26D-15 for   1066    824.
 Iteration    1 A^-1*A deviation from unit magnitude is 5.33D-15 for    333.
 Iteration    1 A^-1*A deviation from orthogonality  is 1.99D-15 for   1089    759.
 E= -328.286638067970    
 DIIS: error= 6.12D-02 at cycle   1 NSaved=   1.
 NSaved= 1 IEnMin= 1 EnMin= -328.286638067970     IErMin= 1 ErrMin= 6.12D-02
 ErrMax= 6.12D-02  0.00D+00 EMaxC= 1.00D-01 BMatC= 7.01D-01 BMatP= 7.01D-01
 IDIUse=3 WtCom= 3.88D-01 WtEn= 6.12D-01
 Coeff-Com:  0.100D+01
 Coeff-En:   0.100D+01
 Coeff:      0.100D+01
 Gap=     0.508 Goal=   None    Shift=    0.000
 GapD=    0.508 DampG=2.000 DampE=0.500 DampFc=1.0000 IDamp=-1.
 RMSDP=1.72D-03 MaxDP=7.26D-02              OVMax= 6.11D-02

 Cycle   2  Pass 1  IDiag  1:
 RMSU=  1.66D-03    CP:  9.51D-01
 E= -328.352806401728     Delta-E=       -0.066168333758 Rises=F Damp=F
 DIIS: error= 7.69D-03 at cycle   2 NSaved=   2.
 NSaved= 2 IEnMin= 2 EnMin= -328.352806401728     IErMin= 2 ErrMin= 7.69D-03
 ErrMax= 7.69D-03  0.00D+00 EMaxC= 1.00D-01 BMatC= 4.24D-02 BMatP= 7.01D-01
 IDIUse=3 WtCom= 9.23D-01 WtEn= 7.69D-02
 Coeff-Com:  0.128D+00 0.872D+00
 Coeff-En:   0.000D+00 0.100D+01
 Coeff:      0.118D+00 0.882D+00
 Gap=     0.482 Goal=   None    Shift=    0.000
 RMSDP=7.32D-04 MaxDP=3.20D-02 DE=-6.62D-02 OVMax= 5.53D-02

 Cycle   3  Pass 1  IDiag  1:
 RMSU=  5.85D-04    CP:  9.60D-01  7.40D-01
 E= -328.366609457967     Delta-E=       -0.013803056238 Rises=F Damp=F
 DIIS: error= 6.53D-03 at cycle   3 NSaved=   3.
 NSaved= 3 IEnMin= 3 EnMin= -328.366609457967     IErMin= 3 ErrMin= 6.53D-03
 ErrMax= 6.53D-03  0.00D+00 EMaxC= 1.00D-01 BMatC= 2.48D-02 BMatP= 4.24D-02
 IDIUse=3 WtCom= 9.35D-01 WtEn= 6.53D-02
 Coeff-Com:  0.247D-01 0.440D+00 0.536D+00
 Coeff-En:   0.000D+00 0.352D+00 0.648D+00
 Coeff:      0.231D-01 0.434D+00 0.543D+00
 Gap=     0.471 Goal=   None    Shift=    0.000
 RMSDP=3.75D-04 MaxDP=1.68D-02 DE=-1.38D-02 OVMax= 2.52D-02

 Cycle   4  Pass 1  IDiag  1:
 RMSU=  1.53D-04    CP:  9.53D-01  9.02D-01  6.51D-01
 E= -328.384119812642     Delta-E=       -0.017510354675 Rises=F Damp=F
 DIIS: error= 9.08D-04 at cycle   4 NSaved=   4.
 NSaved= 4 IEnMin= 4 EnMin= -328.384119812642     IErMin= 4 ErrMin= 9.08D-04
 ErrMax= 9.08D-04  0.00D+00 EMaxC= 1.00D-01 BMatC= 3.55D-04 BMatP= 2.48D-02
 IDIUse=3 WtCom= 9.91D-01 WtEn= 9.08D-03
 Coeff-Com:  0.953D-02 0.174D+00 0.240D+00 0.576D+00
 Coeff-En:   0.000D+00 0.000D+00 0.000D+00 0.100D+01
 Coeff:      0.945D-02 0.173D+00 0.238D+00 0.580D+00
 Gap=     0.456 Goal=   None    Shift=    0.000
 RMSDP=4.05D-05 MaxDP=1.87D-03 DE=-1.75D-02 OVMax= 2.41D-03

 Cycle   5  Pass 1  IDiag  1:
 RMSU=  3.66D-05    CP:  9.52D-01  9.06D-01  6.73D-01  9.46D-01
 E= -328.384364371304     Delta-E=       -0.000244558662 Rises=F Damp=F
 DIIS: error= 1.30D-04 at cycle   5 NSaved=   5.
 NSaved= 5 IEnMin= 5 EnMin= -328.384364371304     IErMin= 5 ErrMin= 1.30D-04
 ErrMax= 1.30D-04  0.00D+00 EMaxC= 1.00D-01 BMatC= 9.17D-06 BMatP= 3.55D-04
 IDIUse=3 WtCom= 9.99D-01 WtEn= 1.30D-03
 Coeff-Com: -0.192D-02-0.319D-01-0.319D-01 0.778D-01 0.988D+00
 Coeff-En:   0.000D+00 0.000D+00 0.000D+00 0.000D+00 0.100D+01
 Coeff:     -0.192D-02-0.319D-01-0.319D-01 0.777D-01 0.988D+00
 Gap=     0.456 Goal=   None    Shift=    0.000
 RMSDP=3.02D-05 MaxDP=9.90D-04 DE=-2.45D-04 OVMax= 8.77D-04

 Cycle   6  Pass 1  IDiag  1:
 RMSU=  1.10D-05    CP:  9.52D-01  9.15D-01  6.90D-01  1.07D+00  1.25D+00
 E= -328.384376468063     Delta-E=       -0.000012096758 Rises=F Damp=F
 DIIS: error= 2.82D-05 at cycle   6 NSaved=   6.
 NSaved= 6 IEnMin= 6 EnMin= -328.384376468063     IErMin= 6 ErrMin= 2.82D-05
 ErrMax= 2.82D-05  0.00D+00 EMaxC= 1.00D-01 BMatC= 4.59D-07 BMatP= 9.17D-06
 IDIUse=1 WtCom= 1.00D+00 WtEn= 0.00D+00
 Coeff-Com: -0.768D-03-0.125D-01-0.142D-01 0.443D-02 0.223D+00 0.800D+00
 Coeff:     -0.768D-03-0.125D-01-0.142D-01 0.443D-02 0.223D+00 0.800D+00
 Gap=     0.456 Goal=   None    Shift=    0.000
 RMSDP=6.38D-06 MaxDP=1.79D-04 DE=-1.21D-05 OVMax= 2.85D-04

 Cycle   7  Pass 1  IDiag  1:
 RMSU=  2.62D-06    CP:  9.52D-01  9.16D-01  6.93D-01  1.10D+00  1.34D+00
                    CP:  1.16D+00
 E= -328.384377028635     Delta-E=       -0.000000560572 Rises=F Damp=F
 DIIS: error= 9.64D-06 at cycle   7 NSaved=   7.
 NSaved= 7 IEnMin= 7 EnMin= -328.384377028635     IErMin= 7 ErrMin= 9.64D-06
 ErrMax= 9.64D-06  0.00D+00 EMaxC= 1.00D-01 BMatC= 9.09D-08 BMatP= 4.59D-07
 IDIUse=1 WtCom= 1.00D+00 WtEn= 0.00D+00
 Coeff-Com:  0.131D-04-0.170D-03-0.829D-03-0.862D-02-0.623D-01 0.272D+00
 Coeff-Com:  0.800D+00
 Coeff:      0.131D-04-0.170D-03-0.829D-03-0.862D-02-0.623D-01 0.272D+00
 Coeff:      0.800D+00
 Gap=     0.456 Goal=   None    Shift=    0.000
 RMSDP=2.80D-06 MaxDP=8.36D-05 DE=-5.61D-07 OVMax= 1.07D-04

 Cycle   8  Pass 1  IDiag  1:
 RMSU=  9.98D-07    CP:  9.52D-01  9.16D-01  6.94D-01  1.11D+00  1.37D+00
                    CP:  1.31D+00  1.19D+00
 E= -328.384377138846     Delta-E=       -0.000000110211 Rises=F Damp=F
 DIIS: error= 2.01D-06 at cycle   8 NSaved=   8.
 NSaved= 8 IEnMin= 8 EnMin= -328.384377138846     IErMin= 8 ErrMin= 2.01D-06
 ErrMax= 2.01D-06  0.00D+00 EMaxC= 1.00D-01 BMatC= 3.23D-09 BMatP= 9.09D-08
 IDIUse=1 WtCom= 1.00D+00 WtEn= 0.00D+00
 Coeff-Com:  0.396D-04 0.649D-03 0.673D-03-0.167D-02-0.222D-01 0.599D-02
 Coeff-Com:  0.129D+00 0.888D+00
 Coeff:      0.396D-04 0.649D-03 0.673D-03-0.167D-02-0.222D-01 0.599D-02
 Coeff:      0.129D+00 0.888D+00
 Gap=     0.456 Goal=   None    Shift=    0.000
 RMSDP=7.59D-07 MaxDP=2.45D-05 DE=-1.10D-07 OVMax= 3.56D-05

 Cycle   9  Pass 1  IDiag  1:
 RMSU=  2.28D-07    CP:  9.52D-01  9.16D-01  6.94D-01  1.11D+00  1.38D+00
                    CP:  1.36D+00  1.32D+00  1.26D+00
 E= -328.384377144287     Delta-E=       -0.000000005441 Rises=F Damp=F
 DIIS: error= 1.16D-06 at cycle   9 NSaved=   9.
 NSaved= 9 IEnMin= 9 EnMin= -328.384377144287     IErMin= 9 ErrMin= 1.16D-06
 ErrMax= 1.16D-06  0.00D+00 EMaxC= 1.00D-01 BMatC= 8.06D-10 BMatP= 3.23D-09
 IDIUse=1 WtCom= 1.00D+00 WtEn= 0.00D+00
 Coeff-Com:  0.116D-04 0.245D-03 0.338D-03 0.315D-03-0.489D-03-0.294D-01
 Coeff-Com: -0.533D-01 0.320D+00 0.762D+00
 Coeff:      0.116D-04 0.245D-03 0.338D-03 0.315D-03-0.489D-03-0.294D-01
 Coeff:     -0.533D-01 0.320D+00 0.762D+00
 Gap=     0.456 Goal=   None    Shift=    0.000
 RMSDP=2.64D-07 MaxDP=8.91D-06 DE=-5.44D-09 OVMax= 1.34D-05

 Cycle  10  Pass 1  IDiag  1:
 RMSU=  8.84D-08    CP:  9.52D-01  9.16D-01  6.94D-01  1.11D+00  1.38D+00
                    CP:  1.37D+00  1.37D+00  1.40D+00  1.16D+00
 E= -328.384377145378     Delta-E=       -0.000000001090 Rises=F Damp=F
 DIIS: error= 4.78D-07 at cycle  10 NSaved=  10.
 NSaved=10 IEnMin=10 EnMin= -328.384377145378     IErMin=10 ErrMin= 4.78D-07
 ErrMax= 4.78D-07  0.00D+00 EMaxC= 1.00D-01 BMatC= 5.60D-11 BMatP= 8.06D-10
 IDIUse=1 WtCom= 1.00D+00 WtEn= 0.00D+00
 Coeff-Com: -0.206D-05-0.231D-04-0.130D-05 0.310D-03 0.297D-02-0.808D-02
 Coeff-Com: -0.318D-01-0.407D-01 0.169D+00 0.908D+00
 Coeff:     -0.206D-05-0.231D-04-0.130D-05 0.310D-03 0.297D-02-0.808D-02
 Coeff:     -0.318D-01-0.407D-01 0.169D+00 0.908D+00
 Gap=     0.456 Goal=   None    Shift=    0.000
 RMSDP=1.06D-07 MaxDP=3.61D-06 DE=-1.09D-09 OVMax= 5.17D-06

 Cycle  11  Pass 1  IDiag  1:
 RMSU=  2.89D-08    CP:  9.52D-01  9.16D-01  6.94D-01  1.11D+00  1.38D+00
                    CP:  1.37D+00  1.38D+00  1.46D+00  1.36D+00  1.31D+00
 E= -328.384377145494     Delta-E=       -0.000000000117 Rises=F Damp=F
 DIIS: error= 4.64D-08 at cycle  11 NSaved=  11.
 NSaved=11 IEnMin=11 EnMin= -328.384377145494     IErMin=11 ErrMin= 4.64D-08
 ErrMax= 4.64D-08  0.00D+00 EMaxC= 1.00D-01 BMatC= 1.67D-12 BMatP= 5.60D-11
 IDIUse=1 WtCom= 1.00D+00 WtEn= 0.00D+00
 Coeff-Com: -0.283D-06-0.929D-05-0.169D-04-0.193D-04-0.246D-03 0.211D-02
 Coeff-Com:  0.538D-02-0.152D-01-0.547D-01-0.540D-01 0.112D+01
 Coeff:     -0.283D-06-0.929D-05-0.169D-04-0.193D-04-0.246D-03 0.211D-02
 Coeff:      0.538D-02-0.152D-01-0.547D-01-0.540D-01 0.112D+01
 Gap=     0.456 Goal=   None    Shift=    0.000
 RMSDP=2.59D-08 MaxDP=8.95D-07 DE=-1.17D-10 OVMax= 1.43D-06

 Cycle  12  Pass 1  IDiag  1:
 RMSU=  6.36D-09    CP:  9.52D-01  9.16D-01  6.94D-01  1.11D+00  1.38D+00
                    CP:  1.37D+00  1.38D+00  1.46D+00  1.42D+00  1.48D+00
                    CP:  1.36D+00
 E= -328.384377145492     Delta-E=        0.000000000003 Rises=F Damp=F
 DIIS: error= 1.55D-08 at cycle  12 NSaved=  12.
 NSaved=12 IEnMin=11 EnMin= -328.384377145494     IErMin=12 ErrMin= 1.55D-08
 ErrMax= 1.55D-08  0.00D+00 EMaxC= 1.00D-01 BMatC= 1.11D-13 BMatP= 1.67D-12
 IDIUse=1 WtCom= 1.00D+00 WtEn= 0.00D+00
 Coeff-Com:  0.471D-07-0.254D-06-0.228D-05-0.186D-04-0.183D-03 0.692D-03
 Coeff-Com:  0.242D-02 0.805D-04-0.147D-01-0.545D-01 0.147D+00 0.920D+00
 Coeff:      0.471D-07-0.254D-06-0.228D-05-0.186D-04-0.183D-03 0.692D-03
 Coeff:      0.242D-02 0.805D-04-0.147D-01-0.545D-01 0.147D+00 0.920D+00
 Gap=     0.456 Goal=   None    Shift=    0.000
 RMSDP=5.02D-09 MaxDP=1.54D-07 DE= 2.61D-12 OVMax= 2.32D-07

 Error on total polarization charges =  0.04703
 SCF Done:  E(RwB97XD) =  -328.384377145     A.U. after   12 cycles
            NFock= 12  Conv=0.50D-08     -V/T= 2.0057
 KE= 3.265339668551D+02 PE=-1.466898963125D+03 EE= 4.610945629067D+02
 SMD-CDS (non-electrostatic) energy       (kcal/mol) =       2.78
 (included in total energy above)
 Leave Link  502 at Wed Oct 22 10:16:50 2025, MaxMem=  4294967296 cpu:            1226.7 elap:             153.6
 (Enter /lrz/sys/applications/gaussian/g16.C.01/x86_64_legacy/exe/l601.exe)
 Copying SCF densities to generalized density rwf, IOpCl= 0 IROHF=0.

 **********************************************************************

            Population analysis using the SCF Density.

 **********************************************************************

 Orbital symmetries:
       Occupied  (A) (A) (A) (A) (A) (A) (A) (A) (A) (A) (A) (A)
                 (A) (A) (A) (A) (A) (A) (A) (A) (A) (A) (A) (A)
                 (A) (A) (A) (A) (A)
       Virtual   (A) (A) (A) (A) (A) (A) (A) (A) (A) (A) (A) (A)
                 (A) (A) (A) (A) (A) (A) (A) (A) (A) (A) (A) (A)
                 (A) (A) (A) (A) (A) (A) (A) (A) (A) (A) (A) (A)
                 (A) (A) (A) (A) (A) (A) (A) (A) (A) (A) (A) (A)
                 (A) (A) (A) (A) (A) (A) (A) (A) (A) (A) (A) (A)
                 (A) (A) (A) (A) (A) (A) (A) (A) (A) (A) (A) (A)
                 (A) (A) (A) (A) (A) (A) (A) (A) (A) (A) (A) (A)
                 (A) (A) (A) (A) (A) (A) (A) (A) (A) (A) (A) (A)
                 (A) (A) (A) (A) (A) (A) (A) (A) (A) (A) (A) (A)
                 (A) (A) (A) (A) (A) (A) (A) (A) (A) (A) (A) (A)
                 (A) (A) (A) (A) (A) (A) (A) (A) (A) (A) (A) (A)
                 (A) (A) (A) (A) (A) (A) (A) (A) (A) (A) (A) (A)
                 (A) (A) (A) (A) (A) (A) (A) (A) (A) (A) (A) (A)
                 (A) (A) (A) (A) (A) (A) (A) (A) (A) (A) (A) (A)
                 (A) (A) (A) (A) (A) (A) (A) (A) (A) (A) (A) (A)
                 (A) (A) (A) (A) (A) (A) (A) (A) (A) (A) (A) (A)
                 (A) (A) (A) (A) (A) (A) (A) (A) (A) (A) (A) (A)
                 (A) (A) (A) (A) (A) (A) (A) (A) (A) (A) (A) (A)
                 (A) (A) (A) (A) (A) (A) (A) (A) (A) (A) (A) (A)
                 (A) (A) (A) (A) (A) (A) (A) (A) (A) (A) (A) (A)
                 (A) (A) (A) (A) (A) (A) (A) (A) (A) (A) (A) (A)
                 (A) (A) (A) (A) (A) (A) (A) (A) (A) (A) (A) (A)
                 (A) (A)
 The electronic state is 1-A.
 Alpha  occ. eigenvalues --  -19.24603 -14.41008 -10.34937 -10.28837 -10.26365
 Alpha  occ. eigenvalues --  -10.26213 -10.26102  -1.12927  -0.97754  -0.90214
 Alpha  occ. eigenvalues --   -0.77469  -0.77136  -0.73861  -0.63274  -0.60812
 Alpha  occ. eigenvalues --   -0.57674  -0.54787  -0.51995  -0.50478  -0.49966
 Alpha  occ. eigenvalues --   -0.46218  -0.45423  -0.44058  -0.43690  -0.42149
 Alpha  occ. eigenvalues --   -0.40026  -0.39744  -0.35573  -0.34523
 Alpha virt. eigenvalues --    0.11054   0.14406   0.15177   0.15648   0.17007
 Alpha virt. eigenvalues --    0.17648   0.18414   0.20377   0.20868   0.22028
 Alpha virt. eigenvalues --    0.22999   0.23594   0.24123   0.24615   0.25288
 Alpha virt. eigenvalues --    0.25836   0.26961   0.30736   0.31250   0.32615
 Alpha virt. eigenvalues --    0.34103   0.35442   0.36206   0.38172   0.39475
 Alpha virt. eigenvalues --    0.39939   0.40559   0.42749   0.44127   0.45197
 Alpha virt. eigenvalues --    0.46363   0.48194   0.49263   0.49738   0.50855
 Alpha virt. eigenvalues --    0.52162   0.52948   0.53273   0.54039   0.54603
 Alpha virt. eigenvalues --    0.55447   0.55529   0.56570   0.57377   0.57593
 Alpha virt. eigenvalues --    0.59423   0.59864   0.61576   0.62167   0.64307
 Alpha virt. eigenvalues --    0.64795   0.67429   0.70311   0.71514   0.74521
 Alpha virt. eigenvalues --    0.76760   0.78929   0.80294   0.81387   0.85965
 Alpha virt. eigenvalues --    0.88198   0.92467   0.93695   0.94112   0.96367
 Alpha virt. eigenvalues --    0.97610   0.97998   1.00892   1.07781   1.09238
 Alpha virt. eigenvalues --    1.10215   1.11082   1.11875   1.15284   1.18817
 Alpha virt. eigenvalues --    1.20675   1.21614   1.24254   1.25692   1.27114
 Alpha virt. eigenvalues --    1.33926   1.34613   1.37299   1.37925   1.39656
 Alpha virt. eigenvalues --    1.41176   1.44628   1.48085   1.50496   1.52835
 Alpha virt. eigenvalues --    1.55094   1.58510   1.63470   1.63703   1.64719
 Alpha virt. eigenvalues --    1.65288   1.66836   1.67958   1.69113   1.71025
 Alpha virt. eigenvalues --    1.72106   1.72828   1.73820   1.74527   1.74820
 Alpha virt. eigenvalues --    1.77670   1.83265   1.85400   1.87415   1.89390
 Alpha virt. eigenvalues --    1.92751   1.92965   1.97878   1.99779   2.00009
 Alpha virt. eigenvalues --    2.01518   2.04906   2.05220   2.07775   2.10956
 Alpha virt. eigenvalues --    2.12374   2.13575   2.15691   2.18989   2.20733
 Alpha virt. eigenvalues --    2.22504   2.23872   2.27555   2.29386   2.31934
 Alpha virt. eigenvalues --    2.35814   2.37159   2.38134   2.38711   2.41183
 Alpha virt. eigenvalues --    2.42296   2.45409   2.46772   2.47333   2.48033
 Alpha virt. eigenvalues --    2.51446   2.52638   2.53882   2.56108   2.56672
 Alpha virt. eigenvalues --    2.57393   2.60152   2.62462   2.63981   2.65139
 Alpha virt. eigenvalues --    2.67509   2.68157   2.71035   2.71646   2.73006
 Alpha virt. eigenvalues --    2.74042   2.75784   2.77978   2.81493   2.83043
 Alpha virt. eigenvalues --    2.85273   2.87810   2.89213   2.91380   2.92303
 Alpha virt. eigenvalues --    2.93349   2.97802   3.00217   3.02743   3.06661
 Alpha virt. eigenvalues --    3.09591   3.11238   3.15702   3.17976   3.20373
 Alpha virt. eigenvalues --    3.24341   3.25912   3.27297   3.29320   3.31250
 Alpha virt. eigenvalues --    3.33219   3.34515   3.37237   3.40826   3.41727
 Alpha virt. eigenvalues --    3.42126   3.43654   3.43772   3.46235   3.47105
 Alpha virt. eigenvalues --    3.48900   3.50076   3.50690   3.51839   3.55012
 Alpha virt. eigenvalues --    3.57412   3.61656   3.67650   3.71204   3.72497
 Alpha virt. eigenvalues --    3.74200   3.78253   3.82215   3.82615   3.83859
 Alpha virt. eigenvalues --    3.86642   3.90531   4.00887   4.02977   4.08845
 Alpha virt. eigenvalues --    4.13896   4.15097   4.18588   4.20442   4.21046
 Alpha virt. eigenvalues --    4.22536   4.25755   4.27776   4.31319   4.34598
 Alpha virt. eigenvalues --    4.38781   4.43538   4.44008   4.47752   4.51477
 Alpha virt. eigenvalues --    4.52461   4.53765   4.54999   4.57264   4.69791
 Alpha virt. eigenvalues --    4.78195   4.80208   4.81011   4.84893   4.93534
 Alpha virt. eigenvalues --    4.95239   4.99293   5.02134   5.03898   5.06366
 Alpha virt. eigenvalues --    5.10810   5.20327   5.25811   5.35640   5.38314
 Alpha virt. eigenvalues --    5.42364   5.56674   5.60253   5.66295   5.82804
 Alpha virt. eigenvalues --    5.90289   5.95507   6.03219   6.44782   6.60368
 Alpha virt. eigenvalues --    6.81640   6.91765   7.10333   7.29335  22.49487
 Alpha virt. eigenvalues --   22.52697  22.53646  22.73679  22.80328  32.10760
 Alpha virt. eigenvalues --   44.06263
          Condensed to atoms (all electrons):
               1          2          3          4          5          6
     1  O    8.178794   0.265358  -0.094191  -0.052016  -0.027190   0.004013
     2  C    0.265358   4.749316   0.322284   0.301840  -0.028988  -0.049802
     3  N   -0.094191   0.322284   6.708772  -0.034563  -0.001706  -0.028083
     4  C   -0.052016   0.301840  -0.034563   5.108035   0.289894   0.307939
     5  C   -0.027190  -0.028988  -0.001706   0.289894   5.147913  -0.066024
     6  C    0.004013  -0.049802  -0.028083   0.307939  -0.066024   5.122387
     7  C    0.010324  -0.076664   0.009988   0.293070  -0.062053  -0.063865
     8  H    0.306630  -0.025468   0.008855  -0.002078   0.001061   0.000319
     9  H   -0.056564   0.464532  -0.042766  -0.059406   0.006850  -0.004043
    10  H    0.001279  -0.034920   0.368507   0.011733  -0.000917   0.000626
    11  H   -0.000462  -0.011790   0.359538  -0.020098   0.002897   0.000856
    12  H    0.001013  -0.013315   0.002203  -0.028640   0.411365  -0.010403
    13  H    0.000016   0.010383  -0.000149  -0.031701   0.412924  -0.007348
    14  H    0.017288  -0.004917  -0.001419  -0.040568   0.403749   0.011818
    15  H   -0.000231   0.011465   0.000913  -0.032571  -0.008691   0.409720
    16  H    0.000646  -0.012922   0.018671  -0.032643  -0.007622   0.404793
    17  H    0.000172  -0.007067   0.000338  -0.031985   0.011622   0.402065
    18  H    0.005892  -0.013992  -0.000121  -0.028507  -0.011308   0.011914
    19  H    0.000569   0.011587  -0.000238  -0.031543  -0.008887  -0.009035
    20  H   -0.001873  -0.000873  -0.000112  -0.036279   0.011474  -0.009206
               7          8          9         10         11         12
     1  O    0.010324   0.306630  -0.056564   0.001279  -0.000462   0.001013
     2  C   -0.076664  -0.025468   0.464532  -0.034920  -0.011790  -0.013315
     3  N    0.009988   0.008855  -0.042766   0.368507   0.359538   0.002203
     4  C    0.293070  -0.002078  -0.059406   0.011733  -0.020098  -0.028640
     5  C   -0.062053   0.001061   0.006850  -0.000917   0.002897   0.411365
     6  C   -0.063865   0.000319  -0.004043   0.000626   0.000856  -0.010403
     7  C    5.149691   0.004302  -0.011351  -0.000872  -0.000211   0.011172
     8  H    0.004302   0.343659  -0.005331   0.000070  -0.000333  -0.000092
     9  H   -0.011351  -0.005331   0.582150  -0.007994   0.007392  -0.000215
    10  H   -0.000872   0.000070  -0.007994   0.427729  -0.026136  -0.000064
    11  H   -0.000211  -0.000333   0.007392  -0.026136   0.430569  -0.001521
    12  H    0.011172  -0.000092  -0.000215  -0.000064  -0.001521   0.528607
    13  H   -0.008693  -0.000019  -0.000159   0.000021   0.000070  -0.020607
    14  H   -0.009535  -0.000841   0.001031  -0.000241   0.001303  -0.022108
    15  H   -0.011697  -0.000028  -0.000565   0.000051  -0.000158   0.000025
    16  H    0.012248  -0.000085  -0.000510  -0.000567  -0.000162   0.003622
    17  H   -0.005995  -0.000006   0.004812  -0.000171   0.000063  -0.000012
    18  H    0.408519  -0.000826   0.001790  -0.000060   0.000126  -0.000048
    19  H    0.411128   0.000342  -0.000215   0.000018  -0.000016  -0.000037
    20  H    0.405786  -0.000668   0.004835  -0.000011   0.000042  -0.000354
              13         14         15         16         17         18
     1  O    0.000016   0.017288  -0.000231   0.000646   0.000172   0.005892
     2  C    0.010383  -0.004917   0.011465  -0.012922  -0.007067  -0.013992
     3  N   -0.000149  -0.001419   0.000913   0.018671   0.000338  -0.000121
     4  C   -0.031701  -0.040568  -0.032571  -0.032643  -0.031985  -0.028507
     5  C    0.412924   0.403749  -0.008691  -0.007622   0.011622  -0.011308
     6  C   -0.007348   0.011818   0.409720   0.404793   0.402065   0.011914
     7  C   -0.008693  -0.009535  -0.011697   0.012248  -0.005995   0.408519
     8  H   -0.000019  -0.000841  -0.000028  -0.000085  -0.000006  -0.000826
     9  H   -0.000159   0.001031  -0.000565  -0.000510   0.004812   0.001790
    10  H    0.000021  -0.000241   0.000051  -0.000567  -0.000171  -0.000060
    11  H    0.000070   0.001303  -0.000158  -0.000162   0.000063   0.000126
    12  H   -0.020607  -0.022108   0.000025   0.003622  -0.000012  -0.000048
    13  H    0.520167  -0.020817   0.002579  -0.000393  -0.000092  -0.000626
    14  H   -0.020817   0.529570  -0.000163  -0.000119  -0.000289   0.004655
    15  H    0.002579  -0.000163   0.531979  -0.020144  -0.021904  -0.000110
    16  H   -0.000393  -0.000119  -0.020144   0.531734  -0.020976  -0.000365
    17  H   -0.000092  -0.000289  -0.021904  -0.020976   0.535588  -0.000071
    18  H   -0.000626   0.004655  -0.000110  -0.000365  -0.000071   0.527032
    19  H    0.002895  -0.000147   0.002471  -0.000050  -0.000305  -0.019287
    20  H    0.000087  -0.000049  -0.000018  -0.000189   0.002983  -0.023112
              19         20
     1  O    0.000569  -0.001873
     2  C    0.011587  -0.000873
     3  N   -0.000238  -0.000112
     4  C   -0.031543  -0.036279
     5  C   -0.008887   0.011474
     6  C   -0.009035  -0.009206
     7  C    0.411128   0.405786
     8  H    0.000342  -0.000668
     9  H   -0.000215   0.004835
    10  H    0.000018  -0.000011
    11  H   -0.000016   0.000042
    12  H   -0.000037  -0.000354
    13  H    0.002895   0.000087
    14  H   -0.000147  -0.000049
    15  H    0.002471  -0.000018
    16  H   -0.000050  -0.000189
    17  H   -0.000305   0.002983
    18  H   -0.019287  -0.023112
    19  H    0.519730  -0.019502
    20  H   -0.019502   0.525847
 Mulliken charges:
               1
     1  O   -0.559469
     2  C    0.143953
     3  N   -0.596722
     4  C    0.150089
     5  C   -0.476363
     6  C   -0.428641
     7  C   -0.465294
     8  H    0.370536
     9  H    0.115727
    10  H    0.261921
    11  H    0.258032
    12  H    0.139409
    13  H    0.141460
    14  H    0.131798
    15  H    0.137078
    16  H    0.125032
    17  H    0.131228
    18  H    0.138508
    19  H    0.140525
    20  H    0.141193
 Sum of Mulliken charges =  -0.00000
 Mulliken charges with hydrogens summed into heavy atoms:
               1
     1  O   -0.188932
     2  C    0.259680
     3  N   -0.076769
     4  C    0.150089
     5  C   -0.063695
     6  C   -0.035303
     7  C   -0.045069
 Electronic spatial extent (au):  <R**2>=            816.2784
 Charge=             -0.0000 electrons
 Dipole moment (field-independent basis, Debye):
    X=              0.7382    Y=              1.3510    Z=             -0.7408  Tot=              1.7085
 Quadrupole moment (field-independent basis, Debye-Ang):
   XX=            -45.7208   YY=            -46.6944   ZZ=            -44.7418
   XY=              1.6372   XZ=              1.1661   YZ=             -3.7654
 Traceless Quadrupole moment (field-independent basis, Debye-Ang):
   XX=             -0.0018   YY=             -0.9754   ZZ=              0.9772
   XY=              1.6372   XZ=              1.1661   YZ=             -3.7654
 Octapole moment (field-independent basis, Debye-Ang**2):
  XXX=            -12.1805  YYY=             21.2160  ZZZ=             -3.4742  XYY=             -3.8156
  XXY=             -7.4826  XXZ=             -0.9797  XZZ=             -6.4990  YZZ=              0.9154
  YYZ=              0.7315  XYZ=              4.2247
 Hexadecapole moment (field-independent basis, Debye-Ang**3):
 XXXX=           -466.1053 YYYY=           -333.1287 ZZZZ=           -241.3870 XXXY=             24.4060
 XXXZ=             12.7362 YYYX=            -20.5491 YYYZ=            -13.2586 ZZZX=             -2.3616
 ZZZY=             -4.6590 XXYY=           -147.7397 XXZZ=           -121.4750 YYZZ=            -96.6965
 XXYZ=             -5.1719 YYXZ=              0.9468 ZZXY=              1.7972
 N-N= 3.508860562173D+02 E-N=-1.466898964109D+03  KE= 3.265339668551D+02
 No NMR shielding tensors so no spin-rotation constants.
 Leave Link  601 at Wed Oct 22 10:16:50 2025, MaxMem=  4294967296 cpu:               1.4 elap:               0.2
 (Enter /lrz/sys/applications/gaussian/g16.C.01/x86_64_legacy/exe/l9999.exe)
 Unable to Open any file for archive entry.
 1\1\GINC-CM4R15C05S03\SP\RwB97XD\def2TZVP\C5H13N1O1\GO29TIZ2\22-Oct-20
 25\0\\#p wb97xd scrf=(smd,solvent=water) def2tzvp\\g16_g16_C4-a_2\\0,1
 \O,0,-1.524711,1.184261,0.071861\C,0,-0.866341,0.032114,-0.450097\N,0,
 -1.604556,-1.140405,-0.085529\C,0,0.614394,-0.034292,0.004149\C,0,0.71
 0263,-0.185369,1.526808\C,0,1.300376,-1.218126,-0.685372\C,0,1.320795,
 1.260371,-0.421241\H,0,-1.150338,1.969672,-0.344377\H,0,-0.869102,0.09
 9685,-1.554233\H,0,-2.558793,-1.047517,-0.430408\H,0,-1.675859,-1.1924
 72,0.930926\H,0,0.310826,-1.152469,1.870861\H,0,1.761495,-0.13259,1.85
 0562\H,0,0.15765,0.61703,2.038789\H,0,2.365954,-1.25853,-0.409233\H,0,
 0.836017,-2.172879,-0.401716\H,0,1.241891,-1.125928,-1.78231\H,0,0.922
 995,2.139267,0.109886\H,0,2.396878,1.201633,-0.196008\H,0,1.213052,1.4
 35657,-1.5044\\Version=EM64L-G16RevC.01\State=1-A\HF=-328.3843771\RMSD
 =5.022e-09\Dipole=0.2904153,0.5315312,-0.2914631\Quadrupole=-0.0013346
 ,-0.7251922,0.7265268,1.2172313,0.8669658,-2.7995073\PG=C01 [X(C5H13N1
 O1)]\\@
 The archive entry for this job was punched.


 HE THAT FOLLOWS NATURE IS NEVER LOST.

                             -- BACON
 Job cpu time:       0 days  0 hours 21 minutes  1.3 seconds.
 Elapsed time:       0 days  0 hours  2 minutes 38.2 seconds.
 File lengths (MBytes):  RWF=    320 Int=      0 D2E=      0 Chk=     12 Scr=     32
 Normal termination of Gaussian 16 at Wed Oct 22 10:16:51 2025.
