 Entering Gaussian System, Link 0=g16
 Input=../../g16_g16_C2-a_12.com
 Output=../../g16_g16_C2-a_12.log
 Initial command:
 /lrz/sys/applications/gaussian/g16.C.01/x86_64_legacy/exe/l1.exe "/dss/lxclscratch/0D/go29tiz2/Gau-12856.inp" -scrdir="/dss/lxclscratch/0D/go29tiz2/"
 Entering Link 1 = /lrz/sys/applications/gaussian/g16.C.01/x86_64_legacy/exe/l1.exe PID=     12857.
  
 Copyright (c) 1988-2019, Gaussian, Inc.  All Rights Reserved.
  
 This is part of the Gaussian(R) 16 program.  It is based on
 the Gaussian(R) 09 system (copyright 2009, Gaussian, Inc.),
 the Gaussian(R) 03 system (copyright 2003, Gaussian, Inc.),
 the Gaussian(R) 98 system (copyright 1998, Gaussian, Inc.),
 the Gaussian(R) 94 system (copyright 1995, Gaussian, Inc.),
 the Gaussian 92(TM) system (copyright 1992, Gaussian, Inc.),
 the Gaussian 90(TM) system (copyright 1990, Gaussian, Inc.),
 the Gaussian 88(TM) system (copyright 1988, Gaussian, Inc.),
 the Gaussian 86(TM) system (copyright 1986, Carnegie Mellon
 University), and the Gaussian 82(TM) system (copyright 1983,
 Carnegie Mellon University). Gaussian is a federally registered
 trademark of Gaussian, Inc.
  
 This software contains proprietary and confidential information,
 including trade secrets, belonging to Gaussian, Inc.
  
 This software is provided under written license and may be
 used, copied, transmitted, or stored only in accord with that
 written license.
  
 The following legend is applicable only to US Government
 contracts under FAR:
  
                    RESTRICTED RIGHTS LEGEND
  
 Use, reproduction and disclosure by the US Government is
 subject to restrictions as set forth in subparagraphs (a)
 and (c) of the Commercial Computer Software - Restricted
 Rights clause in FAR 52.227-19.
  
 Gaussian, Inc.
 340 Quinnipiac St., Bldg. 40, Wallingford CT 06492
  
  
 ---------------------------------------------------------------
 Warning -- This program may not be used in any manner that
 competes with the business of Gaussian, Inc. or will provide
 assistance to any competitor of Gaussian, Inc.  The licensee
 of this program is prohibited from giving any competitor of
 Gaussian, Inc. access to this program.  By using this program,
 the user acknowledges that Gaussian, Inc. is engaged in the
 business of creating and licensing software in the field of
 computational chemistry and represents and warrants to the
 licensee that it is not a competitor of Gaussian, Inc. and that
 it will not use this program in any manner prohibited above.
 ---------------------------------------------------------------
  

 Cite this work as:
 Gaussian 16, Revision C.01,
 M. J. Frisch, G. W. Trucks, H. B. Schlegel, G. E. Scuseria, 
 M. A. Robb, J. R. Cheeseman, G. Scalmani, V. Barone, 
 G. A. Petersson, H. Nakatsuji, X. Li, M. Caricato, A. V. Marenich, 
 J. Bloino, B. G. Janesko, R. Gomperts, B. Mennucci, H. P. Hratchian, 
 J. V. Ortiz, A. F. Izmaylov, J. L. Sonnenberg, D. Williams-Young, 
 F. Ding, F. Lipparini, F. Egidi, J. Goings, B. Peng, A. Petrone, 
 T. Henderson, D. Ranasinghe, V. G. Zakrzewski, J. Gao, N. Rega, 
 G. Zheng, W. Liang, M. Hada, M. Ehara, K. Toyota, R. Fukuda, 
 J. Hasegawa, M. Ishida, T. Nakajima, Y. Honda, O. Kitao, H. Nakai, 
 T. Vreven, K. Throssell, J. A. Montgomery, Jr., J. E. Peralta, 
 F. Ogliaro, M. J. Bearpark, J. J. Heyd, E. N. Brothers, K. N. Kudin, 
 V. N. Staroverov, T. A. Keith, R. Kobayashi, J. Normand, 
 K. Raghavachari, A. P. Rendell, J. C. Burant, S. S. Iyengar, 
 J. Tomasi, M. Cossi, J. M. Millam, M. Klene, C. Adamo, R. Cammi, 
 J. W. Ochterski, R. L. Martin, K. Morokuma, O. Farkas, 
 J. B. Foresman, and D. J. Fox, Gaussian, Inc., Wallingford CT, 2019.
 
 ******************************************
 Gaussian 16:  EM64L-G16RevC.01  3-Jul-2019
                22-Oct-2025 
 ******************************************
 %chk=g16_g16_C2-a_12.chk
 %nprocshared=8
 Will use up to    8 processors via shared memory.
 %mem=32GB
 -------------------------------------------
 #p wb97xd scrf=(smd,solvent=water) def2tzvp
 -------------------------------------------
 1/38=1,172=1/1;
 2/12=2,17=6,18=5,40=1/2;
 3/5=44,7=101,11=2,25=1,30=1,70=32201,72=1,74=-58/1,2,3;
 4//1;
 5/5=2,38=5,53=1/2;
 6/7=2,8=2,9=2,10=2,28=1/1;
 99/5=1,9=1/99;
 Leave Link    1 at Wed Oct 22 10:04:15 2025, MaxMem=  4294967296 cpu:               4.8 elap:               0.7
 (Enter /lrz/sys/applications/gaussian/g16.C.01/x86_64_legacy/exe/l101.exe)
 ---------------
 g16_g16_C2-a_12
 ---------------
 Symbolic Z-matrix:
 Charge =  0 Multiplicity = 1
 O                    -0.99085   1.11113  -0.46256 
 C                    -0.63972   0.05759   0.43426 
 N                    -1.0611   -1.20173  -0.10477 
 C                     0.85787   0.0785    0.73491 
 C                     1.75056  -0.12711  -0.48318 
 H                    -0.71504   1.94628  -0.06426 
 H                    -1.18359   0.21093   1.38385 
 H                    -2.06217  -1.16275  -0.29329 
 H                    -0.61207  -1.34733  -1.00972 
 H                     1.06472  -0.69085   1.49575 
 H                     1.09017   1.04957   1.20324 
 H                     1.52391   0.61263  -1.2656 
 H                     2.81122  -0.01849  -0.21296 
 H                     1.62507  -1.13082  -0.91908 
 
 ITRead=  0  0  0  0  0  0  0  0  0  0  0  0  0  0
 MicOpt= -1 -1 -1 -1 -1 -1 -1 -1 -1 -1 -1 -1 -1 -1
 NAtoms=     14 NQM=       14 NQMF=       0 NMMI=      0 NMMIF=      0
                NMic=       0 NMicF=      0.
                    Isotopes and Nuclear Properties:
 (Nuclear quadrupole moments (NQMom) in fm**2, nuclear magnetic moments (NMagM)
  in nuclear magnetons)

  Atom         1           2           3           4           5           6           7           8           9          10
 IAtWgt=          16          12          14          12          12           1           1           1           1           1
 AtmWgt=  15.9949146  12.0000000  14.0030740  12.0000000  12.0000000   1.0078250   1.0078250   1.0078250   1.0078250   1.0078250
 NucSpn=           0           0           2           0           0           1           1           1           1           1
 AtZEff=  -0.0000000  -0.0000000  -0.0000000  -0.0000000  -0.0000000  -0.0000000  -0.0000000  -0.0000000  -0.0000000  -0.0000000
 NQMom=    0.0000000   0.0000000   2.0440000   0.0000000   0.0000000   0.0000000   0.0000000   0.0000000   0.0000000   0.0000000
 NMagM=    0.0000000   0.0000000   0.4037610   0.0000000   0.0000000   2.7928460   2.7928460   2.7928460   2.7928460   2.7928460
 AtZNuc=   8.0000000   6.0000000   7.0000000   6.0000000   6.0000000   1.0000000   1.0000000   1.0000000   1.0000000   1.0000000

  Atom        11          12          13          14
 IAtWgt=           1           1           1           1
 AtmWgt=   1.0078250   1.0078250   1.0078250   1.0078250
 NucSpn=           1           1           1           1
 AtZEff=  -0.0000000  -0.0000000  -0.0000000  -0.0000000
 NQMom=    0.0000000   0.0000000   0.0000000   0.0000000
 NMagM=    2.7928460   2.7928460   2.7928460   2.7928460
 AtZNuc=   1.0000000   1.0000000   1.0000000   1.0000000
 Leave Link  101 at Wed Oct 22 10:04:15 2025, MaxMem=  4294967296 cpu:               1.1 elap:               0.2
 (Enter /lrz/sys/applications/gaussian/g16.C.01/x86_64_legacy/exe/l202.exe)
                          Input orientation:                          
 ---------------------------------------------------------------------
 Center     Atomic      Atomic             Coordinates (Angstroms)
 Number     Number       Type             X           Y           Z
 ---------------------------------------------------------------------
      1          8           0       -0.990853    1.111128   -0.462562
      2          6           0       -0.639716    0.057591    0.434257
      3          7           0       -1.061096   -1.201728   -0.104767
      4          6           0        0.857872    0.078503    0.734910
      5          6           0        1.750556   -0.127108   -0.483180
      6          1           0       -0.715043    1.946282   -0.064258
      7          1           0       -1.183588    0.210927    1.383854
      8          1           0       -2.062173   -1.162747   -0.293287
      9          1           0       -0.612067   -1.347334   -1.009716
     10          1           0        1.064722   -0.690852    1.495751
     11          1           0        1.090167    1.049568    1.203237
     12          1           0        1.523908    0.612630   -1.265601
     13          1           0        2.811222   -0.018486   -0.212962
     14          1           0        1.625071   -1.130824   -0.919077
 ---------------------------------------------------------------------
                    Distance matrix (angstroms):
                    1          2          3          4          5
     1  O    0.000000
     2  C    1.427418   0.000000
     3  N    2.341421   1.433176   0.000000
     4  C    2.432702   1.527612   2.454890   0.000000
     5  C    3.008152   2.566945   3.033709   1.524108   0.000000
     6  H    0.965505   1.954826   3.167232   2.569305   3.248634
     7  H    2.063192   1.105008   2.055867   2.146211   3.494179
     8  H    2.519303   2.010455   1.019419   3.335349   3.955441
     9  H    2.546938   2.014854   1.020667   2.690251   2.710752
    10  H    3.362664   2.142906   2.709567   1.101623   2.168950
    11  H    2.666331   2.137251   3.377446   1.102841   2.159788
    12  H    2.686521   2.806930   3.364770   2.175072   1.100347
    13  H    3.974179   3.511930   4.050508   2.173349   1.099922
    14  H    3.475315   2.893632   2.807779   2.187862   1.101453
                    6          7          8          9         10
     6  H    0.000000
     7  H    2.308250   0.000000
     8  H    3.396068   2.339165   0.000000
     9  H    3.428178   2.912729   1.627928   0.000000
    10  H    3.543398   2.425000   3.633292   3.085442   0.000000
    11  H    2.381055   2.430206   4.131727   3.679660   1.765014
    12  H    2.869626   3.809398   4.117928   2.910211   3.087877
    13  H    4.039427   4.308243   5.006572   3.757601   2.534174
    14  H    3.959221   3.871996   3.740107   2.249417   2.517729
                   11         12         13         14
    11  H    0.000000
    12  H    2.544446   0.000000
    13  H    2.471516   1.778633   0.000000
    14  H    3.089409   1.780434   1.772808   0.000000
 Stoichiometry    C3H9NO
 Framework group  C1[X(C3H9NO)]
 Deg. of freedom    36
 Full point group                 C1      NOp   1
 Largest Abelian subgroup         C1      NOp   1
 Largest concise Abelian subgroup C1      NOp   1
                         Standard orientation:                         
 ---------------------------------------------------------------------
 Center     Atomic      Atomic             Coordinates (Angstroms)
 Number     Number       Type             X           Y           Z
 ---------------------------------------------------------------------
      1          8           0       -0.990853    1.111128   -0.462562
      2          6           0       -0.639716    0.057591    0.434257
      3          7           0       -1.061096   -1.201728   -0.104767
      4          6           0        0.857872    0.078503    0.734910
      5          6           0        1.750556   -0.127108   -0.483180
      6          1           0       -0.715043    1.946282   -0.064258
      7          1           0       -1.183588    0.210927    1.383854
      8          1           0       -2.062173   -1.162747   -0.293287
      9          1           0       -0.612067   -1.347334   -1.009716
     10          1           0        1.064722   -0.690852    1.495751
     11          1           0        1.090167    1.049568    1.203237
     12          1           0        1.523908    0.612630   -1.265601
     13          1           0        2.811222   -0.018486   -0.212962
     14          1           0        1.625071   -1.130824   -0.919077
 ---------------------------------------------------------------------
 Rotational constants (GHZ):           6.7443074           3.9504811           3.2702757
 Leave Link  202 at Wed Oct 22 10:04:15 2025, MaxMem=  4294967296 cpu:               0.0 elap:               0.0
 (Enter /lrz/sys/applications/gaussian/g16.C.01/x86_64_legacy/exe/l301.exe)
 Standard basis: def2TZVP (5D, 7F)
 Ernie: Thresh=  0.10000D-02 Tol=  0.10000D-05 Strict=F.
 There are   234 symmetry adapted cartesian basis functions of A   symmetry.
 There are   209 symmetry adapted basis functions of A   symmetry.
   209 basis functions,   327 primitive gaussians,   234 cartesian basis functions
    21 alpha electrons       21 beta electrons
       nuclear repulsion energy       197.1413296214 Hartrees.
 IExCor= 4639 DFT=T Ex+Corr=wB97XD ExCW=0 ScaHFX=  1.000000
 ScaDFX=  1.000000  1.000000  1.000000  1.000000 ScalE2=  1.000000  1.000000
 IRadAn=      5 IRanWt=     -1 IRanGd=            0 ICorTp=0 IEmpDi=121
 HFx  wShort=  0.000000 wLong=  0.200000 cFull=  0.222036 cShort=  0.000000 cLong=  0.777964
 DFx  wShort=  0.000000 wLong=  0.200000 cFull=  0.000000 cShort=  0.000000 cLong=  1.000000
 NAtoms=   14 NActive=   14 NUniq=   14 SFac= 1.00D+00 NAtFMM=   60 NAOKFM=F Big=F
 Integral buffers will be    131072 words long.
 Raffenetti 2 integral format.
 Two-electron integral symmetry is turned on.
 R6Disp:  Grimme-D2 Dispersion energy=       -0.0067496376 Hartrees.
 Nuclear repulsion after empirical dispersion term =      197.1345799837 Hartrees.
 ------------------------------------------------------------------------------
 Polarizable Continuum Model (PCM)
 =================================
 Model                : PCM.
 Atomic radii         : SMD-Coulomb.
 Polarization charges : Total charges.
 Charge compensation  : None.
 Solution method      : On-the-fly selection.
 Cavity type          : VdW (van der Waals Surface) (Alpha=1.000).
 Cavity algorithm     : GePol (No added spheres)
                        Default sphere list used, NSphG=   14.
                        Lebedev-Laikov grids with approx.  5.0 points / Ang**2.
                        Smoothing algorithm: York/Karplus (Gamma=1.0000).
                        Polarization charges: spherical gaussians, with
                                              point-specific exponents (IZeta= 3).
                        Self-potential: point-specific (ISelfS= 7).
                        Self-field    : sphere-specific E.n sum rule (ISelfD= 2).
 Solvent              : Water, Eps=  78.355300 Eps(inf)=   1.777849
 ------------------------------------------------------------------------------
 Spheres list:
 ISph  on   Nord     Re0    Alpha      Xe            Ye            Ze
    1   O      1    1.5200  1.000     -0.990853      1.111128     -0.462562
    2   C      2    1.8500  1.000     -0.639716      0.057591      0.434257
    3   N      3    1.8900  1.000     -1.061096     -1.201728     -0.104767
    4   C      4    1.8500  1.000      0.857872      0.078503      0.734910
    5   C      5    1.8500  1.000      1.750556     -0.127108     -0.483180
    6   H      6    1.2000  1.000     -0.715043      1.946282     -0.064258
    7   H      7    1.2000  1.000     -1.183588      0.210927      1.383854
    8   H      8    1.2000  1.000     -2.062173     -1.162747     -0.293287
    9   H      9    1.2000  1.000     -0.612067     -1.347334     -1.009716
   10   H     10    1.2000  1.000      1.064722     -0.690852      1.495751
   11   H     11    1.2000  1.000      1.090167      1.049568      1.203237
   12   H     12    1.2000  1.000      1.523908      0.612630     -1.265601
   13   H     13    1.2000  1.000      2.811222     -0.018486     -0.212962
   14   H     14    1.2000  1.000      1.625071     -1.130824     -0.919077
 ------------------------------------------------------------------------------
 GePol: Number of generator spheres                  =      14
 GePol: Total number of spheres                      =      14
 GePol: Number of exposed spheres                    =      14 (100.00%)
 GePol: Number of points                             =    1003
 GePol: Average weight of points                     =       0.12
 GePol: Minimum weight of points                     =   0.13D-08
 GePol: Maximum weight of points                     =    0.21991
 GePol: Number of points with low weight             =      61
 GePol: Fraction of low-weight points (<1% of avg)   =       6.08%
 GePol: Cavity surface area                          =    117.189 Ang**2
 GePol: Cavity volume                                =     90.601 Ang**3
 ------------------------------------------------------------------------------
 Atomic radii for non-electrostatic terms: SMD-CDS.
 ------------------------------------------------------------------------------
 PCM non-electrostatic energy =         0.0025921346 Hartrees.
 Nuclear repulsion after PCM non-electrostatic terms =      197.1371721184 Hartrees.
 Leave Link  301 at Wed Oct 22 10:04:15 2025, MaxMem=  4294967296 cpu:               0.5 elap:               0.1
 (Enter /lrz/sys/applications/gaussian/g16.C.01/x86_64_legacy/exe/l302.exe)
 NPDir=0 NMtPBC=     1 NCelOv=     1 NCel=       1 NClECP=     1 NCelD=      1
         NCelK=      1 NCelE2=     1 NClLst=     1 CellRange=     0.0.
 One-electron integrals computed using PRISM.
 One-electron integral symmetry used in STVInt
   1 Symmetry operations used in ECPInt.
 ECPInt:  NShTT=    4186 NPrTT=   12072 LenC2=    4165 LenP2D=   10218.
 LDataN:  DoStor=T MaxTD1= 6 Len=  172
 NBasis=   209 RedAO= T EigKep=  2.89D-04  NBF=   209
 NBsUse=   209 1.00D-06 EigRej= -1.00D+00 NBFU=   209
 Precomputing XC quadrature grid using
 IXCGrd= 4 IRadAn=           5 IRanWt=          -1 IRanGd=           0 AccXCQ= 0.00D+00.
 Generated NRdTot=       0 NPtTot=           0 NUsed=           0 NTot=          32
 NSgBfM=   233   233   233   233   233 MxSgAt=    14 MxSgA2=    14.
 Leave Link  302 at Wed Oct 22 10:04:16 2025, MaxMem=  4294967296 cpu:               1.9 elap:               0.2
 (Enter /lrz/sys/applications/gaussian/g16.C.01/x86_64_legacy/exe/l303.exe)
 DipDrv:  MaxL=1.
 Leave Link  303 at Wed Oct 22 10:04:16 2025, MaxMem=  4294967296 cpu:               0.3 elap:               0.0
 (Enter /lrz/sys/applications/gaussian/g16.C.01/x86_64_legacy/exe/l401.exe)
 ExpMin= 9.52D-02 ExpMax= 2.70D+04 ExpMxC= 9.22D+02 IAcc=3 IRadAn=         5 AccDes= 0.00D+00
 Harris functional with IExCor= 4639 and IRadAn=       5 diagonalized for initial guess.
 HarFok:  IExCor= 4639 AccDes= 0.00D+00 IRadAn=         5 IDoV= 1 UseB2=F ITyADJ=14
 ICtDFT=  3500011 ScaDFX=  1.000000  1.000000  1.000000  1.000000
 FoFCou: FMM=F IPFlag=           0 FMFlag=      100000 FMFlg1=           0
         NFxFlg=           0 DoJE=T BraDBF=F KetDBF=T FulRan=T
         wScrn=  0.000000 ICntrl=       500 IOpCl=  0 I1Cent=   200000004 NGrid=           0
         NMat0=    1 NMatS0=      1 NMatT0=    0 NMatD0=    1 NMtDS0=    0 NMtDT0=    0
 Petite list used in FoFCou.
 Harris En= -238.841586933489    
 JPrj=0 DoOrth=F DoCkMO=F.
 Leave Link  401 at Wed Oct 22 10:04:17 2025, MaxMem=  4294967296 cpu:              11.8 elap:               1.5
 (Enter /lrz/sys/applications/gaussian/g16.C.01/x86_64_legacy/exe/l502.exe)
 Integral symmetry usage will be decided dynamically.
 Closed shell SCF:
 Using DIIS extrapolation, IDIIS=  1040.
 NGot=  4294967296 LenX=  4294853286 LenY=  4294798089
 Requested convergence on RMS density matrix=1.00D-08 within 128 cycles.
 Requested convergence on MAX density matrix=1.00D-06.
 Requested convergence on             energy=1.00D-06.
 No special actions if energy rises.
 Fock matrices will be formed incrementally for  20 cycles.

 Cycle   1  Pass 1  IDiag  1:
 FoFJK:  IHMeth= 1 ICntrl=       0 DoSepK=T KAlg= 0 I1Cent=           0 FoldK=F
 IRaf=         1 NMat=       1 IRICut=       1 DoRegI=T DoRafI=F ISym2E= 0 IDoP0=0 IntGTp=1.
 FoFCou: FMM=F IPFlag=           0 FMFlag=      100000 FMFlg1=           0
         NFxFlg=           0 DoJE=T BraDBF=F KetDBF=F FulRan=T
         wScrn=  0.000000 ICntrl=       500 IOpCl=  0 I1Cent=           0 NGrid=           0
         NMat0=    1 NMatS0=      1 NMatT0=    0 NMatD0=    1 NMtDS0=    0 NMtDT0=    0
 Symmetry not used in FoFCou.
 Inv3:  Mode=1 IEnd=     3018027.
 Iteration    1 A*A^-1 deviation from unit magnitude is 4.44D-15 for    304.
 Iteration    1 A*A^-1 deviation from orthogonality  is 2.69D-15 for    797    722.
 Iteration    1 A^-1*A deviation from unit magnitude is 4.44D-15 for    862.
 Iteration    1 A^-1*A deviation from orthogonality  is 2.92D-15 for    866    785.
 E= -249.685035846684    
 DIIS: error= 4.81D-02 at cycle   1 NSaved=   1.
 NSaved= 1 IEnMin= 1 EnMin= -249.685035846684     IErMin= 1 ErrMin= 4.81D-02
 ErrMax= 4.81D-02  0.00D+00 EMaxC= 1.00D-01 BMatC= 5.27D-01 BMatP= 5.27D-01
 IDIUse=3 WtCom= 5.19D-01 WtEn= 4.81D-01
 Coeff-Com:  0.100D+01
 Coeff-En:   0.100D+01
 Coeff:      0.100D+01
 Gap=     0.520 Goal=   None    Shift=    0.000
 GapD=    0.520 DampG=2.000 DampE=0.500 DampFc=1.0000 IDamp=-1.
 RMSDP=1.82D-03 MaxDP=4.60D-02              OVMax= 6.10D-02

 Cycle   2  Pass 1  IDiag  1:
 RMSU=  1.78D-03    CP:  9.63D-01
 E= -249.729184566889     Delta-E=       -0.044148720205 Rises=F Damp=F
 DIIS: error= 8.93D-03 at cycle   2 NSaved=   2.
 NSaved= 2 IEnMin= 2 EnMin= -249.729184566889     IErMin= 2 ErrMin= 8.93D-03
 ErrMax= 8.93D-03  0.00D+00 EMaxC= 1.00D-01 BMatC= 3.18D-02 BMatP= 5.27D-01
 IDIUse=3 WtCom= 9.11D-01 WtEn= 8.93D-02
 Coeff-Com:  0.129D+00 0.871D+00
 Coeff-En:   0.670D-04 0.100D+01
 Coeff:      0.118D+00 0.882D+00
 Gap=     0.470 Goal=   None    Shift=    0.000
 RMSDP=8.22D-04 MaxDP=3.19D-02 DE=-4.41D-02 OVMax= 5.44D-02

 Cycle   3  Pass 1  IDiag  1:
 RMSU=  6.39D-04    CP:  9.71D-01  7.12D-01
 E= -249.737401600597     Delta-E=       -0.008217033708 Rises=F Damp=F
 DIIS: error= 7.81D-03 at cycle   3 NSaved=   3.
 NSaved= 3 IEnMin= 3 EnMin= -249.737401600597     IErMin= 3 ErrMin= 7.81D-03
 ErrMax= 7.81D-03  0.00D+00 EMaxC= 1.00D-01 BMatC= 2.01D-02 BMatP= 3.18D-02
 IDIUse=3 WtCom= 9.22D-01 WtEn= 7.81D-02
 Coeff-Com:  0.243D-01 0.450D+00 0.526D+00
 Coeff-En:   0.000D+00 0.383D+00 0.617D+00
 Coeff:      0.224D-01 0.445D+00 0.533D+00
 Gap=     0.480 Goal=   None    Shift=    0.000
 RMSDP=4.35D-04 MaxDP=1.62D-02 DE=-8.22D-03 OVMax= 2.60D-02

 Cycle   4  Pass 1  IDiag  1:
 RMSU=  1.44D-04    CP:  9.65D-01  8.97D-01  6.28D-01
 E= -249.751083560517     Delta-E=       -0.013681959920 Rises=F Damp=F
 DIIS: error= 7.51D-04 at cycle   4 NSaved=   4.
 NSaved= 4 IEnMin= 4 EnMin= -249.751083560517     IErMin= 4 ErrMin= 7.51D-04
 ErrMax= 7.51D-04  0.00D+00 EMaxC= 1.00D-01 BMatC= 2.03D-04 BMatP= 2.01D-02
 IDIUse=3 WtCom= 9.92D-01 WtEn= 7.51D-03
 Coeff-Com:  0.862D-02 0.167D+00 0.221D+00 0.603D+00
 Coeff-En:   0.000D+00 0.000D+00 0.000D+00 0.100D+01
 Coeff:      0.855D-02 0.166D+00 0.220D+00 0.606D+00
 Gap=     0.465 Goal=   None    Shift=    0.000
 RMSDP=4.53D-05 MaxDP=1.36D-03 DE=-1.37D-02 OVMax= 2.19D-03

 Cycle   5  Pass 1  IDiag  1:
 RMSU=  4.04D-05    CP:  9.64D-01  9.03D-01  6.55D-01  9.70D-01
 E= -249.751228799601     Delta-E=       -0.000145239085 Rises=F Damp=F
 DIIS: error= 1.08D-04 at cycle   5 NSaved=   5.
 NSaved= 5 IEnMin= 5 EnMin= -249.751228799601     IErMin= 5 ErrMin= 1.08D-04
 ErrMax= 1.08D-04  0.00D+00 EMaxC= 1.00D-01 BMatC= 7.22D-06 BMatP= 2.03D-04
 IDIUse=3 WtCom= 9.99D-01 WtEn= 1.08D-03
 Coeff-Com: -0.200D-02-0.345D-01-0.325D-01 0.100D+00 0.969D+00
 Coeff-En:   0.000D+00 0.000D+00 0.000D+00 0.000D+00 0.100D+01
 Coeff:     -0.199D-02-0.345D-01-0.324D-01 0.100D+00 0.969D+00
 Gap=     0.464 Goal=   None    Shift=    0.000
 RMSDP=3.34D-05 MaxDP=7.84D-04 DE=-1.45D-04 OVMax= 8.84D-04

 Cycle   6  Pass 1  IDiag  1:
 RMSU=  1.15D-05    CP:  9.64D-01  9.11D-01  6.76D-01  1.12D+00  1.24D+00
 E= -249.751238556280     Delta-E=       -0.000009756679 Rises=F Damp=F
 DIIS: error= 1.54D-05 at cycle   6 NSaved=   6.
 NSaved= 6 IEnMin= 6 EnMin= -249.751238556280     IErMin= 6 ErrMin= 1.54D-05
 ErrMax= 1.54D-05  0.00D+00 EMaxC= 1.00D-01 BMatC= 1.74D-07 BMatP= 7.22D-06
 IDIUse=1 WtCom= 1.00D+00 WtEn= 0.00D+00
 Coeff-Com: -0.462D-03-0.787D-02-0.914D-02-0.480D-02 0.760D-01 0.946D+00
 Coeff:     -0.462D-03-0.787D-02-0.914D-02-0.480D-02 0.760D-01 0.946D+00
 Gap=     0.464 Goal=   None    Shift=    0.000
 RMSDP=8.03D-06 MaxDP=1.73D-04 DE=-9.76D-06 OVMax= 2.35D-04

 Cycle   7  Pass 1  IDiag  1:
 RMSU=  2.67D-06    CP:  9.64D-01  9.12D-01  6.79D-01  1.15D+00  1.35D+00
                    CP:  1.25D+00
 E= -249.751238855182     Delta-E=       -0.000000298902 Rises=F Damp=F
 DIIS: error= 1.17D-05 at cycle   7 NSaved=   7.
 NSaved= 7 IEnMin= 7 EnMin= -249.751238855182     IErMin= 7 ErrMin= 1.17D-05
 ErrMax= 1.17D-05  0.00D+00 EMaxC= 1.00D-01 BMatC= 5.82D-08 BMatP= 1.74D-07
 IDIUse=1 WtCom= 1.00D+00 WtEn= 0.00D+00
 Coeff-Com: -0.880D-05-0.534D-03-0.130D-02-0.105D-01-0.544D-01 0.367D+00
 Coeff-Com:  0.700D+00
 Coeff:     -0.880D-05-0.534D-03-0.130D-02-0.105D-01-0.544D-01 0.367D+00
 Coeff:      0.700D+00
 Gap=     0.464 Goal=   None    Shift=    0.000
 RMSDP=2.40D-06 MaxDP=6.04D-05 DE=-2.99D-07 OVMax= 8.22D-05

 Cycle   8  Pass 1  IDiag  1:
 RMSU=  9.02D-07    CP:  9.64D-01  9.13D-01  6.80D-01  1.16D+00  1.38D+00
                    CP:  1.38D+00  1.17D+00
 E= -249.751238915821     Delta-E=       -0.000000060639 Rises=F Damp=F
 DIIS: error= 2.44D-06 at cycle   8 NSaved=   8.
 NSaved= 8 IEnMin= 8 EnMin= -249.751238915821     IErMin= 8 ErrMin= 2.44D-06
 ErrMax= 2.44D-06  0.00D+00 EMaxC= 1.00D-01 BMatC= 3.39D-09 BMatP= 5.82D-08
 IDIUse=1 WtCom= 1.00D+00 WtEn= 0.00D+00
 Coeff-Com:  0.423D-04 0.722D-03 0.767D-03-0.120D-02-0.182D-01-0.294D-01
 Coeff-Com:  0.155D+00 0.892D+00
 Coeff:      0.423D-04 0.722D-03 0.767D-03-0.120D-02-0.182D-01-0.294D-01
 Coeff:      0.155D+00 0.892D+00
 Gap=     0.464 Goal=   None    Shift=    0.000
 RMSDP=9.63D-07 MaxDP=2.65D-05 DE=-6.06D-08 OVMax= 3.07D-05

 Cycle   9  Pass 1  IDiag  1:
 RMSU=  2.20D-07    CP:  9.64D-01  9.13D-01  6.81D-01  1.16D+00  1.39D+00
                    CP:  1.42D+00  1.34D+00  1.17D+00
 E= -249.751238921082     Delta-E=       -0.000000005262 Rises=F Damp=F
 DIIS: error= 6.87D-07 at cycle   9 NSaved=   9.
 NSaved= 9 IEnMin= 9 EnMin= -249.751238921082     IErMin= 9 ErrMin= 6.87D-07
 ErrMax= 6.87D-07  0.00D+00 EMaxC= 1.00D-01 BMatC= 2.42D-10 BMatP= 3.39D-09
 IDIUse=1 WtCom= 1.00D+00 WtEn= 0.00D+00
 Coeff-Com:  0.703D-05 0.171D-03 0.256D-03 0.536D-03 0.105D-02-0.341D-01
 Coeff-Com: -0.279D-01 0.159D+00 0.901D+00
 Coeff:      0.703D-05 0.171D-03 0.256D-03 0.536D-03 0.105D-02-0.341D-01
 Coeff:     -0.279D-01 0.159D+00 0.901D+00
 Gap=     0.464 Goal=   None    Shift=    0.000
 RMSDP=2.67D-07 MaxDP=6.93D-06 DE=-5.26D-09 OVMax= 1.00D-05

 Cycle  10  Pass 1  IDiag  1:
 RMSU=  8.18D-08    CP:  9.64D-01  9.13D-01  6.81D-01  1.16D+00  1.39D+00
                    CP:  1.44D+00  1.39D+00  1.28D+00  1.32D+00
 E= -249.751238921533     Delta-E=       -0.000000000450 Rises=F Damp=F
 DIIS: error= 4.69D-07 at cycle  10 NSaved=  10.
 NSaved=10 IEnMin=10 EnMin= -249.751238921533     IErMin=10 ErrMin= 4.69D-07
 ErrMax= 4.69D-07  0.00D+00 EMaxC= 1.00D-01 BMatC= 4.02D-11 BMatP= 2.42D-10
 IDIUse=1 WtCom= 1.00D+00 WtEn= 0.00D+00
 Coeff-Com: -0.230D-05-0.296D-04-0.366D-05 0.363D-03 0.275D-02-0.959D-02
 Coeff-Com: -0.295D-01-0.467D-01 0.301D+00 0.782D+00
 Coeff:     -0.230D-05-0.296D-04-0.366D-05 0.363D-03 0.275D-02-0.959D-02
 Coeff:     -0.295D-01-0.467D-01 0.301D+00 0.782D+00
 Gap=     0.464 Goal=   None    Shift=    0.000
 RMSDP=8.22D-08 MaxDP=2.07D-06 DE=-4.50D-10 OVMax= 3.27D-06

 Cycle  11  Pass 1  IDiag  1:
 RMSU=  2.82D-08    CP:  9.64D-01  9.13D-01  6.81D-01  1.16D+00  1.39D+00
                    CP:  1.44D+00  1.41D+00  1.32D+00  1.50D+00  1.23D+00
 E= -249.751238921594     Delta-E=       -0.000000000062 Rises=F Damp=F
 DIIS: error= 5.00D-08 at cycle  11 NSaved=  11.
 NSaved=11 IEnMin=11 EnMin= -249.751238921594     IErMin=11 ErrMin= 5.00D-08
 ErrMax= 5.00D-08  0.00D+00 EMaxC= 1.00D-01 BMatC= 1.18D-12 BMatP= 4.02D-11
 IDIUse=1 WtCom= 1.00D+00 WtEn= 0.00D+00
 Coeff-Com: -0.154D-06-0.655D-05-0.155D-04-0.454D-04-0.301D-03 0.286D-02
 Coeff-Com:  0.396D-02-0.784D-02-0.829D-01-0.226D-01 0.111D+01
 Coeff:     -0.154D-06-0.655D-05-0.155D-04-0.454D-04-0.301D-03 0.286D-02
 Coeff:      0.396D-02-0.784D-02-0.829D-01-0.226D-01 0.111D+01
 Gap=     0.464 Goal=   None    Shift=    0.000
 RMSDP=2.73D-08 MaxDP=6.43D-07 DE=-6.17D-11 OVMax= 1.16D-06

 Cycle  12  Pass 1  IDiag  1:
 RMSU=  6.79D-09    CP:  9.64D-01  9.13D-01  6.81D-01  1.16D+00  1.39D+00
                    CP:  1.44D+00  1.41D+00  1.32D+00  1.57D+00  1.43D+00
                    CP:  1.35D+00
 E= -249.751238921595     Delta-E=       -0.000000000000 Rises=F Damp=F
 DIIS: error= 1.13D-08 at cycle  12 NSaved=  12.
 NSaved=12 IEnMin=12 EnMin= -249.751238921595     IErMin=12 ErrMin= 1.13D-08
 ErrMax= 1.13D-08  0.00D+00 EMaxC= 1.00D-01 BMatC= 5.20D-14 BMatP= 1.18D-12
 IDIUse=1 WtCom= 1.00D+00 WtEn= 0.00D+00
 Coeff-Com:  0.646D-07 0.417D-06-0.113D-05-0.200D-04-0.132D-03 0.609D-03
 Coeff-Com:  0.164D-02 0.163D-02-0.178D-01-0.423D-01 0.589D-01 0.998D+00
 Coeff:      0.646D-07 0.417D-06-0.113D-05-0.200D-04-0.132D-03 0.609D-03
 Coeff:      0.164D-02 0.163D-02-0.178D-01-0.423D-01 0.589D-01 0.998D+00
 Gap=     0.464 Goal=   None    Shift=    0.000
 RMSDP=6.31D-09 MaxDP=1.68D-07 DE=-3.41D-13 OVMax= 2.24D-07

 Error on total polarization charges =  0.03913
 SCF Done:  E(RwB97XD) =  -249.751238922     A.U. after   12 cycles
            NFock= 12  Conv=0.63D-08     -V/T= 2.0053
 KE= 2.484241182972D+02 PE=-9.775691153750D+02 EE= 2.822565860379D+02
 SMD-CDS (non-electrostatic) energy       (kcal/mol) =       1.63
 (included in total energy above)
 Leave Link  502 at Wed Oct 22 10:06:15 2025, MaxMem=  4294967296 cpu:             884.3 elap:             117.5
 (Enter /lrz/sys/applications/gaussian/g16.C.01/x86_64_legacy/exe/l601.exe)
 Copying SCF densities to generalized density rwf, IOpCl= 0 IROHF=0.

 **********************************************************************

            Population analysis using the SCF Density.

 **********************************************************************

 Orbital symmetries:
       Occupied  (A) (A) (A) (A) (A) (A) (A) (A) (A) (A) (A) (A)
                 (A) (A) (A) (A) (A) (A) (A) (A) (A)
       Virtual   (A) (A) (A) (A) (A) (A) (A) (A) (A) (A) (A) (A)
                 (A) (A) (A) (A) (A) (A) (A) (A) (A) (A) (A) (A)
                 (A) (A) (A) (A) (A) (A) (A) (A) (A) (A) (A) (A)
                 (A) (A) (A) (A) (A) (A) (A) (A) (A) (A) (A) (A)
                 (A) (A) (A) (A) (A) (A) (A) (A) (A) (A) (A) (A)
                 (A) (A) (A) (A) (A) (A) (A) (A) (A) (A) (A) (A)
                 (A) (A) (A) (A) (A) (A) (A) (A) (A) (A) (A) (A)
                 (A) (A) (A) (A) (A) (A) (A) (A) (A) (A) (A) (A)
                 (A) (A) (A) (A) (A) (A) (A) (A) (A) (A) (A) (A)
                 (A) (A) (A) (A) (A) (A) (A) (A) (A) (A) (A) (A)
                 (A) (A) (A) (A) (A) (A) (A) (A) (A) (A) (A) (A)
                 (A) (A) (A) (A) (A) (A) (A) (A) (A) (A) (A) (A)
                 (A) (A) (A) (A) (A) (A) (A) (A) (A) (A) (A) (A)
                 (A) (A) (A) (A) (A) (A) (A) (A) (A) (A) (A) (A)
                 (A) (A) (A) (A) (A) (A) (A) (A) (A) (A) (A) (A)
                 (A) (A) (A) (A) (A) (A) (A) (A)
 The electronic state is 1-A.
 Alpha  occ. eigenvalues --  -19.24552 -14.41133 -10.35048 -10.27198 -10.26524
 Alpha  occ. eigenvalues --   -1.12807  -0.97673  -0.85781  -0.75365  -0.67094
 Alpha  occ. eigenvalues --   -0.60268  -0.58180  -0.54882  -0.51157  -0.48958
 Alpha  occ. eigenvalues --   -0.46144  -0.44080  -0.41563  -0.40933  -0.35944
 Alpha  occ. eigenvalues --   -0.35033
 Alpha virt. eigenvalues --    0.11395   0.14252   0.15886   0.16880   0.18997
 Alpha virt. eigenvalues --    0.19488   0.21104   0.21636   0.22767   0.26148
 Alpha virt. eigenvalues --    0.27292   0.27999   0.29183   0.32470   0.33641
 Alpha virt. eigenvalues --    0.34430   0.38319   0.39028   0.41243   0.41922
 Alpha virt. eigenvalues --    0.44765   0.47239   0.48310   0.48612   0.50134
 Alpha virt. eigenvalues --    0.51281   0.52280   0.53582   0.54339   0.55229
 Alpha virt. eigenvalues --    0.57106   0.57816   0.59801   0.62108   0.64081
 Alpha virt. eigenvalues --    0.64712   0.67826   0.68390   0.70079   0.73537
 Alpha virt. eigenvalues --    0.81530   0.84051   0.87238   0.90239   0.92553
 Alpha virt. eigenvalues --    0.94002   0.97640   1.03925   1.06166   1.10687
 Alpha virt. eigenvalues --    1.11668   1.15686   1.18358   1.23614   1.24127
 Alpha virt. eigenvalues --    1.26212   1.32148   1.34339   1.38717   1.45245
 Alpha virt. eigenvalues --    1.47480   1.49642   1.54410   1.59217   1.61867
 Alpha virt. eigenvalues --    1.63874   1.64891   1.65569   1.67362   1.69010
 Alpha virt. eigenvalues --    1.72457   1.74408   1.79514   1.80727   1.83366
 Alpha virt. eigenvalues --    1.87155   1.89914   1.91416   1.95211   1.98417
 Alpha virt. eigenvalues --    1.99712   2.01476   2.05091   2.06738   2.10039
 Alpha virt. eigenvalues --    2.13966   2.15412   2.18257   2.23238   2.23787
 Alpha virt. eigenvalues --    2.28948   2.33890   2.35655   2.38297   2.40912
 Alpha virt. eigenvalues --    2.44564   2.46194   2.49685   2.51318   2.53260
 Alpha virt. eigenvalues --    2.55568   2.58319   2.62573   2.64974   2.65884
 Alpha virt. eigenvalues --    2.67860   2.73326   2.74584   2.76826   2.78500
 Alpha virt. eigenvalues --    2.80750   2.81771   2.85885   2.90672   2.92886
 Alpha virt. eigenvalues --    2.97863   3.02296   3.06319   3.10536   3.11895
 Alpha virt. eigenvalues --    3.14923   3.18601   3.21029   3.23519   3.25436
 Alpha virt. eigenvalues --    3.28409   3.29496   3.33713   3.36562   3.42587
 Alpha virt. eigenvalues --    3.44918   3.46808   3.48648   3.51444   3.54086
 Alpha virt. eigenvalues --    3.57481   3.61667   3.63623   3.64917   3.74438
 Alpha virt. eigenvalues --    3.80149   3.88948   3.90586   3.96382   4.00367
 Alpha virt. eigenvalues --    4.04205   4.07954   4.11459   4.17363   4.19523
 Alpha virt. eigenvalues --    4.33835   4.34695   4.43043   4.45764   4.49234
 Alpha virt. eigenvalues --    4.59243   4.61109   4.65993   4.70769   4.78842
 Alpha virt. eigenvalues --    4.87026   4.89610   4.96696   4.99945   5.03416
 Alpha virt. eigenvalues --    5.18310   5.19646   5.28871   5.35236   5.37927
 Alpha virt. eigenvalues --    5.55956   5.58584   5.64815   5.81191   5.87330
 Alpha virt. eigenvalues --    5.92729   6.02636   6.43579   6.56633   6.79870
 Alpha virt. eigenvalues --    6.88213   7.07988   7.27841  22.40833  22.56025
 Alpha virt. eigenvalues --   22.69380  32.06151  44.01093
          Condensed to atoms (all electrons):
               1          2          3          4          5          6
     1  O    8.185806   0.260759  -0.094002  -0.040669  -0.020131   0.302506
     2  C    0.260759   4.671065   0.292079   0.345481  -0.030641  -0.030171
     3  N   -0.094002   0.292079   6.738445  -0.043024   0.003234   0.009973
     4  C   -0.040669   0.345481  -0.043024   5.003432   0.277084   0.003787
     5  C   -0.020131  -0.030641   0.003234   0.277084   5.024880   0.000028
     6  H    0.302506  -0.030171   0.009973   0.003787   0.000028   0.345399
     7  H   -0.052434   0.456010  -0.045060  -0.064089   0.007809  -0.003018
     8  H    0.000244  -0.025671   0.362977   0.010635  -0.001184  -0.000182
     9  H    0.000154  -0.015118   0.362127  -0.021465   0.005473  -0.000177
    10  H    0.007174  -0.035964   0.003978   0.403055  -0.032644   0.000206
    11  H   -0.001540  -0.047803   0.006382   0.425235  -0.034910   0.000486
    12  H    0.018600  -0.005101  -0.001859  -0.041434   0.403914  -0.000147
    13  H    0.000311   0.008564  -0.000169  -0.033419   0.410823  -0.000049
    14  H    0.001002  -0.011732   0.004914  -0.033312   0.410734  -0.000103
               7          8          9         10         11         12
     1  O   -0.052434   0.000244   0.000154   0.007174  -0.001540   0.018600
     2  C    0.456010  -0.025671  -0.015118  -0.035964  -0.047803  -0.005101
     3  N   -0.045060   0.362977   0.362127   0.003978   0.006382  -0.001859
     4  C   -0.064089   0.010635  -0.021465   0.403055   0.425235  -0.041434
     5  C    0.007809  -0.001184   0.005473  -0.032644  -0.034910   0.403914
     6  H   -0.003018  -0.000182  -0.000177   0.000206   0.000486  -0.000147
     7  H    0.605001  -0.008850   0.007971  -0.000690  -0.006345   0.001001
     8  H   -0.008850   0.428703  -0.027143  -0.000698  -0.000383  -0.000238
     9  H    0.007971  -0.027143   0.431069   0.000406  -0.000293   0.001339
    10  H   -0.000690  -0.000698   0.000406   0.568528  -0.021895   0.006834
    11  H   -0.006345  -0.000383  -0.000293  -0.021895   0.563301  -0.004003
    12  H    0.001001  -0.000238   0.001339   0.006834  -0.004003   0.550434
    13  H   -0.000156   0.000007   0.000052  -0.003786  -0.005194  -0.021663
    14  H   -0.000279  -0.000065  -0.002604  -0.003915   0.006225  -0.027405
              13         14
     1  O    0.000311   0.001002
     2  C    0.008564  -0.011732
     3  N   -0.000169   0.004914
     4  C   -0.033419  -0.033312
     5  C    0.410823   0.410734
     6  H   -0.000049  -0.000103
     7  H   -0.000156  -0.000279
     8  H    0.000007  -0.000065
     9  H    0.000052  -0.002604
    10  H   -0.003786  -0.003915
    11  H   -0.005194   0.006225
    12  H   -0.021663  -0.027405
    13  H    0.524389  -0.020286
    14  H   -0.020286   0.546626
 Mulliken charges:
               1
     1  O   -0.567780
     2  C    0.168243
     3  N   -0.599993
     4  C   -0.191297
     5  C   -0.424469
     6  H    0.371461
     7  H    0.103128
     8  H    0.261847
     9  H    0.258208
    10  H    0.109411
    11  H    0.120737
    12  H    0.119728
    13  H    0.140577
    14  H    0.130201
 Sum of Mulliken charges =  -0.00000
 Mulliken charges with hydrogens summed into heavy atoms:
               1
     1  O   -0.196319
     2  C    0.271370
     3  N   -0.079938
     4  C    0.038850
     5  C   -0.033964
 Electronic spatial extent (au):  <R**2>=            463.6993
 Charge=             -0.0000 electrons
 Dipole moment (field-independent basis, Debye):
    X=              0.6491    Y=              1.4758    Z=              0.7818  Tot=              1.7918
 Quadrupole moment (field-independent basis, Debye-Ang):
   XX=            -31.7622   YY=            -31.7325   ZZ=            -32.5319
   XY=              0.8227   XZ=             -0.4185   YZ=              4.4979
 Traceless Quadrupole moment (field-independent basis, Debye-Ang):
   XX=              0.2466   YY=              0.2764   ZZ=             -0.5230
   XY=              0.8227   XZ=             -0.4185   YZ=              4.4979
 Octapole moment (field-independent basis, Debye-Ang**2):
  XXX=            -10.3236  YYY=             21.1447  ZZZ=             -0.9164  XYY=             -0.8205
  XXY=             -3.5660  XXZ=              1.2702  XZZ=             -2.2520  YZZ=             -1.3753
  YYZ=             -2.5739  XYZ=             -4.2663
 Hexadecapole moment (field-independent basis, Debye-Ang**3):
 XXXX=           -308.1263 YYYY=           -151.3594 ZZZZ=           -111.6229 XXXY=             12.7718
 XXXZ=              5.7320 YYYX=            -13.3231 YYYZ=              9.7750 ZZZX=              1.8567
 ZZZY=              3.2523 XXYY=            -83.3279 XXZZ=            -75.3802 YYZZ=            -43.8252
 XXYZ=              5.5043 YYXZ=              2.8504 ZZXY=              0.9701
 N-N= 1.971371721184D+02 E-N=-9.775691143064D+02  KE= 2.484241182972D+02
 No NMR shielding tensors so no spin-rotation constants.
 Leave Link  601 at Wed Oct 22 10:06:15 2025, MaxMem=  4294967296 cpu:               1.1 elap:               0.2
 (Enter /lrz/sys/applications/gaussian/g16.C.01/x86_64_legacy/exe/l9999.exe)
 Unable to Open any file for archive entry.
 1\1\GINC-CM4R15C05S03\SP\RwB97XD\def2TZVP\C3H9N1O1\GO29TIZ2\22-Oct-202
 5\0\\#p wb97xd scrf=(smd,solvent=water) def2tzvp\\g16_g16_C2-a_12\\0,1
 \O,0,-0.990853,1.111128,-0.462562\C,0,-0.639716,0.057591,0.434257\N,0,
 -1.061096,-1.201728,-0.104767\C,0,0.857872,0.078503,0.73491\C,0,1.7505
 56,-0.127108,-0.48318\H,0,-0.715043,1.946282,-0.064258\H,0,-1.183588,0
 .210927,1.383854\H,0,-2.062173,-1.162747,-0.293287\H,0,-0.612067,-1.34
 7334,-1.009716\H,0,1.064722,-0.690852,1.495751\H,0,1.090167,1.049568,1
 .203237\H,0,1.523908,0.61263,-1.265601\H,0,2.811222,-0.018486,-0.21296
 2\H,0,1.625071,-1.130824,-0.919077\\Version=EM64L-G16RevC.01\State=1-A
 \HF=-249.7512389\RMSD=6.307e-09\Dipole=0.2553598,0.5806353,0.3075886\Q
 uadrupole=0.1833599,0.2054809,-0.3888408,0.611683,-0.3111524,3.3440433
 \PG=C01 [X(C3H9N1O1)]\\@
 The archive entry for this job was punched.


 SOME PEOPLE TRY TO PULL THE WOOL OVER YOUR EYES
 USING THE WRONG YARN.
 Job cpu time:       0 days  0 hours 15 minutes  6.3 seconds.
 Elapsed time:       0 days  0 hours  2 minutes  0.5 seconds.
 File lengths (MBytes):  RWF=    288 Int=      0 D2E=      0 Chk=      8 Scr=     32
 Normal termination of Gaussian 16 at Wed Oct 22 10:06:15 2025.
