 Entering Gaussian System, Link 0=g16
 Input=../../g16_g16_C17-a_28.com
 Output=../../g16_g16_C17-a_28.log
 Initial command:
 /lrz/sys/applications/gaussian/g16.C.01/x86_64_legacy/exe/l1.exe "/dss/lxclscratch/0D/go29tiz2/Gau-3029.inp" -scrdir="/dss/lxclscratch/0D/go29tiz2/"
 Entering Link 1 = /lrz/sys/applications/gaussian/g16.C.01/x86_64_legacy/exe/l1.exe PID=      3030.
  
 Copyright (c) 1988-2019, Gaussian, Inc.  All Rights Reserved.
  
 This is part of the Gaussian(R) 16 program.  It is based on
 the Gaussian(R) 09 system (copyright 2009, Gaussian, Inc.),
 the Gaussian(R) 03 system (copyright 2003, Gaussian, Inc.),
 the Gaussian(R) 98 system (copyright 1998, Gaussian, Inc.),
 the Gaussian(R) 94 system (copyright 1995, Gaussian, Inc.),
 the Gaussian 92(TM) system (copyright 1992, Gaussian, Inc.),
 the Gaussian 90(TM) system (copyright 1990, Gaussian, Inc.),
 the Gaussian 88(TM) system (copyright 1988, Gaussian, Inc.),
 the Gaussian 86(TM) system (copyright 1986, Carnegie Mellon
 University), and the Gaussian 82(TM) system (copyright 1983,
 Carnegie Mellon University). Gaussian is a federally registered
 trademark of Gaussian, Inc.
  
 This software contains proprietary and confidential information,
 including trade secrets, belonging to Gaussian, Inc.
  
 This software is provided under written license and may be
 used, copied, transmitted, or stored only in accord with that
 written license.
  
 The following legend is applicable only to US Government
 contracts under FAR:
  
                    RESTRICTED RIGHTS LEGEND
  
 Use, reproduction and disclosure by the US Government is
 subject to restrictions as set forth in subparagraphs (a)
 and (c) of the Commercial Computer Software - Restricted
 Rights clause in FAR 52.227-19.
  
 Gaussian, Inc.
 340 Quinnipiac St., Bldg. 40, Wallingford CT 06492
  
  
 ---------------------------------------------------------------
 Warning -- This program may not be used in any manner that
 competes with the business of Gaussian, Inc. or will provide
 assistance to any competitor of Gaussian, Inc.  The licensee
 of this program is prohibited from giving any competitor of
 Gaussian, Inc. access to this program.  By using this program,
 the user acknowledges that Gaussian, Inc. is engaged in the
 business of creating and licensing software in the field of
 computational chemistry and represents and warrants to the
 licensee that it is not a competitor of Gaussian, Inc. and that
 it will not use this program in any manner prohibited above.
 ---------------------------------------------------------------
  

 Cite this work as:
 Gaussian 16, Revision C.01,
 M. J. Frisch, G. W. Trucks, H. B. Schlegel, G. E. Scuseria, 
 M. A. Robb, J. R. Cheeseman, G. Scalmani, V. Barone, 
 G. A. Petersson, H. Nakatsuji, X. Li, M. Caricato, A. V. Marenich, 
 J. Bloino, B. G. Janesko, R. Gomperts, B. Mennucci, H. P. Hratchian, 
 J. V. Ortiz, A. F. Izmaylov, J. L. Sonnenberg, D. Williams-Young, 
 F. Ding, F. Lipparini, F. Egidi, J. Goings, B. Peng, A. Petrone, 
 T. Henderson, D. Ranasinghe, V. G. Zakrzewski, J. Gao, N. Rega, 
 G. Zheng, W. Liang, M. Hada, M. Ehara, K. Toyota, R. Fukuda, 
 J. Hasegawa, M. Ishida, T. Nakajima, Y. Honda, O. Kitao, H. Nakai, 
 T. Vreven, K. Throssell, J. A. Montgomery, Jr., J. E. Peralta, 
 F. Ogliaro, M. J. Bearpark, J. J. Heyd, E. N. Brothers, K. N. Kudin, 
 V. N. Staroverov, T. A. Keith, R. Kobayashi, J. Normand, 
 K. Raghavachari, A. P. Rendell, J. C. Burant, S. S. Iyengar, 
 J. Tomasi, M. Cossi, J. M. Millam, M. Klene, C. Adamo, R. Cammi, 
 J. W. Ochterski, R. L. Martin, K. Morokuma, O. Farkas, 
 J. B. Foresman, and D. J. Fox, Gaussian, Inc., Wallingford CT, 2019.
 
 ******************************************
 Gaussian 16:  EM64L-G16RevC.01  3-Jul-2019
                22-Oct-2025 
 ******************************************
 %chk=g16_g16_C17-a_28.chk
 %nprocshared=8
 Will use up to    8 processors via shared memory.
 %mem=32GB
 -------------------------------------------
 #p wb97xd scrf=(smd,solvent=water) def2tzvp
 -------------------------------------------
 1/38=1,172=1/1;
 2/12=2,17=6,18=5,40=1/2;
 3/5=44,7=101,11=2,25=1,30=1,70=32201,72=1,74=-58/1,2,3;
 4//1;
 5/5=2,38=5,53=1/2;
 6/7=2,8=2,9=2,10=2,28=1/1;
 99/5=1,9=1/99;
 Leave Link    1 at Wed Oct 22 13:38:16 2025, MaxMem=  4294967296 cpu:               4.3 elap:               0.6
 (Enter /lrz/sys/applications/gaussian/g16.C.01/x86_64_legacy/exe/l101.exe)
 ----------------
 g16_g16_C17-a_28
 ----------------
 Symbolic Z-matrix:
 Charge =  0 Multiplicity = 1
 O                     0.70629   1.38899   0.09943 
 C                     0.95982   0.01785   0.32419 
 N                     2.25799  -0.31521  -0.23097 
 C                    -0.10409  -0.8966   -0.27416 
 C                    -1.51819  -0.73561   0.28655 
 C                    -2.26775   0.5142   -0.16589 
 H                     0.65016   1.51294  -0.85793 
 H                     0.92681  -0.08151   1.42605 
 H                     2.42073  -1.31711  -0.13677 
 H                     2.98032   0.14004   0.3263 
 H                     0.22796  -1.93395  -0.10284 
 H                    -0.10804  -0.74793  -1.36945 
 H                    -1.47353  -0.764     1.38938 
 H                    -2.10215  -1.62162  -0.01169 
 H                    -3.30166   0.51053   0.21274 
 H                    -1.77931   1.43212   0.18728 
 H                    -2.31633   0.56601  -1.26589 
 
 ITRead=  0  0  0  0  0  0  0  0  0  0  0  0  0  0  0  0  0
 MicOpt= -1 -1 -1 -1 -1 -1 -1 -1 -1 -1 -1 -1 -1 -1 -1 -1 -1
 NAtoms=     17 NQM=       17 NQMF=       0 NMMI=      0 NMMIF=      0
                NMic=       0 NMicF=      0.
                    Isotopes and Nuclear Properties:
 (Nuclear quadrupole moments (NQMom) in fm**2, nuclear magnetic moments (NMagM)
  in nuclear magnetons)

  Atom         1           2           3           4           5           6           7           8           9          10
 IAtWgt=          16          12          14          12          12          12           1           1           1           1
 AtmWgt=  15.9949146  12.0000000  14.0030740  12.0000000  12.0000000  12.0000000   1.0078250   1.0078250   1.0078250   1.0078250
 NucSpn=           0           0           2           0           0           0           1           1           1           1
 AtZEff=  -0.0000000  -0.0000000  -0.0000000  -0.0000000  -0.0000000  -0.0000000  -0.0000000  -0.0000000  -0.0000000  -0.0000000
 NQMom=    0.0000000   0.0000000   2.0440000   0.0000000   0.0000000   0.0000000   0.0000000   0.0000000   0.0000000   0.0000000
 NMagM=    0.0000000   0.0000000   0.4037610   0.0000000   0.0000000   0.0000000   2.7928460   2.7928460   2.7928460   2.7928460
 AtZNuc=   8.0000000   6.0000000   7.0000000   6.0000000   6.0000000   6.0000000   1.0000000   1.0000000   1.0000000   1.0000000

  Atom        11          12          13          14          15          16          17
 IAtWgt=           1           1           1           1           1           1           1
 AtmWgt=   1.0078250   1.0078250   1.0078250   1.0078250   1.0078250   1.0078250   1.0078250
 NucSpn=           1           1           1           1           1           1           1
 AtZEff=  -0.0000000  -0.0000000  -0.0000000  -0.0000000  -0.0000000  -0.0000000  -0.0000000
 NQMom=    0.0000000   0.0000000   0.0000000   0.0000000   0.0000000   0.0000000   0.0000000
 NMagM=    2.7928460   2.7928460   2.7928460   2.7928460   2.7928460   2.7928460   2.7928460
 AtZNuc=   1.0000000   1.0000000   1.0000000   1.0000000   1.0000000   1.0000000   1.0000000
 Leave Link  101 at Wed Oct 22 13:38:17 2025, MaxMem=  4294967296 cpu:               1.1 elap:               0.2
 (Enter /lrz/sys/applications/gaussian/g16.C.01/x86_64_legacy/exe/l202.exe)
                          Input orientation:                          
 ---------------------------------------------------------------------
 Center     Atomic      Atomic             Coordinates (Angstroms)
 Number     Number       Type             X           Y           Z
 ---------------------------------------------------------------------
      1          8           0        0.706290    1.388992    0.099429
      2          6           0        0.959820    0.017850    0.324194
      3          7           0        2.257992   -0.315208   -0.230969
      4          6           0       -0.104086   -0.896604   -0.274156
      5          6           0       -1.518189   -0.735614    0.286551
      6          6           0       -2.267750    0.514204   -0.165892
      7          1           0        0.650163    1.512941   -0.857934
      8          1           0        0.926807   -0.081514    1.426052
      9          1           0        2.420725   -1.317114   -0.136772
     10          1           0        2.980320    0.140036    0.326299
     11          1           0        0.227956   -1.933953   -0.102838
     12          1           0       -0.108035   -0.747926   -1.369449
     13          1           0       -1.473527   -0.763995    1.389379
     14          1           0       -2.102151   -1.621618   -0.011690
     15          1           0       -3.301656    0.510525    0.212736
     16          1           0       -1.779311    1.432115    0.187282
     17          1           0       -2.316326    0.566006   -1.265895
 ---------------------------------------------------------------------
                    Distance matrix (angstroms):
                    1          2          3          4          5
     1  O    0.000000
     2  C    1.412383   0.000000
     3  N    2.328356   1.450650   0.000000
     4  C    2.453614   1.525170   2.432961   0.000000
     5  C    3.081764   2.590300   3.834594   1.529705   0.000000
     6  C    3.111360   3.302084   4.601576   2.585255   1.525972
     7  H    0.966984   1.930961   2.514026   2.591447   3.326800
     8  H    1.992723   1.106822   2.138314   2.148911   2.775665
     9  H    3.212178   2.031960   1.019397   2.563274   4.004046
    10  H    2.604337   2.024192   1.019584   3.308886   4.583113
    11  H    3.363284   2.127796   2.599577   1.102585   2.153291
    12  H    2.717931   2.143631   2.661102   1.105345   2.175091
    13  H    3.324293   2.768949   4.092820   2.158773   1.104097
    14  H    4.118672   3.489461   4.556933   2.141681   1.102253
    15  H    4.104653   4.291309   5.638120   3.527255   2.176940
    16  H    2.487527   3.085730   4.419037   2.905553   2.185655
    17  H    3.417254   3.682661   4.772001   2.831392   2.177459
                    6          7          8          9         10
     6  C    0.000000
     7  H    3.160793   0.000000
     8  H    3.618613   2.799180   0.000000
     9  H    5.033525   3.415286   2.490164   0.000000
    10  H    5.284363   2.952441   2.339969   1.628148   0.000000
    11  H    3.496569   3.553802   2.501485   2.278130   3.472909
    12  H    2.775949   2.438859   3.054477   2.870208   3.633452
    13  H    2.164128   3.839910   2.495742   4.219037   4.667351
    14  H    2.147775   4.256386   3.689662   4.534840   5.389728
    15  H    1.101061   4.215216   4.438755   6.017314   6.293916
    16  H    1.098119   2.646007   3.338967   5.030266   4.933851
    17  H    1.102293   3.140569   4.264243   5.221179   5.547161
                   11         12         13         14         15
    11  H    0.000000
    12  H    1.767443   0.000000
    13  H    2.547657   3.078304   0.000000
    14  H    2.352713   2.565803   1.758886   0.000000
    15  H    4.305023   3.779712   2.520108   2.456667   0.000000
    16  H    3.929848   3.157397   2.522190   3.077190   1.779750
    17  H    3.751782   2.571710   3.087020   2.530731   1.777724
                   16         17
    16  H    0.000000
    17  H    1.774895   0.000000
 Stoichiometry    C4H11NO
 Framework group  C1[X(C4H11NO)]
 Deg. of freedom    45
 Full point group                 C1      NOp   1
 Largest Abelian subgroup         C1      NOp   1
 Largest concise Abelian subgroup C1      NOp   1
                         Standard orientation:                         
 ---------------------------------------------------------------------
 Center     Atomic      Atomic             Coordinates (Angstroms)
 Number     Number       Type             X           Y           Z
 ---------------------------------------------------------------------
      1          8           0        0.706290    1.388992    0.099429
      2          6           0        0.959820    0.017850    0.324194
      3          7           0        2.257992   -0.315208   -0.230969
      4          6           0       -0.104086   -0.896604   -0.274156
      5          6           0       -1.518189   -0.735614    0.286551
      6          6           0       -2.267750    0.514204   -0.165892
      7          1           0        0.650163    1.512941   -0.857934
      8          1           0        0.926807   -0.081514    1.426052
      9          1           0        2.420725   -1.317114   -0.136772
     10          1           0        2.980320    0.140036    0.326299
     11          1           0        0.227956   -1.933953   -0.102838
     12          1           0       -0.108035   -0.747926   -1.369449
     13          1           0       -1.473527   -0.763995    1.389379
     14          1           0       -2.102151   -1.621618   -0.011690
     15          1           0       -3.301656    0.510525    0.212736
     16          1           0       -1.779311    1.432115    0.187282
     17          1           0       -2.316326    0.566006   -1.265895
 ---------------------------------------------------------------------
 Rotational constants (GHZ):           6.4307673           2.1498768           1.7544078
 Leave Link  202 at Wed Oct 22 13:38:17 2025, MaxMem=  4294967296 cpu:               0.0 elap:               0.0
 (Enter /lrz/sys/applications/gaussian/g16.C.01/x86_64_legacy/exe/l301.exe)
 Standard basis: def2TZVP (5D, 7F)
 Ernie: Thresh=  0.10000D-02 Tol=  0.10000D-05 Strict=F.
 There are   282 symmetry adapted cartesian basis functions of A   symmetry.
 There are   252 symmetry adapted basis functions of A   symmetry.
   252 basis functions,   394 primitive gaussians,   282 cartesian basis functions
    25 alpha electrons       25 beta electrons
       nuclear repulsion energy       261.4275668060 Hartrees.
 IExCor= 4639 DFT=T Ex+Corr=wB97XD ExCW=0 ScaHFX=  1.000000
 ScaDFX=  1.000000  1.000000  1.000000  1.000000 ScalE2=  1.000000  1.000000
 IRadAn=      5 IRanWt=     -1 IRanGd=            0 ICorTp=0 IEmpDi=121
 HFx  wShort=  0.000000 wLong=  0.200000 cFull=  0.222036 cShort=  0.000000 cLong=  0.777964
 DFx  wShort=  0.000000 wLong=  0.200000 cFull=  0.000000 cShort=  0.000000 cLong=  1.000000
 NAtoms=   17 NActive=   17 NUniq=   17 SFac= 1.00D+00 NAtFMM=   60 NAOKFM=F Big=F
 Integral buffers will be    131072 words long.
 Raffenetti 2 integral format.
 Two-electron integral symmetry is turned on.
 R6Disp:  Grimme-D2 Dispersion energy=       -0.0093918494 Hartrees.
 Nuclear repulsion after empirical dispersion term =      261.4181749565 Hartrees.
 ------------------------------------------------------------------------------
 Polarizable Continuum Model (PCM)
 =================================
 Model                : PCM.
 Atomic radii         : SMD-Coulomb.
 Polarization charges : Total charges.
 Charge compensation  : None.
 Solution method      : On-the-fly selection.
 Cavity type          : VdW (van der Waals Surface) (Alpha=1.000).
 Cavity algorithm     : GePol (No added spheres)
                        Default sphere list used, NSphG=   17.
                        Lebedev-Laikov grids with approx.  5.0 points / Ang**2.
                        Smoothing algorithm: York/Karplus (Gamma=1.0000).
                        Polarization charges: spherical gaussians, with
                                              point-specific exponents (IZeta= 3).
                        Self-potential: point-specific (ISelfS= 7).
                        Self-field    : sphere-specific E.n sum rule (ISelfD= 2).
 Solvent              : Water, Eps=  78.355300 Eps(inf)=   1.777849
 ------------------------------------------------------------------------------
 Spheres list:
 ISph  on   Nord     Re0    Alpha      Xe            Ye            Ze
    1   O      1    1.5200  1.000      0.706290      1.388992      0.099429
    2   C      2    1.8500  1.000      0.959820      0.017850      0.324194
    3   N      3    1.8900  1.000      2.257992     -0.315208     -0.230969
    4   C      4    1.8500  1.000     -0.104086     -0.896604     -0.274156
    5   C      5    1.8500  1.000     -1.518189     -0.735614      0.286551
    6   C      6    1.8500  1.000     -2.267750      0.514204     -0.165892
    7   H      7    1.2000  1.000      0.650163      1.512941     -0.857934
    8   H      8    1.2000  1.000      0.926807     -0.081514      1.426052
    9   H      9    1.2000  1.000      2.420725     -1.317114     -0.136772
   10   H     10    1.2000  1.000      2.980320      0.140036      0.326299
   11   H     11    1.2000  1.000      0.227956     -1.933953     -0.102838
   12   H     12    1.2000  1.000     -0.108035     -0.747926     -1.369449
   13   H     13    1.2000  1.000     -1.473527     -0.763995      1.389379
   14   H     14    1.2000  1.000     -2.102151     -1.621618     -0.011690
   15   H     15    1.2000  1.000     -3.301656      0.510525      0.212736
   16   H     16    1.2000  1.000     -1.779311      1.432115      0.187282
   17   H     17    1.2000  1.000     -2.316326      0.566006     -1.265895
 ------------------------------------------------------------------------------
 GePol: Number of generator spheres                  =      17
 GePol: Total number of spheres                      =      17
 GePol: Number of exposed spheres                    =      17 (100.00%)
 GePol: Number of points                             =    1181
 GePol: Average weight of points                     =       0.12
 GePol: Minimum weight of points                     =   0.12D-11
 GePol: Maximum weight of points                     =    0.21991
 GePol: Number of points with low weight             =      62
 GePol: Fraction of low-weight points (<1% of avg)   =       5.25%
 GePol: Cavity surface area                          =    137.399 Ang**2
 GePol: Cavity volume                                =    108.567 Ang**3
 ------------------------------------------------------------------------------
 Atomic radii for non-electrostatic terms: SMD-CDS.
 ------------------------------------------------------------------------------
 PCM non-electrostatic energy =         0.0032481254 Hartrees.
 Nuclear repulsion after PCM non-electrostatic terms =      261.4214230819 Hartrees.
 Leave Link  301 at Wed Oct 22 13:38:17 2025, MaxMem=  4294967296 cpu:               0.6 elap:               0.1
 (Enter /lrz/sys/applications/gaussian/g16.C.01/x86_64_legacy/exe/l302.exe)
 NPDir=0 NMtPBC=     1 NCelOv=     1 NCel=       1 NClECP=     1 NCelD=      1
         NCelK=      1 NCelE2=     1 NClLst=     1 CellRange=     0.0.
 One-electron integrals computed using PRISM.
 One-electron integral symmetry used in STVInt
   1 Symmetry operations used in ECPInt.
 ECPInt:  NShTT=    6105 NPrTT=   17556 LenC2=    6024 LenP2D=   14321.
 LDataN:  DoStor=T MaxTD1= 6 Len=  172
 NBasis=   252 RedAO= T EigKep=  1.94D-04  NBF=   252
 NBsUse=   252 1.00D-06 EigRej= -1.00D+00 NBFU=   252
 Precomputing XC quadrature grid using
 IXCGrd= 4 IRadAn=           5 IRanWt=          -1 IRanGd=           0 AccXCQ= 0.00D+00.
 Generated NRdTot=       0 NPtTot=           0 NUsed=           0 NTot=          32
 NSgBfM=   281   281   281   281   281 MxSgAt=    17 MxSgA2=    17.
 Leave Link  302 at Wed Oct 22 13:38:17 2025, MaxMem=  4294967296 cpu:               2.4 elap:               0.3
 (Enter /lrz/sys/applications/gaussian/g16.C.01/x86_64_legacy/exe/l303.exe)
 DipDrv:  MaxL=1.
 Leave Link  303 at Wed Oct 22 13:38:17 2025, MaxMem=  4294967296 cpu:               0.3 elap:               0.1
 (Enter /lrz/sys/applications/gaussian/g16.C.01/x86_64_legacy/exe/l401.exe)
 ExpMin= 9.52D-02 ExpMax= 2.70D+04 ExpMxC= 9.22D+02 IAcc=3 IRadAn=         5 AccDes= 0.00D+00
 Harris functional with IExCor= 4639 and IRadAn=       5 diagonalized for initial guess.
 HarFok:  IExCor= 4639 AccDes= 0.00D+00 IRadAn=         5 IDoV= 1 UseB2=F ITyADJ=14
 ICtDFT=  3500011 ScaDFX=  1.000000  1.000000  1.000000  1.000000
 FoFCou: FMM=F IPFlag=           0 FMFlag=      100000 FMFlg1=           0
         NFxFlg=           0 DoJE=T BraDBF=F KetDBF=T FulRan=T
         wScrn=  0.000000 ICntrl=       500 IOpCl=  0 I1Cent=   200000004 NGrid=           0
         NMat0=    1 NMatS0=      1 NMatT0=    0 NMatD0=    1 NMtDS0=    0 NMtDT0=    0
 Petite list used in FoFCou.
 Harris En= -276.199238132309    
 JPrj=0 DoOrth=F DoCkMO=F.
 Leave Link  401 at Wed Oct 22 13:38:19 2025, MaxMem=  4294967296 cpu:              17.7 elap:               2.2
 (Enter /lrz/sys/applications/gaussian/g16.C.01/x86_64_legacy/exe/l502.exe)
 Integral symmetry usage will be decided dynamically.
 Closed shell SCF:
 Using DIIS extrapolation, IDIIS=  1040.
 NGot=  4294967296 LenX=  4294802854 LenY=  4294722889
 Requested convergence on RMS density matrix=1.00D-08 within 128 cycles.
 Requested convergence on MAX density matrix=1.00D-06.
 Requested convergence on             energy=1.00D-06.
 No special actions if energy rises.
 Fock matrices will be formed incrementally for  20 cycles.

 Cycle   1  Pass 1  IDiag  1:
 FoFJK:  IHMeth= 1 ICntrl=       0 DoSepK=T KAlg= 0 I1Cent=           0 FoldK=F
 IRaf=         1 NMat=       1 IRICut=       1 DoRegI=T DoRafI=F ISym2E= 0 IDoP0=0 IntGTp=1.
 FoFCou: FMM=F IPFlag=           0 FMFlag=      100000 FMFlg1=           0
         NFxFlg=           0 DoJE=T BraDBF=F KetDBF=F FulRan=T
         wScrn=  0.000000 ICntrl=       500 IOpCl=  0 I1Cent=           0 NGrid=           0
         NMat0=    1 NMatS0=      1 NMatT0=    0 NMatD0=    1 NMtDS0=    0 NMtDT0=    0
 Symmetry not used in FoFCou.
 Inv3:  Mode=1 IEnd=     4184283.
 Iteration    1 A*A^-1 deviation from unit magnitude is 5.33D-15 for    125.
 Iteration    1 A*A^-1 deviation from orthogonality  is 2.27D-15 for   1116    422.
 Iteration    1 A^-1*A deviation from unit magnitude is 5.11D-15 for    225.
 Iteration    1 A^-1*A deviation from orthogonality  is 3.91D-14 for   1106   1050.
 E= -288.984513261953    
 DIIS: error= 3.95D-02 at cycle   1 NSaved=   1.
 NSaved= 1 IEnMin= 1 EnMin= -288.984513261953     IErMin= 1 ErrMin= 3.95D-02
 ErrMax= 3.95D-02  0.00D+00 EMaxC= 1.00D-01 BMatC= 6.12D-01 BMatP= 6.12D-01
 IDIUse=3 WtCom= 6.05D-01 WtEn= 3.95D-01
 Coeff-Com:  0.100D+01
 Coeff-En:   0.100D+01
 Coeff:      0.100D+01
 Gap=     0.484 Goal=   None    Shift=    0.000
 GapD=    0.484 DampG=2.000 DampE=0.500 DampFc=1.0000 IDamp=-1.
 RMSDP=1.56D-03 MaxDP=5.01D-02              OVMax= 5.75D-02

 Cycle   2  Pass 1  IDiag  1:
 RMSU=  1.53D-03    CP:  9.68D-01
 E= -289.039171975146     Delta-E=       -0.054658713193 Rises=F Damp=F
 DIIS: error= 7.46D-03 at cycle   2 NSaved=   2.
 NSaved= 2 IEnMin= 2 EnMin= -289.039171975146     IErMin= 2 ErrMin= 7.46D-03
 ErrMax= 7.46D-03  0.00D+00 EMaxC= 1.00D-01 BMatC= 3.46D-02 BMatP= 6.12D-01
 IDIUse=3 WtCom= 9.25D-01 WtEn= 7.46D-02
 Coeff-Com:  0.124D+00 0.876D+00
 Coeff-En:   0.000D+00 0.100D+01
 Coeff:      0.115D+00 0.885D+00
 Gap=     0.460 Goal=   None    Shift=    0.000
 RMSDP=6.68D-04 MaxDP=3.24D-02 DE=-5.47D-02 OVMax= 4.88D-02

 Cycle   3  Pass 1  IDiag  1:
 RMSU=  5.88D-04    CP:  9.71D-01  7.94D-01
 E= -289.049169922492     Delta-E=       -0.009997947346 Rises=F Damp=F
 DIIS: error= 6.09D-03 at cycle   3 NSaved=   3.
 NSaved= 3 IEnMin= 3 EnMin= -289.049169922492     IErMin= 3 ErrMin= 6.09D-03
 ErrMax= 6.09D-03  0.00D+00 EMaxC= 1.00D-01 BMatC= 2.09D-02 BMatP= 3.46D-02
 IDIUse=3 WtCom= 9.39D-01 WtEn= 6.09D-02
 Coeff-Com:  0.242D-01 0.445D+00 0.531D+00
 Coeff-En:   0.000D+00 0.367D+00 0.633D+00
 Coeff:      0.227D-01 0.440D+00 0.538D+00
 Gap=     0.472 Goal=   None    Shift=    0.000
 RMSDP=3.25D-04 MaxDP=1.67D-02 DE=-1.00D-02 OVMax= 2.47D-02

 Cycle   4  Pass 1  IDiag  1:
 RMSU=  1.36D-04    CP:  9.67D-01  9.35D-01  6.60D-01
 E= -289.063612007620     Delta-E=       -0.014442085128 Rises=F Damp=F
 DIIS: error= 6.54D-04 at cycle   4 NSaved=   4.
 NSaved= 4 IEnMin= 4 EnMin= -289.063612007620     IErMin= 4 ErrMin= 6.54D-04
 ErrMax= 6.54D-04  0.00D+00 EMaxC= 1.00D-01 BMatC= 2.32D-04 BMatP= 2.09D-02
 IDIUse=3 WtCom= 9.93D-01 WtEn= 6.54D-03
 Coeff-Com:  0.884D-02 0.166D+00 0.225D+00 0.600D+00
 Coeff-En:   0.000D+00 0.000D+00 0.000D+00 0.100D+01
 Coeff:      0.878D-02 0.165D+00 0.223D+00 0.603D+00
 Gap=     0.454 Goal=   None    Shift=    0.000
 RMSDP=4.12D-05 MaxDP=1.56D-03 DE=-1.44D-02 OVMax= 2.08D-03

 Cycle   5  Pass 1  IDiag  1:
 RMSU=  3.61D-05    CP:  9.67D-01  9.43D-01  6.83D-01  9.73D-01
 E= -289.063776088969     Delta-E=       -0.000164081349 Rises=F Damp=F
 DIIS: error= 1.10D-04 at cycle   5 NSaved=   5.
 NSaved= 5 IEnMin= 5 EnMin= -289.063776088969     IErMin= 5 ErrMin= 1.10D-04
 ErrMax= 1.10D-04  0.00D+00 EMaxC= 1.00D-01 BMatC= 8.43D-06 BMatP= 2.32D-04
 IDIUse=3 WtCom= 9.99D-01 WtEn= 1.10D-03
 Coeff-Com: -0.199D-02-0.341D-01-0.326D-01 0.101D+00 0.967D+00
 Coeff-En:   0.000D+00 0.000D+00 0.000D+00 0.000D+00 0.100D+01
 Coeff:     -0.199D-02-0.341D-01-0.326D-01 0.101D+00 0.967D+00
 Gap=     0.453 Goal=   None    Shift=    0.000
 RMSDP=3.05D-05 MaxDP=6.72D-04 DE=-1.64D-04 OVMax= 1.03D-03

 Cycle   6  Pass 1  IDiag  1:
 RMSU=  9.84D-06    CP:  9.66D-01  9.52D-01  7.05D-01  1.12D+00  1.21D+00
 E= -289.063787338982     Delta-E=       -0.000011250013 Rises=F Damp=F
 DIIS: error= 2.83D-05 at cycle   6 NSaved=   6.
 NSaved= 6 IEnMin= 6 EnMin= -289.063787338982     IErMin= 6 ErrMin= 2.83D-05
 ErrMax= 2.83D-05  0.00D+00 EMaxC= 1.00D-01 BMatC= 3.57D-07 BMatP= 8.43D-06
 IDIUse=1 WtCom= 1.00D+00 WtEn= 0.00D+00
 Coeff-Com: -0.721D-03-0.122D-01-0.134D-01 0.717D-02 0.195D+00 0.825D+00
 Coeff:     -0.721D-03-0.122D-01-0.134D-01 0.717D-02 0.195D+00 0.825D+00
 Gap=     0.454 Goal=   None    Shift=    0.000
 RMSDP=6.61D-06 MaxDP=1.30D-04 DE=-1.13D-05 OVMax= 3.33D-04

 Cycle   7  Pass 1  IDiag  1:
 RMSU=  2.78D-06    CP:  9.66D-01  9.53D-01  7.08D-01  1.15D+00  1.30D+00
                    CP:  1.17D+00
 E= -289.063787777480     Delta-E=       -0.000000438498 Rises=F Damp=F
 DIIS: error= 1.84D-05 at cycle   7 NSaved=   7.
 NSaved= 7 IEnMin= 7 EnMin= -289.063787777480     IErMin= 7 ErrMin= 1.84D-05
 ErrMax= 1.84D-05  0.00D+00 EMaxC= 1.00D-01 BMatC= 9.50D-08 BMatP= 3.57D-07
 IDIUse=1 WtCom= 1.00D+00 WtEn= 0.00D+00
 Coeff-Com: -0.529D-05-0.410D-03-0.119D-02-0.107D-01-0.597D-01 0.321D+00
 Coeff-Com:  0.751D+00
 Coeff:     -0.529D-05-0.410D-03-0.119D-02-0.107D-01-0.597D-01 0.321D+00
 Coeff:      0.751D+00
 Gap=     0.453 Goal=   None    Shift=    0.000
 RMSDP=2.67D-06 MaxDP=9.00D-05 DE=-4.38D-07 OVMax= 1.22D-04

 Cycle   8  Pass 1  IDiag  1:
 RMSU=  9.77D-07    CP:  9.66D-01  9.54D-01  7.09D-01  1.16D+00  1.33D+00
                    CP:  1.33D+00  1.12D+00
 E= -289.063787883670     Delta-E=       -0.000000106190 Rises=F Damp=F
 DIIS: error= 2.76D-06 at cycle   8 NSaved=   8.
 NSaved= 8 IEnMin= 8 EnMin= -289.063787883670     IErMin= 8 ErrMin= 2.76D-06
 ErrMax= 2.76D-06  0.00D+00 EMaxC= 1.00D-01 BMatC= 3.26D-09 BMatP= 9.50D-08
 IDIUse=1 WtCom= 1.00D+00 WtEn= 0.00D+00
 Coeff-Com:  0.420D-04 0.697D-03 0.710D-03-0.189D-02-0.211D-01-0.555D-02
 Coeff-Com:  0.123D+00 0.904D+00
 Coeff:      0.420D-04 0.697D-03 0.710D-03-0.189D-02-0.211D-01-0.555D-02
 Coeff:      0.123D+00 0.904D+00
 Gap=     0.454 Goal=   None    Shift=    0.000
 RMSDP=8.18D-07 MaxDP=1.79D-05 DE=-1.06D-07 OVMax= 4.52D-05

 Cycle   9  Pass 1  IDiag  1:
 RMSU=  2.29D-07    CP:  9.66D-01  9.54D-01  7.09D-01  1.16D+00  1.34D+00
                    CP:  1.37D+00  1.26D+00  1.23D+00
 E= -289.063787889262     Delta-E=       -0.000000005592 Rises=F Damp=F
 DIIS: error= 8.65D-07 at cycle   9 NSaved=   9.
 NSaved= 9 IEnMin= 9 EnMin= -289.063787889262     IErMin= 9 ErrMin= 8.65D-07
 ErrMax= 8.65D-07  0.00D+00 EMaxC= 1.00D-01 BMatC= 5.82D-10 BMatP= 3.26D-09
 IDIUse=1 WtCom= 1.00D+00 WtEn= 0.00D+00
 Coeff-Com:  0.126D-04 0.257D-03 0.351D-03 0.376D-03-0.730D-03-0.335D-01
 Coeff-Com: -0.378D-01 0.284D+00 0.788D+00
 Coeff:      0.126D-04 0.257D-03 0.351D-03 0.376D-03-0.730D-03-0.335D-01
 Coeff:     -0.378D-01 0.284D+00 0.788D+00
 Gap=     0.454 Goal=   None    Shift=    0.000
 RMSDP=2.48D-07 MaxDP=6.40D-06 DE=-5.59D-09 OVMax= 1.32D-05

 Cycle  10  Pass 1  IDiag  1:
 RMSU=  8.60D-08    CP:  9.66D-01  9.54D-01  7.09D-01  1.16D+00  1.34D+00
                    CP:  1.39D+00  1.30D+00  1.35D+00  1.20D+00
 E= -289.063787890096     Delta-E=       -0.000000000834 Rises=F Damp=F
 DIIS: error= 3.22D-07 at cycle  10 NSaved=  10.
 NSaved=10 IEnMin=10 EnMin= -289.063787890096     IErMin=10 ErrMin= 3.22D-07
 ErrMax= 3.22D-07  0.00D+00 EMaxC= 1.00D-01 BMatC= 4.48D-11 BMatP= 5.82D-10
 IDIUse=1 WtCom= 1.00D+00 WtEn= 0.00D+00
 Coeff-Com: -0.235D-05-0.286D-04-0.402D-05 0.364D-03 0.280D-02-0.811D-02
 Coeff-Com: -0.277D-01-0.468D-01 0.181D+00 0.898D+00
 Coeff:     -0.235D-05-0.286D-04-0.402D-05 0.364D-03 0.280D-02-0.811D-02
 Coeff:     -0.277D-01-0.468D-01 0.181D+00 0.898D+00
 Gap=     0.454 Goal=   None    Shift=    0.000
 RMSDP=9.23D-08 MaxDP=2.33D-06 DE=-8.34D-10 OVMax= 5.27D-06

 Cycle  11  Pass 1  IDiag  1:
 RMSU=  2.41D-08    CP:  9.66D-01  9.54D-01  7.09D-01  1.16D+00  1.34D+00
                    CP:  1.39D+00  1.31D+00  1.39D+00  1.40D+00  1.25D+00
 E= -289.063787890176     Delta-E=       -0.000000000080 Rises=F Damp=F
 DIIS: error= 4.74D-08 at cycle  11 NSaved=  11.
 NSaved=11 IEnMin=11 EnMin= -289.063787890176     IErMin=11 ErrMin= 4.74D-08
 ErrMax= 4.74D-08  0.00D+00 EMaxC= 1.00D-01 BMatC= 9.58D-13 BMatP= 4.48D-11
 IDIUse=1 WtCom= 1.00D+00 WtEn= 0.00D+00
 Coeff-Com: -0.159D-06-0.658D-05-0.145D-04-0.350D-04-0.261D-03 0.218D-02
 Coeff-Com:  0.413D-02-0.707D-02-0.532D-01-0.769D-01 0.113D+01
 Coeff:     -0.159D-06-0.658D-05-0.145D-04-0.350D-04-0.261D-03 0.218D-02
 Coeff:      0.413D-02-0.707D-02-0.532D-01-0.769D-01 0.113D+01
 Gap=     0.454 Goal=   None    Shift=    0.000
 RMSDP=2.21D-08 MaxDP=6.27D-07 DE=-7.99D-11 OVMax= 9.77D-07

 Cycle  12  Pass 1  IDiag  1:
 RMSU=  6.68D-09    CP:  9.66D-01  9.54D-01  7.09D-01  1.16D+00  1.34D+00
                    CP:  1.39D+00  1.31D+00  1.40D+00  1.45D+00  1.40D+00
                    CP:  1.39D+00
 E= -289.063787890177     Delta-E=       -0.000000000001 Rises=F Damp=F
 DIIS: error= 7.39D-09 at cycle  12 NSaved=  12.
 NSaved=12 IEnMin=12 EnMin= -289.063787890177     IErMin=12 ErrMin= 7.39D-09
 ErrMax= 7.39D-09  0.00D+00 EMaxC= 1.00D-01 BMatC= 3.94D-14 BMatP= 9.58D-13
 IDIUse=1 WtCom= 1.00D+00 WtEn= 0.00D+00
 Coeff-Com:  0.738D-07 0.945D-06-0.189D-06-0.181D-04-0.126D-03 0.410D-03
 Coeff-Com:  0.135D-02 0.185D-02-0.853D-02-0.429D-01 0.464D-01 0.100D+01
 Coeff:      0.738D-07 0.945D-06-0.189D-06-0.181D-04-0.126D-03 0.410D-03
 Coeff:      0.135D-02 0.185D-02-0.853D-02-0.429D-01 0.464D-01 0.100D+01
 Gap=     0.454 Goal=   None    Shift=    0.000
 RMSDP=4.85D-09 MaxDP=1.35D-07 DE=-1.14D-12 OVMax= 1.60D-07

 Error on total polarization charges =  0.04342
 SCF Done:  E(RwB97XD) =  -289.063787890     A.U. after   12 cycles
            NFock= 12  Conv=0.49D-08     -V/T= 2.0055
 KE= 2.874873094475D+02 PE=-1.197083436637D+03 EE= 3.591109162169D+02
 SMD-CDS (non-electrostatic) energy       (kcal/mol) =       2.04
 (included in total energy above)
 Leave Link  502 at Wed Oct 22 13:40:00 2025, MaxMem=  4294967296 cpu:             800.0 elap:             100.2
 (Enter /lrz/sys/applications/gaussian/g16.C.01/x86_64_legacy/exe/l601.exe)
 Copying SCF densities to generalized density rwf, IOpCl= 0 IROHF=0.

 **********************************************************************

            Population analysis using the SCF Density.

 **********************************************************************

 Orbital symmetries:
       Occupied  (A) (A) (A) (A) (A) (A) (A) (A) (A) (A) (A) (A)
                 (A) (A) (A) (A) (A) (A) (A) (A) (A) (A) (A) (A)
                 (A)
       Virtual   (A) (A) (A) (A) (A) (A) (A) (A) (A) (A) (A) (A)
                 (A) (A) (A) (A) (A) (A) (A) (A) (A) (A) (A) (A)
                 (A) (A) (A) (A) (A) (A) (A) (A) (A) (A) (A) (A)
                 (A) (A) (A) (A) (A) (A) (A) (A) (A) (A) (A) (A)
                 (A) (A) (A) (A) (A) (A) (A) (A) (A) (A) (A) (A)
                 (A) (A) (A) (A) (A) (A) (A) (A) (A) (A) (A) (A)
                 (A) (A) (A) (A) (A) (A) (A) (A) (A) (A) (A) (A)
                 (A) (A) (A) (A) (A) (A) (A) (A) (A) (A) (A) (A)
                 (A) (A) (A) (A) (A) (A) (A) (A) (A) (A) (A) (A)
                 (A) (A) (A) (A) (A) (A) (A) (A) (A) (A) (A) (A)
                 (A) (A) (A) (A) (A) (A) (A) (A) (A) (A) (A) (A)
                 (A) (A) (A) (A) (A) (A) (A) (A) (A) (A) (A) (A)
                 (A) (A) (A) (A) (A) (A) (A) (A) (A) (A) (A) (A)
                 (A) (A) (A) (A) (A) (A) (A) (A) (A) (A) (A) (A)
                 (A) (A) (A) (A) (A) (A) (A) (A) (A) (A) (A) (A)
                 (A) (A) (A) (A) (A) (A) (A) (A) (A) (A) (A) (A)
                 (A) (A) (A) (A) (A) (A) (A) (A) (A) (A) (A) (A)
                 (A) (A) (A) (A) (A) (A) (A) (A) (A) (A) (A) (A)
                 (A) (A) (A) (A) (A) (A) (A) (A) (A) (A) (A)
 The electronic state is 1-A.
 Alpha  occ. eigenvalues --  -19.24790 -14.40893 -10.35082 -10.27210 -10.26995
 Alpha  occ. eigenvalues --  -10.26068  -1.13305  -0.97097  -0.87819  -0.79408
 Alpha  occ. eigenvalues --   -0.71462  -0.67289  -0.58315  -0.57592  -0.54218
 Alpha  occ. eigenvalues --   -0.53545  -0.50429  -0.48456  -0.46371  -0.42673
 Alpha  occ. eigenvalues --   -0.41960  -0.40964  -0.40298  -0.36427  -0.33543
 Alpha virt. eigenvalues --    0.11808   0.13757   0.14460   0.16153   0.17888
 Alpha virt. eigenvalues --    0.18325   0.19255   0.20084   0.21522   0.22738
 Alpha virt. eigenvalues --    0.23619   0.25142   0.26345   0.29035   0.30391
 Alpha virt. eigenvalues --    0.31006   0.32318   0.33893   0.35135   0.36031
 Alpha virt. eigenvalues --    0.37090   0.39612   0.41130   0.42430   0.43536
 Alpha virt. eigenvalues --    0.46265   0.47493   0.47865   0.49255   0.50609
 Alpha virt. eigenvalues --    0.51087   0.52507   0.53335   0.54413   0.54848
 Alpha virt. eigenvalues --    0.56066   0.56436   0.57532   0.57942   0.59250
 Alpha virt. eigenvalues --    0.60739   0.61831   0.64333   0.66587   0.67342
 Alpha virt. eigenvalues --    0.70169   0.71932   0.75041   0.77348   0.82523
 Alpha virt. eigenvalues --    0.84017   0.84822   0.89718   0.90929   0.92877
 Alpha virt. eigenvalues --    0.96753   0.98102   1.02857   1.05721   1.08369
 Alpha virt. eigenvalues --    1.09245   1.11862   1.12595   1.19105   1.19930
 Alpha virt. eigenvalues --    1.22338   1.22942   1.25512   1.28881   1.30755
 Alpha virt. eigenvalues --    1.33889   1.38903   1.44538   1.45865   1.50490
 Alpha virt. eigenvalues --    1.51985   1.53262   1.58915   1.61127   1.62354
 Alpha virt. eigenvalues --    1.63703   1.65645   1.66309   1.68129   1.69823
 Alpha virt. eigenvalues --    1.71825   1.73477   1.78139   1.80434   1.82326
 Alpha virt. eigenvalues --    1.84610   1.87433   1.87967   1.89210   1.89888
 Alpha virt. eigenvalues --    1.92811   1.97336   2.00090   2.01769   2.02731
 Alpha virt. eigenvalues --    2.05635   2.08174   2.10610   2.10759   2.12660
 Alpha virt. eigenvalues --    2.17058   2.19360   2.23038   2.25529   2.27770
 Alpha virt. eigenvalues --    2.32740   2.34435   2.38225   2.40310   2.42004
 Alpha virt. eigenvalues --    2.43474   2.44333   2.45457   2.48797   2.51928
 Alpha virt. eigenvalues --    2.53424   2.56544   2.57776   2.59313   2.62253
 Alpha virt. eigenvalues --    2.64083   2.67101   2.68014   2.70368   2.71729
 Alpha virt. eigenvalues --    2.71979   2.74933   2.76226   2.78016   2.80738
 Alpha virt. eigenvalues --    2.81190   2.84415   2.87903   2.90181   2.93015
 Alpha virt. eigenvalues --    2.95415   2.98596   3.03902   3.06036   3.09709
 Alpha virt. eigenvalues --    3.12966   3.15591   3.18106   3.18884   3.22542
 Alpha virt. eigenvalues --    3.24380   3.26970   3.31410   3.33522   3.34150
 Alpha virt. eigenvalues --    3.36921   3.37126   3.42986   3.43691   3.44764
 Alpha virt. eigenvalues --    3.45882   3.48139   3.49678   3.50246   3.55612
 Alpha virt. eigenvalues --    3.56532   3.58706   3.63084   3.64297   3.68162
 Alpha virt. eigenvalues --    3.72909   3.78542   3.81136   3.87714   3.91633
 Alpha virt. eigenvalues --    3.96187   3.96910   3.98251   4.03206   4.04656
 Alpha virt. eigenvalues --    4.06267   4.15096   4.17089   4.20480   4.27200
 Alpha virt. eigenvalues --    4.27879   4.38349   4.42982   4.44484   4.50564
 Alpha virt. eigenvalues --    4.55639   4.57165   4.66384   4.68098   4.73323
 Alpha virt. eigenvalues --    4.77869   4.80317   4.86501   4.90050   4.93604
 Alpha virt. eigenvalues --    4.97715   5.01127   5.03508   5.17391   5.27435
 Alpha virt. eigenvalues --    5.34119   5.36300   5.41593   5.49159   5.56570
 Alpha virt. eigenvalues --    5.64935   5.81182   5.86124   5.97724   6.11257
 Alpha virt. eigenvalues --    6.40101   6.57329   6.82750   6.94954   7.08750
 Alpha virt. eigenvalues --    7.26827  22.41589  22.56140  22.58538  22.70492
 Alpha virt. eigenvalues --   32.07358  43.97291
          Condensed to atoms (all electrons):
               1          2          3          4          5          6
     1  O    8.163193   0.259146  -0.074686  -0.039322  -0.013916  -0.000992
     2  C    0.259146   4.662088   0.300278   0.337133  -0.011072  -0.000069
     3  N   -0.074686   0.300278   6.760802  -0.072081   0.005534  -0.000283
     4  C   -0.039322   0.337133  -0.072081   5.117110   0.259645  -0.036829
     5  C   -0.013916  -0.011072   0.005534   0.259645   4.964683   0.297497
     6  C   -0.000992  -0.000069  -0.000283  -0.036829   0.297497   4.998301
     7  H    0.294660  -0.017238   0.006537  -0.016434   0.000088   0.001943
     8  H   -0.046083   0.441569  -0.051321  -0.079709   0.007862   0.000345
     9  H    0.005542  -0.022152   0.359949  -0.008252   0.000380  -0.000071
    10  H    0.005306  -0.028328   0.356740   0.009636  -0.000901   0.000013
    11  H    0.005445  -0.033465  -0.000829   0.407200  -0.030835   0.008503
    12  H   -0.005122  -0.038261   0.007177   0.399882  -0.027616  -0.005765
    13  H    0.000372  -0.005575   0.000512  -0.034971   0.409402  -0.036059
    14  H   -0.000097   0.008503  -0.000353  -0.043671   0.425452  -0.035411
    15  H    0.001012  -0.000519   0.000037   0.009815  -0.042721   0.411321
    16  H    0.010252   0.001586   0.000307  -0.006947  -0.031645   0.407655
    17  H   -0.000629  -0.000689  -0.000005   0.001326  -0.043972   0.409516
               7          8          9         10         11         12
     1  O    0.294660  -0.046083   0.005542   0.005306   0.005445  -0.005122
     2  C   -0.017238   0.441569  -0.022152  -0.028328  -0.033465  -0.038261
     3  N    0.006537  -0.051321   0.359949   0.356740  -0.000829   0.007177
     4  C   -0.016434  -0.079709  -0.008252   0.009636   0.407200   0.399882
     5  C    0.000088   0.007862   0.000380  -0.000901  -0.030835  -0.027616
     6  C    0.001943   0.000345  -0.000071   0.000013   0.008503  -0.005765
     7  H    0.354938   0.010432  -0.000137  -0.001510   0.000099   0.006438
     8  H    0.010432   0.621664  -0.000222  -0.008300  -0.002040   0.009043
     9  H   -0.000137  -0.000222   0.421310  -0.022049   0.001368   0.000253
    10  H   -0.001510  -0.008300  -0.022049   0.431875  -0.000229  -0.000512
    11  H    0.000099  -0.002040   0.001368  -0.000229   0.553718  -0.022579
    12  H    0.006438   0.009043   0.000253  -0.000512  -0.022579   0.556924
    13  H    0.000129   0.002606   0.000036  -0.000012  -0.000954   0.005875
    14  H   -0.000053  -0.000035  -0.000055   0.000021  -0.008436  -0.002286
    15  H    0.000017  -0.000040  -0.000001  -0.000002  -0.000186  -0.000153
    16  H   -0.002398  -0.000493  -0.000038   0.000004  -0.000547   0.000671
    17  H   -0.000244  -0.000039   0.000002   0.000004   0.000136   0.002481
              13         14         15         16         17
     1  O    0.000372  -0.000097   0.001012   0.010252  -0.000629
     2  C   -0.005575   0.008503  -0.000519   0.001586  -0.000689
     3  N    0.000512  -0.000353   0.000037   0.000307  -0.000005
     4  C   -0.034971  -0.043671   0.009815  -0.006947   0.001326
     5  C    0.409402   0.425452  -0.042721  -0.031645  -0.043972
     6  C   -0.036059  -0.035411   0.411321   0.407655   0.409516
     7  H    0.000129  -0.000053   0.000017  -0.002398  -0.000244
     8  H    0.002606  -0.000035  -0.000040  -0.000493  -0.000039
     9  H    0.000036  -0.000055  -0.000001  -0.000038   0.000002
    10  H   -0.000012   0.000021  -0.000002   0.000004   0.000004
    11  H   -0.000954  -0.008436  -0.000186  -0.000547   0.000136
    12  H    0.005875  -0.002286  -0.000153   0.000671   0.002481
    13  H    0.586490  -0.029367  -0.003414  -0.004154   0.006893
    14  H   -0.029367   0.574718  -0.005699   0.006304  -0.004329
    15  H   -0.003414  -0.005699   0.543880  -0.021656  -0.022500
    16  H   -0.004154   0.006304  -0.021656   0.548636  -0.027163
    17  H    0.006893  -0.004329  -0.022500  -0.027163   0.557345
 Mulliken charges:
               1
     1  O   -0.564081
     2  C    0.147066
     3  N   -0.598316
     4  C   -0.203532
     5  C   -0.167863
     6  C   -0.419618
     7  H    0.362734
     8  H    0.094760
     9  H    0.264138
    10  H    0.258245
    11  H    0.123630
    12  H    0.113549
    13  H    0.102192
    14  H    0.114793
    15  H    0.130810
    16  H    0.119626
    17  H    0.121867
 Sum of Mulliken charges =  -0.00000
 Mulliken charges with hydrogens summed into heavy atoms:
               1
     1  O   -0.201347
     2  C    0.241826
     3  N   -0.075932
     4  C    0.033647
     5  C    0.049121
     6  C   -0.047315
 Electronic spatial extent (au):  <R**2>=            738.4537
 Charge=              0.0000 electrons
 Dipole moment (field-independent basis, Debye):
    X=              0.3003    Y=             -2.4069    Z=              0.1821  Tot=              2.4324
 Quadrupole moment (field-independent basis, Debye-Ang):
   XX=            -37.5625   YY=            -39.6892   ZZ=            -38.7466
   XY=             -2.2906   XZ=              3.5817   YZ=             -2.9466
 Traceless Quadrupole moment (field-independent basis, Debye-Ang):
   XX=              1.1036   YY=             -1.0231   ZZ=             -0.0805
   XY=             -2.2906   XZ=              3.5817   YZ=             -2.9466
 Octapole moment (field-independent basis, Debye-Ang**2):
  XXX=             19.7804  YYY=             -4.8860  ZZZ=              0.8146  XYY=              5.9779
  XXY=             -5.3852  XXZ=             11.6767  XZZ=              0.3040  YZZ=              4.0375
  YYZ=             -5.0904  XYZ=             -1.9886
 Hexadecapole moment (field-independent basis, Debye-Ang**3):
 XXXX=           -620.8898 YYYY=           -216.5920 ZZZZ=            -85.9161 XXXY=             -4.0771
 XXXZ=             28.5442 YYYX=             -8.4237 YYYZ=             -8.7801 ZZZX=              6.5719
 ZZZY=             -4.4152 XXYY=           -141.6962 XXZZ=           -134.7573 YYZZ=            -50.0710
 XXYZ=              1.0694 YYXZ=             -2.8254 ZZXY=              3.1342
 N-N= 2.614214230819D+02 E-N=-1.197083437815D+03  KE= 2.874873094475D+02
 No NMR shielding tensors so no spin-rotation constants.
 Leave Link  601 at Wed Oct 22 13:40:00 2025, MaxMem=  4294967296 cpu:               1.2 elap:               0.2
 (Enter /lrz/sys/applications/gaussian/g16.C.01/x86_64_legacy/exe/l9999.exe)
 Unable to Open any file for archive entry.
 1\1\GINC-CM4R13C05S08\SP\RwB97XD\def2TZVP\C4H11N1O1\GO29TIZ2\22-Oct-20
 25\0\\#p wb97xd scrf=(smd,solvent=water) def2tzvp\\g16_g16_C17-a_28\\0
 ,1\O,0,0.70629,1.388992,0.099429\C,0,0.95982,0.01785,0.324194\N,0,2.25
 7992,-0.315208,-0.230969\C,0,-0.104086,-0.896604,-0.274156\C,0,-1.5181
 89,-0.735614,0.286551\C,0,-2.26775,0.514204,-0.165892\H,0,0.650163,1.5
 12941,-0.857934\H,0,0.926807,-0.081514,1.426052\H,0,2.420725,-1.317114
 ,-0.136772\H,0,2.98032,0.140036,0.326299\H,0,0.227956,-1.933953,-0.102
 838\H,0,-0.108035,-0.747926,-1.369449\H,0,-1.473527,-0.763995,1.389379
 \H,0,-2.102151,-1.621618,-0.01169\H,0,-3.301656,0.510525,0.212736\H,0,
 -1.779311,1.432115,0.187282\H,0,-2.316326,0.566006,-1.265895\\Version=
 EM64L-G16RevC.01\State=1-A\HF=-289.0637879\RMSD=4.851e-09\Dipole=0.118
 1507,-0.9469345,0.0716285\Quadrupole=0.8204932,-0.7606468,-0.0598464,-
 1.7030088,2.662913,-2.1907507\PG=C01 [X(C4H11N1O1)]\\@
 The archive entry for this job was punched.


 ALL MY ATTEMPTS TO ADAPT THE THEORETICAL FOUNDATIONS OF PHYSICS
 TO THESE NEW NOTIONS FAILED COMPLETELY. IT WAS AS IF THE GROUND HAD
 BEEN PULLED OUT FROM UNDER ONE WITH NO FIRM FOUNDATION TO BE SEEN ANYWHERE,
 UPON WHICH ONE COULD HAVE BUILT.  -- A.EINSTEIN
 Job cpu time:       0 days  0 hours 13 minutes 47.9 seconds.
 Elapsed time:       0 days  0 hours  1 minutes 43.9 seconds.
 File lengths (MBytes):  RWF=    288 Int=      0 D2E=      0 Chk=     12 Scr=     32
 Normal termination of Gaussian 16 at Wed Oct 22 13:40:00 2025.
