 Entering Gaussian System, Link 0=g16
 Input=../../g16_g16_C14-w_1.com
 Output=../../g16_g16_C14-w_1.log
 Initial command:
 /lrz/sys/applications/gaussian/g16.C.01/x86_64_legacy/exe/l1.exe "/dss/lxclscratch/0D/go29tiz2/Gau-217529.inp" -scrdir="/dss/lxclscratch/0D/go29tiz2/"
 Entering Link 1 = /lrz/sys/applications/gaussian/g16.C.01/x86_64_legacy/exe/l1.exe PID=    217530.
  
 Copyright (c) 1988-2019, Gaussian, Inc.  All Rights Reserved.
  
 This is part of the Gaussian(R) 16 program.  It is based on
 the Gaussian(R) 09 system (copyright 2009, Gaussian, Inc.),
 the Gaussian(R) 03 system (copyright 2003, Gaussian, Inc.),
 the Gaussian(R) 98 system (copyright 1998, Gaussian, Inc.),
 the Gaussian(R) 94 system (copyright 1995, Gaussian, Inc.),
 the Gaussian 92(TM) system (copyright 1992, Gaussian, Inc.),
 the Gaussian 90(TM) system (copyright 1990, Gaussian, Inc.),
 the Gaussian 88(TM) system (copyright 1988, Gaussian, Inc.),
 the Gaussian 86(TM) system (copyright 1986, Carnegie Mellon
 University), and the Gaussian 82(TM) system (copyright 1983,
 Carnegie Mellon University). Gaussian is a federally registered
 trademark of Gaussian, Inc.
  
 This software contains proprietary and confidential information,
 including trade secrets, belonging to Gaussian, Inc.
  
 This software is provided under written license and may be
 used, copied, transmitted, or stored only in accord with that
 written license.
  
 The following legend is applicable only to US Government
 contracts under FAR:
  
                    RESTRICTED RIGHTS LEGEND
  
 Use, reproduction and disclosure by the US Government is
 subject to restrictions as set forth in subparagraphs (a)
 and (c) of the Commercial Computer Software - Restricted
 Rights clause in FAR 52.227-19.
  
 Gaussian, Inc.
 340 Quinnipiac St., Bldg. 40, Wallingford CT 06492
  
  
 ---------------------------------------------------------------
 Warning -- This program may not be used in any manner that
 competes with the business of Gaussian, Inc. or will provide
 assistance to any competitor of Gaussian, Inc.  The licensee
 of this program is prohibited from giving any competitor of
 Gaussian, Inc. access to this program.  By using this program,
 the user acknowledges that Gaussian, Inc. is engaged in the
 business of creating and licensing software in the field of
 computational chemistry and represents and warrants to the
 licensee that it is not a competitor of Gaussian, Inc. and that
 it will not use this program in any manner prohibited above.
 ---------------------------------------------------------------
  

 Cite this work as:
 Gaussian 16, Revision C.01,
 M. J. Frisch, G. W. Trucks, H. B. Schlegel, G. E. Scuseria, 
 M. A. Robb, J. R. Cheeseman, G. Scalmani, V. Barone, 
 G. A. Petersson, H. Nakatsuji, X. Li, M. Caricato, A. V. Marenich, 
 J. Bloino, B. G. Janesko, R. Gomperts, B. Mennucci, H. P. Hratchian, 
 J. V. Ortiz, A. F. Izmaylov, J. L. Sonnenberg, D. Williams-Young, 
 F. Ding, F. Lipparini, F. Egidi, J. Goings, B. Peng, A. Petrone, 
 T. Henderson, D. Ranasinghe, V. G. Zakrzewski, J. Gao, N. Rega, 
 G. Zheng, W. Liang, M. Hada, M. Ehara, K. Toyota, R. Fukuda, 
 J. Hasegawa, M. Ishida, T. Nakajima, Y. Honda, O. Kitao, H. Nakai, 
 T. Vreven, K. Throssell, J. A. Montgomery, Jr., J. E. Peralta, 
 F. Ogliaro, M. J. Bearpark, J. J. Heyd, E. N. Brothers, K. N. Kudin, 
 V. N. Staroverov, T. A. Keith, R. Kobayashi, J. Normand, 
 K. Raghavachari, A. P. Rendell, J. C. Burant, S. S. Iyengar, 
 J. Tomasi, M. Cossi, J. M. Millam, M. Klene, C. Adamo, R. Cammi, 
 J. W. Ochterski, R. L. Martin, K. Morokuma, O. Farkas, 
 J. B. Foresman, and D. J. Fox, Gaussian, Inc., Wallingford CT, 2019.
 
 ******************************************
 Gaussian 16:  EM64L-G16RevC.01  3-Jul-2019
                22-Oct-2025 
 ******************************************
 %chk=g16_g16_C14-w_1.chk
 %nprocshared=8
 Will use up to    8 processors via shared memory.
 %mem=32GB
 -------------------------------------------
 #p wb97xd scrf=(smd,solvent=water) def2tzvp
 -------------------------------------------
 1/38=1,172=1/1;
 2/12=2,17=6,18=5,40=1/2;
 3/5=44,7=101,11=2,25=1,30=1,70=32201,72=1,74=-58/1,2,3;
 4//1;
 5/5=2,38=5,53=1/2;
 6/7=2,8=2,9=2,10=2,28=1/1;
 99/5=1,9=1/99;
 Leave Link    1 at Wed Oct 22 09:05:36 2025, MaxMem=  4294967296 cpu:               5.6 elap:               0.8
 (Enter /lrz/sys/applications/gaussian/g16.C.01/x86_64_legacy/exe/l101.exe)
 ---------------
 g16_g16_C14-w_1
 ---------------
 Symbolic Z-matrix:
 Charge =  0 Multiplicity = 1
 O                     3.38058   1.01535  -0.20933 
 C                     2.82875  -0.15427   0.31798 
 O                     3.34407  -1.30875  -0.28131 
 C                     1.31705  -0.06556   0.17915 
 C                     0.55648  -1.23374   0.13381 
 C                    -0.82732  -1.14222   0.04124 
 N                    -1.61856  -2.37919  -0.00587 
 O                    -1.02493  -3.43578   0.03478 
 O                    -2.82482  -2.27942  -0.08234 
 C                    -1.49761   0.07043  -0.01383 
 C                    -0.71237   1.21221   0.03076 
 N                    -1.38014   2.52     -0.02959 
 O                    -2.59039   2.53683  -0.10664 
 O                    -0.68709   3.51451   0.00131 
 C                     0.6743    1.17073   0.12777 
 H                     4.29727   1.07276   0.0891 
 H                     3.07896  -0.25304   1.38841 
 H                     3.09605  -1.29983  -1.21715 
 H                     1.03722  -2.21065   0.16538 
 H                    -2.58182   0.12268  -0.08986 
 H                     1.24824   2.0951    0.15942 
 
 ITRead=  0  0  0  0  0  0  0  0  0  0  0  0  0  0  0  0  0  0  0  0
 ITRead=  0
 MicOpt= -1 -1 -1 -1 -1 -1 -1 -1 -1 -1 -1 -1 -1 -1 -1 -1 -1 -1 -1 -1
 MicOpt= -1
 NAtoms=     21 NQM=       21 NQMF=       0 NMMI=      0 NMMIF=      0
                NMic=       0 NMicF=      0.
                    Isotopes and Nuclear Properties:
 (Nuclear quadrupole moments (NQMom) in fm**2, nuclear magnetic moments (NMagM)
  in nuclear magnetons)

  Atom         1           2           3           4           5           6           7           8           9          10
 IAtWgt=          16          12          16          12          12          12          14          16          16          12
 AtmWgt=  15.9949146  12.0000000  15.9949146  12.0000000  12.0000000  12.0000000  14.0030740  15.9949146  15.9949146  12.0000000
 NucSpn=           0           0           0           0           0           0           2           0           0           0
 AtZEff=  -0.0000000  -0.0000000  -0.0000000  -0.0000000  -0.0000000  -0.0000000  -0.0000000  -0.0000000  -0.0000000  -0.0000000
 NQMom=    0.0000000   0.0000000   0.0000000   0.0000000   0.0000000   0.0000000   2.0440000   0.0000000   0.0000000   0.0000000
 NMagM=    0.0000000   0.0000000   0.0000000   0.0000000   0.0000000   0.0000000   0.4037610   0.0000000   0.0000000   0.0000000
 AtZNuc=   8.0000000   6.0000000   8.0000000   6.0000000   6.0000000   6.0000000   7.0000000   8.0000000   8.0000000   6.0000000

  Atom        11          12          13          14          15          16          17          18          19          20
 IAtWgt=          12          14          16          16          12           1           1           1           1           1
 AtmWgt=  12.0000000  14.0030740  15.9949146  15.9949146  12.0000000   1.0078250   1.0078250   1.0078250   1.0078250   1.0078250
 NucSpn=           0           2           0           0           0           1           1           1           1           1
 AtZEff=  -0.0000000  -0.0000000  -0.0000000  -0.0000000  -0.0000000  -0.0000000  -0.0000000  -0.0000000  -0.0000000  -0.0000000
 NQMom=    0.0000000   2.0440000   0.0000000   0.0000000   0.0000000   0.0000000   0.0000000   0.0000000   0.0000000   0.0000000
 NMagM=    0.0000000   0.4037610   0.0000000   0.0000000   0.0000000   2.7928460   2.7928460   2.7928460   2.7928460   2.7928460
 AtZNuc=   6.0000000   7.0000000   8.0000000   8.0000000   6.0000000   1.0000000   1.0000000   1.0000000   1.0000000   1.0000000

  Atom        21
 IAtWgt=           1
 AtmWgt=   1.0078250
 NucSpn=           1
 AtZEff=  -0.0000000
 NQMom=    0.0000000
 NMagM=    2.7928460
 AtZNuc=   1.0000000
 Leave Link  101 at Wed Oct 22 09:05:36 2025, MaxMem=  4294967296 cpu:               1.3 elap:               0.2
 (Enter /lrz/sys/applications/gaussian/g16.C.01/x86_64_legacy/exe/l202.exe)
                          Input orientation:                          
 ---------------------------------------------------------------------
 Center     Atomic      Atomic             Coordinates (Angstroms)
 Number     Number       Type             X           Y           Z
 ---------------------------------------------------------------------
      1          8           0        3.380585    1.015347   -0.209332
      2          6           0        2.828746   -0.154268    0.317981
      3          8           0        3.344066   -1.308752   -0.281312
      4          6           0        1.317051   -0.065555    0.179146
      5          6           0        0.556484   -1.233740    0.133806
      6          6           0       -0.827318   -1.142223    0.041242
      7          7           0       -1.618559   -2.379191   -0.005873
      8          8           0       -1.024933   -3.435779    0.034780
      9          8           0       -2.824819   -2.279420   -0.082340
     10          6           0       -1.497614    0.070428   -0.013828
     11          6           0       -0.712369    1.212209    0.030756
     12          7           0       -1.380140    2.519995   -0.029593
     13          8           0       -2.590391    2.536833   -0.106641
     14          8           0       -0.687094    3.514506    0.001307
     15          6           0        0.674296    1.170730    0.127774
     16          1           0        4.297273    1.072758    0.089104
     17          1           0        3.078959   -0.253044    1.388411
     18          1           0        3.096046   -1.299831   -1.217145
     19          1           0        1.037222   -2.210649    0.165379
     20          1           0       -2.581815    0.122680   -0.089864
     21          1           0        1.248237    2.095101    0.159418
 ---------------------------------------------------------------------
                    Distance matrix (angstroms):
                    1          2          3          4          5
     1  O    0.000000
     2  C    1.396633   0.000000
     3  O    2.325500   1.399121   0.000000
     4  C    2.361660   1.520647   2.422055   0.000000
     5  C    3.626525   2.522371   2.819320   1.394695   0.000000
     6  C    4.735435   3.797294   4.187149   2.403445   1.389911
     7  N    6.046133   4.983341   5.084226   3.742319   2.462190
     8  O    6.267432   5.069454   4.869529   4.106597   2.712870
     9  O    7.026995   6.053043   6.247954   4.703686   3.545896
    10  C    4.972717   4.344879   5.041384   2.824548   2.437615
    11  C    4.104713   3.806475   4.786157   2.402758   2.757403
    12  N    4.996076   4.998721   6.086114   3.742122   4.227025
    13  O    6.162631   6.065424   7.073670   4.703424   4.917099
    14  O    4.778721   5.091298   6.292372   4.106709   4.910181
    15  C    2.731627   2.536425   3.666450   1.394336   2.407362
    16  H    0.965752   1.927317   2.591795   3.191487   4.394933
    17  H    2.062178   1.103714   1.993182   2.145179   2.983065
    18  H    2.541003   1.934005   0.968182   2.576410   2.877292
    19  H    4.004848   2.731584   2.516839   2.163313   1.089246
    20  H    6.030037   5.432974   6.099321   3.912666   3.426197
    21  H    2.418420   2.753691   4.021562   2.161842   3.400053
                    6          7          8          9         10
     6  C    0.000000
     7  N    1.469140   0.000000
     8  O    2.302063   1.212610   0.000000
     9  O    2.301847   1.212792   2.142539   0.000000
    10  C    1.386669   2.452616   3.538259   2.699621   0.000000
    11  C    2.357260   3.704143   4.658487   4.082488   1.386456
    12  N    3.704385   4.905041   5.966704   5.012411   2.452433
    13  O    4.082370   5.012176   6.175982   4.822016   2.699246
    14  O    4.659011   5.966854   6.958571   6.176281   3.538198
    15  C    2.759001   4.228118   4.910800   4.918484   2.438833
    16  H    5.582998   6.849966   6.975366   7.873416   5.881834
    17  H    4.226642   5.341461   5.366940   6.412792   4.797492
    18  H    4.123247   4.985950   4.807500   6.107702   4.942398
    19  H    2.152546   2.666628   2.402183   3.870588   3.414794
    20  H    2.166894   2.682215   3.886135   2.414372   1.088119
    21  H    3.847358   5.316496   5.981093   5.982029   3.415994
                   11         12         13         14         15
    11  C    0.000000
    12  N    1.469648   0.000000
    13  O    2.302276   1.212818   0.000000
    14  O    2.302624   1.212567   2.142437   0.000000
    15  C    1.390674   2.462923   3.546741   2.713423   0.000000
    16  H    5.011922   5.860171   7.044271   5.551014   3.624508
    17  H    4.285366   5.439122   6.493083   5.504693   3.065737
    18  H    4.729865   6.003132   6.949013   6.242965   3.711786
    19  H    3.846446   5.316074   5.980983   5.981437   3.401008
    20  H    2.167130   2.682308   2.414227   3.886227   3.427541
    21  H    2.154072   2.669199   3.873110   2.405248   1.088518
                   16         17         18         19         20
    16  H    0.000000
    17  H    2.220414   0.000000
    18  H    2.962838   2.808020   0.000000
    19  H    4.627582   3.081674   2.641916   0.000000
    20  H    6.946692   5.862664   5.960906   4.313583   0.000000
    21  H    3.216636   3.221141   4.103034   4.310922   4.315308
                   21
    21  H    0.000000
 Stoichiometry    C7H6N2O6
 Framework group  C1[X(C7H6N2O6)]
 Deg. of freedom    57
 Full point group                 C1      NOp   1
 Largest Abelian subgroup         C1      NOp   1
 Largest concise Abelian subgroup C1      NOp   1
                         Standard orientation:                         
 ---------------------------------------------------------------------
 Center     Atomic      Atomic             Coordinates (Angstroms)
 Number     Number       Type             X           Y           Z
 ---------------------------------------------------------------------
      1          8           0        3.380585    1.015347   -0.209332
      2          6           0        2.828746   -0.154268    0.317981
      3          8           0        3.344066   -1.308752   -0.281312
      4          6           0        1.317051   -0.065555    0.179146
      5          6           0        0.556484   -1.233740    0.133806
      6          6           0       -0.827318   -1.142223    0.041242
      7          7           0       -1.618559   -2.379191   -0.005873
      8          8           0       -1.024933   -3.435779    0.034780
      9          8           0       -2.824819   -2.279420   -0.082340
     10          6           0       -1.497614    0.070428   -0.013828
     11          6           0       -0.712369    1.212209    0.030756
     12          7           0       -1.380140    2.519995   -0.029593
     13          8           0       -2.590391    2.536833   -0.106641
     14          8           0       -0.687094    3.514506    0.001307
     15          6           0        0.674296    1.170730    0.127774
     16          1           0        4.297273    1.072758    0.089104
     17          1           0        3.078959   -0.253044    1.388411
     18          1           0        3.096046   -1.299831   -1.217145
     19          1           0        1.037222   -2.210649    0.165379
     20          1           0       -2.581815    0.122680   -0.089864
     21          1           0        1.248237    2.095101    0.159418
 ---------------------------------------------------------------------
 Rotational constants (GHZ):           0.5788876           0.5577405           0.2865818
 Leave Link  202 at Wed Oct 22 09:05:36 2025, MaxMem=  4294967296 cpu:               0.0 elap:               0.0
 (Enter /lrz/sys/applications/gaussian/g16.C.01/x86_64_legacy/exe/l301.exe)
 Standard basis: def2TZVP (5D, 7F)
 Ernie: Thresh=  0.10000D-02 Tol=  0.10000D-05 Strict=F.
 There are   576 symmetry adapted cartesian basis functions of A   symmetry.
 There are   501 symmetry adapted basis functions of A   symmetry.
   501 basis functions,   813 primitive gaussians,   576 cartesian basis functions
    55 alpha electrons       55 beta electrons
       nuclear repulsion energy       990.1681065154 Hartrees.
 IExCor= 4639 DFT=T Ex+Corr=wB97XD ExCW=0 ScaHFX=  1.000000
 ScaDFX=  1.000000  1.000000  1.000000  1.000000 ScalE2=  1.000000  1.000000
 IRadAn=      5 IRanWt=     -1 IRanGd=            0 ICorTp=0 IEmpDi=121
 HFx  wShort=  0.000000 wLong=  0.200000 cFull=  0.222036 cShort=  0.000000 cLong=  0.777964
 DFx  wShort=  0.000000 wLong=  0.200000 cFull=  0.000000 cShort=  0.000000 cLong=  1.000000
 NAtoms=   21 NActive=   21 NUniq=   21 SFac= 1.00D+00 NAtFMM=   60 NAOKFM=F Big=F
 Integral buffers will be    131072 words long.
 Raffenetti 2 integral format.
 Two-electron integral symmetry is turned on.
 R6Disp:  Grimme-D2 Dispersion energy=       -0.0113432974 Hartrees.
 Nuclear repulsion after empirical dispersion term =      990.1567632180 Hartrees.
 ------------------------------------------------------------------------------
 Polarizable Continuum Model (PCM)
 =================================
 Model                : PCM.
 Atomic radii         : SMD-Coulomb.
 Polarization charges : Total charges.
 Charge compensation  : None.
 Solution method      : On-the-fly selection.
 Cavity type          : VdW (van der Waals Surface) (Alpha=1.000).
 Cavity algorithm     : GePol (No added spheres)
                        Default sphere list used, NSphG=   21.
                        Lebedev-Laikov grids with approx.  5.0 points / Ang**2.
                        Smoothing algorithm: York/Karplus (Gamma=1.0000).
                        Polarization charges: spherical gaussians, with
                                              point-specific exponents (IZeta= 3).
                        Self-potential: point-specific (ISelfS= 7).
                        Self-field    : sphere-specific E.n sum rule (ISelfD= 2).
 Solvent              : Water, Eps=  78.355300 Eps(inf)=   1.777849
 ------------------------------------------------------------------------------
 GePol: Number of generator spheres                  =      21
 GePol: Total number of spheres                      =      21
 GePol: Number of exposed spheres                    =      21 (100.00%)
 GePol: Number of points                             =    1617
 GePol: Average weight of points                     =       0.13
 GePol: Minimum weight of points                     =   0.13D-07
 GePol: Maximum weight of points                     =    0.21991
 GePol: Number of points with low weight             =      99
 GePol: Fraction of low-weight points (<1% of avg)   =       6.12%
 GePol: Cavity surface area                          =    202.514 Ang**2
 GePol: Cavity volume                                =    174.814 Ang**3
 ------------------------------------------------------------------------------
 Atomic radii for non-electrostatic terms: SMD-CDS.
 ------------------------------------------------------------------------------
 PCM non-electrostatic energy =         0.0152830024 Hartrees.
 Nuclear repulsion after PCM non-electrostatic terms =      990.1720462205 Hartrees.
 Leave Link  301 at Wed Oct 22 09:05:36 2025, MaxMem=  4294967296 cpu:               0.7 elap:               0.1
 (Enter /lrz/sys/applications/gaussian/g16.C.01/x86_64_legacy/exe/l302.exe)
 NPDir=0 NMtPBC=     1 NCelOv=     1 NCel=       1 NClECP=     1 NCelD=      1
         NCelK=      1 NCelE2=     1 NClLst=     1 CellRange=     0.0.
 One-electron integrals computed using PRISM.
 One-electron integral symmetry used in STVInt
   1 Symmetry operations used in ECPInt.
 ECPInt:  NShTT=   17955 NPrTT=   56964 LenC2=   16136 LenP2D=   37343.
 LDataN:  DoStor=T MaxTD1= 6 Len=  172
 NBasis=   501 RedAO= T EigKep=  7.55D-06  NBF=   501
 NBsUse=   501 1.00D-06 EigRej= -1.00D+00 NBFU=   501
 Precomputing XC quadrature grid using
 IXCGrd= 4 IRadAn=           5 IRanWt=          -1 IRanGd=           0 AccXCQ= 0.00D+00.
 Generated NRdTot=       0 NPtTot=           0 NUsed=           0 NTot=          32
 NSgBfM=   567   567   567   567   567 MxSgAt=    21 MxSgA2=    21.
 Leave Link  302 at Wed Oct 22 09:05:37 2025, MaxMem=  4294967296 cpu:               6.3 elap:               0.8
 (Enter /lrz/sys/applications/gaussian/g16.C.01/x86_64_legacy/exe/l303.exe)
 DipDrv:  MaxL=1.
 Leave Link  303 at Wed Oct 22 09:05:37 2025, MaxMem=  4294967296 cpu:               0.6 elap:               0.1
 (Enter /lrz/sys/applications/gaussian/g16.C.01/x86_64_legacy/exe/l401.exe)
 ExpMin= 9.52D-02 ExpMax= 2.70D+04 ExpMxC= 9.22D+02 IAcc=3 IRadAn=         5 AccDes= 0.00D+00
 Harris functional with IExCor= 4639 and IRadAn=       5 diagonalized for initial guess.
 HarFok:  IExCor= 4639 AccDes= 0.00D+00 IRadAn=         5 IDoV= 1 UseB2=F ITyADJ=14
 ICtDFT=  3500011 ScaDFX=  1.000000  1.000000  1.000000  1.000000
 FoFCou: FMM=F IPFlag=           0 FMFlag=      100000 FMFlg1=           0
         NFxFlg=           0 DoJE=T BraDBF=F KetDBF=T FulRan=T
         wScrn=  0.000000 ICntrl=       500 IOpCl=  0 I1Cent=   200000004 NGrid=           0
         NMat0=    1 NMatS0=      1 NMatT0=    0 NMatD0=    1 NMtDS0=    0 NMtDT0=    0
 Petite list used in FoFCou.
 Harris En= -799.612059902672    
 JPrj=0 DoOrth=F DoCkMO=F.
 Leave Link  401 at Wed Oct 22 09:05:42 2025, MaxMem=  4294967296 cpu:              43.4 elap:               5.4
 (Enter /lrz/sys/applications/gaussian/g16.C.01/x86_64_legacy/exe/l502.exe)
 Integral symmetry usage will be decided dynamically.
 Closed shell SCF:
 Using DIIS extrapolation, IDIIS=  1040.
 NGot=  4294967296 LenX=  4294293690 LenY=  4293961338
 Requested convergence on RMS density matrix=1.00D-08 within 128 cycles.
 Requested convergence on MAX density matrix=1.00D-06.
 Requested convergence on             energy=1.00D-06.
 No special actions if energy rises.
 Fock matrices will be formed incrementally for  20 cycles.

 Cycle   1  Pass 1  IDiag  1:
 FoFJK:  IHMeth= 1 ICntrl=       0 DoSepK=T KAlg= 0 I1Cent=           0 FoldK=F
 IRaf=         1 NMat=       1 IRICut=       1 DoRegI=T DoRafI=F ISym2E= 0 IDoP0=0 IntGTp=1.
 FoFCou: FMM=F IPFlag=           0 FMFlag=      100000 FMFlg1=           0
         NFxFlg=           0 DoJE=T BraDBF=F KetDBF=F FulRan=T
         wScrn=  0.000000 ICntrl=       500 IOpCl=  0 I1Cent=           0 NGrid=           0
         NMat0=    1 NMatS0=      1 NMatT0=    0 NMatD0=    1 NMtDS0=    0 NMtDT0=    0
 Symmetry not used in FoFCou.
 Inv3:  Mode=1 IEnd=     7844067.
 Iteration    1 A*A^-1 deviation from unit magnitude is 6.99D-15 for    143.
 Iteration    1 A*A^-1 deviation from orthogonality  is 3.72D-15 for   1431    669.
 Iteration    1 A^-1*A deviation from unit magnitude is 7.11D-15 for    712.
 Iteration    1 A^-1*A deviation from orthogonality  is 3.27D-15 for   1392   1026.
 E= -830.618704846720    
 DIIS: error= 5.63D-02 at cycle   1 NSaved=   1.
 NSaved= 1 IEnMin= 1 EnMin= -830.618704846720     IErMin= 1 ErrMin= 5.63D-02
 ErrMax= 5.63D-02  0.00D+00 EMaxC= 1.00D-01 BMatC= 2.10D+00 BMatP= 2.10D+00
 IDIUse=3 WtCom= 4.37D-01 WtEn= 5.63D-01
 Coeff-Com:  0.100D+01
 Coeff-En:   0.100D+01
 Coeff:      0.100D+01
 Gap=     0.437 Goal=   None    Shift=    0.000
 GapD=    0.437 DampG=2.000 DampE=0.500 DampFc=1.0000 IDamp=-1.
 RMSDP=5.44D-03 MaxDP=3.85D-01              OVMax= 2.19D-01

 Cycle   2  Pass 1  IDiag  1:
 RMSU=  4.13D-03    CP:  6.72D-01
 E= -830.730726806826     Delta-E=       -0.112021960106 Rises=F Damp=F
 DIIS: error= 4.18D-02 at cycle   2 NSaved=   2.
 NSaved= 2 IEnMin= 2 EnMin= -830.730726806826     IErMin= 2 ErrMin= 4.18D-02
 ErrMax= 4.18D-02  0.00D+00 EMaxC= 1.00D-01 BMatC= 5.26D-01 BMatP= 2.10D+00
 IDIUse=3 WtCom= 5.82D-01 WtEn= 4.18D-01
 Coeff-Com:  0.291D+00 0.709D+00
 Coeff-En:   0.418D+00 0.582D+00
 Coeff:      0.344D+00 0.656D+00
 Gap=     0.393 Goal=   None    Shift=    0.000
 RMSDP=1.06D-03 MaxDP=7.71D-02 DE=-1.12D-01 OVMax= 1.61D-01

 Cycle   3  Pass 1  IDiag  1:
 RMSU=  9.50D-04    CP:  6.84D-01  8.88D-01
 E= -831.021657010815     Delta-E=       -0.290930203990 Rises=F Damp=F
 DIIS: error= 1.88D-02 at cycle   3 NSaved=   3.
 NSaved= 3 IEnMin= 3 EnMin= -831.021657010815     IErMin= 3 ErrMin= 1.88D-02
 ErrMax= 1.88D-02  0.00D+00 EMaxC= 1.00D-01 BMatC= 9.43D-02 BMatP= 5.26D-01
 IDIUse=3 WtCom= 8.12D-01 WtEn= 1.88D-01
 Coeff-Com:  0.469D-01 0.304D+00 0.649D+00
 Coeff-En:   0.000D+00 0.106D+00 0.894D+00
 Coeff:      0.381D-01 0.267D+00 0.695D+00
 Gap=     0.350 Goal=   None    Shift=    0.000
 RMSDP=4.14D-04 MaxDP=2.57D-02 DE=-2.91D-01 OVMax= 6.81D-02

 Cycle   4  Pass 1  IDiag  1:
 RMSU=  2.88D-04    CP:  6.75D-01  9.29D-01  7.64D-01
 E= -831.079256526405     Delta-E=       -0.057599515590 Rises=F Damp=F
 DIIS: error= 5.15D-03 at cycle   4 NSaved=   4.
 NSaved= 4 IEnMin= 4 EnMin= -831.079256526405     IErMin= 4 ErrMin= 5.15D-03
 ErrMax= 5.15D-03  0.00D+00 EMaxC= 1.00D-01 BMatC= 1.29D-02 BMatP= 9.43D-02
 IDIUse=3 WtCom= 9.49D-01 WtEn= 5.15D-02
 Coeff-Com:  0.784D-02 0.102D+00 0.359D+00 0.531D+00
 Coeff-En:   0.000D+00 0.000D+00 0.236D-01 0.976D+00
 Coeff:      0.744D-02 0.966D-01 0.342D+00 0.554D+00
 Gap=     0.317 Goal=   None    Shift=    0.000
 RMSDP=2.14D-04 MaxDP=1.03D-02 DE=-5.76D-02 OVMax= 1.78D-02

 Cycle   5  Pass 1  IDiag  1:
 RMSU=  1.09D-04    CP:  6.65D-01  9.55D-01  8.41D-01  7.62D-01
 E= -831.086859704039     Delta-E=       -0.007603177634 Rises=F Damp=F
 DIIS: error= 5.49D-04 at cycle   5 NSaved=   5.
 NSaved= 5 IEnMin= 5 EnMin= -831.086859704039     IErMin= 5 ErrMin= 5.49D-04
 ErrMax= 5.49D-04  0.00D+00 EMaxC= 1.00D-01 BMatC= 2.32D-04 BMatP= 1.29D-02
 IDIUse=3 WtCom= 9.95D-01 WtEn= 5.49D-03
 Coeff-Com: -0.536D-03 0.444D-02 0.476D-01 0.170D+00 0.779D+00
 Coeff-En:   0.000D+00 0.000D+00 0.000D+00 0.000D+00 0.100D+01
 Coeff:     -0.533D-03 0.442D-02 0.473D-01 0.169D+00 0.780D+00
 Gap=     0.320 Goal=   None    Shift=    0.000
 RMSDP=4.93D-05 MaxDP=1.81D-03 DE=-7.60D-03 OVMax= 5.54D-03

 Cycle   6  Pass 1  IDiag  1:
 RMSU=  2.71D-05    CP:  6.64D-01  9.60D-01  8.58D-01  8.48D-01  1.13D+00
 E= -831.087059133616     Delta-E=       -0.000199429577 Rises=F Damp=F
 DIIS: error= 1.43D-04 at cycle   6 NSaved=   6.
 NSaved= 6 IEnMin= 6 EnMin= -831.087059133616     IErMin= 6 ErrMin= 1.43D-04
 ErrMax= 1.43D-04  0.00D+00 EMaxC= 1.00D-01 BMatC= 1.74D-05 BMatP= 2.32D-04
 IDIUse=3 WtCom= 9.99D-01 WtEn= 1.43D-03
 Coeff-Com: -0.840D-03-0.919D-02-0.201D-01-0.674D-04 0.256D+00 0.774D+00
 Coeff-En:   0.000D+00 0.000D+00 0.000D+00 0.000D+00 0.000D+00 0.100D+01
 Coeff:     -0.839D-03-0.918D-02-0.201D-01-0.673D-04 0.255D+00 0.775D+00
 Gap=     0.320 Goal=   None    Shift=    0.000
 RMSDP=2.63D-05 MaxDP=1.36D-03 DE=-1.99D-04 OVMax= 1.47D-03

 Cycle   7  Pass 1  IDiag  1:
 RMSU=  8.90D-06    CP:  6.62D-01  9.62D-01  8.64D-01  8.86D-01  1.26D+00
                    CP:  1.07D+00
 E= -831.087080897221     Delta-E=       -0.000021763605 Rises=F Damp=F
 DIIS: error= 5.37D-05 at cycle   7 NSaved=   7.
 NSaved= 7 IEnMin= 7 EnMin= -831.087080897221     IErMin= 7 ErrMin= 5.37D-05
 ErrMax= 5.37D-05  0.00D+00 EMaxC= 1.00D-01 BMatC= 1.68D-06 BMatP= 1.74D-05
 IDIUse=1 WtCom= 1.00D+00 WtEn= 0.00D+00
 Coeff-Com: -0.237D-03-0.369D-02-0.115D-01-0.158D-01 0.133D-01 0.238D+00
 Coeff-Com:  0.780D+00
 Coeff:     -0.237D-03-0.369D-02-0.115D-01-0.158D-01 0.133D-01 0.238D+00
 Coeff:      0.780D+00
 Gap=     0.320 Goal=   None    Shift=    0.000
 RMSDP=8.69D-06 MaxDP=3.71D-04 DE=-2.18D-05 OVMax= 8.87D-04

 Cycle   8  Pass 1  IDiag  1:
 RMSU=  4.02D-06    CP:  6.62D-01  9.63D-01  8.65D-01  8.96D-01  1.31D+00
                    CP:  1.22D+00  1.22D+00
 E= -831.087083329400     Delta-E=       -0.000002432179 Rises=F Damp=F
 DIIS: error= 2.61D-05 at cycle   8 NSaved=   8.
 NSaved= 8 IEnMin= 8 EnMin= -831.087083329400     IErMin= 8 ErrMin= 2.61D-05
 ErrMax= 2.61D-05  0.00D+00 EMaxC= 1.00D-01 BMatC= 6.01D-07 BMatP= 1.68D-06
 IDIUse=1 WtCom= 1.00D+00 WtEn= 0.00D+00
 Coeff-Com:  0.477D-04 0.256D-03-0.858D-03-0.715D-02-0.505D-01-0.590D-01
 Coeff-Com:  0.402D+00 0.715D+00
 Coeff:      0.477D-04 0.256D-03-0.858D-03-0.715D-02-0.505D-01-0.590D-01
 Coeff:      0.402D+00 0.715D+00
 Gap=     0.320 Goal=   None    Shift=    0.000
 RMSDP=3.92D-06 MaxDP=1.45D-04 DE=-2.43D-06 OVMax= 3.99D-04

 Cycle   9  Pass 1  IDiag  1:
 RMSU=  1.40D-06    CP:  6.62D-01  9.63D-01  8.66D-01  9.00D-01  1.32D+00
                    CP:  1.28D+00  1.46D+00  1.03D+00
 E= -831.087084005575     Delta-E=       -0.000000676175 Rises=F Damp=F
 DIIS: error= 1.00D-05 at cycle   9 NSaved=   9.
 NSaved= 9 IEnMin= 9 EnMin= -831.087084005575     IErMin= 9 ErrMin= 1.00D-05
 ErrMax= 1.00D-05  0.00D+00 EMaxC= 1.00D-01 BMatC= 9.75D-08 BMatP= 6.01D-07
 IDIUse=1 WtCom= 1.00D+00 WtEn= 0.00D+00
 Coeff-Com:  0.522D-04 0.625D-03 0.108D-02-0.183D-02-0.294D-01-0.631D-01
 Coeff-Com:  0.127D+00 0.382D+00 0.584D+00
 Coeff:      0.522D-04 0.625D-03 0.108D-02-0.183D-02-0.294D-01-0.631D-01
 Coeff:      0.127D+00 0.382D+00 0.584D+00
 Gap=     0.320 Goal=   None    Shift=    0.000
 RMSDP=8.75D-07 MaxDP=2.73D-05 DE=-6.76D-07 OVMax= 1.04D-04

 Cycle  10  Pass 1  IDiag  1:
 RMSU=  5.33D-07    CP:  6.62D-01  9.63D-01  8.65D-01  9.01D-01  1.32D+00
                    CP:  1.29D+00  1.50D+00  1.12D+00  8.57D-01
 E= -831.087084095861     Delta-E=       -0.000000090286 Rises=F Damp=F
 DIIS: error= 3.65D-06 at cycle  10 NSaved=  10.
 NSaved=10 IEnMin=10 EnMin= -831.087084095861     IErMin=10 ErrMin= 3.65D-06
 ErrMax= 3.65D-06  0.00D+00 EMaxC= 1.00D-01 BMatC= 5.25D-09 BMatP= 9.75D-08
 IDIUse=1 WtCom= 1.00D+00 WtEn= 0.00D+00
 Coeff-Com:  0.787D-05 0.118D-03 0.462D-03 0.807D-03 0.164D-02-0.575D-02
 Coeff-Com: -0.376D-01-0.374D-01 0.136D+00 0.942D+00
 Coeff:      0.787D-05 0.118D-03 0.462D-03 0.807D-03 0.164D-02-0.575D-02
 Coeff:     -0.376D-01-0.374D-01 0.136D+00 0.942D+00
 Gap=     0.320 Goal=   None    Shift=    0.000
 RMSDP=5.34D-07 MaxDP=3.43D-05 DE=-9.03D-08 OVMax= 6.59D-05

 Cycle  11  Pass 1  IDiag  1:
 RMSU=  2.27D-07    CP:  6.62D-01  9.63D-01  8.65D-01  9.00D-01  1.32D+00
                    CP:  1.29D+00  1.52D+00  1.16D+00  9.79D-01  1.16D+00
 E= -831.087084107682     Delta-E=       -0.000000011822 Rises=F Damp=F
 DIIS: error= 1.30D-06 at cycle  11 NSaved=  11.
 NSaved=11 IEnMin=11 EnMin= -831.087084107682     IErMin=11 ErrMin= 1.30D-06
 ErrMax= 1.30D-06  0.00D+00 EMaxC= 1.00D-01 BMatC= 5.37D-10 BMatP= 5.25D-09
 IDIUse=1 WtCom= 1.00D+00 WtEn= 0.00D+00
 Coeff-Com: -0.120D-05-0.227D-04 0.219D-04 0.317D-03 0.246D-02 0.379D-02
 Coeff-Com: -0.155D-01-0.386D-01-0.276D-01 0.199D+00 0.876D+00
 Coeff:     -0.120D-05-0.227D-04 0.219D-04 0.317D-03 0.246D-02 0.379D-02
 Coeff:     -0.155D-01-0.386D-01-0.276D-01 0.199D+00 0.876D+00
 Gap=     0.320 Goal=   None    Shift=    0.000
 RMSDP=1.69D-07 MaxDP=8.56D-06 DE=-1.18D-08 OVMax= 2.44D-05

 Cycle  12  Pass 1  IDiag  1:
 RMSU=  6.87D-08    CP:  6.62D-01  9.63D-01  8.65D-01  9.00D-01  1.32D+00
                    CP:  1.29D+00  1.52D+00  1.17D+00  9.96D-01  1.24D+00
                    CP:  1.31D+00
 E= -831.087084108976     Delta-E=       -0.000000001294 Rises=F Damp=F
 DIIS: error= 3.79D-07 at cycle  12 NSaved=  12.
 NSaved=12 IEnMin=12 EnMin= -831.087084108976     IErMin=12 ErrMin= 3.79D-07
 ErrMax= 3.79D-07  0.00D+00 EMaxC= 1.00D-01 BMatC= 1.30D-10 BMatP= 5.37D-10
 IDIUse=1 WtCom= 1.00D+00 WtEn= 0.00D+00
 Coeff-Com: -0.110D-05-0.210D-04-0.441D-04 0.134D-04 0.472D-03 0.196D-02
 Coeff-Com: -0.213D-03-0.939D-02-0.312D-01-0.598D-01 0.310D+00 0.788D+00
 Coeff:     -0.110D-05-0.210D-04-0.441D-04 0.134D-04 0.472D-03 0.196D-02
 Coeff:     -0.213D-03-0.939D-02-0.312D-01-0.598D-01 0.310D+00 0.788D+00
 Gap=     0.320 Goal=   None    Shift=    0.000
 RMSDP=6.13D-08 MaxDP=2.11D-06 DE=-1.29D-09 OVMax= 1.15D-05

 Cycle  13  Pass 1  IDiag  1:
 RMSU=  2.55D-08    CP:  6.62D-01  9.63D-01  8.65D-01  9.00D-01  1.32D+00
                    CP:  1.29D+00  1.52D+00  1.17D+00  9.99D-01  1.27D+00
                    CP:  1.46D+00  1.18D+00
 E= -831.087084109316     Delta-E=       -0.000000000340 Rises=F Damp=F
 DIIS: error= 1.84D-07 at cycle  13 NSaved=  13.
 NSaved=13 IEnMin=13 EnMin= -831.087084109316     IErMin=13 ErrMin= 1.84D-07
 ErrMax= 1.84D-07  0.00D+00 EMaxC= 1.00D-01 BMatC= 1.52D-11 BMatP= 1.30D-10
 IDIUse=1 WtCom= 1.00D+00 WtEn= 0.00D+00
 Coeff-Com: -0.946D-07-0.486D-06-0.102D-04-0.391D-04-0.356D-03-0.155D-03
 Coeff-Com:  0.279D-02 0.411D-02-0.263D-02-0.423D-01-0.912D-01 0.116D+00
 Coeff-Com:  0.101D+01
 Coeff:     -0.946D-07-0.486D-06-0.102D-04-0.391D-04-0.356D-03-0.155D-03
 Coeff:      0.279D-02 0.411D-02-0.263D-02-0.423D-01-0.912D-01 0.116D+00
 Coeff:      0.101D+01
 Gap=     0.320 Goal=   None    Shift=    0.000
 RMSDP=3.02D-08 MaxDP=1.02D-06 DE=-3.40D-10 OVMax= 5.97D-06

 Cycle  14  Pass 1  IDiag  1:
 RMSU=  1.02D-08    CP:  6.62D-01  9.63D-01  8.65D-01  9.00D-01  1.32D+00
                    CP:  1.29D+00  1.52D+00  1.17D+00  9.98D-01  1.28D+00
                    CP:  1.52D+00  1.39D+00  1.35D+00
 E= -831.087084109306     Delta-E=        0.000000000010 Rises=F Damp=F
 DIIS: error= 5.37D-08 at cycle  14 NSaved=  14.
 NSaved=14 IEnMin=13 EnMin= -831.087084109316     IErMin=14 ErrMin= 5.37D-08
 ErrMax= 5.37D-08  0.00D+00 EMaxC= 1.00D-01 BMatC= 2.33D-12 BMatP= 1.52D-11
 IDIUse=1 WtCom= 1.00D+00 WtEn= 0.00D+00
 Coeff-Com:  0.131D-06 0.234D-05 0.335D-05-0.899D-05-0.163D-03-0.258D-03
 Coeff-Com:  0.811D-03 0.203D-02 0.253D-02-0.390D-02-0.563D-01-0.562D-01
 Coeff-Com:  0.329D+00 0.782D+00
 Coeff:      0.131D-06 0.234D-05 0.335D-05-0.899D-05-0.163D-03-0.258D-03
 Coeff:      0.811D-03 0.203D-02 0.253D-02-0.390D-02-0.563D-01-0.562D-01
 Coeff:      0.329D+00 0.782D+00
 Gap=     0.320 Goal=   None    Shift=    0.000
 RMSDP=6.32D-09 MaxDP=2.78D-07 DE= 1.05D-11 OVMax= 1.40D-06

 Error on total polarization charges =  0.05041
 SCF Done:  E(RwB97XD) =  -831.087084109     A.U. after   14 cycles
            NFock= 14  Conv=0.63D-08     -V/T= 2.0043
 KE= 8.275529807552D+02 PE=-3.927945509280D+03 EE= 1.279133398195D+03
 SMD-CDS (non-electrostatic) energy       (kcal/mol) =       9.59
 (included in total energy above)
 Leave Link  502 at Wed Oct 22 09:15:33 2025, MaxMem=  4294967296 cpu:            4714.9 elap:             590.1
 (Enter /lrz/sys/applications/gaussian/g16.C.01/x86_64_legacy/exe/l601.exe)
 Copying SCF densities to generalized density rwf, IOpCl= 0 IROHF=0.

 **********************************************************************

            Population analysis using the SCF Density.

 **********************************************************************

 Orbital symmetries:
       Occupied  (A) (A) (A) (A) (A) (A) (A) (A) (A) (A) (A) (A)
                 (A) (A) (A) (A) (A) (A) (A) (A) (A) (A) (A) (A)
                 (A) (A) (A) (A) (A) (A) (A) (A) (A) (A) (A) (A)
                 (A) (A) (A) (A) (A) (A) (A) (A) (A) (A) (A) (A)
                 (A) (A) (A) (A) (A) (A) (A)
       Virtual   (A) (A) (A) (A) (A) (A) (A) (A) (A) (A) (A) (A)
                 (A) (A) (A) (A) (A) (A) (A) (A) (A) (A) (A) (A)
                 (A) (A) (A) (A) (A) (A) (A) (A) (A) (A) (A) (A)
                 (A) (A) (A) (A) (A) (A) (A) (A) (A) (A) (A) (A)
                 (A) (A) (A) (A) (A) (A) (A) (A) (A) (A) (A) (A)
                 (A) (A) (A) (A) (A) (A) (A) (A) (A) (A) (A) (A)
                 (A) (A) (A) (A) (A) (A) (A) (A) (A) (A) (A) (A)
                 (A) (A) (A) (A) (A) (A) (A) (A) (A) (A) (A) (A)
                 (A) (A) (A) (A) (A) (A) (A) (A) (A) (A) (A) (A)
                 (A) (A) (A) (A) (A) (A) (A) (A) (A) (A) (A) (A)
                 (A) (A) (A) (A) (A) (A) (A) (A) (A) (A) (A) (A)
                 (A) (A) (A) (A) (A) (A) (A) (A) (A) (A) (A) (A)
                 (A) (A) (A) (A) (A) (A) (A) (A) (A) (A) (A) (A)
                 (A) (A) (A) (A) (A) (A) (A) (A) (A) (A) (A) (A)
                 (A) (A) (A) (A) (A) (A) (A) (A) (A) (A) (A) (A)
                 (A) (A) (A) (A) (A) (A) (A) (A) (A) (A) (A) (A)
                 (A) (A) (A) (A) (A) (A) (A) (A) (A) (A) (A) (A)
                 (A) (A) (A) (A) (A) (A) (A) (A) (A) (A) (A) (A)
                 (A) (A) (A) (A) (A) (A) (A) (A) (A) (A) (A) (A)
                 (A) (A) (A) (A) (A) (A) (A) (A) (A) (A) (A) (A)
                 (A) (A) (A) (A) (A) (A) (A) (A) (A) (A) (A) (A)
                 (A) (A) (A) (A) (A) (A) (A) (A) (A) (A) (A) (A)
                 (A) (A) (A) (A) (A) (A) (A) (A) (A) (A) (A) (A)
                 (A) (A) (A) (A) (A) (A) (A) (A) (A) (A) (A) (A)
                 (A) (A) (A) (A) (A) (A) (A) (A) (A) (A) (A) (A)
                 (A) (A) (A) (A) (A) (A) (A) (A) (A) (A) (A) (A)
                 (A) (A) (A) (A) (A) (A) (A) (A) (A) (A) (A) (A)
                 (A) (A) (A) (A) (A) (A) (A) (A) (A) (A) (A) (A)
                 (A) (A) (A) (A) (A) (A) (A) (A) (A) (A) (A) (A)
                 (A) (A) (A) (A) (A) (A) (A) (A) (A) (A) (A) (A)
                 (A) (A) (A) (A) (A) (A) (A) (A) (A) (A) (A) (A)
                 (A) (A) (A) (A) (A) (A) (A) (A) (A) (A) (A) (A)
                 (A) (A) (A) (A) (A) (A) (A) (A) (A) (A) (A) (A)
                 (A) (A) (A) (A) (A) (A) (A) (A) (A) (A) (A) (A)
                 (A) (A) (A) (A) (A) (A) (A) (A) (A) (A) (A) (A)
                 (A) (A) (A) (A) (A) (A) (A) (A) (A) (A) (A) (A)
                 (A) (A) (A) (A) (A) (A) (A) (A) (A) (A) (A) (A)
                 (A) (A)
 The electronic state is 1-A.
 Alpha  occ. eigenvalues --  -19.30339 -19.30328 -19.30328 -19.30312 -19.26691
 Alpha  occ. eigenvalues --  -19.26604 -14.69997 -14.69982 -10.39996 -10.36916
 Alpha  occ. eigenvalues --  -10.36906 -10.33813 -10.33168 -10.33122 -10.32874
 Alpha  occ. eigenvalues --   -1.36732  -1.36711  -1.18704  -1.18681  -1.18251
 Alpha  occ. eigenvalues --   -1.11264  -1.02038  -0.94674  -0.91818  -0.83232
 Alpha  occ. eigenvalues --   -0.81345  -0.79330  -0.70651  -0.70302  -0.68511
 Alpha  occ. eigenvalues --   -0.65834  -0.65662  -0.65530  -0.64302  -0.63039
 Alpha  occ. eigenvalues --   -0.62664  -0.60901  -0.58610  -0.57975  -0.55686
 Alpha  occ. eigenvalues --   -0.51694  -0.49641  -0.49378  -0.48873  -0.43721
 Alpha  occ. eigenvalues --   -0.42497  -0.42374  -0.42309  -0.42193  -0.41841
 Alpha  occ. eigenvalues --   -0.40705  -0.40641  -0.38792  -0.37629  -0.36416
 Alpha virt. eigenvalues --   -0.04431  -0.03515   0.03894   0.07057   0.12682
 Alpha virt. eigenvalues --    0.14513   0.14962   0.15998   0.17271   0.18828
 Alpha virt. eigenvalues --    0.19166   0.20527   0.21219   0.22596   0.23692
 Alpha virt. eigenvalues --    0.26705   0.27287   0.28237   0.28809   0.29215
 Alpha virt. eigenvalues --    0.29895   0.30303   0.31542   0.32032   0.33014
 Alpha virt. eigenvalues --    0.34225   0.34451   0.35450   0.36290   0.37747
 Alpha virt. eigenvalues --    0.38499   0.38694   0.39286   0.39936   0.41387
 Alpha virt. eigenvalues --    0.41544   0.42163   0.42387   0.43776   0.44309
 Alpha virt. eigenvalues --    0.45015   0.46794   0.47265   0.47957   0.49508
 Alpha virt. eigenvalues --    0.50048   0.50745   0.50938   0.52177   0.52446
 Alpha virt. eigenvalues --    0.52630   0.53304   0.54573   0.56169   0.56895
 Alpha virt. eigenvalues --    0.57992   0.58744   0.59232   0.59710   0.60279
 Alpha virt. eigenvalues --    0.61110   0.61783   0.62755   0.63449   0.64629
 Alpha virt. eigenvalues --    0.66176   0.67538   0.67744   0.68911   0.69370
 Alpha virt. eigenvalues --    0.69580   0.70432   0.70763   0.72872   0.73075
 Alpha virt. eigenvalues --    0.73715   0.73941   0.74539   0.76713   0.76732
 Alpha virt. eigenvalues --    0.79267   0.80088   0.80442   0.81872   0.83156
 Alpha virt. eigenvalues --    0.84189   0.85817   0.86582   0.87396   0.88484
 Alpha virt. eigenvalues --    0.89911   0.92283   0.93002   0.95633   0.96980
 Alpha virt. eigenvalues --    0.98101   0.99577   1.00540   1.01972   1.02515
 Alpha virt. eigenvalues --    1.03665   1.06920   1.07937   1.09411   1.10459
 Alpha virt. eigenvalues --    1.11403   1.14561   1.15176   1.15406   1.17096
 Alpha virt. eigenvalues --    1.18861   1.20034   1.22576   1.26882   1.27582
 Alpha virt. eigenvalues --    1.28017   1.28555   1.31402   1.33612   1.35175
 Alpha virt. eigenvalues --    1.36182   1.39380   1.40059   1.40922   1.41167
 Alpha virt. eigenvalues --    1.42329   1.44978   1.46269   1.47258   1.49165
 Alpha virt. eigenvalues --    1.49464   1.50238   1.52616   1.54098   1.55385
 Alpha virt. eigenvalues --    1.56867   1.57691   1.58388   1.60457   1.62456
 Alpha virt. eigenvalues --    1.64699   1.67580   1.69343   1.70529   1.71550
 Alpha virt. eigenvalues --    1.71891   1.73379   1.74439   1.74574   1.75980
 Alpha virt. eigenvalues --    1.76504   1.78026   1.79025   1.79447   1.82211
 Alpha virt. eigenvalues --    1.82517   1.85218   1.85486   1.85977   1.86964
 Alpha virt. eigenvalues --    1.87717   1.93403   1.95426   1.95598   1.98071
 Alpha virt. eigenvalues --    1.98739   1.99822   2.00191   2.01467   2.02457
 Alpha virt. eigenvalues --    2.03692   2.05619   2.06033   2.09130   2.09361
 Alpha virt. eigenvalues --    2.10006   2.13133   2.14346   2.15987   2.16459
 Alpha virt. eigenvalues --    2.17078   2.18140   2.19579   2.19984   2.20822
 Alpha virt. eigenvalues --    2.21185   2.22954   2.24754   2.27944   2.29265
 Alpha virt. eigenvalues --    2.30321   2.31311   2.32411   2.33416   2.34361
 Alpha virt. eigenvalues --    2.36614   2.37914   2.39306   2.40431   2.45642
 Alpha virt. eigenvalues --    2.47933   2.50171   2.54203   2.55382   2.55864
 Alpha virt. eigenvalues --    2.56762   2.57960   2.59809   2.61799   2.65590
 Alpha virt. eigenvalues --    2.66074   2.68617   2.69362   2.70206   2.70910
 Alpha virt. eigenvalues --    2.72294   2.73119   2.74921   2.77193   2.77649
 Alpha virt. eigenvalues --    2.79503   2.80416   2.82186   2.82507   2.83394
 Alpha virt. eigenvalues --    2.85410   2.86333   2.87244   2.88202   2.89216
 Alpha virt. eigenvalues --    2.90767   2.92035   2.92160   2.95244   2.95910
 Alpha virt. eigenvalues --    2.98718   2.98932   3.01085   3.01668   3.02821
 Alpha virt. eigenvalues --    3.04146   3.04989   3.05901   3.07044   3.08709
 Alpha virt. eigenvalues --    3.09258   3.11158   3.13231   3.15198   3.16212
 Alpha virt. eigenvalues --    3.18866   3.20222   3.21350   3.21475   3.22650
 Alpha virt. eigenvalues --    3.23386   3.26662   3.27707   3.28665   3.29123
 Alpha virt. eigenvalues --    3.30120   3.31621   3.32512   3.32927   3.35245
 Alpha virt. eigenvalues --    3.35720   3.36313   3.37048   3.40235   3.42945
 Alpha virt. eigenvalues --    3.45664   3.46189   3.46785   3.48387   3.49496
 Alpha virt. eigenvalues --    3.50340   3.51262   3.53183   3.54156   3.55956
 Alpha virt. eigenvalues --    3.57452   3.58008   3.60601   3.61812   3.65808
 Alpha virt. eigenvalues --    3.69170   3.73511   3.75956   3.77823   3.79238
 Alpha virt. eigenvalues --    3.80895   3.80999   3.85539   3.86100   3.88539
 Alpha virt. eigenvalues --    3.88903   3.92538   3.99245   4.00158   4.01863
 Alpha virt. eigenvalues --    4.03387   4.05579   4.05833   4.08033   4.08828
 Alpha virt. eigenvalues --    4.10607   4.13861   4.14836   4.15457   4.20339
 Alpha virt. eigenvalues --    4.21007   4.22910   4.23876   4.26865   4.29647
 Alpha virt. eigenvalues --    4.34666   4.35827   4.37854   4.38148   4.40588
 Alpha virt. eigenvalues --    4.45692   4.47954   4.57899   4.59552   4.59858
 Alpha virt. eigenvalues --    4.63165   4.65182   4.66266   4.67812   4.72039
 Alpha virt. eigenvalues --    4.74136   4.74680   4.77176   4.78837   4.79372
 Alpha virt. eigenvalues --    4.81754   4.82671   4.85909   4.86590   4.88350
 Alpha virt. eigenvalues --    4.92875   5.00496   5.00783   5.03074   5.08129
 Alpha virt. eigenvalues --    5.13187   5.13910   5.16049   5.17486   5.19235
 Alpha virt. eigenvalues --    5.19342   5.19748   5.20441   5.21343   5.21674
 Alpha virt. eigenvalues --    5.26027   5.26410   5.32159   5.33574   5.35039
 Alpha virt. eigenvalues --    5.36415   5.38193   5.38823   5.39295   5.41203
 Alpha virt. eigenvalues --    5.42805   5.44994   5.48379   5.50331   5.52590
 Alpha virt. eigenvalues --    5.54569   5.57163   5.57755   5.59177   5.63804
 Alpha virt. eigenvalues --    5.67243   5.70131   5.70362   5.79112   5.81569
 Alpha virt. eigenvalues --    5.88078   5.89858   5.92523   5.94171   6.01082
 Alpha virt. eigenvalues --    6.05778   6.07822   6.07910   6.24715   6.31090
 Alpha virt. eigenvalues --    6.31302   6.35824   6.35919   6.37551   6.38878
 Alpha virt. eigenvalues --    6.42736   6.42907   6.48936   6.51299   6.51327
 Alpha virt. eigenvalues --    6.51763   6.53249   6.54384   6.56331   6.60744
 Alpha virt. eigenvalues --    6.76059   6.81815   6.83047   6.84255   6.86140
 Alpha virt. eigenvalues --    6.92831   6.92857   6.95637   6.96004   7.00094
 Alpha virt. eigenvalues --    7.02596   7.02899   7.06674   7.10987   7.20930
 Alpha virt. eigenvalues --    7.22391   7.22909   7.32332   7.36090   7.36432
 Alpha virt. eigenvalues --    7.51105   7.52032   7.52692   7.57997   7.60467
 Alpha virt. eigenvalues --    7.63135  22.48589  22.79159  22.87920  22.92928
 Alpha virt. eigenvalues --   23.10234  23.10979  23.39034  32.67828  32.71303
 Alpha virt. eigenvalues --   43.94611  43.98500  44.16902  44.21351  44.21668
 Alpha virt. eigenvalues --   44.33047
          Condensed to atoms (all electrons):
               1          2          3          4          5          6
     1  O    8.084230   0.344738  -0.067673  -0.159987   0.010931  -0.001132
     2  C    0.344738   4.606315   0.262935   0.321068  -0.124598   0.006700
     3  O   -0.067673   0.262935   8.109036  -0.092842   0.036941  -0.003091
     4  C   -0.159987   0.321068  -0.092842   5.382989   0.292074   0.062941
     5  C    0.010931  -0.124598   0.036941   0.292074   5.352946   0.320188
     6  C   -0.001132   0.006700  -0.003091   0.062941   0.320188   5.150114
     7  N    0.000001  -0.000235   0.000097   0.002056  -0.054912   0.395518
     8  O   -0.000000  -0.000292  -0.000021  -0.004801   0.020264  -0.111737
     9  O   -0.000000  -0.000009   0.000000  -0.002301   0.018094  -0.113567
    10  C    0.001072  -0.001138   0.000130  -0.152378   0.006731   0.313508
    11  C   -0.009004   0.004758  -0.001793   0.117120  -0.114230   0.060475
    12  N    0.000042  -0.000207   0.000003   0.000905   0.000078   0.002076
    13  O    0.000000  -0.000002  -0.000000  -0.002366   0.000906  -0.006796
    14  O   -0.000030  -0.000255  -0.000000  -0.004384   0.001029  -0.002875
    15  C    0.040839  -0.042930   0.013685   0.191689   0.065773  -0.143642
    16  H    0.306342  -0.029359   0.004249   0.018606  -0.000927   0.000117
    17  H   -0.043685   0.456238  -0.042109  -0.066406  -0.004966  -0.002627
    18  H    0.001983  -0.008413   0.295623  -0.001263  -0.005400  -0.002333
    19  H    0.000975  -0.019387   0.023951  -0.042451   0.409610  -0.025292
    20  H    0.000003   0.000077   0.000003  -0.002898   0.007883  -0.015482
    21  H    0.022038  -0.006584   0.000832  -0.046682   0.010619  -0.004128
               7          8          9         10         11         12
     1  O    0.000001  -0.000000  -0.000000   0.001072  -0.009004   0.000042
     2  C   -0.000235  -0.000292  -0.000009  -0.001138   0.004758  -0.000207
     3  O    0.000097  -0.000021   0.000000   0.000130  -0.001793   0.000003
     4  C    0.002056  -0.004801  -0.002301  -0.152378   0.117120   0.000905
     5  C   -0.054912   0.020264   0.018094   0.006731  -0.114230   0.000078
     6  C    0.395518  -0.111737  -0.113567   0.313508   0.060475   0.002076
     7  N    5.433203   0.359580   0.359686  -0.053548   0.001994  -0.000046
     8  O    0.359580   8.208658  -0.121016   0.020118  -0.002778   0.000005
     9  O    0.359686  -0.121016   8.210706   0.025930  -0.006392   0.000092
    10  C   -0.053548   0.020118   0.025930   5.283119   0.318597  -0.055547
    11  C    0.001994  -0.002778  -0.006392   0.318597   5.194376   0.396876
    12  N   -0.000046   0.000005   0.000092  -0.055547   0.396876   5.434116
    13  O    0.000094   0.000000  -0.000039   0.027085  -0.114552   0.359896
    14  O    0.000005  -0.000000   0.000000   0.019386  -0.113013   0.360228
    15  C   -0.000114   0.000964   0.000889   0.032471   0.208771  -0.054736
    16  H   -0.000000   0.000000   0.000000  -0.000012   0.000269  -0.000003
    17  H    0.000020  -0.000003   0.000000  -0.000050  -0.001708   0.000011
    18  H    0.000026  -0.000012   0.000000  -0.000277  -0.000089   0.000000
    19  H   -0.006979   0.018635   0.000761   0.010475  -0.002698   0.000028
    20  H   -0.007423   0.000701   0.017735   0.376806  -0.017102  -0.007578
    21  H    0.000017   0.000005   0.000004   0.010531  -0.035797  -0.006734
              13         14         15         16         17         18
     1  O    0.000000  -0.000030   0.040839   0.306342  -0.043685   0.001983
     2  C   -0.000002  -0.000255  -0.042930  -0.029359   0.456238  -0.008413
     3  O   -0.000000  -0.000000   0.013685   0.004249  -0.042109   0.295623
     4  C   -0.002366  -0.004384   0.191689   0.018606  -0.066406  -0.001263
     5  C    0.000906   0.001029   0.065773  -0.000927  -0.004966  -0.005400
     6  C   -0.006796  -0.002875  -0.143642   0.000117  -0.002627  -0.002333
     7  N    0.000094   0.000005  -0.000114  -0.000000   0.000020   0.000026
     8  O    0.000000  -0.000000   0.000964   0.000000  -0.000003  -0.000012
     9  O   -0.000039   0.000000   0.000889   0.000000   0.000000   0.000000
    10  C    0.027085   0.019386   0.032471  -0.000012  -0.000050  -0.000277
    11  C   -0.114552  -0.113013   0.208771   0.000269  -0.001708  -0.000089
    12  N    0.359896   0.360228  -0.054736  -0.000003   0.000011   0.000000
    13  O    8.210128  -0.121074   0.018280   0.000000   0.000000  -0.000000
    14  O   -0.121074   8.208153   0.022411   0.000000  -0.000001   0.000000
    15  C    0.018280   0.022411   5.472201  -0.002659   0.006261   0.001797
    16  H    0.000000   0.000000  -0.002659   0.326744  -0.008549  -0.000671
    17  H    0.000000  -0.000001   0.006261  -0.008549   0.558354   0.007382
    18  H   -0.000000   0.000000   0.001797  -0.000671   0.007382   0.335191
    19  H    0.000004   0.000005   0.009442  -0.000060  -0.000698  -0.001811
    20  H    0.017816   0.000712   0.009324  -0.000000   0.000003   0.000000
    21  H    0.000793   0.018229   0.412976  -0.000748   0.000439  -0.000084
              19         20         21
     1  O    0.000975   0.000003   0.022038
     2  C   -0.019387   0.000077  -0.006584
     3  O    0.023951   0.000003   0.000832
     4  C   -0.042451  -0.002898  -0.046682
     5  C    0.409610   0.007883   0.010619
     6  C   -0.025292  -0.015482  -0.004128
     7  N   -0.006979  -0.007423   0.000017
     8  O    0.018635   0.000701   0.000005
     9  O    0.000761   0.017735   0.000004
    10  C    0.010475   0.376806   0.010531
    11  C   -0.002698  -0.017102  -0.035797
    12  N    0.000028  -0.007578  -0.006734
    13  O    0.000004   0.017816   0.000793
    14  O    0.000005   0.000712   0.018229
    15  C    0.009442   0.009324   0.412976
    16  H   -0.000060  -0.000000  -0.000748
    17  H   -0.000698   0.000003   0.000439
    18  H   -0.001811   0.000000  -0.000084
    19  H    0.426783  -0.000050   0.000041
    20  H   -0.000050   0.400782   0.000015
    21  H    0.000041   0.000015   0.422121
 Mulliken charges:
               1
     1  O   -0.531682
     2  C    0.230580
     3  O   -0.539955
     4  C    0.189311
     5  C   -0.249037
     6  C    0.121066
     7  N    0.570961
     8  O   -0.388268
     9  O   -0.390574
    10  C   -0.183009
    11  C    0.115919
    12  N    0.570497
    13  O   -0.390174
    14  O   -0.388526
    15  C   -0.263694
    16  H    0.386661
    17  H    0.142093
    18  H    0.378350
    19  H    0.198714
    20  H    0.218671
    21  H    0.202097
 Sum of Mulliken charges =  -0.00000
 Mulliken charges with hydrogens summed into heavy atoms:
               1
     1  O   -0.145021
     2  C    0.372673
     3  O   -0.161606
     4  C    0.189311
     5  C   -0.050323
     6  C    0.121066
     7  N    0.570961
     8  O   -0.388268
     9  O   -0.390574
    10  C    0.035663
    11  C    0.115919
    12  N    0.570497
    13  O   -0.390174
    14  O   -0.388526
    15  C   -0.061597
 Electronic spatial extent (au):  <R**2>=           3482.3964
 Charge=             -0.0000 electrons
 Dipole moment (field-independent basis, Debye):
    X=              6.2884    Y=             -0.1243    Z=              0.6011  Tot=              6.3183
 Quadrupole moment (field-independent basis, Debye-Ang):
   XX=            -85.7143   YY=           -114.7337   ZZ=            -78.6127
   XY=              2.5906   XZ=              1.3814   YZ=              3.1043
 Traceless Quadrupole moment (field-independent basis, Debye-Ang):
   XX=              7.3060   YY=            -21.7135   ZZ=             14.4075
   XY=              2.5906   XZ=              1.3814   YZ=              3.1043
 Octapole moment (field-independent basis, Debye-Ang**2):
  XXX=             94.6925  YYY=             -5.9020  ZZZ=             -5.0784  XYY=             49.3058
  XXY=             27.9890  XXZ=             10.1355  XZZ=              7.9131  YZZ=             -4.6893
  YYZ=             -0.8738  XYZ=              8.9186
 Hexadecapole moment (field-independent basis, Debye-Ang**3):
 XXXX=          -1940.2418 YYYY=          -2410.0115 ZZZZ=            -89.3208 XXXY=            126.7342
 XXXZ=             30.1437 YYYX=              8.7853 YYYZ=              9.9227 ZZZX=             -9.9239
 ZZZY=              6.9641 XXYY=           -815.7379 XXZZ=           -326.3663 YYZZ=           -322.4109
 XXYZ=             30.3880 YYXZ=            -10.8781 ZZXY=            -14.0051
 N-N= 9.901720462205D+02 E-N=-3.927945502690D+03  KE= 8.275529807552D+02
 No NMR shielding tensors so no spin-rotation constants.
 Leave Link  601 at Wed Oct 22 09:15:33 2025, MaxMem=  4294967296 cpu:               3.4 elap:               0.5
 (Enter /lrz/sys/applications/gaussian/g16.C.01/x86_64_legacy/exe/l9999.exe)
 Unable to Open any file for archive entry.
 1\1\GINC-CM4R15C05S03\SP\RwB97XD\def2TZVP\C7H6N2O6\GO29TIZ2\22-Oct-202
 5\0\\#p wb97xd scrf=(smd,solvent=water) def2tzvp\\g16_g16_C14-w_1\\0,1
 \O,0,3.380585,1.015347,-0.209332\C,0,2.828746,-0.154268,0.317981\O,0,3
 .344066,-1.308752,-0.281312\C,0,1.317051,-0.065555,0.179146\C,0,0.5564
 84,-1.23374,0.133806\C,0,-0.827318,-1.142223,0.041242\N,0,-1.618559,-2
 .379191,-0.005873\O,0,-1.024933,-3.435779,0.03478\O,0,-2.824819,-2.279
 42,-0.08234\C,0,-1.497614,0.070428,-0.013828\C,0,-0.712369,1.212209,0.
 030756\N,0,-1.38014,2.519995,-0.029593\O,0,-2.590391,2.536833,-0.10664
 1\O,0,-0.687094,3.514506,0.001307\C,0,0.674296,1.17073,0.127774\H,0,4.
 297273,1.072758,0.089104\H,0,3.078959,-0.253044,1.388411\H,0,3.096046,
 -1.299831,-1.217145\H,0,1.037222,-2.210649,0.165379\H,0,-2.581815,0.12
 268,-0.089864\H,0,1.248237,2.095101,0.159418\\Version=EM64L-G16RevC.01
 \State=1-A\HF=-831.0870841\RMSD=6.321e-09\Dipole=2.4740553,-0.0489095,
 0.2364787\Quadrupole=5.4317994,-16.1434365,10.711637,1.9260322,1.02702
 91,2.3079544\PG=C01 [X(C7H6N2O6)]\\@
 The archive entry for this job was punched.


 MY DESCRIPTION OF EXPERIENCE IS NOT WHAT HAPPENS
 TO A MAN.  EXPERIENCE IS WHAT A MAN DOES WITH WHAT
 HAPPENS TO HIM.
                         - CHUCK KNOX, SEATTLE SEAHAWKS, 1985
 Job cpu time:       0 days  1 hours 19 minutes 37.3 seconds.
 Elapsed time:       0 days  0 hours  9 minutes 58.2 seconds.
 File lengths (MBytes):  RWF=    400 Int=      0 D2E=      0 Chk=     20 Scr=     32
 Normal termination of Gaussian 16 at Wed Oct 22 09:15:33 2025.
