 Entering Gaussian System, Link 0=g16
 Input=../../g16_g16_C17-a_15.com
 Output=../../g16_g16_C17-a_15.log
 Initial command:
 /lrz/sys/applications/gaussian/g16.C.01/x86_64_legacy/exe/l1.exe "/dss/lxclscratch/0D/go29tiz2/Gau-228645.inp" -scrdir="/dss/lxclscratch/0D/go29tiz2/"
 Entering Link 1 = /lrz/sys/applications/gaussian/g16.C.01/x86_64_legacy/exe/l1.exe PID=    228660.
  
 Copyright (c) 1988-2019, Gaussian, Inc.  All Rights Reserved.
  
 This is part of the Gaussian(R) 16 program.  It is based on
 the Gaussian(R) 09 system (copyright 2009, Gaussian, Inc.),
 the Gaussian(R) 03 system (copyright 2003, Gaussian, Inc.),
 the Gaussian(R) 98 system (copyright 1998, Gaussian, Inc.),
 the Gaussian(R) 94 system (copyright 1995, Gaussian, Inc.),
 the Gaussian 92(TM) system (copyright 1992, Gaussian, Inc.),
 the Gaussian 90(TM) system (copyright 1990, Gaussian, Inc.),
 the Gaussian 88(TM) system (copyright 1988, Gaussian, Inc.),
 the Gaussian 86(TM) system (copyright 1986, Carnegie Mellon
 University), and the Gaussian 82(TM) system (copyright 1983,
 Carnegie Mellon University). Gaussian is a federally registered
 trademark of Gaussian, Inc.
  
 This software contains proprietary and confidential information,
 including trade secrets, belonging to Gaussian, Inc.
  
 This software is provided under written license and may be
 used, copied, transmitted, or stored only in accord with that
 written license.
  
 The following legend is applicable only to US Government
 contracts under FAR:
  
                    RESTRICTED RIGHTS LEGEND
  
 Use, reproduction and disclosure by the US Government is
 subject to restrictions as set forth in subparagraphs (a)
 and (c) of the Commercial Computer Software - Restricted
 Rights clause in FAR 52.227-19.
  
 Gaussian, Inc.
 340 Quinnipiac St., Bldg. 40, Wallingford CT 06492
  
  
 ---------------------------------------------------------------
 Warning -- This program may not be used in any manner that
 competes with the business of Gaussian, Inc. or will provide
 assistance to any competitor of Gaussian, Inc.  The licensee
 of this program is prohibited from giving any competitor of
 Gaussian, Inc. access to this program.  By using this program,
 the user acknowledges that Gaussian, Inc. is engaged in the
 business of creating and licensing software in the field of
 computational chemistry and represents and warrants to the
 licensee that it is not a competitor of Gaussian, Inc. and that
 it will not use this program in any manner prohibited above.
 ---------------------------------------------------------------
  

 Cite this work as:
 Gaussian 16, Revision C.01,
 M. J. Frisch, G. W. Trucks, H. B. Schlegel, G. E. Scuseria, 
 M. A. Robb, J. R. Cheeseman, G. Scalmani, V. Barone, 
 G. A. Petersson, H. Nakatsuji, X. Li, M. Caricato, A. V. Marenich, 
 J. Bloino, B. G. Janesko, R. Gomperts, B. Mennucci, H. P. Hratchian, 
 J. V. Ortiz, A. F. Izmaylov, J. L. Sonnenberg, D. Williams-Young, 
 F. Ding, F. Lipparini, F. Egidi, J. Goings, B. Peng, A. Petrone, 
 T. Henderson, D. Ranasinghe, V. G. Zakrzewski, J. Gao, N. Rega, 
 G. Zheng, W. Liang, M. Hada, M. Ehara, K. Toyota, R. Fukuda, 
 J. Hasegawa, M. Ishida, T. Nakajima, Y. Honda, O. Kitao, H. Nakai, 
 T. Vreven, K. Throssell, J. A. Montgomery, Jr., J. E. Peralta, 
 F. Ogliaro, M. J. Bearpark, J. J. Heyd, E. N. Brothers, K. N. Kudin, 
 V. N. Staroverov, T. A. Keith, R. Kobayashi, J. Normand, 
 K. Raghavachari, A. P. Rendell, J. C. Burant, S. S. Iyengar, 
 J. Tomasi, M. Cossi, J. M. Millam, M. Klene, C. Adamo, R. Cammi, 
 J. W. Ochterski, R. L. Martin, K. Morokuma, O. Farkas, 
 J. B. Foresman, and D. J. Fox, Gaussian, Inc., Wallingford CT, 2019.
 
 ******************************************
 Gaussian 16:  EM64L-G16RevC.01  3-Jul-2019
                22-Oct-2025 
 ******************************************
 %chk=g16_g16_C17-a_15.chk
 %nprocshared=8
 Will use up to    8 processors via shared memory.
 %mem=32GB
 -------------------------------------------
 #p wb97xd scrf=(smd,solvent=water) def2tzvp
 -------------------------------------------
 1/38=1,172=1/1;
 2/12=2,17=6,18=5,40=1/2;
 3/5=44,7=101,11=2,25=1,30=1,70=32201,72=1,74=-58/1,2,3;
 4//1;
 5/5=2,38=5,53=1/2;
 6/7=2,8=2,9=2,10=2,28=1/1;
 99/5=1,9=1/99;
 Leave Link    1 at Wed Oct 22 13:36:36 2025, MaxMem=  4294967296 cpu:               4.6 elap:               0.6
 (Enter /lrz/sys/applications/gaussian/g16.C.01/x86_64_legacy/exe/l101.exe)
 ----------------
 g16_g16_C17-a_15
 ----------------
 Symbolic Z-matrix:
 Charge =  0 Multiplicity = 1
 O                     1.279     1.29123  -0.27112 
 C                     1.09569   0.01752   0.31164 
 N                     2.21007  -0.84025  -0.03624 
 C                    -0.26416  -0.49787  -0.13853 
 C                    -1.44693   0.36305   0.29343 
 C                    -2.78867  -0.20913  -0.146 
 H                     2.15423   1.5966   -0.00285 
 H                     1.09227   0.10692   1.41504 
 H                     2.07721  -1.18775  -0.98761 
 H                     2.19881  -1.66244   0.56624 
 H                    -0.38176  -1.51871   0.26201 
 H                    -0.24536  -0.58942  -1.2402 
 H                    -1.32409   1.37836  -0.11645 
 H                    -1.43152   0.47062   1.39202 
 H                    -2.95197  -1.21307   0.27802 
 H                    -3.62477   0.43012   0.17611 
 H                    -2.84113  -0.30077  -1.24289 
 
 ITRead=  0  0  0  0  0  0  0  0  0  0  0  0  0  0  0  0  0
 MicOpt= -1 -1 -1 -1 -1 -1 -1 -1 -1 -1 -1 -1 -1 -1 -1 -1 -1
 NAtoms=     17 NQM=       17 NQMF=       0 NMMI=      0 NMMIF=      0
                NMic=       0 NMicF=      0.
                    Isotopes and Nuclear Properties:
 (Nuclear quadrupole moments (NQMom) in fm**2, nuclear magnetic moments (NMagM)
  in nuclear magnetons)

  Atom         1           2           3           4           5           6           7           8           9          10
 IAtWgt=          16          12          14          12          12          12           1           1           1           1
 AtmWgt=  15.9949146  12.0000000  14.0030740  12.0000000  12.0000000  12.0000000   1.0078250   1.0078250   1.0078250   1.0078250
 NucSpn=           0           0           2           0           0           0           1           1           1           1
 AtZEff=  -0.0000000  -0.0000000  -0.0000000  -0.0000000  -0.0000000  -0.0000000  -0.0000000  -0.0000000  -0.0000000  -0.0000000
 NQMom=    0.0000000   0.0000000   2.0440000   0.0000000   0.0000000   0.0000000   0.0000000   0.0000000   0.0000000   0.0000000
 NMagM=    0.0000000   0.0000000   0.4037610   0.0000000   0.0000000   0.0000000   2.7928460   2.7928460   2.7928460   2.7928460
 AtZNuc=   8.0000000   6.0000000   7.0000000   6.0000000   6.0000000   6.0000000   1.0000000   1.0000000   1.0000000   1.0000000

  Atom        11          12          13          14          15          16          17
 IAtWgt=           1           1           1           1           1           1           1
 AtmWgt=   1.0078250   1.0078250   1.0078250   1.0078250   1.0078250   1.0078250   1.0078250
 NucSpn=           1           1           1           1           1           1           1
 AtZEff=  -0.0000000  -0.0000000  -0.0000000  -0.0000000  -0.0000000  -0.0000000  -0.0000000
 NQMom=    0.0000000   0.0000000   0.0000000   0.0000000   0.0000000   0.0000000   0.0000000
 NMagM=    2.7928460   2.7928460   2.7928460   2.7928460   2.7928460   2.7928460   2.7928460
 AtZNuc=   1.0000000   1.0000000   1.0000000   1.0000000   1.0000000   1.0000000   1.0000000
 Leave Link  101 at Wed Oct 22 13:36:36 2025, MaxMem=  4294967296 cpu:               0.6 elap:               0.1
 (Enter /lrz/sys/applications/gaussian/g16.C.01/x86_64_legacy/exe/l202.exe)
                          Input orientation:                          
 ---------------------------------------------------------------------
 Center     Atomic      Atomic             Coordinates (Angstroms)
 Number     Number       Type             X           Y           Z
 ---------------------------------------------------------------------
      1          8           0        1.279003    1.291227   -0.271115
      2          6           0        1.095686    0.017522    0.311635
      3          7           0        2.210069   -0.840250   -0.036244
      4          6           0       -0.264158   -0.497866   -0.138526
      5          6           0       -1.446933    0.363052    0.293425
      6          6           0       -2.788668   -0.209129   -0.146004
      7          1           0        2.154231    1.596601   -0.002852
      8          1           0        1.092265    0.106923    1.415044
      9          1           0        2.077214   -1.187745   -0.987608
     10          1           0        2.198814   -1.662444    0.566235
     11          1           0       -0.381757   -1.518711    0.262010
     12          1           0       -0.245356   -0.589420   -1.240201
     13          1           0       -1.324088    1.378357   -0.116448
     14          1           0       -1.431522    0.470620    1.392021
     15          1           0       -2.951966   -1.213071    0.278019
     16          1           0       -3.624774    0.430116    0.176109
     17          1           0       -2.841133   -0.300771   -1.242891
 ---------------------------------------------------------------------
                    Distance matrix (angstroms):
                    1          2          3          4          5
     1  O    0.000000
     2  C    1.412631   0.000000
     3  N    2.337786   1.448669   0.000000
     4  C    2.366385   1.522316   2.499898   0.000000
     5  C    2.934441   2.566054   3.863972   1.525358   0.000000
     6  C    4.337357   3.917781   5.039616   2.540979   1.523398
     7  H    0.965009   1.926891   2.437719   3.202156   3.818089
     8  H    2.068956   1.107030   2.062246   2.149240   2.787680
     9  H    2.701075   2.025857   1.021517   2.584356   4.057786
    10  H    3.204899   2.025833   1.019368   2.814100   4.179537
    11  H    3.307279   2.131974   2.695705   1.102898   2.162549
    12  H    2.607610   2.138917   2.746186   1.105633   2.168640
    13  H    2.609137   2.808991   4.173597   2.155029   1.101785
    14  H    3.284260   2.785554   4.125470   2.154827   1.103957
    15  H    4.947136   4.230718   5.185013   2.812355   2.179341
    16  H    4.998855   4.740395   5.975309   3.500555   2.182029
    17  H    4.522646   4.244574   5.221272   2.810564   2.178238
                    6          7          8          9         10
     6  C    0.000000
     7  H    5.264352   0.000000
     8  H    4.195045   2.314593   0.000000
     9  H    5.034163   2.954363   2.901556   0.000000
    10  H    5.243509   3.308659   2.252906   1.629280   0.000000
    11  H    2.770325   4.025737   2.478894   2.778061   2.602414
    12  H    2.794696   3.473865   3.053596   2.411665   3.223129
    13  H    2.160088   3.487010   3.130619   4.348868   4.703548
    14  H    2.160885   4.008881   2.549962   4.552366   4.290830
    15  H    1.101981   5.834929   4.403523   5.186049   5.178372
    16  H    1.100665   5.898272   4.887727   6.040230   6.200418
    17  H    1.101958   5.485561   4.764709   5.004201   5.525229
                   11         12         13         14         15
    11  H    0.000000
    12  H    1.771673   0.000000
    13  H    3.069889   2.509707   0.000000
    14  H    2.517215   3.075592   1.763805   0.000000
    15  H    2.588368   3.165386   3.085626   2.527363   0.000000
    16  H    3.784503   3.803400   2.505575   2.508074   1.778516
    17  H    3.129958   2.611778   2.527799   3.086229   1.777004
                   16         17
    16  H    0.000000
    17  H    1.778159   0.000000
 Stoichiometry    C4H11NO
 Framework group  C1[X(C4H11NO)]
 Deg. of freedom    45
 Full point group                 C1      NOp   1
 Largest Abelian subgroup         C1      NOp   1
 Largest concise Abelian subgroup C1      NOp   1
                         Standard orientation:                         
 ---------------------------------------------------------------------
 Center     Atomic      Atomic             Coordinates (Angstroms)
 Number     Number       Type             X           Y           Z
 ---------------------------------------------------------------------
      1          8           0        1.279003    1.291227   -0.271115
      2          6           0        1.095686    0.017522    0.311635
      3          7           0        2.210069   -0.840250   -0.036244
      4          6           0       -0.264158   -0.497866   -0.138526
      5          6           0       -1.446933    0.363052    0.293425
      6          6           0       -2.788668   -0.209129   -0.146004
      7          1           0        2.154231    1.596601   -0.002852
      8          1           0        1.092265    0.106923    1.415044
      9          1           0        2.077214   -1.187745   -0.987608
     10          1           0        2.198814   -1.662444    0.566235
     11          1           0       -0.381757   -1.518711    0.262010
     12          1           0       -0.245356   -0.589420   -1.240201
     13          1           0       -1.324088    1.378357   -0.116448
     14          1           0       -1.431522    0.470620    1.392021
     15          1           0       -2.951966   -1.213071    0.278019
     16          1           0       -3.624774    0.430116    0.176109
     17          1           0       -2.841133   -0.300771   -1.242891
 ---------------------------------------------------------------------
 Rotational constants (GHZ):           7.5013740           1.7447227           1.5212337
 Leave Link  202 at Wed Oct 22 13:36:36 2025, MaxMem=  4294967296 cpu:               0.0 elap:               0.0
 (Enter /lrz/sys/applications/gaussian/g16.C.01/x86_64_legacy/exe/l301.exe)
 Standard basis: def2TZVP (5D, 7F)
 Ernie: Thresh=  0.10000D-02 Tol=  0.10000D-05 Strict=F.
 There are   282 symmetry adapted cartesian basis functions of A   symmetry.
 There are   252 symmetry adapted basis functions of A   symmetry.
   252 basis functions,   394 primitive gaussians,   282 cartesian basis functions
    25 alpha electrons       25 beta electrons
       nuclear repulsion energy       256.8316634240 Hartrees.
 IExCor= 4639 DFT=T Ex+Corr=wB97XD ExCW=0 ScaHFX=  1.000000
 ScaDFX=  1.000000  1.000000  1.000000  1.000000 ScalE2=  1.000000  1.000000
 IRadAn=      5 IRanWt=     -1 IRanGd=            0 ICorTp=0 IEmpDi=121
 HFx  wShort=  0.000000 wLong=  0.200000 cFull=  0.222036 cShort=  0.000000 cLong=  0.777964
 DFx  wShort=  0.000000 wLong=  0.200000 cFull=  0.000000 cShort=  0.000000 cLong=  1.000000
 NAtoms=   17 NActive=   17 NUniq=   17 SFac= 1.00D+00 NAtFMM=   60 NAOKFM=F Big=F
 Integral buffers will be    131072 words long.
 Raffenetti 2 integral format.
 Two-electron integral symmetry is turned on.
 R6Disp:  Grimme-D2 Dispersion energy=       -0.0087644167 Hartrees.
 Nuclear repulsion after empirical dispersion term =      256.8228990073 Hartrees.
 ------------------------------------------------------------------------------
 Polarizable Continuum Model (PCM)
 =================================
 Model                : PCM.
 Atomic radii         : SMD-Coulomb.
 Polarization charges : Total charges.
 Charge compensation  : None.
 Solution method      : On-the-fly selection.
 Cavity type          : VdW (van der Waals Surface) (Alpha=1.000).
 Cavity algorithm     : GePol (No added spheres)
                        Default sphere list used, NSphG=   17.
                        Lebedev-Laikov grids with approx.  5.0 points / Ang**2.
                        Smoothing algorithm: York/Karplus (Gamma=1.0000).
                        Polarization charges: spherical gaussians, with
                                              point-specific exponents (IZeta= 3).
                        Self-potential: point-specific (ISelfS= 7).
                        Self-field    : sphere-specific E.n sum rule (ISelfD= 2).
 Solvent              : Water, Eps=  78.355300 Eps(inf)=   1.777849
 ------------------------------------------------------------------------------
 Spheres list:
 ISph  on   Nord     Re0    Alpha      Xe            Ye            Ze
    1   O      1    1.5200  1.000      1.279003      1.291227     -0.271115
    2   C      2    1.8500  1.000      1.095686      0.017522      0.311635
    3   N      3    1.8900  1.000      2.210069     -0.840250     -0.036244
    4   C      4    1.8500  1.000     -0.264158     -0.497866     -0.138526
    5   C      5    1.8500  1.000     -1.446933      0.363052      0.293425
    6   C      6    1.8500  1.000     -2.788668     -0.209129     -0.146004
    7   H      7    1.2000  1.000      2.154231      1.596601     -0.002852
    8   H      8    1.2000  1.000      1.092265      0.106923      1.415044
    9   H      9    1.2000  1.000      2.077214     -1.187745     -0.987608
   10   H     10    1.2000  1.000      2.198814     -1.662444      0.566235
   11   H     11    1.2000  1.000     -0.381757     -1.518711      0.262010
   12   H     12    1.2000  1.000     -0.245356     -0.589420     -1.240201
   13   H     13    1.2000  1.000     -1.324088      1.378357     -0.116448
   14   H     14    1.2000  1.000     -1.431522      0.470620      1.392021
   15   H     15    1.2000  1.000     -2.951966     -1.213071      0.278019
   16   H     16    1.2000  1.000     -3.624774      0.430116      0.176109
   17   H     17    1.2000  1.000     -2.841133     -0.300771     -1.242891
 ------------------------------------------------------------------------------
 GePol: Number of generator spheres                  =      17
 GePol: Total number of spheres                      =      17
 GePol: Number of exposed spheres                    =      17 (100.00%)
 GePol: Number of points                             =    1192
 GePol: Average weight of points                     =       0.12
 GePol: Minimum weight of points                     =   0.13D-11
 GePol: Maximum weight of points                     =    0.21991
 GePol: Number of points with low weight             =      69
 GePol: Fraction of low-weight points (<1% of avg)   =       5.79%
 GePol: Cavity surface area                          =    138.146 Ang**2
 GePol: Cavity volume                                =    108.109 Ang**3
 ------------------------------------------------------------------------------
 Atomic radii for non-electrostatic terms: SMD-CDS.
 ------------------------------------------------------------------------------
 PCM non-electrostatic energy =         0.0032896142 Hartrees.
 Nuclear repulsion after PCM non-electrostatic terms =      256.8261886215 Hartrees.
 Leave Link  301 at Wed Oct 22 13:36:36 2025, MaxMem=  4294967296 cpu:               0.6 elap:               0.1
 (Enter /lrz/sys/applications/gaussian/g16.C.01/x86_64_legacy/exe/l302.exe)
 NPDir=0 NMtPBC=     1 NCelOv=     1 NCel=       1 NClECP=     1 NCelD=      1
         NCelK=      1 NCelE2=     1 NClLst=     1 CellRange=     0.0.
 One-electron integrals computed using PRISM.
 One-electron integral symmetry used in STVInt
   1 Symmetry operations used in ECPInt.
 ECPInt:  NShTT=    6105 NPrTT=   17556 LenC2=    5987 LenP2D=   14118.
 LDataN:  DoStor=T MaxTD1= 6 Len=  172
 NBasis=   252 RedAO= T EigKep=  1.58D-04  NBF=   252
 NBsUse=   252 1.00D-06 EigRej= -1.00D+00 NBFU=   252
 Precomputing XC quadrature grid using
 IXCGrd= 4 IRadAn=           5 IRanWt=          -1 IRanGd=           0 AccXCQ= 0.00D+00.
 Generated NRdTot=       0 NPtTot=           0 NUsed=           0 NTot=          32
 NSgBfM=   282   281   282   282   282 MxSgAt=    17 MxSgA2=    17.
 Leave Link  302 at Wed Oct 22 13:36:36 2025, MaxMem=  4294967296 cpu:               2.1 elap:               0.3
 (Enter /lrz/sys/applications/gaussian/g16.C.01/x86_64_legacy/exe/l303.exe)
 DipDrv:  MaxL=1.
 Leave Link  303 at Wed Oct 22 13:36:36 2025, MaxMem=  4294967296 cpu:               0.3 elap:               0.1
 (Enter /lrz/sys/applications/gaussian/g16.C.01/x86_64_legacy/exe/l401.exe)
 ExpMin= 9.52D-02 ExpMax= 2.70D+04 ExpMxC= 9.22D+02 IAcc=3 IRadAn=         5 AccDes= 0.00D+00
 Harris functional with IExCor= 4639 and IRadAn=       5 diagonalized for initial guess.
 HarFok:  IExCor= 4639 AccDes= 0.00D+00 IRadAn=         5 IDoV= 1 UseB2=F ITyADJ=14
 ICtDFT=  3500011 ScaDFX=  1.000000  1.000000  1.000000  1.000000
 FoFCou: FMM=F IPFlag=           0 FMFlag=      100000 FMFlg1=           0
         NFxFlg=           0 DoJE=T BraDBF=F KetDBF=T FulRan=T
         wScrn=  0.000000 ICntrl=       500 IOpCl=  0 I1Cent=   200000004 NGrid=           0
         NMat0=    1 NMatS0=      1 NMatT0=    0 NMatD0=    1 NMtDS0=    0 NMtDT0=    0
 Petite list used in FoFCou.
 Harris En= -276.200085134228    
 JPrj=0 DoOrth=F DoCkMO=F.
 Leave Link  401 at Wed Oct 22 13:36:38 2025, MaxMem=  4294967296 cpu:              16.7 elap:               2.1
 (Enter /lrz/sys/applications/gaussian/g16.C.01/x86_64_legacy/exe/l502.exe)
 Integral symmetry usage will be decided dynamically.
 Closed shell SCF:
 Using DIIS extrapolation, IDIIS=  1040.
 NGot=  4294967296 LenX=  4294802854 LenY=  4294722889
 Requested convergence on RMS density matrix=1.00D-08 within 128 cycles.
 Requested convergence on MAX density matrix=1.00D-06.
 Requested convergence on             energy=1.00D-06.
 No special actions if energy rises.
 Fock matrices will be formed incrementally for  20 cycles.

 Cycle   1  Pass 1  IDiag  1:
 FoFJK:  IHMeth= 1 ICntrl=       0 DoSepK=T KAlg= 0 I1Cent=           0 FoldK=F
 IRaf=         1 NMat=       1 IRICut=       1 DoRegI=T DoRafI=F ISym2E= 0 IDoP0=0 IntGTp=1.
 FoFCou: FMM=F IPFlag=           0 FMFlag=      100000 FMFlg1=           0
         NFxFlg=           0 DoJE=T BraDBF=F KetDBF=F FulRan=T
         wScrn=  0.000000 ICntrl=       500 IOpCl=  0 I1Cent=           0 NGrid=           0
         NMat0=    1 NMatS0=      1 NMatT0=    0 NMatD0=    1 NMtDS0=    0 NMtDT0=    0
 Symmetry not used in FoFCou.
 Inv3:  Mode=1 IEnd=     4262592.
 Iteration    1 A*A^-1 deviation from unit magnitude is 6.66D-15 for    531.
 Iteration    1 A*A^-1 deviation from orthogonality  is 4.09D-15 for    937    431.
 Iteration    1 A^-1*A deviation from unit magnitude is 5.77D-15 for   1112.
 Iteration    1 A^-1*A deviation from orthogonality  is 2.84D-15 for    743    735.
 E= -288.987956520094    
 DIIS: error= 4.62D-02 at cycle   1 NSaved=   1.
 NSaved= 1 IEnMin= 1 EnMin= -288.987956520094     IErMin= 1 ErrMin= 4.62D-02
 ErrMax= 4.62D-02  0.00D+00 EMaxC= 1.00D-01 BMatC= 6.10D-01 BMatP= 6.10D-01
 IDIUse=3 WtCom= 5.38D-01 WtEn= 4.62D-01
 Coeff-Com:  0.100D+01
 Coeff-En:   0.100D+01
 Coeff:      0.100D+01
 Gap=     0.495 Goal=   None    Shift=    0.000
 GapD=    0.495 DampG=2.000 DampE=0.500 DampFc=1.0000 IDamp=-1.
 RMSDP=1.62D-03 MaxDP=5.07D-02              OVMax= 5.65D-02

 Cycle   2  Pass 1  IDiag  1:
 RMSU=  1.58D-03    CP:  9.61D-01
 E= -289.042747565489     Delta-E=       -0.054791045394 Rises=F Damp=F
 DIIS: error= 8.07D-03 at cycle   2 NSaved=   2.
 NSaved= 2 IEnMin= 2 EnMin= -289.042747565489     IErMin= 2 ErrMin= 8.07D-03
 ErrMax= 8.07D-03  0.00D+00 EMaxC= 1.00D-01 BMatC= 3.28D-02 BMatP= 6.10D-01
 IDIUse=3 WtCom= 9.19D-01 WtEn= 8.07D-02
 Coeff-Com:  0.121D+00 0.879D+00
 Coeff-En:   0.000D+00 0.100D+01
 Coeff:      0.111D+00 0.889D+00
 Gap=     0.471 Goal=   None    Shift=    0.000
 RMSDP=7.37D-04 MaxDP=2.96D-02 DE=-5.48D-02 OVMax= 4.57D-02

 Cycle   3  Pass 1  IDiag  1:
 RMSU=  6.08D-04    CP:  9.69D-01  7.41D-01
 E= -289.052566852350     Delta-E=       -0.009819286861 Rises=F Damp=F
 DIIS: error= 7.38D-03 at cycle   3 NSaved=   3.
 NSaved= 3 IEnMin= 3 EnMin= -289.052566852350     IErMin= 3 ErrMin= 7.38D-03
 ErrMax= 7.38D-03  0.00D+00 EMaxC= 1.00D-01 BMatC= 1.94D-02 BMatP= 3.28D-02
 IDIUse=3 WtCom= 9.26D-01 WtEn= 7.38D-02
 Coeff-Com:  0.238D-01 0.443D+00 0.534D+00
 Coeff-En:   0.000D+00 0.361D+00 0.639D+00
 Coeff:      0.220D-01 0.437D+00 0.541D+00
 Gap=     0.471 Goal=   None    Shift=    0.000
 RMSDP=3.92D-04 MaxDP=1.53D-02 DE=-9.82D-03 OVMax= 2.35D-02

 Cycle   4  Pass 1  IDiag  1:
 RMSU=  1.49D-04    CP:  9.62D-01  9.16D-01  6.27D-01
 E= -289.066133892784     Delta-E=       -0.013567040434 Rises=F Damp=F
 DIIS: error= 7.68D-04 at cycle   4 NSaved=   4.
 NSaved= 4 IEnMin= 4 EnMin= -289.066133892784     IErMin= 4 ErrMin= 7.68D-04
 ErrMax= 7.68D-04  0.00D+00 EMaxC= 1.00D-01 BMatC= 2.17D-04 BMatP= 1.94D-02
 IDIUse=3 WtCom= 9.92D-01 WtEn= 7.68D-03
 Coeff-Com:  0.882D-02 0.166D+00 0.227D+00 0.599D+00
 Coeff-En:   0.000D+00 0.000D+00 0.000D+00 0.100D+01
 Coeff:      0.875D-02 0.165D+00 0.225D+00 0.602D+00
 Gap=     0.452 Goal=   None    Shift=    0.000
 RMSDP=4.25D-05 MaxDP=1.53D-03 DE=-1.36D-02 OVMax= 2.17D-03

 Cycle   5  Pass 1  IDiag  1:
 RMSU=  3.66D-05    CP:  9.62D-01  9.22D-01  6.56D-01  9.48D-01
 E= -289.066284724892     Delta-E=       -0.000150832108 Rises=F Damp=F
 DIIS: error= 1.33D-04 at cycle   5 NSaved=   5.
 NSaved= 5 IEnMin= 5 EnMin= -289.066284724892     IErMin= 5 ErrMin= 1.33D-04
 ErrMax= 1.33D-04  0.00D+00 EMaxC= 1.00D-01 BMatC= 8.89D-06 BMatP= 2.17D-04
 IDIUse=3 WtCom= 9.99D-01 WtEn= 1.33D-03
 Coeff-Com: -0.196D-02-0.338D-01-0.323D-01 0.116D+00 0.952D+00
 Coeff-En:   0.000D+00 0.000D+00 0.000D+00 0.000D+00 0.100D+01
 Coeff:     -0.196D-02-0.338D-01-0.322D-01 0.116D+00 0.952D+00
 Gap=     0.452 Goal=   None    Shift=    0.000
 RMSDP=3.09D-05 MaxDP=8.59D-04 DE=-1.51D-04 OVMax= 8.88D-04

 Cycle   6  Pass 1  IDiag  1:
 RMSU=  1.01D-05    CP:  9.61D-01  9.31D-01  6.74D-01  1.09D+00  1.21D+00
 E= -289.066295964289     Delta-E=       -0.000011239397 Rises=F Damp=F
 DIIS: error= 2.36D-05 at cycle   6 NSaved=   6.
 NSaved= 6 IEnMin= 6 EnMin= -289.066295964289     IErMin= 6 ErrMin= 2.36D-05
 ErrMax= 2.36D-05  0.00D+00 EMaxC= 1.00D-01 BMatC= 3.85D-07 BMatP= 8.89D-06
 IDIUse=1 WtCom= 1.00D+00 WtEn= 0.00D+00
 Coeff-Com: -0.774D-03-0.130D-01-0.143D-01 0.126D-01 0.212D+00 0.804D+00
 Coeff:     -0.774D-03-0.130D-01-0.143D-01 0.126D-01 0.212D+00 0.804D+00
 Gap=     0.452 Goal=   None    Shift=    0.000
 RMSDP=6.75D-06 MaxDP=1.99D-04 DE=-1.12D-05 OVMax= 2.97D-04

 Cycle   7  Pass 1  IDiag  1:
 RMSU=  2.57D-06    CP:  9.61D-01  9.33D-01  6.77D-01  1.11D+00  1.30D+00
                    CP:  1.15D+00
 E= -289.066296421978     Delta-E=       -0.000000457689 Rises=F Damp=F
 DIIS: error= 1.37D-05 at cycle   7 NSaved=   7.
 NSaved= 7 IEnMin= 7 EnMin= -289.066296421978     IErMin= 7 ErrMin= 1.37D-05
 ErrMax= 1.37D-05  0.00D+00 EMaxC= 1.00D-01 BMatC= 8.99D-08 BMatP= 3.85D-07
 IDIUse=1 WtCom= 1.00D+00 WtEn= 0.00D+00
 Coeff-Com: -0.686D-05-0.450D-03-0.122D-02-0.110D-01-0.578D-01 0.299D+00
 Coeff-Com:  0.771D+00
 Coeff:     -0.686D-05-0.450D-03-0.122D-02-0.110D-01-0.578D-01 0.299D+00
 Coeff:      0.771D+00
 Gap=     0.452 Goal=   None    Shift=    0.000
 RMSDP=2.85D-06 MaxDP=8.23D-05 DE=-4.58D-07 OVMax= 1.17D-04

 Cycle   8  Pass 1  IDiag  1:
 RMSU=  9.95D-07    CP:  9.61D-01  9.33D-01  6.78D-01  1.12D+00  1.33D+00
                    CP:  1.30D+00  1.16D+00
 E= -289.066296524180     Delta-E=       -0.000000102202 Rises=F Damp=F
 DIIS: error= 3.06D-06 at cycle   8 NSaved=   8.
 NSaved= 8 IEnMin= 8 EnMin= -289.066296524180     IErMin= 8 ErrMin= 3.06D-06
 ErrMax= 3.06D-06  0.00D+00 EMaxC= 1.00D-01 BMatC= 3.45D-09 BMatP= 8.99D-08
 IDIUse=1 WtCom= 1.00D+00 WtEn= 0.00D+00
 Coeff-Com:  0.427D-04 0.691D-03 0.693D-03-0.248D-02-0.228D-01 0.541D-02
 Coeff-Com:  0.142D+00 0.876D+00
 Coeff:      0.427D-04 0.691D-03 0.693D-03-0.248D-02-0.228D-01 0.541D-02
 Coeff:      0.142D+00 0.876D+00
 Gap=     0.452 Goal=   None    Shift=    0.000
 RMSDP=8.12D-07 MaxDP=2.06D-05 DE=-1.02D-07 OVMax= 4.17D-05

 Cycle   9  Pass 1  IDiag  1:
 RMSU=  2.46D-07    CP:  9.61D-01  9.33D-01  6.78D-01  1.12D+00  1.34D+00
                    CP:  1.35D+00  1.30D+00  1.25D+00
 E= -289.066296529904     Delta-E=       -0.000000005724 Rises=F Damp=F
 DIIS: error= 1.06D-06 at cycle   9 NSaved=   9.
 NSaved= 9 IEnMin= 9 EnMin= -289.066296529904     IErMin= 9 ErrMin= 1.06D-06
 ErrMax= 1.06D-06  0.00D+00 EMaxC= 1.00D-01 BMatC= 6.76D-10 BMatP= 3.45D-09
 IDIUse=1 WtCom= 1.00D+00 WtEn= 0.00D+00
 Coeff-Com:  0.135D-04 0.282D-03 0.388D-03 0.400D-03-0.812D-03-0.327D-01
 Coeff-Com: -0.481D-01 0.285D+00 0.796D+00
 Coeff:      0.135D-04 0.282D-03 0.388D-03 0.400D-03-0.812D-03-0.327D-01
 Coeff:     -0.481D-01 0.285D+00 0.796D+00
 Gap=     0.452 Goal=   None    Shift=    0.000
 RMSDP=3.03D-07 MaxDP=8.44D-06 DE=-5.72D-09 OVMax= 1.59D-05

 Cycle  10  Pass 1  IDiag  1:
 RMSU=  8.97D-08    CP:  9.61D-01  9.33D-01  6.78D-01  1.12D+00  1.34D+00
                    CP:  1.36D+00  1.35D+00  1.40D+00  1.17D+00
 E= -289.066296530933     Delta-E=       -0.000000001029 Rises=F Damp=F
 DIIS: error= 2.67D-07 at cycle  10 NSaved=  10.
 NSaved=10 IEnMin=10 EnMin= -289.066296530933     IErMin=10 ErrMin= 2.67D-07
 ErrMax= 2.67D-07  0.00D+00 EMaxC= 1.00D-01 BMatC= 4.29D-11 BMatP= 6.76D-10
 IDIUse=1 WtCom= 1.00D+00 WtEn= 0.00D+00
 Coeff-Com: -0.271D-05-0.359D-04-0.135D-04 0.415D-03 0.291D-02-0.722D-02
 Coeff-Com: -0.301D-01-0.519D-01 0.143D+00 0.943D+00
 Coeff:     -0.271D-05-0.359D-04-0.135D-04 0.415D-03 0.291D-02-0.722D-02
 Coeff:     -0.301D-01-0.519D-01 0.143D+00 0.943D+00
 Gap=     0.452 Goal=   None    Shift=    0.000
 RMSDP=1.10D-07 MaxDP=3.08D-06 DE=-1.03D-09 OVMax= 6.59D-06

 Cycle  11  Pass 1  IDiag  1:
 RMSU=  2.88D-08    CP:  9.61D-01  9.33D-01  6.78D-01  1.13D+00  1.35D+00
                    CP:  1.36D+00  1.37D+00  1.46D+00  1.35D+00  1.32D+00
 E= -289.066296531017     Delta-E=       -0.000000000084 Rises=F Damp=F
 DIIS: error= 5.32D-08 at cycle  11 NSaved=  11.
 NSaved=11 IEnMin=11 EnMin= -289.066296531017     IErMin=11 ErrMin= 5.32D-08
 ErrMax= 5.32D-08  0.00D+00 EMaxC= 1.00D-01 BMatC= 1.22D-12 BMatP= 4.29D-11
 IDIUse=1 WtCom= 1.00D+00 WtEn= 0.00D+00
 Coeff-Com: -0.242D-06-0.814D-05-0.156D-04-0.303D-04-0.228D-03 0.199D-02
 Coeff-Com:  0.440D-02-0.782D-02-0.492D-01-0.659D-01 0.112D+01
 Coeff:     -0.242D-06-0.814D-05-0.156D-04-0.303D-04-0.228D-03 0.199D-02
 Coeff:      0.440D-02-0.782D-02-0.492D-01-0.659D-01 0.112D+01
 Gap=     0.452 Goal=   None    Shift=    0.000
 RMSDP=2.43D-08 MaxDP=8.02D-07 DE=-8.40D-11 OVMax= 1.63D-06

 Cycle  12  Pass 1  IDiag  1:
 RMSU=  7.14D-09    CP:  9.61D-01  9.33D-01  6.78D-01  1.13D+00  1.35D+00
                    CP:  1.36D+00  1.37D+00  1.47D+00  1.40D+00  1.48D+00
                    CP:  1.40D+00
 E= -289.066296531024     Delta-E=       -0.000000000008 Rises=F Damp=F
 DIIS: error= 1.65D-08 at cycle  12 NSaved=  12.
 NSaved=12 IEnMin=12 EnMin= -289.066296531024     IErMin=12 ErrMin= 1.65D-08
 ErrMax= 1.65D-08  0.00D+00 EMaxC= 1.00D-01 BMatC= 1.44D-13 BMatP= 1.22D-12
 IDIUse=1 WtCom= 1.00D+00 WtEn= 0.00D+00
 Coeff-Com:  0.885D-07 0.374D-06-0.254D-05-0.315D-04-0.224D-03 0.873D-03
 Coeff-Com:  0.279D-02 0.142D-02-0.184D-01-0.719D-01 0.255D+00 0.831D+00
 Coeff:      0.885D-07 0.374D-06-0.254D-05-0.315D-04-0.224D-03 0.873D-03
 Coeff:      0.279D-02 0.142D-02-0.184D-01-0.719D-01 0.255D+00 0.831D+00
 Gap=     0.452 Goal=   None    Shift=    0.000
 RMSDP=5.56D-09 MaxDP=1.63D-07 DE=-7.50D-12 OVMax= 3.29D-07

 Error on total polarization charges =  0.04399
 SCF Done:  E(RwB97XD) =  -289.066296531     A.U. after   12 cycles
            NFock= 12  Conv=0.56D-08     -V/T= 2.0055
 KE= 2.874919896153D+02 PE=-1.187959679656D+03 EE= 3.545752048880D+02
 SMD-CDS (non-electrostatic) energy       (kcal/mol) =       2.06
 (included in total energy above)
 Leave Link  502 at Wed Oct 22 13:38:11 2025, MaxMem=  4294967296 cpu:             742.8 elap:              93.0
 (Enter /lrz/sys/applications/gaussian/g16.C.01/x86_64_legacy/exe/l601.exe)
 Copying SCF densities to generalized density rwf, IOpCl= 0 IROHF=0.

 **********************************************************************

            Population analysis using the SCF Density.

 **********************************************************************

 Orbital symmetries:
       Occupied  (A) (A) (A) (A) (A) (A) (A) (A) (A) (A) (A) (A)
                 (A) (A) (A) (A) (A) (A) (A) (A) (A) (A) (A) (A)
                 (A)
       Virtual   (A) (A) (A) (A) (A) (A) (A) (A) (A) (A) (A) (A)
                 (A) (A) (A) (A) (A) (A) (A) (A) (A) (A) (A) (A)
                 (A) (A) (A) (A) (A) (A) (A) (A) (A) (A) (A) (A)
                 (A) (A) (A) (A) (A) (A) (A) (A) (A) (A) (A) (A)
                 (A) (A) (A) (A) (A) (A) (A) (A) (A) (A) (A) (A)
                 (A) (A) (A) (A) (A) (A) (A) (A) (A) (A) (A) (A)
                 (A) (A) (A) (A) (A) (A) (A) (A) (A) (A) (A) (A)
                 (A) (A) (A) (A) (A) (A) (A) (A) (A) (A) (A) (A)
                 (A) (A) (A) (A) (A) (A) (A) (A) (A) (A) (A) (A)
                 (A) (A) (A) (A) (A) (A) (A) (A) (A) (A) (A) (A)
                 (A) (A) (A) (A) (A) (A) (A) (A) (A) (A) (A) (A)
                 (A) (A) (A) (A) (A) (A) (A) (A) (A) (A) (A) (A)
                 (A) (A) (A) (A) (A) (A) (A) (A) (A) (A) (A) (A)
                 (A) (A) (A) (A) (A) (A) (A) (A) (A) (A) (A) (A)
                 (A) (A) (A) (A) (A) (A) (A) (A) (A) (A) (A) (A)
                 (A) (A) (A) (A) (A) (A) (A) (A) (A) (A) (A) (A)
                 (A) (A) (A) (A) (A) (A) (A) (A) (A) (A) (A) (A)
                 (A) (A) (A) (A) (A) (A) (A) (A) (A) (A) (A) (A)
                 (A) (A) (A) (A) (A) (A) (A) (A) (A) (A) (A)
 The electronic state is 1-A.
 Alpha  occ. eigenvalues --  -19.24838 -14.41013 -10.35091 -10.27067 -10.26852
 Alpha  occ. eigenvalues --  -10.26387  -1.13365  -0.97242  -0.88050  -0.79631
 Alpha  occ. eigenvalues --   -0.70465  -0.66607  -0.62078  -0.57170  -0.53817
 Alpha  occ. eigenvalues --   -0.52456  -0.50663  -0.47329  -0.45555  -0.44259
 Alpha  occ. eigenvalues --   -0.42189  -0.41231  -0.39813  -0.37342  -0.33320
 Alpha virt. eigenvalues --    0.11871   0.13299   0.14642   0.16092   0.17799
 Alpha virt. eigenvalues --    0.18202   0.19728   0.20527   0.21169   0.22251
 Alpha virt. eigenvalues --    0.24290   0.24989   0.26469   0.28024   0.29399
 Alpha virt. eigenvalues --    0.30783   0.31363   0.33111   0.35769   0.36996
 Alpha virt. eigenvalues --    0.37326   0.39011   0.41005   0.42446   0.45317
 Alpha virt. eigenvalues --    0.46011   0.46321   0.48368   0.48945   0.50002
 Alpha virt. eigenvalues --    0.51980   0.53069   0.53850   0.54224   0.55319
 Alpha virt. eigenvalues --    0.55604   0.57150   0.57594   0.59078   0.59317
 Alpha virt. eigenvalues --    0.61173   0.62082   0.63269   0.65465   0.66680
 Alpha virt. eigenvalues --    0.68823   0.70696   0.71593   0.77926   0.81954
 Alpha virt. eigenvalues --    0.83562   0.86916   0.90372   0.91922   0.93222
 Alpha virt. eigenvalues --    0.94472   0.98173   0.98318   1.04036   1.06461
 Alpha virt. eigenvalues --    1.09261   1.11829   1.14261   1.19220   1.20199
 Alpha virt. eigenvalues --    1.21658   1.23856   1.26039   1.28439   1.29971
 Alpha virt. eigenvalues --    1.34110   1.38009   1.40704   1.45033   1.50083
 Alpha virt. eigenvalues --    1.53580   1.55880   1.56822   1.60628   1.61830
 Alpha virt. eigenvalues --    1.63590   1.65578   1.65890   1.67827   1.68095
 Alpha virt. eigenvalues --    1.71856   1.71963   1.75729   1.79861   1.80635
 Alpha virt. eigenvalues --    1.81565   1.85092   1.90789   1.92746   1.93041
 Alpha virt. eigenvalues --    1.97176   1.98364   1.99538   2.01884   2.05408
 Alpha virt. eigenvalues --    2.06291   2.06946   2.08038   2.11364   2.12233
 Alpha virt. eigenvalues --    2.13199   2.19805   2.21843   2.23733   2.27468
 Alpha virt. eigenvalues --    2.29687   2.33133   2.37689   2.37934   2.39742
 Alpha virt. eigenvalues --    2.41747   2.44439   2.47339   2.49084   2.49672
 Alpha virt. eigenvalues --    2.52524   2.54432   2.56912   2.60256   2.61855
 Alpha virt. eigenvalues --    2.64638   2.65455   2.66806   2.68982   2.72618
 Alpha virt. eigenvalues --    2.73769   2.73933   2.74672   2.76565   2.78993
 Alpha virt. eigenvalues --    2.80755   2.82937   2.83860   2.89361   2.90518
 Alpha virt. eigenvalues --    2.97758   2.98712   3.02410   3.06976   3.09197
 Alpha virt. eigenvalues --    3.11247   3.13283   3.16898   3.19593   3.21349
 Alpha virt. eigenvalues --    3.24793   3.27968   3.31213   3.32578   3.33928
 Alpha virt. eigenvalues --    3.36726   3.38141   3.38393   3.39546   3.44407
 Alpha virt. eigenvalues --    3.45954   3.48584   3.51497   3.52189   3.57464
 Alpha virt. eigenvalues --    3.59693   3.62330   3.65054   3.67641   3.72163
 Alpha virt. eigenvalues --    3.73492   3.74701   3.81973   3.86214   3.90680
 Alpha virt. eigenvalues --    3.93313   3.97874   3.99135   4.00286   4.03498
 Alpha virt. eigenvalues --    4.06494   4.13669   4.18982   4.20172   4.26125
 Alpha virt. eigenvalues --    4.33938   4.36896   4.43377   4.45728   4.48970
 Alpha virt. eigenvalues --    4.58281   4.63905   4.66623   4.68649   4.70306
 Alpha virt. eigenvalues --    4.74326   4.79474   4.83832   4.90488   4.93613
 Alpha virt. eigenvalues --    4.97138   5.02576   5.08495   5.19769   5.27105
 Alpha virt. eigenvalues --    5.30347   5.41173   5.44253   5.51809   5.55674
 Alpha virt. eigenvalues --    5.66150   5.78417   5.87301   5.92921   6.12480
 Alpha virt. eigenvalues --    6.37419   6.60501   6.81353   6.88772   7.08358
 Alpha virt. eigenvalues --    7.27014  22.39621  22.51623  22.59007  22.70930
 Alpha virt. eigenvalues --   32.08100  43.97081
          Condensed to atoms (all electrons):
               1          2          3          4          5          6
     1  O    8.146745   0.298346  -0.071679  -0.100697  -0.001186  -0.000231
     2  C    0.298346   4.695887   0.294356   0.284669  -0.050635   0.007789
     3  N   -0.071679   0.294356   6.726486  -0.046771   0.012721  -0.000603
     4  C   -0.100697   0.284669  -0.046771   5.190174   0.293883  -0.034518
     5  C   -0.001186  -0.050635   0.012721   0.293883   4.996372   0.292244
     6  C   -0.000231   0.007789  -0.000603  -0.034518   0.292244   4.958493
     7  H    0.302921  -0.033566   0.008041   0.016516  -0.000249   0.000102
     8  H   -0.050725   0.479305  -0.058465  -0.080582  -0.007829  -0.000629
     9  H    0.005524  -0.036863   0.359695  -0.010353   0.000552  -0.000103
    10  H    0.005918  -0.042971   0.371403   0.007923   0.000065   0.000004
    11  H    0.004668  -0.027223   0.004850   0.391246  -0.024553  -0.005800
    12  H    0.005159  -0.013180  -0.005933   0.383093  -0.032089  -0.006677
    13  H    0.012218  -0.006742   0.000292  -0.046724   0.420889  -0.030662
    14  H   -0.000236   0.002056   0.000028  -0.045004   0.411994  -0.031390
    15  H   -0.000033  -0.000364  -0.000068  -0.004340  -0.036904   0.412863
    16  H    0.000015  -0.000514   0.000023   0.010012  -0.043206   0.417458
    17  H    0.000075   0.000114  -0.000028  -0.005060  -0.038344   0.413633
               7          8          9         10         11         12
     1  O    0.302921  -0.050725   0.005524   0.005918   0.004668   0.005159
     2  C   -0.033566   0.479305  -0.036863  -0.042971  -0.027223  -0.013180
     3  N    0.008041  -0.058465   0.359695   0.371403   0.004850  -0.005933
     4  C    0.016516  -0.080582  -0.010353   0.007923   0.391246   0.383093
     5  C   -0.000249  -0.007829   0.000552   0.000065  -0.024553  -0.032089
     6  C    0.000102  -0.000629  -0.000103   0.000004  -0.005800  -0.006677
     7  H    0.351015  -0.006153  -0.001357  -0.000012  -0.000645  -0.000694
     8  H   -0.006153   0.606585   0.008922  -0.005893  -0.001151   0.008549
     9  H   -0.001357   0.008922   0.437711  -0.023690   0.000353   0.007123
    10  H   -0.000012  -0.005893  -0.023690   0.421380   0.000990   0.000222
    11  H   -0.000645  -0.001151   0.000353   0.000990   0.565678  -0.024926
    12  H   -0.000694   0.008549   0.007123   0.000222  -0.024926   0.565912
    13  H   -0.000683   0.000966   0.000009  -0.000080   0.006862  -0.003663
    14  H   -0.000152   0.004223   0.000040   0.000034  -0.004641   0.006931
    15  H    0.000002   0.000117   0.000006  -0.000003   0.002555   0.000191
    16  H   -0.000005  -0.000005   0.000001   0.000000   0.000076  -0.000048
    17  H    0.000001  -0.000033  -0.000015   0.000001   0.000010   0.002898
              13         14         15         16         17
     1  O    0.012218  -0.000236  -0.000033   0.000015   0.000075
     2  C   -0.006742   0.002056  -0.000364  -0.000514   0.000114
     3  N    0.000292   0.000028  -0.000068   0.000023  -0.000028
     4  C   -0.046724  -0.045004  -0.004340   0.010012  -0.005060
     5  C    0.420889   0.411994  -0.036904  -0.043206  -0.038344
     6  C   -0.030662  -0.031390   0.412863   0.417458   0.413633
     7  H   -0.000683  -0.000152   0.000002  -0.000005   0.000001
     8  H    0.000966   0.004223   0.000117  -0.000005  -0.000033
     9  H    0.000009   0.000040   0.000006   0.000001  -0.000015
    10  H   -0.000080   0.000034  -0.000003   0.000000   0.000001
    11  H    0.006862  -0.004641   0.002555   0.000076   0.000010
    12  H   -0.003663   0.006931   0.000191  -0.000048   0.002898
    13  H    0.577242  -0.031226   0.006353  -0.003950  -0.005032
    14  H   -0.031226   0.588229  -0.005631  -0.003979   0.006770
    15  H    0.006353  -0.005631   0.554218  -0.023309  -0.028794
    16  H   -0.003950  -0.003979  -0.023309   0.535892  -0.022927
    17  H   -0.005032   0.006770  -0.028794  -0.022927   0.553107
 Mulliken charges:
               1
     1  O   -0.556801
     2  C    0.149538
     3  N   -0.594347
     4  C   -0.203466
     5  C   -0.193725
     6  C   -0.391973
     7  H    0.364920
     8  H    0.102796
     9  H    0.252445
    10  H    0.264709
    11  H    0.111650
    12  H    0.107132
    13  H    0.103933
    14  H    0.101955
    15  H    0.123142
    16  H    0.134466
    17  H    0.123625
 Sum of Mulliken charges =  -0.00000
 Mulliken charges with hydrogens summed into heavy atoms:
               1
     1  O   -0.191881
     2  C    0.252335
     3  N   -0.077193
     4  C    0.015317
     5  C    0.012164
     6  C   -0.010740
 Electronic spatial extent (au):  <R**2>=            827.5786
 Charge=             -0.0000 electrons
 Dipole moment (field-independent basis, Debye):
    X=             -0.0535    Y=             -2.2037    Z=              1.1374  Tot=              2.4805
 Quadrupole moment (field-independent basis, Debye-Ang):
   XX=            -41.3747   YY=            -37.0925   ZZ=            -37.6679
   XY=             -0.5884   XZ=              1.0788   YZ=              1.1434
 Traceless Quadrupole moment (field-independent basis, Debye-Ang):
   XX=             -2.6630   YY=              1.6192   ZZ=              1.0438
   XY=             -0.5884   XZ=              1.0788   YZ=              1.1434
 Octapole moment (field-independent basis, Debye-Ang**2):
  XXX=              1.5655  YYY=             -4.0313  ZZZ=             -0.6752  XYY=             14.1005
  XXY=              7.7946  XXZ=              2.1013  XZZ=              5.9120  YZZ=             -2.4640
  YYZ=              2.7563  XYZ=              2.2023
 Hexadecapole moment (field-independent basis, Debye-Ang**3):
 XXXX=           -885.9078 YYYY=           -173.1825 ZZZZ=            -81.3661 XXXY=             20.0115
 XXXZ=             -4.4325 YYYX=             -0.7903 YYYZ=             -3.6422 ZZZX=             -0.3835
 ZZZY=              2.0539 XXYY=           -136.9481 XXZZ=           -146.2812 YYZZ=            -44.1697
 XXYZ=              2.0110 YYXZ=              2.1129 ZZXY=             -4.9017
 N-N= 2.568261886215D+02 E-N=-1.187959681965D+03  KE= 2.874919896153D+02
 No NMR shielding tensors so no spin-rotation constants.
 Leave Link  601 at Wed Oct 22 13:38:12 2025, MaxMem=  4294967296 cpu:               1.3 elap:               0.2
 (Enter /lrz/sys/applications/gaussian/g16.C.01/x86_64_legacy/exe/l9999.exe)
 Unable to Open any file for archive entry.
 1\1\GINC-CM4R13C05S08\SP\RwB97XD\def2TZVP\C4H11N1O1\GO29TIZ2\22-Oct-20
 25\0\\#p wb97xd scrf=(smd,solvent=water) def2tzvp\\g16_g16_C17-a_15\\0
 ,1\O,0,1.279003,1.291227,-0.271115\C,0,1.095686,0.017522,0.311635\N,0,
 2.210069,-0.84025,-0.036244\C,0,-0.264158,-0.497866,-0.138526\C,0,-1.4
 46933,0.363052,0.293425\C,0,-2.788668,-0.209129,-0.146004\H,0,2.154231
 ,1.596601,-0.002852\H,0,1.092265,0.106923,1.415044\H,0,2.077214,-1.187
 745,-0.987608\H,0,2.198814,-1.662444,0.566235\H,0,-0.381757,-1.518711,
 0.26201\H,0,-0.245356,-0.58942,-1.240201\H,0,-1.324088,1.378357,-0.116
 448\H,0,-1.431522,0.47062,1.392021\H,0,-2.951966,-1.213071,0.278019\H,
 0,-3.624774,0.430116,0.176109\H,0,-2.841133,-0.300771,-1.242891\\Versi
 on=EM64L-G16RevC.01\State=1-A\HF=-289.0662965\RMSD=5.562e-09\Dipole=-0
 .0210351,-0.8670141,0.4474711\Quadrupole=-1.9798585,1.2038496,0.776008
 9,-0.4374269,0.8020426,0.8500828\PG=C01 [X(C4H11N1O1)]\\@
 The archive entry for this job was punched.


 THE MORE ACCURATE THE CALCULATIONS BECOME, THE MORE THE CONCEPTS
 TEND TO VANISH INTO THIN AIR.
     -- R.S. MULLIKEN, J.C.P. 43,S2(1965)
 Job cpu time:       0 days  0 hours 12 minutes 49.6 seconds.
 Elapsed time:       0 days  0 hours  1 minutes 36.6 seconds.
 File lengths (MBytes):  RWF=    288 Int=      0 D2E=      0 Chk=     12 Scr=     32
 Normal termination of Gaussian 16 at Wed Oct 22 13:38:12 2025.
