 Entering Gaussian System, Link 0=g16
 Input=../../g16_g16_C17-a_45.com
 Output=../../g16_g16_C17-a_45.log
 Initial command:
 /lrz/sys/applications/gaussian/g16.C.01/x86_64_legacy/exe/l1.exe "/dss/lxclscratch/0D/go29tiz2/Gau-5299.inp" -scrdir="/dss/lxclscratch/0D/go29tiz2/"
 Entering Link 1 = /lrz/sys/applications/gaussian/g16.C.01/x86_64_legacy/exe/l1.exe PID=      5300.
  
 Copyright (c) 1988-2019, Gaussian, Inc.  All Rights Reserved.
  
 This is part of the Gaussian(R) 16 program.  It is based on
 the Gaussian(R) 09 system (copyright 2009, Gaussian, Inc.),
 the Gaussian(R) 03 system (copyright 2003, Gaussian, Inc.),
 the Gaussian(R) 98 system (copyright 1998, Gaussian, Inc.),
 the Gaussian(R) 94 system (copyright 1995, Gaussian, Inc.),
 the Gaussian 92(TM) system (copyright 1992, Gaussian, Inc.),
 the Gaussian 90(TM) system (copyright 1990, Gaussian, Inc.),
 the Gaussian 88(TM) system (copyright 1988, Gaussian, Inc.),
 the Gaussian 86(TM) system (copyright 1986, Carnegie Mellon
 University), and the Gaussian 82(TM) system (copyright 1983,
 Carnegie Mellon University). Gaussian is a federally registered
 trademark of Gaussian, Inc.
  
 This software contains proprietary and confidential information,
 including trade secrets, belonging to Gaussian, Inc.
  
 This software is provided under written license and may be
 used, copied, transmitted, or stored only in accord with that
 written license.
  
 The following legend is applicable only to US Government
 contracts under FAR:
  
                    RESTRICTED RIGHTS LEGEND
  
 Use, reproduction and disclosure by the US Government is
 subject to restrictions as set forth in subparagraphs (a)
 and (c) of the Commercial Computer Software - Restricted
 Rights clause in FAR 52.227-19.
  
 Gaussian, Inc.
 340 Quinnipiac St., Bldg. 40, Wallingford CT 06492
  
  
 ---------------------------------------------------------------
 Warning -- This program may not be used in any manner that
 competes with the business of Gaussian, Inc. or will provide
 assistance to any competitor of Gaussian, Inc.  The licensee
 of this program is prohibited from giving any competitor of
 Gaussian, Inc. access to this program.  By using this program,
 the user acknowledges that Gaussian, Inc. is engaged in the
 business of creating and licensing software in the field of
 computational chemistry and represents and warrants to the
 licensee that it is not a competitor of Gaussian, Inc. and that
 it will not use this program in any manner prohibited above.
 ---------------------------------------------------------------
  

 Cite this work as:
 Gaussian 16, Revision C.01,
 M. J. Frisch, G. W. Trucks, H. B. Schlegel, G. E. Scuseria, 
 M. A. Robb, J. R. Cheeseman, G. Scalmani, V. Barone, 
 G. A. Petersson, H. Nakatsuji, X. Li, M. Caricato, A. V. Marenich, 
 J. Bloino, B. G. Janesko, R. Gomperts, B. Mennucci, H. P. Hratchian, 
 J. V. Ortiz, A. F. Izmaylov, J. L. Sonnenberg, D. Williams-Young, 
 F. Ding, F. Lipparini, F. Egidi, J. Goings, B. Peng, A. Petrone, 
 T. Henderson, D. Ranasinghe, V. G. Zakrzewski, J. Gao, N. Rega, 
 G. Zheng, W. Liang, M. Hada, M. Ehara, K. Toyota, R. Fukuda, 
 J. Hasegawa, M. Ishida, T. Nakajima, Y. Honda, O. Kitao, H. Nakai, 
 T. Vreven, K. Throssell, J. A. Montgomery, Jr., J. E. Peralta, 
 F. Ogliaro, M. J. Bearpark, J. J. Heyd, E. N. Brothers, K. N. Kudin, 
 V. N. Staroverov, T. A. Keith, R. Kobayashi, J. Normand, 
 K. Raghavachari, A. P. Rendell, J. C. Burant, S. S. Iyengar, 
 J. Tomasi, M. Cossi, J. M. Millam, M. Klene, C. Adamo, R. Cammi, 
 J. W. Ochterski, R. L. Martin, K. Morokuma, O. Farkas, 
 J. B. Foresman, and D. J. Fox, Gaussian, Inc., Wallingford CT, 2019.
 
 ******************************************
 Gaussian 16:  EM64L-G16RevC.01  3-Jul-2019
                22-Oct-2025 
 ******************************************
 %chk=g16_g16_C17-a_45.chk
 %nprocshared=8
 Will use up to    8 processors via shared memory.
 %mem=32GB
 -------------------------------------------
 #p wb97xd scrf=(smd,solvent=water) def2tzvp
 -------------------------------------------
 1/38=1,172=1/1;
 2/12=2,17=6,18=5,40=1/2;
 3/5=44,7=101,11=2,25=1,30=1,70=32201,72=1,74=-58/1,2,3;
 4//1;
 5/5=2,38=5,53=1/2;
 6/7=2,8=2,9=2,10=2,28=1/1;
 99/5=1,9=1/99;
 Leave Link    1 at Wed Oct 22 13:41:42 2025, MaxMem=  4294967296 cpu:               4.2 elap:               0.6
 (Enter /lrz/sys/applications/gaussian/g16.C.01/x86_64_legacy/exe/l101.exe)
 ----------------
 g16_g16_C17-a_45
 ----------------
 Symbolic Z-matrix:
 Charge =  0 Multiplicity = 1
 O                    -1.7223   -0.59273  -0.73587 
 C                    -1.1183    0.03318   0.39596 
 N                    -0.92424   1.42774   0.1237 
 C                     0.17066  -0.69022   0.78807 
 C                     1.28768  -0.69354  -0.2637 
 C                     2.23955   0.49844  -0.20109 
 H                    -1.85721  -1.52574  -0.5276 
 H                    -1.81568  -0.03999   1.25016 
 H                    -1.82617   1.84499  -0.10424 
 H                    -0.35363   1.52784  -0.71674 
 H                    -0.11537  -1.73004   1.01754 
 H                     0.5386   -0.2592    1.73401 
 H                     0.83289  -0.76711  -1.26589 
 H                     1.88051  -1.61379  -0.1399 
 H                     3.021     0.42054  -0.97276 
 H                     1.72303   1.45803  -0.34726 
 H                     2.74259   0.54494   0.77829 
 
 ITRead=  0  0  0  0  0  0  0  0  0  0  0  0  0  0  0  0  0
 MicOpt= -1 -1 -1 -1 -1 -1 -1 -1 -1 -1 -1 -1 -1 -1 -1 -1 -1
 NAtoms=     17 NQM=       17 NQMF=       0 NMMI=      0 NMMIF=      0
                NMic=       0 NMicF=      0.
                    Isotopes and Nuclear Properties:
 (Nuclear quadrupole moments (NQMom) in fm**2, nuclear magnetic moments (NMagM)
  in nuclear magnetons)

  Atom         1           2           3           4           5           6           7           8           9          10
 IAtWgt=          16          12          14          12          12          12           1           1           1           1
 AtmWgt=  15.9949146  12.0000000  14.0030740  12.0000000  12.0000000  12.0000000   1.0078250   1.0078250   1.0078250   1.0078250
 NucSpn=           0           0           2           0           0           0           1           1           1           1
 AtZEff=  -0.0000000  -0.0000000  -0.0000000  -0.0000000  -0.0000000  -0.0000000  -0.0000000  -0.0000000  -0.0000000  -0.0000000
 NQMom=    0.0000000   0.0000000   2.0440000   0.0000000   0.0000000   0.0000000   0.0000000   0.0000000   0.0000000   0.0000000
 NMagM=    0.0000000   0.0000000   0.4037610   0.0000000   0.0000000   0.0000000   2.7928460   2.7928460   2.7928460   2.7928460
 AtZNuc=   8.0000000   6.0000000   7.0000000   6.0000000   6.0000000   6.0000000   1.0000000   1.0000000   1.0000000   1.0000000

  Atom        11          12          13          14          15          16          17
 IAtWgt=           1           1           1           1           1           1           1
 AtmWgt=   1.0078250   1.0078250   1.0078250   1.0078250   1.0078250   1.0078250   1.0078250
 NucSpn=           1           1           1           1           1           1           1
 AtZEff=  -0.0000000  -0.0000000  -0.0000000  -0.0000000  -0.0000000  -0.0000000  -0.0000000
 NQMom=    0.0000000   0.0000000   0.0000000   0.0000000   0.0000000   0.0000000   0.0000000
 NMagM=    2.7928460   2.7928460   2.7928460   2.7928460   2.7928460   2.7928460   2.7928460
 AtZNuc=   1.0000000   1.0000000   1.0000000   1.0000000   1.0000000   1.0000000   1.0000000
 Leave Link  101 at Wed Oct 22 13:41:42 2025, MaxMem=  4294967296 cpu:               1.1 elap:               0.2
 (Enter /lrz/sys/applications/gaussian/g16.C.01/x86_64_legacy/exe/l202.exe)
                          Input orientation:                          
 ---------------------------------------------------------------------
 Center     Atomic      Atomic             Coordinates (Angstroms)
 Number     Number       Type             X           Y           Z
 ---------------------------------------------------------------------
      1          8           0       -1.722304   -0.592725   -0.735870
      2          6           0       -1.118299    0.033177    0.395955
      3          7           0       -0.924239    1.427741    0.123698
      4          6           0        0.170661   -0.690224    0.788073
      5          6           0        1.287683   -0.693538   -0.263696
      6          6           0        2.239548    0.498441   -0.201090
      7          1           0       -1.857214   -1.525739   -0.527598
      8          1           0       -1.815675   -0.039991    1.250158
      9          1           0       -1.826174    1.844985   -0.104237
     10          1           0       -0.353633    1.527839   -0.716742
     11          1           0       -0.115368   -1.730037    1.017539
     12          1           0        0.538595   -0.259198    1.734014
     13          1           0        0.832892   -0.767108   -1.265895
     14          1           0        1.880507   -1.613788   -0.139897
     15          1           0        3.020997    0.420539   -0.972755
     16          1           0        1.723028    1.458027   -0.347259
     17          1           0        2.742589    0.544938    0.778292
 ---------------------------------------------------------------------
                    Distance matrix (angstroms):
                    1          2          3          4          5
     1  O    0.000000
     2  C    1.427446   0.000000
     3  N    2.336247   1.434082   0.000000
     4  C    2.432124   1.529210   2.475071   0.000000
     5  C    3.048464   2.598462   3.089093   1.534264   0.000000
     6  C    4.144020   3.442103   3.313402   2.582956   1.526689
     7  H    0.965450   1.956825   3.165071   2.557607   3.263829
     8  H    2.063623   1.105147   2.053730   2.140527   3.514215
     9  H    2.520353   2.008464   1.019575   3.348261   4.020651
    10  H    2.523969   2.014156   1.020760   2.731146   2.798872
    11  H    2.636317   2.121594   3.380057   1.102578   2.164358
    12  H    3.365001   2.149694   2.752956   1.102707   2.177299
    13  H    2.615409   2.685023   3.136214   2.159455   1.103019
    14  H    3.791833   3.463014   4.145718   2.153526   1.101647
    15  H    4.856102   4.376892   4.216818   3.529692   2.179062
    16  H    4.028264   3.264308   2.689004   2.883367   2.196757
    17  H    4.849972   3.913379   3.827984   2.853162   2.176307
                    6          7          8          9         10
     6  C    0.000000
     7  H    4.581198   0.000000
     8  H    4.340606   2.317237   0.000000
     9  H    4.284000   3.397349   2.321127   0.000000
    10  H    2.837278   3.408940   2.909356   1.626075   0.000000
    11  H    3.463640   2.337352   2.408612   4.118983   3.698413
    12  H    2.685495   3.529719   2.413453   3.660449   3.161610
    13  H    2.171199   2.890895   3.724799   3.904243   2.641248
    14  H    2.143401   3.758806   4.250982   5.069898   3.897942
    15  H    1.100999   5.270968   5.342923   5.126250   3.560868
    16  H    1.099529   4.664066   4.161516   3.578496   2.110429
    17  H    1.101999   5.210685   4.619802   4.831415   3.576005
                   11         12         13         14         15
    11  H    0.000000
    12  H    1.761923   0.000000
    13  H    2.653394   3.056802   0.000000
    14  H    2.310127   2.673422   1.755630   0.000000
    15  H    4.292206   3.735098   2.506839   2.476460   0.000000
    16  H    3.925064   2.946768   2.566605   3.082831   1.775486
    17  H    3.660692   2.533304   3.089839   2.499271   1.777400
                   16         17
    16  H    0.000000
    17  H    1.772033   0.000000
 Stoichiometry    C4H11NO
 Framework group  C1[X(C4H11NO)]
 Deg. of freedom    45
 Full point group                 C1      NOp   1
 Largest Abelian subgroup         C1      NOp   1
 Largest concise Abelian subgroup C1      NOp   1
                         Standard orientation:                         
 ---------------------------------------------------------------------
 Center     Atomic      Atomic             Coordinates (Angstroms)
 Number     Number       Type             X           Y           Z
 ---------------------------------------------------------------------
      1          8           0       -1.722304   -0.592725   -0.735870
      2          6           0       -1.118299    0.033177    0.395955
      3          7           0       -0.924239    1.427741    0.123698
      4          6           0        0.170661   -0.690224    0.788073
      5          6           0        1.287683   -0.693538   -0.263696
      6          6           0        2.239548    0.498441   -0.201090
      7          1           0       -1.857214   -1.525739   -0.527598
      8          1           0       -1.815675   -0.039991    1.250158
      9          1           0       -1.826174    1.844985   -0.104237
     10          1           0       -0.353633    1.527839   -0.716742
     11          1           0       -0.115368   -1.730037    1.017539
     12          1           0        0.538595   -0.259198    1.734014
     13          1           0        0.832892   -0.767108   -1.265895
     14          1           0        1.880507   -1.613788   -0.139897
     15          1           0        3.020997    0.420539   -0.972755
     16          1           0        1.723028    1.458027   -0.347259
     17          1           0        2.742589    0.544938    0.778292
 ---------------------------------------------------------------------
 Rotational constants (GHZ):           5.3223513           2.3138365           1.9812497
 Leave Link  202 at Wed Oct 22 13:41:42 2025, MaxMem=  4294967296 cpu:               0.0 elap:               0.0
 (Enter /lrz/sys/applications/gaussian/g16.C.01/x86_64_legacy/exe/l301.exe)
 Standard basis: def2TZVP (5D, 7F)
 Ernie: Thresh=  0.10000D-02 Tol=  0.10000D-05 Strict=F.
 There are   282 symmetry adapted cartesian basis functions of A   symmetry.
 There are   252 symmetry adapted basis functions of A   symmetry.
   252 basis functions,   394 primitive gaussians,   282 cartesian basis functions
    25 alpha electrons       25 beta electrons
       nuclear repulsion energy       263.0555911430 Hartrees.
 IExCor= 4639 DFT=T Ex+Corr=wB97XD ExCW=0 ScaHFX=  1.000000
 ScaDFX=  1.000000  1.000000  1.000000  1.000000 ScalE2=  1.000000  1.000000
 IRadAn=      5 IRanWt=     -1 IRanGd=            0 ICorTp=0 IEmpDi=121
 HFx  wShort=  0.000000 wLong=  0.200000 cFull=  0.222036 cShort=  0.000000 cLong=  0.777964
 DFx  wShort=  0.000000 wLong=  0.200000 cFull=  0.000000 cShort=  0.000000 cLong=  1.000000
 NAtoms=   17 NActive=   17 NUniq=   17 SFac= 1.00D+00 NAtFMM=   60 NAOKFM=F Big=F
 Integral buffers will be    131072 words long.
 Raffenetti 2 integral format.
 Two-electron integral symmetry is turned on.
 R6Disp:  Grimme-D2 Dispersion energy=       -0.0096515359 Hartrees.
 Nuclear repulsion after empirical dispersion term =      263.0459396071 Hartrees.
 ------------------------------------------------------------------------------
 Polarizable Continuum Model (PCM)
 =================================
 Model                : PCM.
 Atomic radii         : SMD-Coulomb.
 Polarization charges : Total charges.
 Charge compensation  : None.
 Solution method      : On-the-fly selection.
 Cavity type          : VdW (van der Waals Surface) (Alpha=1.000).
 Cavity algorithm     : GePol (No added spheres)
                        Default sphere list used, NSphG=   17.
                        Lebedev-Laikov grids with approx.  5.0 points / Ang**2.
                        Smoothing algorithm: York/Karplus (Gamma=1.0000).
                        Polarization charges: spherical gaussians, with
                                              point-specific exponents (IZeta= 3).
                        Self-potential: point-specific (ISelfS= 7).
                        Self-field    : sphere-specific E.n sum rule (ISelfD= 2).
 Solvent              : Water, Eps=  78.355300 Eps(inf)=   1.777849
 ------------------------------------------------------------------------------
 Spheres list:
 ISph  on   Nord     Re0    Alpha      Xe            Ye            Ze
    1   O      1    1.5200  1.000     -1.722304     -0.592725     -0.735870
    2   C      2    1.8500  1.000     -1.118299      0.033177      0.395955
    3   N      3    1.8900  1.000     -0.924239      1.427741      0.123698
    4   C      4    1.8500  1.000      0.170661     -0.690224      0.788073
    5   C      5    1.8500  1.000      1.287683     -0.693538     -0.263696
    6   C      6    1.8500  1.000      2.239548      0.498441     -0.201090
    7   H      7    1.2000  1.000     -1.857214     -1.525739     -0.527598
    8   H      8    1.2000  1.000     -1.815675     -0.039991      1.250158
    9   H      9    1.2000  1.000     -1.826174      1.844985     -0.104237
   10   H     10    1.2000  1.000     -0.353633      1.527839     -0.716742
   11   H     11    1.2000  1.000     -0.115368     -1.730037      1.017539
   12   H     12    1.2000  1.000      0.538595     -0.259198      1.734014
   13   H     13    1.2000  1.000      0.832892     -0.767108     -1.265895
   14   H     14    1.2000  1.000      1.880507     -1.613788     -0.139897
   15   H     15    1.2000  1.000      3.020997      0.420539     -0.972755
   16   H     16    1.2000  1.000      1.723028      1.458027     -0.347259
   17   H     17    1.2000  1.000      2.742589      0.544938      0.778292
 ------------------------------------------------------------------------------
 GePol: Number of generator spheres                  =      17
 GePol: Total number of spheres                      =      17
 GePol: Number of exposed spheres                    =      17 (100.00%)
 GePol: Number of points                             =    1175
 GePol: Average weight of points                     =       0.12
 GePol: Minimum weight of points                     =   0.55D-09
 GePol: Maximum weight of points                     =    0.21991
 GePol: Number of points with low weight             =      71
 GePol: Fraction of low-weight points (<1% of avg)   =       6.04%
 GePol: Cavity surface area                          =    135.536 Ang**2
 GePol: Cavity volume                                =    108.193 Ang**3
 ------------------------------------------------------------------------------
 Atomic radii for non-electrostatic terms: SMD-CDS.
 ------------------------------------------------------------------------------
 PCM non-electrostatic energy =         0.0031752659 Hartrees.
 Nuclear repulsion after PCM non-electrostatic terms =      263.0491148730 Hartrees.
 Leave Link  301 at Wed Oct 22 13:41:42 2025, MaxMem=  4294967296 cpu:               0.6 elap:               0.1
 (Enter /lrz/sys/applications/gaussian/g16.C.01/x86_64_legacy/exe/l302.exe)
 NPDir=0 NMtPBC=     1 NCelOv=     1 NCel=       1 NClECP=     1 NCelD=      1
         NCelK=      1 NCelE2=     1 NClLst=     1 CellRange=     0.0.
 One-electron integrals computed using PRISM.
 One-electron integral symmetry used in STVInt
   1 Symmetry operations used in ECPInt.
 ECPInt:  NShTT=    6105 NPrTT=   17556 LenC2=    6048 LenP2D=   14441.
 LDataN:  DoStor=T MaxTD1= 6 Len=  172
 NBasis=   252 RedAO= T EigKep=  2.10D-04  NBF=   252
 NBsUse=   252 1.00D-06 EigRej= -1.00D+00 NBFU=   252
 Precomputing XC quadrature grid using
 IXCGrd= 4 IRadAn=           5 IRanWt=          -1 IRanGd=           0 AccXCQ= 0.00D+00.
 Generated NRdTot=       0 NPtTot=           0 NUsed=           0 NTot=          32
 NSgBfM=   281   281   281   281   281 MxSgAt=    17 MxSgA2=    17.
 Leave Link  302 at Wed Oct 22 13:41:42 2025, MaxMem=  4294967296 cpu:               2.3 elap:               0.3
 (Enter /lrz/sys/applications/gaussian/g16.C.01/x86_64_legacy/exe/l303.exe)
 DipDrv:  MaxL=1.
 Leave Link  303 at Wed Oct 22 13:41:43 2025, MaxMem=  4294967296 cpu:               0.3 elap:               0.1
 (Enter /lrz/sys/applications/gaussian/g16.C.01/x86_64_legacy/exe/l401.exe)
 ExpMin= 9.52D-02 ExpMax= 2.70D+04 ExpMxC= 9.22D+02 IAcc=3 IRadAn=         5 AccDes= 0.00D+00
 Harris functional with IExCor= 4639 and IRadAn=       5 diagonalized for initial guess.
 HarFok:  IExCor= 4639 AccDes= 0.00D+00 IRadAn=         5 IDoV= 1 UseB2=F ITyADJ=14
 ICtDFT=  3500011 ScaDFX=  1.000000  1.000000  1.000000  1.000000
 FoFCou: FMM=F IPFlag=           0 FMFlag=      100000 FMFlg1=           0
         NFxFlg=           0 DoJE=T BraDBF=F KetDBF=T FulRan=T
         wScrn=  0.000000 ICntrl=       500 IOpCl=  0 I1Cent=   200000004 NGrid=           0
         NMat0=    1 NMatS0=      1 NMatT0=    0 NMatD0=    1 NMtDS0=    0 NMtDT0=    0
 Petite list used in FoFCou.
 Harris En= -276.198176902647    
 JPrj=0 DoOrth=F DoCkMO=F.
 Leave Link  401 at Wed Oct 22 13:41:45 2025, MaxMem=  4294967296 cpu:              17.4 elap:               2.2
 (Enter /lrz/sys/applications/gaussian/g16.C.01/x86_64_legacy/exe/l502.exe)
 Integral symmetry usage will be decided dynamically.
 Closed shell SCF:
 Using DIIS extrapolation, IDIIS=  1040.
 NGot=  4294967296 LenX=  4294802854 LenY=  4294722889
 Requested convergence on RMS density matrix=1.00D-08 within 128 cycles.
 Requested convergence on MAX density matrix=1.00D-06.
 Requested convergence on             energy=1.00D-06.
 No special actions if energy rises.
 Fock matrices will be formed incrementally for  20 cycles.

 Cycle   1  Pass 1  IDiag  1:
 FoFJK:  IHMeth= 1 ICntrl=       0 DoSepK=T KAlg= 0 I1Cent=           0 FoldK=F
 IRaf=         1 NMat=       1 IRICut=       1 DoRegI=T DoRafI=F ISym2E= 0 IDoP0=0 IntGTp=1.
 FoFCou: FMM=F IPFlag=           0 FMFlag=      100000 FMFlg1=           0
         NFxFlg=           0 DoJE=T BraDBF=F KetDBF=F FulRan=T
         wScrn=  0.000000 ICntrl=       500 IOpCl=  0 I1Cent=           0 NGrid=           0
         NMat0=    1 NMatS0=      1 NMatT0=    0 NMatD0=    1 NMtDS0=    0 NMtDT0=    0
 Symmetry not used in FoFCou.
 Inv3:  Mode=1 IEnd=     4141875.
 Iteration    1 A*A^-1 deviation from unit magnitude is 6.66D-15 for     67.
 Iteration    1 A*A^-1 deviation from orthogonality  is 2.96D-15 for    703    135.
 Iteration    1 A^-1*A deviation from unit magnitude is 6.22D-15 for     67.
 Iteration    1 A^-1*A deviation from orthogonality  is 1.44D-12 for    890    838.
 E= -288.985450951802    
 DIIS: error= 3.79D-02 at cycle   1 NSaved=   1.
 NSaved= 1 IEnMin= 1 EnMin= -288.985450951802     IErMin= 1 ErrMin= 3.79D-02
 ErrMax= 3.79D-02  0.00D+00 EMaxC= 1.00D-01 BMatC= 6.11D-01 BMatP= 6.11D-01
 IDIUse=3 WtCom= 6.21D-01 WtEn= 3.79D-01
 Coeff-Com:  0.100D+01
 Coeff-En:   0.100D+01
 Coeff:      0.100D+01
 Gap=     0.524 Goal=   None    Shift=    0.000
 GapD=    0.524 DampG=2.000 DampE=0.500 DampFc=1.0000 IDamp=-1.
 RMSDP=1.73D-03 MaxDP=4.77D-02              OVMax= 6.32D-02

 Cycle   2  Pass 1  IDiag  1:
 RMSU=  1.69D-03    CP:  9.58D-01
 E= -289.039505255463     Delta-E=       -0.054054303662 Rises=F Damp=F
 DIIS: error= 8.17D-03 at cycle   2 NSaved=   2.
 NSaved= 2 IEnMin= 2 EnMin= -289.039505255463     IErMin= 2 ErrMin= 8.17D-03
 ErrMax= 8.17D-03  0.00D+00 EMaxC= 1.00D-01 BMatC= 3.43D-02 BMatP= 6.11D-01
 IDIUse=3 WtCom= 9.18D-01 WtEn= 8.17D-02
 Coeff-Com:  0.123D+00 0.877D+00
 Coeff-En:   0.000D+00 0.100D+01
 Coeff:      0.113D+00 0.887D+00
 Gap=     0.483 Goal=   None    Shift=    0.000
 RMSDP=7.51D-04 MaxDP=3.19D-02 DE=-5.41D-02 OVMax= 5.55D-02

 Cycle   3  Pass 1  IDiag  1:
 RMSU=  6.00D-04    CP:  9.66D-01  7.36D-01
 E= -289.048738550969     Delta-E=       -0.009233295506 Rises=F Damp=F
 DIIS: error= 7.25D-03 at cycle   3 NSaved=   3.
 NSaved= 3 IEnMin= 3 EnMin= -289.048738550969     IErMin= 3 ErrMin= 7.25D-03
 ErrMax= 7.25D-03  0.00D+00 EMaxC= 1.00D-01 BMatC= 2.17D-02 BMatP= 3.43D-02
 IDIUse=3 WtCom= 9.27D-01 WtEn= 7.25D-02
 Coeff-Com:  0.245D-01 0.450D+00 0.526D+00
 Coeff-En:   0.000D+00 0.379D+00 0.621D+00
 Coeff:      0.227D-01 0.445D+00 0.533D+00
 Gap=     0.479 Goal=   None    Shift=    0.000
 RMSDP=3.94D-04 MaxDP=1.65D-02 DE=-9.23D-03 OVMax= 2.59D-02

 Cycle   4  Pass 1  IDiag  1:
 RMSU=  1.40D-04    CP:  9.60D-01  9.06D-01  6.28D-01
 E= -289.063717343380     Delta-E=       -0.014978792411 Rises=F Damp=F
 DIIS: error= 6.43D-04 at cycle   4 NSaved=   4.
 NSaved= 4 IEnMin= 4 EnMin= -289.063717343380     IErMin= 4 ErrMin= 6.43D-04
 ErrMax= 6.43D-04  0.00D+00 EMaxC= 1.00D-01 BMatC= 2.40D-04 BMatP= 2.17D-02
 IDIUse=3 WtCom= 9.94D-01 WtEn= 6.43D-03
 Coeff-Com:  0.890D-02 0.168D+00 0.223D+00 0.600D+00
 Coeff-En:   0.000D+00 0.000D+00 0.000D+00 0.100D+01
 Coeff:      0.885D-02 0.167D+00 0.222D+00 0.602D+00
 Gap=     0.462 Goal=   None    Shift=    0.000
 RMSDP=4.13D-05 MaxDP=1.54D-03 DE=-1.50D-02 OVMax= 2.37D-03

 Cycle   5  Pass 1  IDiag  1:
 RMSU=  3.77D-05    CP:  9.60D-01  9.10D-01  6.51D-01  9.62D-01
 E= -289.063888594235     Delta-E=       -0.000171250854 Rises=F Damp=F
 DIIS: error= 1.03D-04 at cycle   5 NSaved=   5.
 NSaved= 5 IEnMin= 5 EnMin= -289.063888594235     IErMin= 5 ErrMin= 1.03D-04
 ErrMax= 1.03D-04  0.00D+00 EMaxC= 1.00D-01 BMatC= 8.28D-06 BMatP= 2.40D-04
 IDIUse=3 WtCom= 9.99D-01 WtEn= 1.03D-03
 Coeff-Com: -0.202D-02-0.348D-01-0.328D-01 0.970D-01 0.973D+00
 Coeff-En:   0.000D+00 0.000D+00 0.000D+00 0.000D+00 0.100D+01
 Coeff:     -0.202D-02-0.348D-01-0.328D-01 0.969D-01 0.973D+00
 Gap=     0.462 Goal=   None    Shift=    0.000
 RMSDP=3.07D-05 MaxDP=9.68D-04 DE=-1.71D-04 OVMax= 9.38D-04

 Cycle   6  Pass 1  IDiag  1:
 RMSU=  1.07D-05    CP:  9.59D-01  9.18D-01  6.70D-01  1.11D+00  1.26D+00
 E= -289.063899691077     Delta-E=       -0.000011096842 Rises=F Damp=F
 DIIS: error= 2.04D-05 at cycle   6 NSaved=   6.
 NSaved= 6 IEnMin= 6 EnMin= -289.063899691077     IErMin= 6 ErrMin= 2.04D-05
 ErrMax= 2.04D-05  0.00D+00 EMaxC= 1.00D-01 BMatC= 2.45D-07 BMatP= 8.28D-06
 IDIUse=1 WtCom= 1.00D+00 WtEn= 0.00D+00
 Coeff-Com: -0.571D-03-0.969D-02-0.108D-01 0.295D-03 0.125D+00 0.896D+00
 Coeff:     -0.571D-03-0.969D-02-0.108D-01 0.295D-03 0.125D+00 0.896D+00
 Gap=     0.462 Goal=   None    Shift=    0.000
 RMSDP=7.06D-06 MaxDP=2.08D-04 DE=-1.11D-05 OVMax= 2.54D-04

 Cycle   7  Pass 1  IDiag  1:
 RMSU=  2.60D-06    CP:  9.59D-01  9.19D-01  6.72D-01  1.14D+00  1.36D+00
                    CP:  1.24D+00
 E= -289.063900043842     Delta-E=       -0.000000352765 Rises=F Damp=F
 DIIS: error= 1.17D-05 at cycle   7 NSaved=   7.
 NSaved= 7 IEnMin= 7 EnMin= -289.063900043842     IErMin= 7 ErrMin= 1.17D-05
 ErrMax= 1.17D-05  0.00D+00 EMaxC= 1.00D-01 BMatC= 7.45D-08 BMatP= 2.45D-07
 IDIUse=1 WtCom= 1.00D+00 WtEn= 0.00D+00
 Coeff-Com: -0.304D-05-0.364D-03-0.109D-02-0.998D-02-0.575D-01 0.348D+00
 Coeff-Com:  0.721D+00
 Coeff:     -0.304D-05-0.364D-03-0.109D-02-0.998D-02-0.575D-01 0.348D+00
 Coeff:      0.721D+00
 Gap=     0.462 Goal=   None    Shift=    0.000
 RMSDP=2.47D-06 MaxDP=6.51D-05 DE=-3.53D-07 OVMax= 7.86D-05

 Cycle   8  Pass 1  IDiag  1:
 RMSU=  9.27D-07    CP:  9.59D-01  9.19D-01  6.73D-01  1.14D+00  1.39D+00
                    CP:  1.37D+00  1.18D+00
 E= -289.063900123349     Delta-E=       -0.000000079507 Rises=F Damp=F
 DIIS: error= 1.96D-06 at cycle   8 NSaved=   8.
 NSaved= 8 IEnMin= 8 EnMin= -289.063900123349     IErMin= 8 ErrMin= 1.96D-06
 ErrMax= 1.96D-06  0.00D+00 EMaxC= 1.00D-01 BMatC= 2.91D-09 BMatP= 7.45D-08
 IDIUse=1 WtCom= 1.00D+00 WtEn= 0.00D+00
 Coeff-Com:  0.393D-04 0.669D-03 0.704D-03-0.138D-02-0.182D-01-0.130D-01
 Coeff-Com:  0.125D+00 0.906D+00
 Coeff:      0.393D-04 0.669D-03 0.704D-03-0.138D-02-0.182D-01-0.130D-01
 Coeff:      0.125D+00 0.906D+00
 Gap=     0.462 Goal=   None    Shift=    0.000
 RMSDP=8.62D-07 MaxDP=2.49D-05 DE=-7.95D-08 OVMax= 3.19D-05

 Cycle   9  Pass 1  IDiag  1:
 RMSU=  2.07D-07    CP:  9.59D-01  9.19D-01  6.73D-01  1.15D+00  1.40D+00
                    CP:  1.42D+00  1.34D+00  1.20D+00
 E= -289.063900128080     Delta-E=       -0.000000004731 Rises=F Damp=F
 DIIS: error= 7.48D-07 at cycle   9 NSaved=   9.
 NSaved= 9 IEnMin= 9 EnMin= -289.063900128080     IErMin= 9 ErrMin= 7.48D-07
 ErrMax= 7.48D-07  0.00D+00 EMaxC= 1.00D-01 BMatC= 4.57D-10 BMatP= 2.91D-09
 IDIUse=1 WtCom= 1.00D+00 WtEn= 0.00D+00
 Coeff-Com:  0.113D-04 0.225D-03 0.311D-03 0.379D-03-0.428D-03-0.349D-01
 Coeff-Com: -0.275D-01 0.279D+00 0.783D+00
 Coeff:      0.113D-04 0.225D-03 0.311D-03 0.379D-03-0.428D-03-0.349D-01
 Coeff:     -0.275D-01 0.279D+00 0.783D+00
 Gap=     0.462 Goal=   None    Shift=    0.000
 RMSDP=2.49D-07 MaxDP=7.19D-06 DE=-4.73D-09 OVMax= 1.09D-05

 Cycle  10  Pass 1  IDiag  1:
 RMSU=  7.97D-08    CP:  9.59D-01  9.19D-01  6.73D-01  1.15D+00  1.41D+00
                    CP:  1.43D+00  1.38D+00  1.31D+00  1.20D+00
 E= -289.063900128717     Delta-E=       -0.000000000637 Rises=F Damp=F
 DIIS: error= 3.02D-07 at cycle  10 NSaved=  10.
 NSaved=10 IEnMin=10 EnMin= -289.063900128717     IErMin=10 ErrMin= 3.02D-07
 ErrMax= 3.02D-07  0.00D+00 EMaxC= 1.00D-01 BMatC= 4.65D-11 BMatP= 4.57D-10
 IDIUse=1 WtCom= 1.00D+00 WtEn= 0.00D+00
 Coeff-Com: -0.225D-05-0.267D-04-0.200D-05 0.344D-03 0.268D-02-0.927D-02
 Coeff-Com: -0.281D-01-0.481D-01 0.214D+00 0.869D+00
 Coeff:     -0.225D-05-0.267D-04-0.200D-05 0.344D-03 0.268D-02-0.927D-02
 Coeff:     -0.281D-01-0.481D-01 0.214D+00 0.869D+00
 Gap=     0.462 Goal=   None    Shift=    0.000
 RMSDP=9.64D-08 MaxDP=2.75D-06 DE=-6.37D-10 OVMax= 4.64D-06

 Cycle  11  Pass 1  IDiag  1:
 RMSU=  2.64D-08    CP:  9.59D-01  9.19D-01  6.73D-01  1.15D+00  1.41D+00
                    CP:  1.43D+00  1.40D+00  1.35D+00  1.41D+00  1.30D+00
 E= -289.063900128792     Delta-E=       -0.000000000076 Rises=F Damp=F
 DIIS: error= 4.50D-08 at cycle  11 NSaved=  11.
 NSaved=11 IEnMin=11 EnMin= -289.063900128792     IErMin=11 ErrMin= 4.50D-08
 ErrMax= 4.50D-08  0.00D+00 EMaxC= 1.00D-01 BMatC= 1.04D-12 BMatP= 4.65D-11
 IDIUse=1 WtCom= 1.00D+00 WtEn= 0.00D+00
 Coeff-Com: -0.131D-06-0.626D-05-0.146D-04-0.385D-04-0.293D-03 0.259D-02
 Coeff-Com:  0.435D-02-0.843D-02-0.621D-01-0.875D-01 0.115D+01
 Coeff:     -0.131D-06-0.626D-05-0.146D-04-0.385D-04-0.293D-03 0.259D-02
 Coeff:      0.435D-02-0.843D-02-0.621D-01-0.875D-01 0.115D+01
 Gap=     0.462 Goal=   None    Shift=    0.000
 RMSDP=2.48D-08 MaxDP=6.66D-07 DE=-7.56D-11 OVMax= 1.28D-06

 Cycle  12  Pass 1  IDiag  1:
 RMSU=  6.73D-09    CP:  9.59D-01  9.19D-01  6.73D-01  1.15D+00  1.41D+00
                    CP:  1.43D+00  1.40D+00  1.36D+00  1.47D+00  1.49D+00
                    CP:  1.41D+00
 E= -289.063900128799     Delta-E=       -0.000000000007 Rises=F Damp=F
 DIIS: error= 9.84D-09 at cycle  12 NSaved=  12.
 NSaved=12 IEnMin=12 EnMin= -289.063900128799     IErMin=12 ErrMin= 9.84D-09
 ErrMax= 9.84D-09  0.00D+00 EMaxC= 1.00D-01 BMatC= 4.63D-14 BMatP= 1.04D-12
 IDIUse=1 WtCom= 1.00D+00 WtEn= 0.00D+00
 Coeff-Com:  0.720D-07 0.857D-06-0.350D-06-0.179D-04-0.126D-03 0.501D-03
 Coeff-Com:  0.144D-02 0.204D-02-0.106D-01-0.442D-01 0.364D-01 0.101D+01
 Coeff:      0.720D-07 0.857D-06-0.350D-06-0.179D-04-0.126D-03 0.501D-03
 Coeff:      0.144D-02 0.204D-02-0.106D-01-0.442D-01 0.364D-01 0.101D+01
 Gap=     0.462 Goal=   None    Shift=    0.000
 RMSDP=5.56D-09 MaxDP=1.75D-07 DE=-7.28D-12 OVMax= 2.31D-07

 Error on total polarization charges =  0.04357
 SCF Done:  E(RwB97XD) =  -289.063900129     A.U. after   12 cycles
            NFock= 12  Conv=0.56D-08     -V/T= 2.0055
 KE= 2.874851677540D+02 PE=-1.200356971757D+03 EE= 3.607587890010D+02
 SMD-CDS (non-electrostatic) energy       (kcal/mol) =       1.99
 (included in total energy above)
 Leave Link  502 at Wed Oct 22 13:43:26 2025, MaxMem=  4294967296 cpu:             806.4 elap:             101.0
 (Enter /lrz/sys/applications/gaussian/g16.C.01/x86_64_legacy/exe/l601.exe)
 Copying SCF densities to generalized density rwf, IOpCl= 0 IROHF=0.

 **********************************************************************

            Population analysis using the SCF Density.

 **********************************************************************

 Orbital symmetries:
       Occupied  (A) (A) (A) (A) (A) (A) (A) (A) (A) (A) (A) (A)
                 (A) (A) (A) (A) (A) (A) (A) (A) (A) (A) (A) (A)
                 (A)
       Virtual   (A) (A) (A) (A) (A) (A) (A) (A) (A) (A) (A) (A)
                 (A) (A) (A) (A) (A) (A) (A) (A) (A) (A) (A) (A)
                 (A) (A) (A) (A) (A) (A) (A) (A) (A) (A) (A) (A)
                 (A) (A) (A) (A) (A) (A) (A) (A) (A) (A) (A) (A)
                 (A) (A) (A) (A) (A) (A) (A) (A) (A) (A) (A) (A)
                 (A) (A) (A) (A) (A) (A) (A) (A) (A) (A) (A) (A)
                 (A) (A) (A) (A) (A) (A) (A) (A) (A) (A) (A) (A)
                 (A) (A) (A) (A) (A) (A) (A) (A) (A) (A) (A) (A)
                 (A) (A) (A) (A) (A) (A) (A) (A) (A) (A) (A) (A)
                 (A) (A) (A) (A) (A) (A) (A) (A) (A) (A) (A) (A)
                 (A) (A) (A) (A) (A) (A) (A) (A) (A) (A) (A) (A)
                 (A) (A) (A) (A) (A) (A) (A) (A) (A) (A) (A) (A)
                 (A) (A) (A) (A) (A) (A) (A) (A) (A) (A) (A) (A)
                 (A) (A) (A) (A) (A) (A) (A) (A) (A) (A) (A) (A)
                 (A) (A) (A) (A) (A) (A) (A) (A) (A) (A) (A) (A)
                 (A) (A) (A) (A) (A) (A) (A) (A) (A) (A) (A) (A)
                 (A) (A) (A) (A) (A) (A) (A) (A) (A) (A) (A) (A)
                 (A) (A) (A) (A) (A) (A) (A) (A) (A) (A) (A) (A)
                 (A) (A) (A) (A) (A) (A) (A) (A) (A) (A) (A)
 The electronic state is 1-A.
 Alpha  occ. eigenvalues --  -19.24569 -14.41145 -10.35082 -10.27147 -10.27002
 Alpha  occ. eigenvalues --  -10.26312  -1.12827  -0.97649  -0.87616  -0.79780
 Alpha  occ. eigenvalues --   -0.71349  -0.66109  -0.60460  -0.57963  -0.55280
 Alpha  occ. eigenvalues --   -0.51067  -0.50132  -0.48701  -0.46821  -0.43621
 Alpha  occ. eigenvalues --   -0.41305  -0.40723  -0.39703  -0.35749  -0.34941
 Alpha virt. eigenvalues --    0.11276   0.13861   0.15502   0.15867   0.17573
 Alpha virt. eigenvalues --    0.18637   0.19633   0.20302   0.20819   0.21677
 Alpha virt. eigenvalues --    0.24725   0.24892   0.27440   0.28935   0.29402
 Alpha virt. eigenvalues --    0.30812   0.32384   0.34058   0.34788   0.35775
 Alpha virt. eigenvalues --    0.37534   0.39162   0.40655   0.42946   0.44172
 Alpha virt. eigenvalues --    0.45836   0.48012   0.49095   0.49397   0.50344
 Alpha virt. eigenvalues --    0.51102   0.51481   0.52727   0.53695   0.54791
 Alpha virt. eigenvalues --    0.56128   0.56281   0.56587   0.58947   0.59927
 Alpha virt. eigenvalues --    0.60548   0.64069   0.65104   0.65388   0.67521
 Alpha virt. eigenvalues --    0.68351   0.70210   0.75164   0.76694   0.81390
 Alpha virt. eigenvalues --    0.83183   0.87522   0.91678   0.92630   0.95074
 Alpha virt. eigenvalues --    0.96700   0.98393   1.01180   1.05642   1.07242
 Alpha virt. eigenvalues --    1.09954   1.13250   1.14873   1.19102   1.22152
 Alpha virt. eigenvalues --    1.22817   1.25182   1.26986   1.29977   1.32212
 Alpha virt. eigenvalues --    1.35295   1.36400   1.41160   1.46055   1.48291
 Alpha virt. eigenvalues --    1.51733   1.54956   1.60117   1.61284   1.63002
 Alpha virt. eigenvalues --    1.65178   1.65438   1.65999   1.68067   1.68849
 Alpha virt. eigenvalues --    1.72613   1.73941   1.75382   1.78232   1.81198
 Alpha virt. eigenvalues --    1.83473   1.85155   1.87414   1.88740   1.92079
 Alpha virt. eigenvalues --    1.95453   1.96202   1.98830   2.00700   2.04572
 Alpha virt. eigenvalues --    2.06691   2.07420   2.09070   2.13787   2.15559
 Alpha virt. eigenvalues --    2.17817   2.20308   2.22269   2.25146   2.29438
 Alpha virt. eigenvalues --    2.30616   2.31726   2.35607   2.38435   2.40309
 Alpha virt. eigenvalues --    2.42985   2.45724   2.46504   2.50052   2.50602
 Alpha virt. eigenvalues --    2.55015   2.56648   2.58014   2.58464   2.62429
 Alpha virt. eigenvalues --    2.64795   2.66264   2.66655   2.68057   2.72170
 Alpha virt. eigenvalues --    2.75004   2.77361   2.78303   2.79456   2.82668
 Alpha virt. eigenvalues --    2.83281   2.85801   2.87970   2.93250   2.95035
 Alpha virt. eigenvalues --    2.98765   2.99321   3.02601   3.05531   3.07128
 Alpha virt. eigenvalues --    3.12477   3.15724   3.18187   3.19441   3.21484
 Alpha virt. eigenvalues --    3.25617   3.25953   3.26446   3.29063   3.32136
 Alpha virt. eigenvalues --    3.34002   3.38667   3.41704   3.43520   3.44494
 Alpha virt. eigenvalues --    3.45982   3.47926   3.49847   3.51087   3.55293
 Alpha virt. eigenvalues --    3.58510   3.59666   3.62236   3.63941   3.65531
 Alpha virt. eigenvalues --    3.73868   3.80866   3.83526   3.90404   3.90783
 Alpha virt. eigenvalues --    3.95630   3.97242   3.99589   4.01774   4.05068
 Alpha virt. eigenvalues --    4.09024   4.11995   4.15304   4.19060   4.29762
 Alpha virt. eigenvalues --    4.33745   4.36022   4.40172   4.45822   4.51552
 Alpha virt. eigenvalues --    4.55244   4.55715   4.65010   4.66959   4.71428
 Alpha virt. eigenvalues --    4.74089   4.81530   4.88939   4.92194   4.94805
 Alpha virt. eigenvalues --    5.00382   5.00764   5.05507   5.18363   5.21309
 Alpha virt. eigenvalues --    5.29606   5.36172   5.38090   5.56167   5.59163
 Alpha virt. eigenvalues --    5.66128   5.81404   5.87393   5.92949   6.03009
 Alpha virt. eigenvalues --    6.44054   6.56794   6.80337   6.88081   7.08194
 Alpha virt. eigenvalues --    7.28384  22.40629  22.55228  22.59604  22.70041
 Alpha virt. eigenvalues --   32.07468  44.03268
          Condensed to atoms (all electrons):
               1          2          3          4          5          6
     1  O    8.181704   0.274752  -0.094015  -0.049662  -0.024792   0.002416
     2  C    0.274752   4.623699   0.320112   0.361173  -0.005761  -0.000435
     3  N   -0.094015   0.320112   6.726850  -0.068323   0.010506  -0.007793
     4  C   -0.049662   0.361173  -0.068323   5.052766   0.253245  -0.030426
     5  C   -0.024792  -0.005761   0.010506   0.253245   5.023518   0.287269
     6  C    0.002416  -0.000435  -0.007793  -0.030426   0.287269   4.989648
     7  H    0.302767  -0.031212   0.009974   0.003629   0.000297  -0.000108
     8  H   -0.053325   0.448582  -0.045601  -0.059430   0.006920   0.000290
     9  H    0.000354  -0.031734   0.362749   0.013858  -0.002466   0.000818
    10  H   -0.000870  -0.018591   0.356230  -0.018686   0.003685  -0.001109
    11  H   -0.002727  -0.038352   0.005720   0.423043  -0.038742   0.005061
    12  H    0.007174  -0.034172   0.005476   0.397641  -0.033846  -0.002792
    13  H    0.021215   0.000480  -0.003673  -0.055084   0.411180  -0.030996
    14  H    0.000047   0.003047   0.000125  -0.032300   0.417670  -0.033641
    15  H    0.000075  -0.000230   0.000516   0.009036  -0.041442   0.411262
    16  H    0.000373  -0.002897   0.008161  -0.004210  -0.029687   0.403907
    17  H   -0.000091   0.001195  -0.000494  -0.004517  -0.037052   0.410736
               7          8          9         10         11         12
     1  O    0.302767  -0.053325   0.000354  -0.000870  -0.002727   0.007174
     2  C   -0.031212   0.448582  -0.031734  -0.018591  -0.038352  -0.034172
     3  N    0.009974  -0.045601   0.362749   0.356230   0.005720   0.005476
     4  C    0.003629  -0.059430   0.013858  -0.018686   0.423043   0.397641
     5  C    0.000297   0.006920  -0.002466   0.003685  -0.038742  -0.033846
     6  C   -0.000108   0.000290   0.000818  -0.001109   0.005061  -0.002792
     7  H    0.346069  -0.003039  -0.000215  -0.000041   0.001110   0.000235
     8  H   -0.003039   0.610207  -0.008945   0.008465  -0.006847  -0.000959
     9  H   -0.000215  -0.008945   0.432100  -0.024526  -0.000377  -0.000797
    10  H   -0.000041   0.008465  -0.024526   0.440896  -0.000463   0.000288
    11  H    0.001110  -0.006847  -0.000377  -0.000463   0.548791  -0.018182
    12  H    0.000235  -0.000959  -0.000797   0.000288  -0.018182   0.561380
    13  H   -0.000164   0.001658  -0.000328   0.002699   0.000617   0.006076
    14  H   -0.000031  -0.000344   0.000030   0.000009  -0.009845  -0.000993
    15  H   -0.000010   0.000028  -0.000038   0.000101  -0.000183   0.000266
    16  H   -0.000037  -0.000308   0.000033  -0.003828  -0.000195   0.000807
    17  H    0.000006  -0.000071  -0.000010   0.000104   0.000322   0.002248
              13         14         15         16         17
     1  O    0.021215   0.000047   0.000075   0.000373  -0.000091
     2  C    0.000480   0.003047  -0.000230  -0.002897   0.001195
     3  N   -0.003673   0.000125   0.000516   0.008161  -0.000494
     4  C   -0.055084  -0.032300   0.009036  -0.004210  -0.004517
     5  C    0.411180   0.417670  -0.041442  -0.029687  -0.037052
     6  C   -0.030996  -0.033641   0.411262   0.403907   0.410736
     7  H   -0.000164  -0.000031  -0.000010  -0.000037   0.000006
     8  H    0.001658  -0.000344   0.000028  -0.000308  -0.000071
     9  H   -0.000328   0.000030  -0.000038   0.000033  -0.000010
    10  H    0.002699   0.000009   0.000101  -0.003828   0.000104
    11  H    0.000617  -0.009845  -0.000183  -0.000195   0.000322
    12  H    0.006076  -0.000993   0.000266   0.000807   0.002248
    13  H    0.575780  -0.030712  -0.003413  -0.005429   0.006119
    14  H   -0.030712   0.577430  -0.005473   0.006565  -0.005781
    15  H   -0.003413  -0.005473   0.542063  -0.021307  -0.022481
    16  H   -0.005429   0.006565  -0.021307   0.564629  -0.029026
    17  H    0.006119  -0.005781  -0.022481  -0.029026   0.552721
 Mulliken charges:
               1
     1  O   -0.565396
     2  C    0.130344
     3  N   -0.586523
     4  C   -0.191754
     5  C   -0.200502
     6  C   -0.404108
     7  H    0.370770
     8  H    0.102720
     9  H    0.259493
    10  H    0.255637
    11  H    0.131249
    12  H    0.110150
    13  H    0.103974
    14  H    0.114194
    15  H    0.131229
    16  H    0.112450
    17  H    0.126072
 Sum of Mulliken charges =  -0.00000
 Mulliken charges with hydrogens summed into heavy atoms:
               1
     1  O   -0.194627
     2  C    0.233064
     3  N   -0.071393
     4  C    0.049645
     5  C    0.017667
     6  C   -0.034357
 Electronic spatial extent (au):  <R**2>=            701.9218
 Charge=             -0.0000 electrons
 Dipole moment (field-independent basis, Debye):
    X=             -0.1680    Y=             -1.8337    Z=              0.4242  Tot=              1.8896
 Quadrupole moment (field-independent basis, Debye-Ang):
   XX=            -38.3405   YY=            -36.3478   ZZ=            -40.8800
   XY=              0.6928   XZ=             -2.4121   YZ=             -3.4214
 Traceless Quadrupole moment (field-independent basis, Debye-Ang):
   XX=              0.1823   YY=              2.1750   ZZ=             -2.3573
   XY=              0.6928   XZ=             -2.4121   YZ=             -3.4214
 Octapole moment (field-independent basis, Debye-Ang**2):
  XXX=            -12.6246  YYY=            -11.2866  ZZZ=             -0.7543  XYY=            -14.1244
  XXY=             -1.6110  XXZ=              4.5358  XZZ=              0.3988  YZZ=             -0.2812
  YYZ=             -8.0984  XYZ=              1.3969
 Hexadecapole moment (field-independent basis, Debye-Ang**3):
 XXXX=           -564.8161 YYYY=           -216.4505 ZZZZ=           -132.5174 XXXY=             -5.5960
 XXXZ=             -8.3244 YYYX=              7.3102 YYYZ=             -9.6739 ZZZX=              1.0073
 ZZZY=             -1.3637 XXYY=           -109.6585 XXZZ=           -117.5332 YYZZ=            -61.6906
 XXYZ=             -0.1455 YYXZ=              8.5282 ZZXY=              1.8463
 N-N= 2.630491148730D+02 E-N=-1.200356972433D+03  KE= 2.874851677540D+02
 No NMR shielding tensors so no spin-rotation constants.
 Leave Link  601 at Wed Oct 22 13:43:26 2025, MaxMem=  4294967296 cpu:               1.2 elap:               0.2
 (Enter /lrz/sys/applications/gaussian/g16.C.01/x86_64_legacy/exe/l9999.exe)
 Unable to Open any file for archive entry.
 1\1\GINC-CM4R13C05S08\SP\RwB97XD\def2TZVP\C4H11N1O1\GO29TIZ2\22-Oct-20
 25\0\\#p wb97xd scrf=(smd,solvent=water) def2tzvp\\g16_g16_C17-a_45\\0
 ,1\O,0,-1.722304,-0.592725,-0.73587\C,0,-1.118299,0.033177,0.395955\N,
 0,-0.924239,1.427741,0.123698\C,0,0.170661,-0.690224,0.788073\C,0,1.28
 7683,-0.693538,-0.263696\C,0,2.239548,0.498441,-0.20109\H,0,-1.857214,
 -1.525739,-0.527598\H,0,-1.815675,-0.039991,1.250158\H,0,-1.826174,1.8
 44985,-0.104237\H,0,-0.353633,1.527839,-0.716742\H,0,-0.115368,-1.7300
 37,1.017539\H,0,0.538595,-0.259198,1.734014\H,0,0.832892,-0.767108,-1.
 265895\H,0,1.880507,-1.613788,-0.139897\H,0,3.020997,0.420539,-0.97275
 5\H,0,1.723028,1.458027,-0.347259\H,0,2.742589,0.544938,0.778292\\Vers
 ion=EM64L-G16RevC.01\State=1-A\HF=-289.0639001\RMSD=5.559e-09\Dipole=-
 0.0661113,-0.7214222,0.1668925\Quadrupole=0.1355235,1.6170428,-1.75256
 63,0.5150834,-1.7933436,-2.5437259\PG=C01 [X(C4H11N1O1)]\\@
 The archive entry for this job was punched.


 Sacred cows make the best hamburger.
                               -- Mark Twain
 Job cpu time:       0 days  0 hours 13 minutes 53.6 seconds.
 Elapsed time:       0 days  0 hours  1 minutes 44.6 seconds.
 File lengths (MBytes):  RWF=    288 Int=      0 D2E=      0 Chk=     12 Scr=     32
 Normal termination of Gaussian 16 at Wed Oct 22 13:43:26 2025.
