 Entering Gaussian System, Link 0=g16
 Input=../../g16_g16_C17-ma_5.com
 Output=../../g16_g16_C17-ma_5.log
 Initial command:
 /lrz/sys/applications/gaussian/g16.C.01/x86_64_legacy/exe/l1.exe "/dss/lxclscratch/0D/go29tiz2/Gau-221750.inp" -scrdir="/dss/lxclscratch/0D/go29tiz2/"
 Entering Link 1 = /lrz/sys/applications/gaussian/g16.C.01/x86_64_legacy/exe/l1.exe PID=    221751.
  
 Copyright (c) 1988-2019, Gaussian, Inc.  All Rights Reserved.
  
 This is part of the Gaussian(R) 16 program.  It is based on
 the Gaussian(R) 09 system (copyright 2009, Gaussian, Inc.),
 the Gaussian(R) 03 system (copyright 2003, Gaussian, Inc.),
 the Gaussian(R) 98 system (copyright 1998, Gaussian, Inc.),
 the Gaussian(R) 94 system (copyright 1995, Gaussian, Inc.),
 the Gaussian 92(TM) system (copyright 1992, Gaussian, Inc.),
 the Gaussian 90(TM) system (copyright 1990, Gaussian, Inc.),
 the Gaussian 88(TM) system (copyright 1988, Gaussian, Inc.),
 the Gaussian 86(TM) system (copyright 1986, Carnegie Mellon
 University), and the Gaussian 82(TM) system (copyright 1983,
 Carnegie Mellon University). Gaussian is a federally registered
 trademark of Gaussian, Inc.
  
 This software contains proprietary and confidential information,
 including trade secrets, belonging to Gaussian, Inc.
  
 This software is provided under written license and may be
 used, copied, transmitted, or stored only in accord with that
 written license.
  
 The following legend is applicable only to US Government
 contracts under FAR:
  
                    RESTRICTED RIGHTS LEGEND
  
 Use, reproduction and disclosure by the US Government is
 subject to restrictions as set forth in subparagraphs (a)
 and (c) of the Commercial Computer Software - Restricted
 Rights clause in FAR 52.227-19.
  
 Gaussian, Inc.
 340 Quinnipiac St., Bldg. 40, Wallingford CT 06492
  
  
 ---------------------------------------------------------------
 Warning -- This program may not be used in any manner that
 competes with the business of Gaussian, Inc. or will provide
 assistance to any competitor of Gaussian, Inc.  The licensee
 of this program is prohibited from giving any competitor of
 Gaussian, Inc. access to this program.  By using this program,
 the user acknowledges that Gaussian, Inc. is engaged in the
 business of creating and licensing software in the field of
 computational chemistry and represents and warrants to the
 licensee that it is not a competitor of Gaussian, Inc. and that
 it will not use this program in any manner prohibited above.
 ---------------------------------------------------------------
  

 Cite this work as:
 Gaussian 16, Revision C.01,
 M. J. Frisch, G. W. Trucks, H. B. Schlegel, G. E. Scuseria, 
 M. A. Robb, J. R. Cheeseman, G. Scalmani, V. Barone, 
 G. A. Petersson, H. Nakatsuji, X. Li, M. Caricato, A. V. Marenich, 
 J. Bloino, B. G. Janesko, R. Gomperts, B. Mennucci, H. P. Hratchian, 
 J. V. Ortiz, A. F. Izmaylov, J. L. Sonnenberg, D. Williams-Young, 
 F. Ding, F. Lipparini, F. Egidi, J. Goings, B. Peng, A. Petrone, 
 T. Henderson, D. Ranasinghe, V. G. Zakrzewski, J. Gao, N. Rega, 
 G. Zheng, W. Liang, M. Hada, M. Ehara, K. Toyota, R. Fukuda, 
 J. Hasegawa, M. Ishida, T. Nakajima, Y. Honda, O. Kitao, H. Nakai, 
 T. Vreven, K. Throssell, J. A. Montgomery, Jr., J. E. Peralta, 
 F. Ogliaro, M. J. Bearpark, J. J. Heyd, E. N. Brothers, K. N. Kudin, 
 V. N. Staroverov, T. A. Keith, R. Kobayashi, J. Normand, 
 K. Raghavachari, A. P. Rendell, J. C. Burant, S. S. Iyengar, 
 J. Tomasi, M. Cossi, J. M. Millam, M. Klene, C. Adamo, R. Cammi, 
 J. W. Ochterski, R. L. Martin, K. Morokuma, O. Farkas, 
 J. B. Foresman, and D. J. Fox, Gaussian, Inc., Wallingford CT, 2019.
 
 ******************************************
 Gaussian 16:  EM64L-G16RevC.01  3-Jul-2019
                22-Oct-2025 
 ******************************************
 %chk=g16_g16_C17-ma_5.chk
 %nprocshared=8
 Will use up to    8 processors via shared memory.
 %mem=32GB
 -------------------------------------------
 #p wb97xd scrf=(smd,solvent=water) def2tzvp
 -------------------------------------------
 1/38=1,172=1/1;
 2/12=2,17=6,18=5,40=1/2;
 3/5=44,7=101,11=2,25=1,30=1,70=32201,72=1,74=-58/1,2,3;
 4//1;
 5/5=2,38=5,53=1/2;
 6/7=2,8=2,9=2,10=2,28=1/1;
 99/5=1,9=1/99;
 Leave Link    1 at Wed Oct 22 09:18:25 2025, MaxMem=  4294967296 cpu:               6.1 elap:               0.9
 (Enter /lrz/sys/applications/gaussian/g16.C.01/x86_64_legacy/exe/l101.exe)
 ----------------
 g16_g16_C17-ma_5
 ----------------
 Symbolic Z-matrix:
 Charge = -1 Multiplicity = 1
 O                    -0.88713   1.37835   0.41966 
 C                    -0.86066   0.1869   -0.24121 
 C                    -2.25271  -0.47214  -0.33042 
 C                     0.13159  -0.82656   0.38507 
 C                     1.52866  -0.25101   0.60576 
 C                     2.23796   0.18198  -0.67314 
 H                    -0.5275    0.28357  -1.32197 
 H                    -2.9597    0.21398  -0.82587 
 H                    -2.63824  -0.66411   0.68712 
 H                    -2.25036  -1.42645  -0.8861 
 H                     0.19527  -1.73942  -0.23827 
 H                    -0.27876  -1.13955   1.36456 
 H                     2.1535   -0.98566   1.14218 
 H                     1.4251    0.62231   1.27001 
 H                     3.26826   0.51368  -0.46953 
 H                     2.29077  -0.64177  -1.40443 
 H                     1.70971   1.02165  -1.15134 
 
 ITRead=  0  0  0  0  0  0  0  0  0  0  0  0  0  0  0  0  0
 MicOpt= -1 -1 -1 -1 -1 -1 -1 -1 -1 -1 -1 -1 -1 -1 -1 -1 -1
 NAtoms=     17 NQM=       17 NQMF=       0 NMMI=      0 NMMIF=      0
                NMic=       0 NMicF=      0.
                    Isotopes and Nuclear Properties:
 (Nuclear quadrupole moments (NQMom) in fm**2, nuclear magnetic moments (NMagM)
  in nuclear magnetons)

  Atom         1           2           3           4           5           6           7           8           9          10
 IAtWgt=          16          12          12          12          12          12           1           1           1           1
 AtmWgt=  15.9949146  12.0000000  12.0000000  12.0000000  12.0000000  12.0000000   1.0078250   1.0078250   1.0078250   1.0078250
 NucSpn=           0           0           0           0           0           0           1           1           1           1
 AtZEff=  -0.0000000  -0.0000000  -0.0000000  -0.0000000  -0.0000000  -0.0000000  -0.0000000  -0.0000000  -0.0000000  -0.0000000
 NQMom=    0.0000000   0.0000000   0.0000000   0.0000000   0.0000000   0.0000000   0.0000000   0.0000000   0.0000000   0.0000000
 NMagM=    0.0000000   0.0000000   0.0000000   0.0000000   0.0000000   0.0000000   2.7928460   2.7928460   2.7928460   2.7928460
 AtZNuc=   8.0000000   6.0000000   6.0000000   6.0000000   6.0000000   6.0000000   1.0000000   1.0000000   1.0000000   1.0000000

  Atom        11          12          13          14          15          16          17
 IAtWgt=           1           1           1           1           1           1           1
 AtmWgt=   1.0078250   1.0078250   1.0078250   1.0078250   1.0078250   1.0078250   1.0078250
 NucSpn=           1           1           1           1           1           1           1
 AtZEff=  -0.0000000  -0.0000000  -0.0000000  -0.0000000  -0.0000000  -0.0000000  -0.0000000
 NQMom=    0.0000000   0.0000000   0.0000000   0.0000000   0.0000000   0.0000000   0.0000000
 NMagM=    2.7928460   2.7928460   2.7928460   2.7928460   2.7928460   2.7928460   2.7928460
 AtZNuc=   1.0000000   1.0000000   1.0000000   1.0000000   1.0000000   1.0000000   1.0000000
 Leave Link  101 at Wed Oct 22 09:18:25 2025, MaxMem=  4294967296 cpu:               1.4 elap:               0.2
 (Enter /lrz/sys/applications/gaussian/g16.C.01/x86_64_legacy/exe/l202.exe)
                          Input orientation:                          
 ---------------------------------------------------------------------
 Center     Atomic      Atomic             Coordinates (Angstroms)
 Number     Number       Type             X           Y           Z
 ---------------------------------------------------------------------
      1          8           0       -0.887128    1.378346    0.419659
      2          6           0       -0.860662    0.186896   -0.241207
      3          6           0       -2.252713   -0.472143   -0.330423
      4          6           0        0.131586   -0.826557    0.385065
      5          6           0        1.528661   -0.251009    0.605764
      6          6           0        2.237959    0.181982   -0.673139
      7          1           0       -0.527496    0.283565   -1.321973
      8          1           0       -2.959699    0.213980   -0.825868
      9          1           0       -2.638244   -0.664114    0.687118
     10          1           0       -2.250360   -1.426452   -0.886096
     11          1           0        0.195270   -1.739423   -0.238272
     12          1           0       -0.278762   -1.139548    1.364562
     13          1           0        2.153501   -0.985658    1.142178
     14          1           0        1.425095    0.622305    1.270014
     15          1           0        3.268262    0.513681   -0.469527
     16          1           0        2.290767   -0.641765   -1.404430
     17          1           0        1.709705    1.021648   -1.151342
 ---------------------------------------------------------------------
                    Distance matrix (angstroms):
                    1          2          3          4          5
     1  O    0.000000
     2  C    1.362717   0.000000
     3  C    2.419040   1.542757   0.000000
     4  C    2.429109   1.550439   2.514441   0.000000
     5  C    2.919841   2.572544   3.901812   1.527017   0.000000
     6  C    3.520179   3.128585   4.550985   2.563933   1.525181
     7  H    2.088340   1.135077   2.128530   2.140266   2.868749
     8  H    2.683773   2.179110   1.102751   3.479241   4.734043
     9  H    2.703624   2.178486   1.104933   2.790982   4.188123
    10  H    3.380871   2.224867   1.104302   2.765753   4.229458
    11  H    3.365255   2.196749   2.758099   1.107217   2.169264
    12  H    2.757307   2.162534   2.686054   1.107142   2.152221
    13  H    3.918670   3.517643   4.674075   2.164873   1.103573
    14  H    2.577029   2.774537   4.157582   2.134362   1.102103
    15  H    4.336538   4.148124   5.610024   3.516433   2.183395
    16  H    4.184157   3.459953   4.671774   2.810428   2.185034
    17  H    3.055948   2.851656   4.313476   2.875216   2.177121
                    6          7          8          9         10
     6  C    0.000000
     7  H    2.842366   0.000000
     8  H    5.200000   2.483259   0.000000
     9  H    5.132595   3.064278   1.778626   0.000000
    10  H    4.772569   2.466254   1.788241   1.790703   0.000000
    11  H    2.837866   2.406092   3.756978   3.168823   2.549261
    12  H    3.497506   3.050343   3.717182   2.500425   3.005823
    13  H    2.160068   3.856256   5.608667   4.824033   4.868489
    14  H    2.151854   3.262783   4.877076   4.301786   4.728127
    15  H    1.101366   3.897101   6.245342   6.132849   5.864540
    16  H    1.102785   2.967430   5.351115   5.354458   4.637482
    17  H    1.101258   2.361980   4.749905   5.012623   4.663225
                   11         12         13         14         15
    11  H    0.000000
    12  H    1.775847   0.000000
    13  H    2.511667   2.447252   0.000000
    14  H    3.060254   2.452793   1.769876   0.000000
    15  H    3.817491   4.321855   2.467449   2.536743   0.000000
    16  H    2.637401   3.810195   2.573386   3.082193   1.778931
    17  H    3.278830   3.867110   3.080011   2.470515   1.775388
                   16         17
    16  H    0.000000
    17  H    1.780064   0.000000
 Stoichiometry    C5H11O(1-)
 Framework group  C1[X(C5H11O)]
 Deg. of freedom    45
 Full point group                 C1      NOp   1
 Largest Abelian subgroup         C1      NOp   1
 Largest concise Abelian subgroup C1      NOp   1
                         Standard orientation:                         
 ---------------------------------------------------------------------
 Center     Atomic      Atomic             Coordinates (Angstroms)
 Number     Number       Type             X           Y           Z
 ---------------------------------------------------------------------
      1          8           0        0.887128    1.378346   -0.419659
      2          6           0        0.860662    0.186896    0.241207
      3          6           0        2.252713   -0.472143    0.330423
      4          6           0       -0.131586   -0.826557   -0.385065
      5          6           0       -1.528661   -0.251009   -0.605764
      6          6           0       -2.237959    0.181982    0.673139
      7          1           0        0.527496    0.283565    1.321973
      8          1           0        2.959699    0.213980    0.825868
      9          1           0        2.638244   -0.664114   -0.687118
     10          1           0        2.250360   -1.426452    0.886096
     11          1           0       -0.195270   -1.739423    0.238272
     12          1           0        0.278762   -1.139548   -1.364562
     13          1           0       -2.153501   -0.985658   -1.142178
     14          1           0       -1.425095    0.622305   -1.270014
     15          1           0       -3.268262    0.513681    0.469527
     16          1           0       -2.290767   -0.641765    1.404430
     17          1           0       -1.709705    1.021648    1.151342
 ---------------------------------------------------------------------
 Rotational constants (GHZ):           6.2278238           2.0519347           1.8677860
 Leave Link  202 at Wed Oct 22 09:18:25 2025, MaxMem=  4294967296 cpu:               0.1 elap:               0.0
 (Enter /lrz/sys/applications/gaussian/g16.C.01/x86_64_legacy/exe/l301.exe)
 Standard basis: def2TZVP (5D, 7F)
 Ernie: Thresh=  0.10000D-02 Tol=  0.10000D-05 Strict=F.
 There are   282 symmetry adapted cartesian basis functions of A   symmetry.
 There are   252 symmetry adapted basis functions of A   symmetry.
   252 basis functions,   394 primitive gaussians,   282 cartesian basis functions
    25 alpha electrons       25 beta electrons
       nuclear repulsion energy       247.9697523288 Hartrees.
 IExCor= 4639 DFT=T Ex+Corr=wB97XD ExCW=0 ScaHFX=  1.000000
 ScaDFX=  1.000000  1.000000  1.000000  1.000000 ScalE2=  1.000000  1.000000
 IRadAn=      5 IRanWt=     -1 IRanGd=            0 ICorTp=0 IEmpDi=121
 HFx  wShort=  0.000000 wLong=  0.200000 cFull=  0.222036 cShort=  0.000000 cLong=  0.777964
 DFx  wShort=  0.000000 wLong=  0.200000 cFull=  0.000000 cShort=  0.000000 cLong=  1.000000
 NAtoms=   17 NActive=   17 NUniq=   17 SFac= 1.00D+00 NAtFMM=   60 NAOKFM=F Big=F
 Integral buffers will be    131072 words long.
 Raffenetti 2 integral format.
 Two-electron integral symmetry is turned on.
 R6Disp:  Grimme-D2 Dispersion energy=       -0.0093097820 Hartrees.
 Nuclear repulsion after empirical dispersion term =      247.9604425468 Hartrees.
 ------------------------------------------------------------------------------
 Polarizable Continuum Model (PCM)
 =================================
 Model                : PCM.
 Atomic radii         : SMD-Coulomb.
 Polarization charges : Total charges.
 Charge compensation  : None.
 Solution method      : On-the-fly selection.
 Cavity type          : VdW (van der Waals Surface) (Alpha=1.000).
 Cavity algorithm     : GePol (No added spheres)
                        Default sphere list used, NSphG=   17.
                        Lebedev-Laikov grids with approx.  5.0 points / Ang**2.
                        Smoothing algorithm: York/Karplus (Gamma=1.0000).
                        Polarization charges: spherical gaussians, with
                                              point-specific exponents (IZeta= 3).
                        Self-potential: point-specific (ISelfS= 7).
                        Self-field    : sphere-specific E.n sum rule (ISelfD= 2).
 Solvent              : Water, Eps=  78.355300 Eps(inf)=   1.777849
 ------------------------------------------------------------------------------
 Spheres list:
 ISph  on   Nord     Re0    Alpha      Xe            Ye            Ze
    1   O      1    1.5200  1.000      0.887128      1.378346     -0.419659
    2   C      2    1.8500  1.000      0.860662      0.186896      0.241207
    3   C      3    1.8500  1.000      2.252713     -0.472143      0.330423
    4   C      4    1.8500  1.000     -0.131586     -0.826557     -0.385065
    5   C      5    1.8500  1.000     -1.528661     -0.251009     -0.605764
    6   C      6    1.8500  1.000     -2.237959      0.181982      0.673139
    7   H      7    1.2000  1.000      0.527496      0.283565      1.321973
    8   H      8    1.2000  1.000      2.959699      0.213980      0.825868
    9   H      9    1.2000  1.000      2.638244     -0.664114     -0.687118
   10   H     10    1.2000  1.000      2.250360     -1.426452      0.886096
   11   H     11    1.2000  1.000     -0.195270     -1.739423      0.238272
   12   H     12    1.2000  1.000      0.278762     -1.139548     -1.364562
   13   H     13    1.2000  1.000     -2.153501     -0.985658     -1.142178
   14   H     14    1.2000  1.000     -1.425095      0.622305     -1.270014
   15   H     15    1.2000  1.000     -3.268262      0.513681      0.469527
   16   H     16    1.2000  1.000     -2.290767     -0.641765      1.404430
   17   H     17    1.2000  1.000     -1.709705      1.021648      1.151342
 ------------------------------------------------------------------------------
 GePol: Number of generator spheres                  =      17
 GePol: Total number of spheres                      =      17
 GePol: Number of exposed spheres                    =      17 (100.00%)
 GePol: Number of points                             =    1196
 GePol: Average weight of points                     =       0.12
 GePol: Minimum weight of points                     =   0.47D-09
 GePol: Maximum weight of points                     =    0.21991
 GePol: Number of points with low weight             =      63
 GePol: Fraction of low-weight points (<1% of avg)   =       5.27%
 GePol: Cavity surface area                          =    138.653 Ang**2
 GePol: Cavity volume                                =    108.421 Ang**3
 ------------------------------------------------------------------------------
 Atomic radii for non-electrostatic terms: SMD-CDS.
 ------------------------------------------------------------------------------
 PCM non-electrostatic energy =         0.0051417189 Hartrees.
 Nuclear repulsion after PCM non-electrostatic terms =      247.9655842657 Hartrees.
 Leave Link  301 at Wed Oct 22 09:18:25 2025, MaxMem=  4294967296 cpu:               0.7 elap:               0.1
 (Enter /lrz/sys/applications/gaussian/g16.C.01/x86_64_legacy/exe/l302.exe)
 NPDir=0 NMtPBC=     1 NCelOv=     1 NCel=       1 NClECP=     1 NCelD=      1
         NCelK=      1 NCelE2=     1 NClLst=     1 CellRange=     0.0.
 One-electron integrals computed using PRISM.
 One-electron integral symmetry used in STVInt
   1 Symmetry operations used in ECPInt.
 ECPInt:  NShTT=    6105 NPrTT=   17556 LenC2=    6027 LenP2D=   14317.
 LDataN:  DoStor=T MaxTD1= 6 Len=  172
 NBasis=   252 RedAO= T EigKep=  1.79D-04  NBF=   252
 NBsUse=   252 1.00D-06 EigRej= -1.00D+00 NBFU=   252
 Precomputing XC quadrature grid using
 IXCGrd= 4 IRadAn=           5 IRanWt=          -1 IRanGd=           0 AccXCQ= 0.00D+00.
 Generated NRdTot=       0 NPtTot=           0 NUsed=           0 NTot=          32
 NSgBfM=   282   282   282   282   282 MxSgAt=    17 MxSgA2=    17.
 Leave Link  302 at Wed Oct 22 09:18:26 2025, MaxMem=  4294967296 cpu:               2.5 elap:               0.3
 (Enter /lrz/sys/applications/gaussian/g16.C.01/x86_64_legacy/exe/l303.exe)
 DipDrv:  MaxL=1.
 Leave Link  303 at Wed Oct 22 09:18:26 2025, MaxMem=  4294967296 cpu:               0.3 elap:               0.1
 (Enter /lrz/sys/applications/gaussian/g16.C.01/x86_64_legacy/exe/l401.exe)
 ExpMin= 9.52D-02 ExpMax= 2.70D+04 ExpMxC= 9.22D+02 IAcc=3 IRadAn=         5 AccDes= 0.00D+00
 Harris functional with IExCor= 4639 and IRadAn=       5 diagonalized for initial guess.
 HarFok:  IExCor= 4639 AccDes= 0.00D+00 IRadAn=         5 IDoV= 1 UseB2=F ITyADJ=14
 ICtDFT=  3500011 ScaDFX=  1.000000  1.000000  1.000000  1.000000
 FoFCou: FMM=F IPFlag=           0 FMFlag=      100000 FMFlg1=           0
         NFxFlg=           0 DoJE=T BraDBF=F KetDBF=T FulRan=T
         wScrn=  0.000000 ICntrl=       500 IOpCl=  0 I1Cent=   200000004 NGrid=           0
         NMat0=    1 NMatS0=      1 NMatT0=    0 NMatD0=    1 NMtDS0=    0 NMtDT0=    0
 Petite list used in FoFCou.
 Harris En= -260.005575102814    
 JPrj=0 DoOrth=F DoCkMO=F.
 Leave Link  401 at Wed Oct 22 09:18:28 2025, MaxMem=  4294967296 cpu:              17.7 elap:               2.2
 (Enter /lrz/sys/applications/gaussian/g16.C.01/x86_64_legacy/exe/l502.exe)
 Integral symmetry usage will be decided dynamically.
 Closed shell SCF:
 Using DIIS extrapolation, IDIIS=  1040.
 NGot=  4294967296 LenX=  4294802854 LenY=  4294722889
 Requested convergence on RMS density matrix=1.00D-08 within 128 cycles.
 Requested convergence on MAX density matrix=1.00D-06.
 Requested convergence on             energy=1.00D-06.
 No special actions if energy rises.
 Fock matrices will be formed incrementally for  20 cycles.

 Cycle   1  Pass 1  IDiag  1:
 FoFJK:  IHMeth= 1 ICntrl=       0 DoSepK=T KAlg= 0 I1Cent=           0 FoldK=F
 IRaf=         1 NMat=       1 IRICut=       1 DoRegI=T DoRafI=F ISym2E= 0 IDoP0=0 IntGTp=1.
 FoFCou: FMM=F IPFlag=           0 FMFlag=      100000 FMFlg1=           0
         NFxFlg=           0 DoJE=T BraDBF=F KetDBF=F FulRan=T
         wScrn=  0.000000 ICntrl=       500 IOpCl=  0 I1Cent=           0 NGrid=           0
         NMat0=    1 NMatS0=      1 NMatT0=    0 NMatD0=    1 NMtDS0=    0 NMtDT0=    0
 Symmetry not used in FoFCou.
 Inv3:  Mode=1 IEnd=     4291248.
 Iteration    1 A*A^-1 deviation from unit magnitude is 5.77D-15 for    724.
 Iteration    1 A*A^-1 deviation from orthogonality  is 4.69D-15 for   1148    587.
 Iteration    1 A^-1*A deviation from unit magnitude is 5.55D-15 for    724.
 Iteration    1 A^-1*A deviation from orthogonality  is 2.23D-15 for    791    488.
 E= -272.418640334140    
 DIIS: error= 4.56D-02 at cycle   1 NSaved=   1.
 NSaved= 1 IEnMin= 1 EnMin= -272.418640334140     IErMin= 1 ErrMin= 4.56D-02
 ErrMax= 4.56D-02  0.00D+00 EMaxC= 1.00D-01 BMatC= 5.63D-01 BMatP= 5.63D-01
 IDIUse=3 WtCom= 5.44D-01 WtEn= 4.56D-01
 Coeff-Com:  0.100D+01
 Coeff-En:   0.100D+01
 Coeff:      0.100D+01
 Gap=     0.378 Goal=   None    Shift=    0.000
 GapD=    0.378 DampG=1.000 DampE=0.500 DampFc=0.5000 IDamp=-1.
 Damping current iteration by 5.00D-01
 RMSDP=1.72D-03 MaxDP=5.21D-02              OVMax= 5.80D-02

 Cycle   2  Pass 1  IDiag  1:
 RMSU=  8.56D-04    CP:  9.90D-01
 E= -272.463301617307     Delta-E=       -0.044661283167 Rises=F Damp=T
 DIIS: error= 2.29D-02 at cycle   2 NSaved=   2.
 NSaved= 2 IEnMin= 2 EnMin= -272.463301617307     IErMin= 2 ErrMin= 2.29D-02
 ErrMax= 2.29D-02  0.00D+00 EMaxC= 1.00D-01 BMatC= 1.28D-01 BMatP= 5.63D-01
 IDIUse=3 WtCom= 7.71D-01 WtEn= 2.29D-01
 Coeff-Com: -0.825D+00 0.182D+01
 Coeff-En:   0.000D+00 0.100D+01
 Coeff:     -0.636D+00 0.164D+01
 Gap=     0.407 Goal=   None    Shift=    0.000
 RMSDP=8.88D-04 MaxDP=2.59D-02 DE=-4.47D-02 OVMax= 3.24D-02

 Cycle   3  Pass 1  IDiag  1:
 RMSU=  7.29D-04    CP:  9.72D-01  1.55D+00
 E= -272.501616200658     Delta-E=       -0.038314583351 Rises=F Damp=F
 DIIS: error= 3.15D-03 at cycle   3 NSaved=   3.
 NSaved= 3 IEnMin= 3 EnMin= -272.501616200658     IErMin= 3 ErrMin= 3.15D-03
 ErrMax= 3.15D-03  0.00D+00 EMaxC= 1.00D-01 BMatC= 4.59D-03 BMatP= 1.28D-01
 IDIUse=3 WtCom= 9.69D-01 WtEn= 3.15D-02
 Coeff-Com: -0.299D+00 0.645D+00 0.654D+00
 Coeff-En:   0.000D+00 0.000D+00 0.100D+01
 Coeff:     -0.290D+00 0.625D+00 0.665D+00
 Gap=     0.395 Goal=   None    Shift=    0.000
 RMSDP=2.14D-04 MaxDP=8.32D-03 DE=-3.83D-02 OVMax= 1.01D-02

 Cycle   4  Pass 1  IDiag  1:
 RMSU=  1.20D-04    CP:  9.71D-01  1.73D+00  8.67D-01
 E= -272.505809005458     Delta-E=       -0.004192804800 Rises=F Damp=F
 DIIS: error= 2.18D-04 at cycle   4 NSaved=   4.
 NSaved= 4 IEnMin= 4 EnMin= -272.505809005458     IErMin= 4 ErrMin= 2.18D-04
 ErrMax= 2.18D-04  0.00D+00 EMaxC= 1.00D-01 BMatC= 2.03D-05 BMatP= 4.59D-03
 IDIUse=3 WtCom= 9.98D-01 WtEn= 2.18D-03
 Coeff-Com:  0.428D-01-0.923D-01-0.402D-01 0.109D+01
 Coeff-En:   0.000D+00 0.000D+00 0.000D+00 0.100D+01
 Coeff:      0.427D-01-0.921D-01-0.401D-01 0.109D+01
 Gap=     0.396 Goal=   None    Shift=    0.000
 RMSDP=8.70D-05 MaxDP=4.22D-03 DE=-4.19D-03 OVMax= 2.64D-03

 Cycle   5  Pass 1  IDiag  1:
 RMSU=  2.91D-05    CP:  9.70D-01  1.72D+00  9.56D-01  1.39D+00
 E= -272.505840890730     Delta-E=       -0.000031885272 Rises=F Damp=F
 DIIS: error= 1.28D-04 at cycle   5 NSaved=   5.
 NSaved= 5 IEnMin= 5 EnMin= -272.505840890730     IErMin= 5 ErrMin= 1.28D-04
 ErrMax= 1.28D-04  0.00D+00 EMaxC= 1.00D-01 BMatC= 6.52D-06 BMatP= 2.03D-05
 IDIUse=3 WtCom= 9.99D-01 WtEn= 1.28D-03
 Coeff-Com:  0.373D-01-0.801D-01-0.567D-01 0.518D+00 0.582D+00
 Coeff-En:   0.000D+00 0.000D+00 0.000D+00 0.000D+00 0.100D+01
 Coeff:      0.372D-01-0.800D-01-0.566D-01 0.517D+00 0.582D+00
 Gap=     0.396 Goal=   None    Shift=    0.000
 RMSDP=1.50D-05 MaxDP=5.64D-04 DE=-3.19D-05 OVMax= 6.30D-04

 Cycle   6  Pass 1  IDiag  1:
 RMSU=  9.97D-06    CP:  9.69D-01  1.73D+00  9.61D-01  1.47D+00  9.78D-01
 E= -272.505846645443     Delta-E=       -0.000005754712 Rises=F Damp=F
 DIIS: error= 2.84D-05 at cycle   6 NSaved=   6.
 NSaved= 6 IEnMin= 6 EnMin= -272.505846645443     IErMin= 6 ErrMin= 2.84D-05
 ErrMax= 2.84D-05  0.00D+00 EMaxC= 1.00D-01 BMatC= 3.63D-07 BMatP= 6.52D-06
 IDIUse=1 WtCom= 1.00D+00 WtEn= 0.00D+00
 Coeff-Com:  0.688D-02-0.149D-01-0.147D-01 0.193D-01 0.157D+00 0.846D+00
 Coeff:      0.688D-02-0.149D-01-0.147D-01 0.193D-01 0.157D+00 0.846D+00
 Gap=     0.396 Goal=   None    Shift=    0.000
 RMSDP=1.10D-05 MaxDP=4.16D-04 DE=-5.75D-06 OVMax= 4.10D-04

 Cycle   7  Pass 1  IDiag  1:
 RMSU=  2.94D-06    CP:  9.69D-01  1.73D+00  9.69D-01  1.53D+00  1.15D+00
                    CP:  1.24D+00
 E= -272.505847169918     Delta-E=       -0.000000524475 Rises=F Damp=F
 DIIS: error= 1.29D-05 at cycle   7 NSaved=   7.
 NSaved= 7 IEnMin= 7 EnMin= -272.505847169918     IErMin= 7 ErrMin= 1.29D-05
 ErrMax= 1.29D-05  0.00D+00 EMaxC= 1.00D-01 BMatC= 9.16D-08 BMatP= 3.63D-07
 IDIUse=1 WtCom= 1.00D+00 WtEn= 0.00D+00
 Coeff-Com: -0.274D-02 0.587D-02 0.219D-02-0.693D-01-0.207D-01 0.365D+00
 Coeff-Com:  0.719D+00
 Coeff:     -0.274D-02 0.587D-02 0.219D-02-0.693D-01-0.207D-01 0.365D+00
 Coeff:      0.719D+00
 Gap=     0.396 Goal=   None    Shift=    0.000
 RMSDP=3.88D-06 MaxDP=1.85D-04 DE=-5.24D-07 OVMax= 1.65D-04

 Cycle   8  Pass 1  IDiag  1:
 RMSU=  1.26D-06    CP:  9.69D-01  1.73D+00  9.71D-01  1.54D+00  1.21D+00
                    CP:  1.44D+00  1.24D+00
 E= -272.505847285795     Delta-E=       -0.000000115877 Rises=F Damp=F
 DIIS: error= 2.92D-06 at cycle   8 NSaved=   8.
 NSaved= 8 IEnMin= 8 EnMin= -272.505847285795     IErMin= 8 ErrMin= 2.92D-06
 ErrMax= 2.92D-06  0.00D+00 EMaxC= 1.00D-01 BMatC= 4.07D-09 BMatP= 9.16D-08
 IDIUse=1 WtCom= 1.00D+00 WtEn= 0.00D+00
 Coeff-Com: -0.608D-03 0.131D-02 0.127D-02-0.125D-02-0.138D-01-0.926D-01
 Coeff-Com:  0.585D-01 0.105D+01
 Coeff:     -0.608D-03 0.131D-02 0.127D-02-0.125D-02-0.138D-01-0.926D-01
 Coeff:      0.585D-01 0.105D+01
 Gap=     0.396 Goal=   None    Shift=    0.000
 RMSDP=1.75D-06 MaxDP=1.00D-04 DE=-1.16D-07 OVMax= 7.89D-05

 Cycle   9  Pass 1  IDiag  1:
 RMSU=  3.55D-07    CP:  9.69D-01  1.73D+00  9.71D-01  1.55D+00  1.23D+00
                    CP:  1.53D+00  1.53D+00  1.45D+00
 E= -272.505847296427     Delta-E=       -0.000000010632 Rises=F Damp=F
 DIIS: error= 5.65D-07 at cycle   9 NSaved=   9.
 NSaved= 9 IEnMin= 9 EnMin= -272.505847296427     IErMin= 9 ErrMin= 5.65D-07
 ErrMax= 5.65D-07  0.00D+00 EMaxC= 1.00D-01 BMatC= 1.57D-10 BMatP= 4.07D-09
 IDIUse=1 WtCom= 1.00D+00 WtEn= 0.00D+00
 Coeff-Com:  0.184D-03-0.395D-03-0.151D-03 0.481D-02 0.853D-03-0.240D-01
 Coeff-Com: -0.478D-01-0.216D-01 0.109D+01
 Coeff:      0.184D-03-0.395D-03-0.151D-03 0.481D-02 0.853D-03-0.240D-01
 Coeff:     -0.478D-01-0.216D-01 0.109D+01
 Gap=     0.396 Goal=   None    Shift=    0.000
 RMSDP=5.53D-07 MaxDP=3.33D-05 DE=-1.06D-08 OVMax= 2.57D-05

 Cycle  10  Pass 1  IDiag  1:
 RMSU=  8.64D-08    CP:  9.69D-01  1.73D+00  9.71D-01  1.55D+00  1.23D+00
                    CP:  1.56D+00  1.63D+00  1.68D+00  1.52D+00
 E= -272.505847297204     Delta-E=       -0.000000000777 Rises=F Damp=F
 DIIS: error= 2.19D-07 at cycle  10 NSaved=  10.
 NSaved=10 IEnMin=10 EnMin= -272.505847297204     IErMin=10 ErrMin= 2.19D-07
 ErrMax= 2.19D-07  0.00D+00 EMaxC= 1.00D-01 BMatC= 1.52D-11 BMatP= 1.57D-10
 IDIUse=1 WtCom= 1.00D+00 WtEn= 0.00D+00
 Coeff-Com:  0.289D-04-0.626D-04-0.604D-04 0.152D-03 0.433D-03 0.491D-02
 Coeff-Com: -0.565D-02-0.629D-01 0.367D-01 0.103D+01
 Coeff:      0.289D-04-0.626D-04-0.604D-04 0.152D-03 0.433D-03 0.491D-02
 Coeff:     -0.565D-02-0.629D-01 0.367D-01 0.103D+01
 Gap=     0.396 Goal=   None    Shift=    0.000
 RMSDP=1.54D-07 MaxDP=8.56D-06 DE=-7.77D-10 OVMax= 6.55D-06

 Cycle  11  Pass 1  IDiag  1:
 RMSU=  2.40D-08    CP:  9.69D-01  1.73D+00  9.71D-01  1.55D+00  1.23D+00
                    CP:  1.57D+00  1.66D+00  1.74D+00  1.73D+00  1.42D+00
 E= -272.505847297239     Delta-E=       -0.000000000035 Rises=F Damp=F
 DIIS: error= 9.79D-08 at cycle  11 NSaved=  11.
 NSaved=11 IEnMin=11 EnMin= -272.505847297239     IErMin=11 ErrMin= 9.79D-08
 ErrMax= 9.79D-08  0.00D+00 EMaxC= 1.00D-01 BMatC= 3.48D-12 BMatP= 1.52D-11
 IDIUse=1 WtCom= 1.00D+00 WtEn= 0.00D+00
 Coeff-Com: -0.946D-05 0.203D-04-0.620D-05-0.489D-03 0.773D-04 0.444D-02
 Coeff-Com:  0.376D-02-0.194D-01-0.111D+00 0.351D+00 0.772D+00
 Coeff:     -0.946D-05 0.203D-04-0.620D-05-0.489D-03 0.773D-04 0.444D-02
 Coeff:      0.376D-02-0.194D-01-0.111D+00 0.351D+00 0.772D+00
 Gap=     0.396 Goal=   None    Shift=    0.000
 RMSDP=4.35D-08 MaxDP=2.30D-06 DE=-3.51D-11 OVMax= 1.76D-06

 Cycle  12  Pass 1  IDiag  1:
 RMSU=  7.95D-09    CP:  9.69D-01  1.73D+00  9.71D-01  1.55D+00  1.23D+00
                    CP:  1.57D+00  1.66D+00  1.75D+00  1.79D+00  1.60D+00
                    CP:  1.28D+00
 E= -272.505847297259     Delta-E=       -0.000000000020 Rises=F Damp=F
 DIIS: error= 1.68D-08 at cycle  12 NSaved=  12.
 NSaved=12 IEnMin=12 EnMin= -272.505847297259     IErMin=12 ErrMin= 1.68D-08
 ErrMax= 1.68D-08  0.00D+00 EMaxC= 1.00D-01 BMatC= 1.93D-13 BMatP= 3.48D-12
 IDIUse=1 WtCom= 1.00D+00 WtEn= 0.00D+00
 Coeff-Com: -0.314D-05 0.682D-05 0.562D-05-0.509D-04-0.814D-05-0.306D-03
 Coeff-Com:  0.114D-02 0.542D-02-0.135D-01-0.951D-01 0.607D-01 0.104D+01
 Coeff:     -0.314D-05 0.682D-05 0.562D-05-0.509D-04-0.814D-05-0.306D-03
 Coeff:      0.114D-02 0.542D-02-0.135D-01-0.951D-01 0.607D-01 0.104D+01
 Gap=     0.396 Goal=   None    Shift=    0.000
 RMSDP=1.69D-08 MaxDP=8.22D-07 DE=-2.02D-11 OVMax= 6.10D-07

 Cycle  13  Pass 1  IDiag  1:
 RMSU=  2.74D-09    CP:  9.69D-01  1.73D+00  9.71D-01  1.55D+00  1.23D+00
                    CP:  1.57D+00  1.67D+00  1.76D+00  1.82D+00  1.68D+00
                    CP:  1.51D+00  1.39D+00
 E= -272.505847297256     Delta-E=        0.000000000003 Rises=F Damp=F
 DIIS: error= 3.96D-09 at cycle  13 NSaved=  13.
 NSaved=13 IEnMin=12 EnMin= -272.505847297259     IErMin=13 ErrMin= 3.96D-09
 ErrMax= 3.96D-09  0.00D+00 EMaxC= 1.00D-01 BMatC= 6.05D-15 BMatP= 1.93D-13
 IDIUse=1 WtCom= 1.00D+00 WtEn= 0.00D+00
 Coeff-Com:  0.559D-06-0.120D-05 0.928D-07 0.226D-04-0.818D-05-0.164D-03
 Coeff-Com: -0.187D-03 0.758D-03 0.513D-02-0.126D-01-0.361D-01-0.248D-01
 Coeff-Com:  0.107D+01
 Coeff:      0.559D-06-0.120D-05 0.928D-07 0.226D-04-0.818D-05-0.164D-03
 Coeff:     -0.187D-03 0.758D-03 0.513D-02-0.126D-01-0.361D-01-0.248D-01
 Coeff:      0.107D+01
 Gap=     0.396 Goal=   None    Shift=    0.000
 RMSDP=2.89D-09 MaxDP=1.13D-07 DE= 2.96D-12 OVMax= 8.09D-08

 Error on total polarization charges =  0.06299
 SCF Done:  E(RwB97XD) =  -272.505847297     A.U. after   13 cycles
            NFock= 13  Conv=0.29D-08     -V/T= 2.0058
 KE= 2.709339718745D+02 PE=-1.141153255108D+03 EE= 3.497478516701D+02
 SMD-CDS (non-electrostatic) energy       (kcal/mol) =       3.23
 (included in total energy above)
 Leave Link  502 at Wed Oct 22 09:20:12 2025, MaxMem=  4294967296 cpu:             830.4 elap:             104.0
 (Enter /lrz/sys/applications/gaussian/g16.C.01/x86_64_legacy/exe/l601.exe)
 Copying SCF densities to generalized density rwf, IOpCl= 0 IROHF=0.

 **********************************************************************

            Population analysis using the SCF Density.

 **********************************************************************

 Orbital symmetries:
       Occupied  (A) (A) (A) (A) (A) (A) (A) (A) (A) (A) (A) (A)
                 (A) (A) (A) (A) (A) (A) (A) (A) (A) (A) (A) (A)
                 (A)
       Virtual   (A) (A) (A) (A) (A) (A) (A) (A) (A) (A) (A) (A)
                 (A) (A) (A) (A) (A) (A) (A) (A) (A) (A) (A) (A)
                 (A) (A) (A) (A) (A) (A) (A) (A) (A) (A) (A) (A)
                 (A) (A) (A) (A) (A) (A) (A) (A) (A) (A) (A) (A)
                 (A) (A) (A) (A) (A) (A) (A) (A) (A) (A) (A) (A)
                 (A) (A) (A) (A) (A) (A) (A) (A) (A) (A) (A) (A)
                 (A) (A) (A) (A) (A) (A) (A) (A) (A) (A) (A) (A)
                 (A) (A) (A) (A) (A) (A) (A) (A) (A) (A) (A) (A)
                 (A) (A) (A) (A) (A) (A) (A) (A) (A) (A) (A) (A)
                 (A) (A) (A) (A) (A) (A) (A) (A) (A) (A) (A) (A)
                 (A) (A) (A) (A) (A) (A) (A) (A) (A) (A) (A) (A)
                 (A) (A) (A) (A) (A) (A) (A) (A) (A) (A) (A) (A)
                 (A) (A) (A) (A) (A) (A) (A) (A) (A) (A) (A) (A)
                 (A) (A) (A) (A) (A) (A) (A) (A) (A) (A) (A) (A)
                 (A) (A) (A) (A) (A) (A) (A) (A) (A) (A) (A) (A)
                 (A) (A) (A) (A) (A) (A) (A) (A) (A) (A) (A) (A)
                 (A) (A) (A) (A) (A) (A) (A) (A) (A) (A) (A) (A)
                 (A) (A) (A) (A) (A) (A) (A) (A) (A) (A) (A) (A)
                 (A) (A) (A) (A) (A) (A) (A) (A) (A) (A) (A)
 The electronic state is 1-A.
 Alpha  occ. eigenvalues --  -19.12759 -10.28939 -10.25975 -10.25784 -10.24890
 Alpha  occ. eigenvalues --  -10.24633  -1.00294  -0.86457  -0.80326  -0.75341
 Alpha  occ. eigenvalues --   -0.67245  -0.60615  -0.53474  -0.52162  -0.48864
 Alpha  occ. eigenvalues --   -0.48074  -0.45790  -0.44127  -0.42633  -0.41221
 Alpha  occ. eigenvalues --   -0.38926  -0.38489  -0.38248  -0.27277  -0.27107
 Alpha virt. eigenvalues --    0.12465   0.14730   0.14967   0.17153   0.18813
 Alpha virt. eigenvalues --    0.19659   0.19923   0.20748   0.21490   0.22163
 Alpha virt. eigenvalues --    0.24410   0.25362   0.26907   0.28382   0.29083
 Alpha virt. eigenvalues --    0.29737   0.30385   0.32158   0.32542   0.34294
 Alpha virt. eigenvalues --    0.37915   0.39558   0.40907   0.44214   0.45997
 Alpha virt. eigenvalues --    0.47020   0.47895   0.48577   0.49382   0.50615
 Alpha virt. eigenvalues --    0.51756   0.52419   0.52815   0.54094   0.54560
 Alpha virt. eigenvalues --    0.55026   0.55563   0.56381   0.57038   0.58678
 Alpha virt. eigenvalues --    0.59005   0.60844   0.62849   0.65655   0.67084
 Alpha virt. eigenvalues --    0.67536   0.69718   0.71759   0.75552   0.79315
 Alpha virt. eigenvalues --    0.81387   0.84413   0.88980   0.91272   0.92523
 Alpha virt. eigenvalues --    0.97233   0.97496   0.98312   1.02454   1.03361
 Alpha virt. eigenvalues --    1.04997   1.11069   1.12692   1.14875   1.16471
 Alpha virt. eigenvalues --    1.18596   1.20446   1.23366   1.25670   1.27323
 Alpha virt. eigenvalues --    1.29241   1.31457   1.34405   1.36055   1.39268
 Alpha virt. eigenvalues --    1.43957   1.55684   1.61015   1.62981   1.63237
 Alpha virt. eigenvalues --    1.65375   1.65685   1.65941   1.67839   1.68586
 Alpha virt. eigenvalues --    1.69636   1.70314   1.71238   1.72291   1.73884
 Alpha virt. eigenvalues --    1.74674   1.80591   1.82513   1.87716   1.88387
 Alpha virt. eigenvalues --    1.89605   1.91775   1.94918   1.96636   1.99361
 Alpha virt. eigenvalues --    2.00842   2.04149   2.06177   2.07542   2.09020
 Alpha virt. eigenvalues --    2.11166   2.16481   2.16656   2.21339   2.23523
 Alpha virt. eigenvalues --    2.26601   2.35404   2.37122   2.37786   2.41038
 Alpha virt. eigenvalues --    2.42133   2.43284   2.44536   2.46806   2.47969
 Alpha virt. eigenvalues --    2.48858   2.52703   2.54173   2.57317   2.60190
 Alpha virt. eigenvalues --    2.62171   2.63430   2.65852   2.67284   2.68366
 Alpha virt. eigenvalues --    2.70585   2.71211   2.72942   2.75295   2.76270
 Alpha virt. eigenvalues --    2.77492   2.79663   2.81364   2.83930   2.84710
 Alpha virt. eigenvalues --    2.88490   2.90332   2.92965   2.97165   3.01645
 Alpha virt. eigenvalues --    3.05360   3.08649   3.11865   3.13410   3.16428
 Alpha virt. eigenvalues --    3.18341   3.20750   3.23389   3.24419   3.25300
 Alpha virt. eigenvalues --    3.29293   3.30571   3.31432   3.35899   3.36374
 Alpha virt. eigenvalues --    3.37837   3.40983   3.44080   3.44630   3.46381
 Alpha virt. eigenvalues --    3.48451   3.49346   3.50859   3.53268   3.57732
 Alpha virt. eigenvalues --    3.58334   3.61739   3.63621   3.64407   3.67782
 Alpha virt. eigenvalues --    3.70963   3.72733   3.74729   3.78908   3.83909
 Alpha virt. eigenvalues --    3.87804   3.89663   3.93635   3.98845   4.03977
 Alpha virt. eigenvalues --    4.04102   4.07251   4.11592   4.14995   4.16779
 Alpha virt. eigenvalues --    4.21405   4.25510   4.30982   4.35724   4.41139
 Alpha virt. eigenvalues --    4.46860   4.47477   4.48828   4.56453   4.61368
 Alpha virt. eigenvalues --    4.63862   4.69447   4.73564   4.77304   4.85529
 Alpha virt. eigenvalues --    4.88530   4.94671   5.03282   5.17101   5.36468
 Alpha virt. eigenvalues --    5.36902   5.60066   5.61212   6.05066   6.10746
 Alpha virt. eigenvalues --    6.17365   6.57085   6.60009   6.99723   7.08572
 Alpha virt. eigenvalues --    7.13653  22.40613  22.41655  22.57250  22.58295
 Alpha virt. eigenvalues --   22.76852  44.07233
          Condensed to atoms (all electrons):
               1          2          3          4          5          6
     1  O    8.834810   0.405175  -0.091861  -0.157080  -0.002767  -0.010866
     2  C    0.405175   4.693816   0.364018   0.174064  -0.064291   0.024039
     3  C   -0.091861   0.364018   5.131872  -0.099593   0.022176  -0.002722
     4  C   -0.157080   0.174064  -0.099593   5.536964   0.320057  -0.060997
     5  C   -0.002767  -0.064291   0.022176   0.320057   5.035755   0.246135
     6  C   -0.010866   0.024039  -0.002722  -0.060997   0.246135   5.057437
     7  H   -0.087928   0.421196  -0.080926  -0.121837  -0.041344   0.027806
     8  H    0.007705  -0.051772   0.409679   0.022427  -0.000499  -0.000074
     9  H    0.010806  -0.030284   0.387913  -0.023868  -0.002143   0.000315
    10  H    0.009241  -0.049350   0.365219   0.012516  -0.002343   0.000609
    11  H    0.010429  -0.022872  -0.003816   0.341515  -0.029664  -0.001085
    12  H    0.007865  -0.013356  -0.014923   0.375055  -0.053290   0.012543
    13  H    0.001276   0.011394   0.000177  -0.051828   0.423388  -0.036559
    14  H    0.039698  -0.006317   0.000663  -0.071824   0.388944  -0.030861
    15  H    0.000149  -0.000512   0.000034   0.009124  -0.039061   0.412164
    16  H    0.000594  -0.006212  -0.000060   0.005640  -0.039132   0.400013
    17  H    0.015708   0.006813   0.002332  -0.016578  -0.023638   0.395210
               7          8          9         10         11         12
     1  O   -0.087928   0.007705   0.010806   0.009241   0.010429   0.007865
     2  C    0.421196  -0.051772  -0.030284  -0.049350  -0.022872  -0.013356
     3  C   -0.080926   0.409679   0.387913   0.365219  -0.003816  -0.014923
     4  C   -0.121837   0.022427  -0.023868   0.012516   0.341515   0.375055
     5  C   -0.041344  -0.000499  -0.002143  -0.002343  -0.029664  -0.053290
     6  C    0.027806  -0.000074   0.000315   0.000609  -0.001085   0.012543
     7  H    0.875922  -0.012279   0.016403   0.007487   0.009911   0.014486
     8  H   -0.012279   0.565052  -0.030766  -0.019191  -0.001285  -0.000506
     9  H    0.016403  -0.030766   0.587004  -0.020292   0.002177   0.009282
    10  H    0.007487  -0.019191  -0.020292   0.595414  -0.001368   0.000618
    11  H    0.009911  -0.001285   0.002177  -0.001368   0.625088  -0.022348
    12  H    0.014486  -0.000506   0.009282   0.000618  -0.022348   0.615590
    13  H   -0.001282   0.000012  -0.000095  -0.000142  -0.004580  -0.006565
    14  H    0.005802  -0.000214   0.000444  -0.000274   0.011460   0.000728
    15  H    0.000375  -0.000003   0.000002  -0.000003   0.000072  -0.000242
    16  H   -0.001956   0.000017  -0.000018  -0.000087   0.001823  -0.000201
    17  H   -0.022004   0.000025  -0.000168  -0.000356  -0.000222  -0.001085
              13         14         15         16         17
     1  O    0.001276   0.039698   0.000149   0.000594   0.015708
     2  C    0.011394  -0.006317  -0.000512  -0.006212   0.006813
     3  C    0.000177   0.000663   0.000034  -0.000060   0.002332
     4  C   -0.051828  -0.071824   0.009124   0.005640  -0.016578
     5  C    0.423388   0.388944  -0.039061  -0.039132  -0.023638
     6  C   -0.036559  -0.030861   0.412164   0.400013   0.395210
     7  H   -0.001282   0.005802   0.000375  -0.001956  -0.022004
     8  H    0.000012  -0.000214  -0.000003   0.000017   0.000025
     9  H   -0.000095   0.000444   0.000002  -0.000018  -0.000168
    10  H   -0.000142  -0.000274  -0.000003  -0.000087  -0.000356
    11  H   -0.004580   0.011460   0.000072   0.001823  -0.000222
    12  H   -0.006565   0.000728  -0.000242  -0.000201  -0.001085
    13  H    0.593679  -0.029199  -0.005943  -0.002513   0.007417
    14  H   -0.029199   0.625593  -0.002109   0.006428  -0.005655
    15  H   -0.005943  -0.002109   0.541737  -0.022797  -0.023686
    16  H   -0.002513   0.006428  -0.022797   0.563542  -0.024584
    17  H    0.007417  -0.005655  -0.023686  -0.024584   0.563446
 Mulliken charges:
               1
     1  O   -0.992954
     2  C    0.144452
     3  C   -0.390180
     4  C   -0.193756
     5  C   -0.138281
     6  C   -0.433106
     7  H   -0.009832
     8  H    0.111674
     9  H    0.093288
    10  H    0.102302
    11  H    0.084766
    12  H    0.076347
    13  H    0.101361
    14  H    0.066693
    15  H    0.130697
    16  H    0.119503
    17  H    0.127026
 Sum of Mulliken charges =  -1.00000
 Mulliken charges with hydrogens summed into heavy atoms:
               1
     1  O   -0.992954
     2  C    0.134620
     3  C   -0.082916
     4  C   -0.032643
     5  C    0.029772
     6  C   -0.055879
 Electronic spatial extent (au):  <R**2>=            765.5074
 Charge=             -1.0000 electrons
 Dipole moment (field-independent basis, Debye):
    X=             -4.1637    Y=             -6.5790    Z=              2.0920  Tot=              8.0621
 Quadrupole moment (field-independent basis, Debye-Ang):
   XX=            -48.9753   YY=            -53.4131   ZZ=            -44.6360
   XY=             -5.4945   XZ=              1.9693   YZ=              2.9944
 Traceless Quadrupole moment (field-independent basis, Debye-Ang):
   XX=              0.0328   YY=             -4.4050   ZZ=              4.3721
   XY=             -5.4945   XZ=              1.9693   YZ=              2.9944
 Octapole moment (field-independent basis, Debye-Ang**2):
  XXX=            -12.2232  YYY=            -16.6609  ZZZ=             -0.2275  XYY=            -11.0820
  XXY=             -4.8178  XXZ=              0.5624  XZZ=             -0.9977  YZZ=             -2.6281
  YYZ=              5.5165  XYZ=              3.6755
 Hexadecapole moment (field-independent basis, Debye-Ang**3):
 XXXX=           -753.9602 YYYY=           -236.1108 ZZZZ=           -156.3065 XXXY=             -0.3692
 XXXZ=              5.3124 YYYX=            -13.3624 YYYZ=              3.5915 ZZZX=             -0.1153
 ZZZY=              1.6025 XXYY=           -167.5248 XXZZ=           -151.1643 YYZZ=            -61.1968
 XXYZ=              4.2949 YYXZ=              4.9282 ZZXY=             -0.7070
 N-N= 2.479655842657D+02 E-N=-1.141153255234D+03  KE= 2.709339718745D+02
 No NMR shielding tensors so no spin-rotation constants.
 Leave Link  601 at Wed Oct 22 09:20:12 2025, MaxMem=  4294967296 cpu:               1.2 elap:               0.2
 (Enter /lrz/sys/applications/gaussian/g16.C.01/x86_64_legacy/exe/l9999.exe)
 Unable to Open any file for archive entry.
 1\1\GINC-CM4R15C05S03\SP\RwB97XD\def2TZVP\C5H11O1(1-)\GO29TIZ2\22-Oct-
 2025\0\\#p wb97xd scrf=(smd,solvent=water) def2tzvp\\g16_g16_C17-ma_5\
 \-1,1\O,0,-0.887128,1.378346,0.419659\C,0,-0.860662,0.186896,-0.241207
 \C,0,-2.252713,-0.472143,-0.330423\C,0,0.131586,-0.826557,0.385065\C,0
 ,1.528661,-0.251009,0.605764\C,0,2.237959,0.181982,-0.673139\H,0,-0.52
 7496,0.283565,-1.321973\H,0,-2.959699,0.21398,-0.825868\H,0,-2.638244,
 -0.664114,0.687118\H,0,-2.25036,-1.426452,-0.886096\H,0,0.19527,-1.739
 423,-0.238272\H,0,-0.278762,-1.139548,1.364562\H,0,2.153501,-0.985658,
 1.142178\H,0,1.425095,0.622305,1.270014\H,0,3.268262,0.513681,-0.46952
 7\H,0,2.290767,-0.641765,-1.40443\H,0,1.709705,1.021648,-1.151342\\Ver
 sion=EM64L-G16RevC.01\State=1-A\HF=-272.5058473\RMSD=2.890e-09\Dipole=
 1.638139,-2.588384,-0.823068\Quadrupole=0.0244051,-3.2749738,3.2505686
 ,4.0850176,1.4641148,-2.2262991\PG=C01 [X(C5H11O1)]\\@
 The archive entry for this job was punched.


 THERE IS AN OLD, OLD RECIPE IN MAINE FOR STEWING COOT. PLACE THE
 BIRD IN A KETTLE OF WATER WITH A RED BUILDING BRICK FREE OF MORTAR AND
 BLEMISHES. PARBOIL THE COOT AND BRICK TOGETHER FOR THREE HOURS.
 POUR OFF THE WATER, REFILL THE KETTLE, AND AGAIN PARBOIL FOR THREE HOURS.
 ONCE AGAIN POUR OFF THE WATER, FOR THE LAST TIME ADD FRESH WATER,
 AND LET THE COOT AND BRICK SIMMER TOGETHER OVERNIGHT. IN THE MORNING,
 THROW AWAY THE COOT AND EAT THE BRICK.
 Job cpu time:       0 days  0 hours 14 minutes 20.6 seconds.
 Elapsed time:       0 days  0 hours  1 minutes 48.0 seconds.
 File lengths (MBytes):  RWF=    288 Int=      0 D2E=      0 Chk=     12 Scr=     32
 Normal termination of Gaussian 16 at Wed Oct 22 09:20:12 2025.
