 Entering Gaussian System, Link 0=g16
 Input=../../g16_g16_C2-a_7.com
 Output=../../g16_g16_C2-a_7.log
 Initial command:
 /lrz/sys/applications/gaussian/g16.C.01/x86_64_legacy/exe/l1.exe "/dss/lxclscratch/0D/go29tiz2/Gau-15093.inp" -scrdir="/dss/lxclscratch/0D/go29tiz2/"
 Entering Link 1 = /lrz/sys/applications/gaussian/g16.C.01/x86_64_legacy/exe/l1.exe PID=     15101.
  
 Copyright (c) 1988-2019, Gaussian, Inc.  All Rights Reserved.
  
 This is part of the Gaussian(R) 16 program.  It is based on
 the Gaussian(R) 09 system (copyright 2009, Gaussian, Inc.),
 the Gaussian(R) 03 system (copyright 2003, Gaussian, Inc.),
 the Gaussian(R) 98 system (copyright 1998, Gaussian, Inc.),
 the Gaussian(R) 94 system (copyright 1995, Gaussian, Inc.),
 the Gaussian 92(TM) system (copyright 1992, Gaussian, Inc.),
 the Gaussian 90(TM) system (copyright 1990, Gaussian, Inc.),
 the Gaussian 88(TM) system (copyright 1988, Gaussian, Inc.),
 the Gaussian 86(TM) system (copyright 1986, Carnegie Mellon
 University), and the Gaussian 82(TM) system (copyright 1983,
 Carnegie Mellon University). Gaussian is a federally registered
 trademark of Gaussian, Inc.
  
 This software contains proprietary and confidential information,
 including trade secrets, belonging to Gaussian, Inc.
  
 This software is provided under written license and may be
 used, copied, transmitted, or stored only in accord with that
 written license.
  
 The following legend is applicable only to US Government
 contracts under FAR:
  
                    RESTRICTED RIGHTS LEGEND
  
 Use, reproduction and disclosure by the US Government is
 subject to restrictions as set forth in subparagraphs (a)
 and (c) of the Commercial Computer Software - Restricted
 Rights clause in FAR 52.227-19.
  
 Gaussian, Inc.
 340 Quinnipiac St., Bldg. 40, Wallingford CT 06492
  
  
 ---------------------------------------------------------------
 Warning -- This program may not be used in any manner that
 competes with the business of Gaussian, Inc. or will provide
 assistance to any competitor of Gaussian, Inc.  The licensee
 of this program is prohibited from giving any competitor of
 Gaussian, Inc. access to this program.  By using this program,
 the user acknowledges that Gaussian, Inc. is engaged in the
 business of creating and licensing software in the field of
 computational chemistry and represents and warrants to the
 licensee that it is not a competitor of Gaussian, Inc. and that
 it will not use this program in any manner prohibited above.
 ---------------------------------------------------------------
  

 Cite this work as:
 Gaussian 16, Revision C.01,
 M. J. Frisch, G. W. Trucks, H. B. Schlegel, G. E. Scuseria, 
 M. A. Robb, J. R. Cheeseman, G. Scalmani, V. Barone, 
 G. A. Petersson, H. Nakatsuji, X. Li, M. Caricato, A. V. Marenich, 
 J. Bloino, B. G. Janesko, R. Gomperts, B. Mennucci, H. P. Hratchian, 
 J. V. Ortiz, A. F. Izmaylov, J. L. Sonnenberg, D. Williams-Young, 
 F. Ding, F. Lipparini, F. Egidi, J. Goings, B. Peng, A. Petrone, 
 T. Henderson, D. Ranasinghe, V. G. Zakrzewski, J. Gao, N. Rega, 
 G. Zheng, W. Liang, M. Hada, M. Ehara, K. Toyota, R. Fukuda, 
 J. Hasegawa, M. Ishida, T. Nakajima, Y. Honda, O. Kitao, H. Nakai, 
 T. Vreven, K. Throssell, J. A. Montgomery, Jr., J. E. Peralta, 
 F. Ogliaro, M. J. Bearpark, J. J. Heyd, E. N. Brothers, K. N. Kudin, 
 V. N. Staroverov, T. A. Keith, R. Kobayashi, J. Normand, 
 K. Raghavachari, A. P. Rendell, J. C. Burant, S. S. Iyengar, 
 J. Tomasi, M. Cossi, J. M. Millam, M. Klene, C. Adamo, R. Cammi, 
 J. W. Ochterski, R. L. Martin, K. Morokuma, O. Farkas, 
 J. B. Foresman, and D. J. Fox, Gaussian, Inc., Wallingford CT, 2019.
 
 ******************************************
 Gaussian 16:  EM64L-G16RevC.01  3-Jul-2019
                22-Oct-2025 
 ******************************************
 %chk=g16_g16_C2-a_7.chk
 %nprocshared=8
 Will use up to    8 processors via shared memory.
 %mem=32GB
 -------------------------------------------
 #p wb97xd scrf=(smd,solvent=water) def2tzvp
 -------------------------------------------
 1/38=1,172=1/1;
 2/12=2,17=6,18=5,40=1/2;
 3/5=44,7=101,11=2,25=1,30=1,70=32201,72=1,74=-58/1,2,3;
 4//1;
 5/5=2,38=5,53=1/2;
 6/7=2,8=2,9=2,10=2,28=1/1;
 99/5=1,9=1/99;
 Leave Link    1 at Wed Oct 22 10:08:04 2025, MaxMem=  4294967296 cpu:               5.1 elap:               0.7
 (Enter /lrz/sys/applications/gaussian/g16.C.01/x86_64_legacy/exe/l101.exe)
 --------------
 g16_g16_C2-a_7
 --------------
 Symbolic Z-matrix:
 Charge =  0 Multiplicity = 1
 O                    -0.57731   1.37933  -0.0672 
 C                    -0.50842   0.02191   0.3187 
 N                    -1.71638  -0.65602  -0.10257 
 C                     0.71572  -0.67683  -0.26335 
 C                     2.02881  -0.0049    0.10837 
 H                    -0.70113   1.38702  -1.02642 
 H                    -0.39846   0.06326   1.41933 
 H                    -1.615    -1.65849   0.05131 
 H                    -2.49214  -0.35575   0.48652 
 H                     0.59698  -0.70929  -1.36065 
 H                     0.71489  -1.72293   0.08547 
 H                     2.05081   1.03778  -0.24171 
 H                     2.17629   0.00549   1.2002 
 H                     2.88426  -0.53074  -0.3407 
 
 ITRead=  0  0  0  0  0  0  0  0  0  0  0  0  0  0
 MicOpt= -1 -1 -1 -1 -1 -1 -1 -1 -1 -1 -1 -1 -1 -1
 NAtoms=     14 NQM=       14 NQMF=       0 NMMI=      0 NMMIF=      0
                NMic=       0 NMicF=      0.
                    Isotopes and Nuclear Properties:
 (Nuclear quadrupole moments (NQMom) in fm**2, nuclear magnetic moments (NMagM)
  in nuclear magnetons)

  Atom         1           2           3           4           5           6           7           8           9          10
 IAtWgt=          16          12          14          12          12           1           1           1           1           1
 AtmWgt=  15.9949146  12.0000000  14.0030740  12.0000000  12.0000000   1.0078250   1.0078250   1.0078250   1.0078250   1.0078250
 NucSpn=           0           0           2           0           0           1           1           1           1           1
 AtZEff=  -0.0000000  -0.0000000  -0.0000000  -0.0000000  -0.0000000  -0.0000000  -0.0000000  -0.0000000  -0.0000000  -0.0000000
 NQMom=    0.0000000   0.0000000   2.0440000   0.0000000   0.0000000   0.0000000   0.0000000   0.0000000   0.0000000   0.0000000
 NMagM=    0.0000000   0.0000000   0.4037610   0.0000000   0.0000000   2.7928460   2.7928460   2.7928460   2.7928460   2.7928460
 AtZNuc=   8.0000000   6.0000000   7.0000000   6.0000000   6.0000000   1.0000000   1.0000000   1.0000000   1.0000000   1.0000000

  Atom        11          12          13          14
 IAtWgt=           1           1           1           1
 AtmWgt=   1.0078250   1.0078250   1.0078250   1.0078250
 NucSpn=           1           1           1           1
 AtZEff=  -0.0000000  -0.0000000  -0.0000000  -0.0000000
 NQMom=    0.0000000   0.0000000   0.0000000   0.0000000
 NMagM=    2.7928460   2.7928460   2.7928460   2.7928460
 AtZNuc=   1.0000000   1.0000000   1.0000000   1.0000000
 Leave Link  101 at Wed Oct 22 10:08:05 2025, MaxMem=  4294967296 cpu:               2.2 elap:               0.3
 (Enter /lrz/sys/applications/gaussian/g16.C.01/x86_64_legacy/exe/l202.exe)
                          Input orientation:                          
 ---------------------------------------------------------------------
 Center     Atomic      Atomic             Coordinates (Angstroms)
 Number     Number       Type             X           Y           Z
 ---------------------------------------------------------------------
      1          8           0       -0.577313    1.379334   -0.067202
      2          6           0       -0.508415    0.021913    0.318696
      3          7           0       -1.716384   -0.656016   -0.102569
      4          6           0        0.715722   -0.676828   -0.263354
      5          6           0        2.028807   -0.004902    0.108370
      6          1           0       -0.701133    1.387015   -1.026425
      7          1           0       -0.398455    0.063264    1.419325
      8          1           0       -1.614997   -1.658490    0.051305
      9          1           0       -2.492138   -0.355753    0.486520
     10          1           0        0.596977   -0.709286   -1.360652
     11          1           0        0.714886   -1.722927    0.085467
     12          1           0        2.050812    1.037779   -0.241714
     13          1           0        2.176292    0.005486    1.200199
     14          1           0        2.884264   -0.530739   -0.340695
 ---------------------------------------------------------------------
                    Distance matrix (angstroms):
                    1          2          3          4          5
     1  O    0.000000
     2  C    1.412889   0.000000
     3  N    2.332677   1.447840   0.000000
     4  C    2.436846   1.524970   2.437504   0.000000
     5  C    2.956146   2.546066   3.807217   1.521136   0.000000
     6  H    0.967212   1.926135   2.461345   2.617098   3.267685
     7  H    1.993437   1.106881   2.137864   2.149543   2.759502
     8  H    3.212352   2.029723   1.019270   2.548514   4.001864
     9  H    2.642667   2.026315   1.019303   3.309950   4.550279
    10  H    2.722922   2.139335   2.633866   1.104182   2.168944
    11  H    3.364091   2.143672   2.661716   1.102724   2.162989
    12  H    2.655966   2.809926   4.132804   2.173203   1.100103
    13  H    3.328078   2.825769   4.157850   2.177339   1.101794
    14  H    3.963041   3.500070   4.608510   2.174833   1.099987
                    6          7          8          9         10
     6  H    0.000000
     7  H    2.797432   0.000000
     8  H    3.357343   2.513143   0.000000
     9  H    2.921291   2.330066   1.629697   0.000000
    10  H    2.488227   3.052211   2.790598   3.616581   0.000000
    11  H    3.593488   2.491823   2.331024   3.509275   1.769924
    12  H    2.882870   3.115708   4.560031   4.807354   2.533356
    13  H    3.891793   2.584700   4.296818   4.736462   3.092425
    14  H    4.123479   3.771837   4.654980   5.442481   2.510752
                   11         12         13         14
    11  H    0.000000
    12  H    3.084355   0.000000
    13  H    2.523043   1.777776   0.000000
    14  H    2.511798   1.778957   1.778515   0.000000
 Stoichiometry    C3H9NO
 Framework group  C1[X(C3H9NO)]
 Deg. of freedom    36
 Full point group                 C1      NOp   1
 Largest Abelian subgroup         C1      NOp   1
 Largest concise Abelian subgroup C1      NOp   1
                         Standard orientation:                         
 ---------------------------------------------------------------------
 Center     Atomic      Atomic             Coordinates (Angstroms)
 Number     Number       Type             X           Y           Z
 ---------------------------------------------------------------------
      1          8           0       -0.577313    1.379334   -0.067202
      2          6           0       -0.508415    0.021913    0.318696
      3          7           0       -1.716384   -0.656016   -0.102569
      4          6           0        0.715722   -0.676828   -0.263354
      5          6           0        2.028807   -0.004902    0.108370
      6          1           0       -0.701133    1.387015   -1.026425
      7          1           0       -0.398455    0.063264    1.419325
      8          1           0       -1.614997   -1.658490    0.051305
      9          1           0       -2.492138   -0.355754    0.486520
     10          1           0        0.596977   -0.709286   -1.360652
     11          1           0        0.714886   -1.722927    0.085467
     12          1           0        2.050812    1.037779   -0.241714
     13          1           0        2.176292    0.005486    1.200199
     14          1           0        2.884264   -0.530739   -0.340695
 ---------------------------------------------------------------------
 Rotational constants (GHZ):           8.3111261           3.5551353           2.7389471
 Leave Link  202 at Wed Oct 22 10:08:05 2025, MaxMem=  4294967296 cpu:               0.1 elap:               0.0
 (Enter /lrz/sys/applications/gaussian/g16.C.01/x86_64_legacy/exe/l301.exe)
 Standard basis: def2TZVP (5D, 7F)
 Ernie: Thresh=  0.10000D-02 Tol=  0.10000D-05 Strict=F.
 There are   234 symmetry adapted cartesian basis functions of A   symmetry.
 There are   209 symmetry adapted basis functions of A   symmetry.
   209 basis functions,   327 primitive gaussians,   234 cartesian basis functions
    21 alpha electrons       21 beta electrons
       nuclear repulsion energy       195.3268724796 Hartrees.
 IExCor= 4639 DFT=T Ex+Corr=wB97XD ExCW=0 ScaHFX=  1.000000
 ScaDFX=  1.000000  1.000000  1.000000  1.000000 ScalE2=  1.000000  1.000000
 IRadAn=      5 IRanWt=     -1 IRanGd=            0 ICorTp=0 IEmpDi=121
 HFx  wShort=  0.000000 wLong=  0.200000 cFull=  0.222036 cShort=  0.000000 cLong=  0.777964
 DFx  wShort=  0.000000 wLong=  0.200000 cFull=  0.000000 cShort=  0.000000 cLong=  1.000000
 NAtoms=   14 NActive=   14 NUniq=   14 SFac= 1.00D+00 NAtFMM=   60 NAOKFM=F Big=F
 Integral buffers will be    131072 words long.
 Raffenetti 2 integral format.
 Two-electron integral symmetry is turned on.
 R6Disp:  Grimme-D2 Dispersion energy=       -0.0064876731 Hartrees.
 Nuclear repulsion after empirical dispersion term =      195.3203848065 Hartrees.
 ------------------------------------------------------------------------------
 Polarizable Continuum Model (PCM)
 =================================
 Model                : PCM.
 Atomic radii         : SMD-Coulomb.
 Polarization charges : Total charges.
 Charge compensation  : None.
 Solution method      : On-the-fly selection.
 Cavity type          : VdW (van der Waals Surface) (Alpha=1.000).
 Cavity algorithm     : GePol (No added spheres)
                        Default sphere list used, NSphG=   14.
                        Lebedev-Laikov grids with approx.  5.0 points / Ang**2.
                        Smoothing algorithm: York/Karplus (Gamma=1.0000).
                        Polarization charges: spherical gaussians, with
                                              point-specific exponents (IZeta= 3).
                        Self-potential: point-specific (ISelfS= 7).
                        Self-field    : sphere-specific E.n sum rule (ISelfD= 2).
 Solvent              : Water, Eps=  78.355300 Eps(inf)=   1.777849
 ------------------------------------------------------------------------------
 Spheres list:
 ISph  on   Nord     Re0    Alpha      Xe            Ye            Ze
    1   O      1    1.5200  1.000     -0.577313      1.379334     -0.067202
    2   C      2    1.8500  1.000     -0.508415      0.021913      0.318696
    3   N      3    1.8900  1.000     -1.716384     -0.656016     -0.102569
    4   C      4    1.8500  1.000      0.715722     -0.676828     -0.263354
    5   C      5    1.8500  1.000      2.028807     -0.004902      0.108370
    6   H      6    1.2000  1.000     -0.701133      1.387015     -1.026425
    7   H      7    1.2000  1.000     -0.398455      0.063264      1.419325
    8   H      8    1.2000  1.000     -1.614997     -1.658490      0.051305
    9   H      9    1.2000  1.000     -2.492138     -0.355754      0.486520
   10   H     10    1.2000  1.000      0.596977     -0.709286     -1.360652
   11   H     11    1.2000  1.000      0.714886     -1.722927      0.085467
   12   H     12    1.2000  1.000      2.050812      1.037779     -0.241714
   13   H     13    1.2000  1.000      2.176292      0.005486      1.200199
   14   H     14    1.2000  1.000      2.884264     -0.530739     -0.340695
 ------------------------------------------------------------------------------
 GePol: Number of generator spheres                  =      14
 GePol: Total number of spheres                      =      14
 GePol: Number of exposed spheres                    =      14 (100.00%)
 GePol: Number of points                             =    1003
 GePol: Average weight of points                     =       0.12
 GePol: Minimum weight of points                     =   0.30D-08
 GePol: Maximum weight of points                     =    0.21991
 GePol: Number of points with low weight             =      63
 GePol: Fraction of low-weight points (<1% of avg)   =       6.28%
 GePol: Cavity surface area                          =    118.261 Ang**2
 GePol: Cavity volume                                =     90.611 Ang**3
 ------------------------------------------------------------------------------
 Atomic radii for non-electrostatic terms: SMD-CDS.
 ------------------------------------------------------------------------------
 PCM non-electrostatic energy =         0.0028975368 Hartrees.
 Nuclear repulsion after PCM non-electrostatic terms =      195.3232823433 Hartrees.
 Leave Link  301 at Wed Oct 22 10:08:05 2025, MaxMem=  4294967296 cpu:               0.7 elap:               0.1
 (Enter /lrz/sys/applications/gaussian/g16.C.01/x86_64_legacy/exe/l302.exe)
 NPDir=0 NMtPBC=     1 NCelOv=     1 NCel=       1 NClECP=     1 NCelD=      1
         NCelK=      1 NCelE2=     1 NClLst=     1 CellRange=     0.0.
 One-electron integrals computed using PRISM.
 One-electron integral symmetry used in STVInt
   1 Symmetry operations used in ECPInt.
 ECPInt:  NShTT=    4186 NPrTT=   12072 LenC2=    4157 LenP2D=   10128.
 LDataN:  DoStor=T MaxTD1= 6 Len=  172
 NBasis=   209 RedAO= T EigKep=  2.37D-04  NBF=   209
 NBsUse=   209 1.00D-06 EigRej= -1.00D+00 NBFU=   209
 Precomputing XC quadrature grid using
 IXCGrd= 4 IRadAn=           5 IRanWt=          -1 IRanGd=           0 AccXCQ= 0.00D+00.
 Generated NRdTot=       0 NPtTot=           0 NUsed=           0 NTot=          32
 NSgBfM=   234   234   234   234   234 MxSgAt=    14 MxSgA2=    14.
 Leave Link  302 at Wed Oct 22 10:08:05 2025, MaxMem=  4294967296 cpu:               1.9 elap:               0.3
 (Enter /lrz/sys/applications/gaussian/g16.C.01/x86_64_legacy/exe/l303.exe)
 DipDrv:  MaxL=1.
 Leave Link  303 at Wed Oct 22 10:08:05 2025, MaxMem=  4294967296 cpu:               0.3 elap:               0.1
 (Enter /lrz/sys/applications/gaussian/g16.C.01/x86_64_legacy/exe/l401.exe)
 ExpMin= 9.52D-02 ExpMax= 2.70D+04 ExpMxC= 9.22D+02 IAcc=3 IRadAn=         5 AccDes= 0.00D+00
 Harris functional with IExCor= 4639 and IRadAn=       5 diagonalized for initial guess.
 HarFok:  IExCor= 4639 AccDes= 0.00D+00 IRadAn=         5 IDoV= 1 UseB2=F ITyADJ=14
 ICtDFT=  3500011 ScaDFX=  1.000000  1.000000  1.000000  1.000000
 FoFCou: FMM=F IPFlag=           0 FMFlag=      100000 FMFlg1=           0
         NFxFlg=           0 DoJE=T BraDBF=F KetDBF=T FulRan=T
         wScrn=  0.000000 ICntrl=       500 IOpCl=  0 I1Cent=   200000004 NGrid=           0
         NMat0=    1 NMatS0=      1 NMatT0=    0 NMatD0=    1 NMtDS0=    0 NMtDT0=    0
 Petite list used in FoFCou.
 Harris En= -238.841619119721    
 JPrj=0 DoOrth=F DoCkMO=F.
 Leave Link  401 at Wed Oct 22 10:08:07 2025, MaxMem=  4294967296 cpu:              11.1 elap:               1.4
 (Enter /lrz/sys/applications/gaussian/g16.C.01/x86_64_legacy/exe/l502.exe)
 Integral symmetry usage will be decided dynamically.
 Closed shell SCF:
 Using DIIS extrapolation, IDIIS=  1040.
 NGot=  4294967296 LenX=  4294853286 LenY=  4294798089
 Requested convergence on RMS density matrix=1.00D-08 within 128 cycles.
 Requested convergence on MAX density matrix=1.00D-06.
 Requested convergence on             energy=1.00D-06.
 No special actions if energy rises.
 Fock matrices will be formed incrementally for  20 cycles.

 Cycle   1  Pass 1  IDiag  1:
 FoFJK:  IHMeth= 1 ICntrl=       0 DoSepK=T KAlg= 0 I1Cent=           0 FoldK=F
 IRaf=         1 NMat=       1 IRICut=       1 DoRegI=T DoRafI=F ISym2E= 0 IDoP0=0 IntGTp=1.
 FoFCou: FMM=F IPFlag=           0 FMFlag=      100000 FMFlg1=           0
         NFxFlg=           0 DoJE=T BraDBF=F KetDBF=F FulRan=T
         wScrn=  0.000000 ICntrl=       500 IOpCl=  0 I1Cent=           0 NGrid=           0
         NMat0=    1 NMatS0=      1 NMatT0=    0 NMatD0=    1 NMtDS0=    0 NMtDT0=    0
 Symmetry not used in FoFCou.
 Inv3:  Mode=1 IEnd=     3018027.
 Iteration    1 A*A^-1 deviation from unit magnitude is 5.11D-15 for    519.
 Iteration    1 A*A^-1 deviation from orthogonality  is 2.93D-15 for    780    284.
 Iteration    1 A^-1*A deviation from unit magnitude is 4.22D-15 for     61.
 Iteration    1 A^-1*A deviation from orthogonality  is 2.58D-15 for    915    376.
 E= -249.684083504283    
 DIIS: error= 4.23D-02 at cycle   1 NSaved=   1.
 NSaved= 1 IEnMin= 1 EnMin= -249.684083504283     IErMin= 1 ErrMin= 4.23D-02
 ErrMax= 4.23D-02  0.00D+00 EMaxC= 1.00D-01 BMatC= 5.28D-01 BMatP= 5.28D-01
 IDIUse=3 WtCom= 5.77D-01 WtEn= 4.23D-01
 Coeff-Com:  0.100D+01
 Coeff-En:   0.100D+01
 Coeff:      0.100D+01
 Gap=     0.484 Goal=   None    Shift=    0.000
 GapD=    0.484 DampG=2.000 DampE=0.500 DampFc=1.0000 IDamp=-1.
 RMSDP=1.69D-03 MaxDP=4.86D-02              OVMax= 6.32D-02

 Cycle   2  Pass 1  IDiag  1:
 RMSU=  1.66D-03    CP:  9.70D-01
 E= -249.728715045888     Delta-E=       -0.044631541605 Rises=F Damp=F
 DIIS: error= 8.35D-03 at cycle   2 NSaved=   2.
 NSaved= 2 IEnMin= 2 EnMin= -249.728715045888     IErMin= 2 ErrMin= 8.35D-03
 ErrMax= 8.35D-03  0.00D+00 EMaxC= 1.00D-01 BMatC= 3.13D-02 BMatP= 5.28D-01
 IDIUse=3 WtCom= 9.16D-01 WtEn= 8.35D-02
 Coeff-Com:  0.129D+00 0.871D+00
 Coeff-En:   0.000D+00 0.100D+01
 Coeff:      0.118D+00 0.882D+00
 Gap=     0.458 Goal=   None    Shift=    0.000
 RMSDP=7.36D-04 MaxDP=3.15D-02 DE=-4.46D-02 OVMax= 4.69D-02

 Cycle   3  Pass 1  IDiag  1:
 RMSU=  6.23D-04    CP:  9.73D-01  7.64D-01
 E= -249.737516105429     Delta-E=       -0.008801059541 Rises=F Damp=F
 DIIS: error= 7.17D-03 at cycle   3 NSaved=   3.
 NSaved= 3 IEnMin= 3 EnMin= -249.737516105429     IErMin= 3 ErrMin= 7.17D-03
 ErrMax= 7.17D-03  0.00D+00 EMaxC= 1.00D-01 BMatC= 1.89D-02 BMatP= 3.13D-02
 IDIUse=3 WtCom= 9.28D-01 WtEn= 7.17D-02
 Coeff-Com:  0.239D-01 0.444D+00 0.532D+00
 Coeff-En:   0.000D+00 0.369D+00 0.631D+00
 Coeff:      0.222D-01 0.439D+00 0.539D+00
 Gap=     0.470 Goal=   None    Shift=    0.000
 RMSDP=3.74D-04 MaxDP=1.60D-02 DE=-8.80D-03 OVMax= 2.50D-02

 Cycle   4  Pass 1  IDiag  1:
 RMSU=  1.43D-04    CP:  9.69D-01  9.27D-01  6.59D-01
 E= -249.750445522746     Delta-E=       -0.012929417317 Rises=F Damp=F
 DIIS: error= 6.14D-04 at cycle   4 NSaved=   4.
 NSaved= 4 IEnMin= 4 EnMin= -249.750445522746     IErMin= 4 ErrMin= 6.14D-04
 ErrMax= 6.14D-04  0.00D+00 EMaxC= 1.00D-01 BMatC= 1.94D-04 BMatP= 1.89D-02
 IDIUse=3 WtCom= 9.94D-01 WtEn= 6.14D-03
 Coeff-Com:  0.856D-02 0.166D+00 0.224D+00 0.601D+00
 Coeff-En:   0.000D+00 0.000D+00 0.000D+00 0.100D+01
 Coeff:      0.851D-02 0.165D+00 0.223D+00 0.604D+00
 Gap=     0.457 Goal=   None    Shift=    0.000
 RMSDP=4.46D-05 MaxDP=1.44D-03 DE=-1.29D-02 OVMax= 2.12D-03

 Cycle   5  Pass 1  IDiag  1:
 RMSU=  3.85D-05    CP:  9.69D-01  9.35D-01  6.84D-01  9.75D-01
 E= -249.750582925320     Delta-E=       -0.000137402574 Rises=F Damp=F
 DIIS: error= 1.15D-04 at cycle   5 NSaved=   5.
 NSaved= 5 IEnMin= 5 EnMin= -249.750582925320     IErMin= 5 ErrMin= 1.15D-04
 ErrMax= 1.15D-04  0.00D+00 EMaxC= 1.00D-01 BMatC= 7.43D-06 BMatP= 1.94D-04
 IDIUse=3 WtCom= 9.99D-01 WtEn= 1.15D-03
 Coeff-Com: -0.200D-02-0.348D-01-0.333D-01 0.105D+00 0.965D+00
 Coeff-En:   0.000D+00 0.000D+00 0.000D+00 0.000D+00 0.100D+01
 Coeff:     -0.200D-02-0.347D-01-0.333D-01 0.105D+00 0.965D+00
 Gap=     0.456 Goal=   None    Shift=    0.000
 RMSDP=3.41D-05 MaxDP=7.09D-04 DE=-1.37D-04 OVMax= 1.04D-03

 Cycle   6  Pass 1  IDiag  1:
 RMSU=  1.05D-05    CP:  9.68D-01  9.45D-01  7.07D-01  1.13D+00  1.21D+00
 E= -249.750592954835     Delta-E=       -0.000010029516 Rises=F Damp=F
 DIIS: error= 2.84D-05 at cycle   6 NSaved=   6.
 NSaved= 6 IEnMin= 6 EnMin= -249.750592954835     IErMin= 6 ErrMin= 2.84D-05
 ErrMax= 2.84D-05  0.00D+00 EMaxC= 1.00D-01 BMatC= 2.84D-07 BMatP= 7.43D-06
 IDIUse=1 WtCom= 1.00D+00 WtEn= 0.00D+00
 Coeff-Com: -0.659D-03-0.111D-01-0.124D-01 0.531D-02 0.166D+00 0.853D+00
 Coeff:     -0.659D-03-0.111D-01-0.124D-01 0.531D-02 0.166D+00 0.853D+00
 Gap=     0.456 Goal=   None    Shift=    0.000
 RMSDP=7.74D-06 MaxDP=1.42D-04 DE=-1.00D-05 OVMax= 3.52D-04

 Cycle   7  Pass 1  IDiag  1:
 RMSU=  3.03D-06    CP:  9.68D-01  9.47D-01  7.11D-01  1.16D+00  1.31D+00
                    CP:  1.19D+00
 E= -249.750593331704     Delta-E=       -0.000000376868 Rises=F Damp=F
 DIIS: error= 1.85D-05 at cycle   7 NSaved=   7.
 NSaved= 7 IEnMin= 7 EnMin= -249.750593331704     IErMin= 7 ErrMin= 1.85D-05
 ErrMax= 1.85D-05  0.00D+00 EMaxC= 1.00D-01 BMatC= 9.36D-08 BMatP= 2.84D-07
 IDIUse=1 WtCom= 1.00D+00 WtEn= 0.00D+00
 Coeff-Com:  0.121D-05-0.339D-03-0.120D-02-0.122D-01-0.650D-01 0.354D+00
 Coeff-Com:  0.725D+00
 Coeff:      0.121D-05-0.339D-03-0.120D-02-0.122D-01-0.650D-01 0.354D+00
 Coeff:      0.725D+00
 Gap=     0.456 Goal=   None    Shift=    0.000
 RMSDP=2.94D-06 MaxDP=8.29D-05 DE=-3.77D-07 OVMax= 1.17D-04

 Cycle   8  Pass 1  IDiag  1:
 RMSU=  1.02D-06    CP:  9.68D-01  9.48D-01  7.12D-01  1.17D+00  1.34D+00
                    CP:  1.35D+00  1.09D+00
 E= -249.750593431870     Delta-E=       -0.000000100167 Rises=F Damp=F
 DIIS: error= 3.77D-06 at cycle   8 NSaved=   8.
 NSaved= 8 IEnMin= 8 EnMin= -249.750593431870     IErMin= 8 ErrMin= 3.77D-06
 ErrMax= 3.77D-06  0.00D+00 EMaxC= 1.00D-01 BMatC= 2.68D-09 BMatP= 9.36D-08
 IDIUse=1 WtCom= 1.00D+00 WtEn= 0.00D+00
 Coeff-Com:  0.421D-04 0.702D-03 0.756D-03-0.145D-02-0.179D-01-0.232D-01
 Coeff-Com:  0.887D-01 0.952D+00
 Coeff:      0.421D-04 0.702D-03 0.756D-03-0.145D-02-0.179D-01-0.232D-01
 Coeff:      0.887D-01 0.952D+00
 Gap=     0.456 Goal=   None    Shift=    0.000
 RMSDP=9.52D-07 MaxDP=2.10D-05 DE=-1.00D-07 OVMax= 4.55D-05

 Cycle   9  Pass 1  IDiag  1:
 RMSU=  2.32D-07    CP:  9.68D-01  9.48D-01  7.12D-01  1.17D+00  1.35D+00
                    CP:  1.40D+00  1.23D+00  1.25D+00
 E= -249.750593437150     Delta-E=       -0.000000005280 Rises=F Damp=F
 DIIS: error= 8.10D-07 at cycle   9 NSaved=   9.
 NSaved= 9 IEnMin= 9 EnMin= -249.750593437150     IErMin= 9 ErrMin= 8.10D-07
 ErrMax= 8.10D-07  0.00D+00 EMaxC= 1.00D-01 BMatC= 3.90D-10 BMatP= 2.68D-09
 IDIUse=1 WtCom= 1.00D+00 WtEn= 0.00D+00
 Coeff-Com:  0.106D-04 0.244D-03 0.347D-03 0.514D-03 0.126D-03-0.351D-01
 Coeff-Com: -0.370D-01 0.259D+00 0.812D+00
 Coeff:      0.106D-04 0.244D-03 0.347D-03 0.514D-03 0.126D-03-0.351D-01
 Coeff:     -0.370D-01 0.259D+00 0.812D+00
 Gap=     0.456 Goal=   None    Shift=    0.000
 RMSDP=2.45D-07 MaxDP=5.86D-06 DE=-5.28D-09 OVMax= 1.19D-05

 Cycle  10  Pass 1  IDiag  1:
 RMSU=  8.82D-08    CP:  9.68D-01  9.48D-01  7.12D-01  1.17D+00  1.35D+00
                    CP:  1.41D+00  1.27D+00  1.35D+00  1.19D+00
 E= -249.750593437756     Delta-E=       -0.000000000606 Rises=F Damp=F
 DIIS: error= 3.66D-07 at cycle  10 NSaved=  10.
 NSaved=10 IEnMin=10 EnMin= -249.750593437756     IErMin=10 ErrMin= 3.66D-07
 ErrMax= 3.66D-07  0.00D+00 EMaxC= 1.00D-01 BMatC= 3.69D-11 BMatP= 3.90D-10
 IDIUse=1 WtCom= 1.00D+00 WtEn= 0.00D+00
 Coeff-Com: -0.257D-05-0.360D-04-0.149D-04 0.349D-03 0.270D-02-0.720D-02
 Coeff-Com: -0.240D-01-0.518D-01 0.199D+00 0.881D+00
 Coeff:     -0.257D-05-0.360D-04-0.149D-04 0.349D-03 0.270D-02-0.720D-02
 Coeff:     -0.240D-01-0.518D-01 0.199D+00 0.881D+00
 Gap=     0.456 Goal=   None    Shift=    0.000
 RMSDP=8.79D-08 MaxDP=1.85D-06 DE=-6.06D-10 OVMax= 4.37D-06

 Cycle  11  Pass 1  IDiag  1:
 RMSU=  2.52D-08    CP:  9.68D-01  9.48D-01  7.12D-01  1.17D+00  1.35D+00
                    CP:  1.41D+00  1.28D+00  1.39D+00  1.38D+00  1.21D+00
 E= -249.750593437827     Delta-E=       -0.000000000071 Rises=F Damp=F
 DIIS: error= 5.46D-08 at cycle  11 NSaved=  11.
 NSaved=11 IEnMin=11 EnMin= -249.750593437827     IErMin=11 ErrMin= 5.46D-08
 ErrMax= 5.46D-08  0.00D+00 EMaxC= 1.00D-01 BMatC= 8.19D-13 BMatP= 3.69D-11
 IDIUse=1 WtCom= 1.00D+00 WtEn= 0.00D+00
 Coeff-Com: -0.442D-07-0.457D-05-0.131D-04-0.512D-04-0.355D-03 0.242D-02
 Coeff-Com:  0.454D-02-0.532D-02-0.641D-01-0.752D-01 0.114D+01
 Coeff:     -0.442D-07-0.457D-05-0.131D-04-0.512D-04-0.355D-03 0.242D-02
 Coeff:      0.454D-02-0.532D-02-0.641D-01-0.752D-01 0.114D+01
 Gap=     0.456 Goal=   None    Shift=    0.000
 RMSDP=2.21D-08 MaxDP=5.11D-07 DE=-7.11D-11 OVMax= 8.26D-07

 Cycle  12  Pass 1  IDiag  1:
 RMSU=  6.09D-09    CP:  9.68D-01  9.48D-01  7.12D-01  1.17D+00  1.35D+00
                    CP:  1.41D+00  1.28D+00  1.39D+00  1.43D+00  1.36D+00
                    CP:  1.38D+00
 E= -249.750593437819     Delta-E=        0.000000000008 Rises=F Damp=F
 DIIS: error= 9.20D-09 at cycle  12 NSaved=  12.
 NSaved=12 IEnMin=11 EnMin= -249.750593437827     IErMin=12 ErrMin= 9.20D-09
 ErrMax= 9.20D-09  0.00D+00 EMaxC= 1.00D-01 BMatC= 4.00D-14 BMatP= 8.19D-13
 IDIUse=1 WtCom= 1.00D+00 WtEn= 0.00D+00
 Coeff-Com:  0.517D-07 0.221D-06-0.130D-05-0.190D-04-0.121D-03 0.505D-03
 Coeff-Com:  0.135D-02 0.106D-02-0.128D-01-0.415D-01 0.116D+00 0.936D+00
 Coeff:      0.517D-07 0.221D-06-0.130D-05-0.190D-04-0.121D-03 0.505D-03
 Coeff:      0.135D-02 0.106D-02-0.128D-01-0.415D-01 0.116D+00 0.936D+00
 Gap=     0.456 Goal=   None    Shift=    0.000
 RMSDP=4.32D-09 MaxDP=8.82D-08 DE= 7.96D-12 OVMax= 1.46D-07

 Error on total polarization charges =  0.03957
 SCF Done:  E(RwB97XD) =  -249.750593438     A.U. after   12 cycles
            NFock= 12  Conv=0.43D-08     -V/T= 2.0053
 KE= 2.484244896046D+02 PE=-9.739235114071D+02 EE= 2.804251460213D+02
 SMD-CDS (non-electrostatic) energy       (kcal/mol) =       1.82
 (included in total energy above)
 Leave Link  502 at Wed Oct 22 10:09:06 2025, MaxMem=  4294967296 cpu:             471.1 elap:              59.0
 (Enter /lrz/sys/applications/gaussian/g16.C.01/x86_64_legacy/exe/l601.exe)
 Copying SCF densities to generalized density rwf, IOpCl= 0 IROHF=0.

 **********************************************************************

            Population analysis using the SCF Density.

 **********************************************************************

 Orbital symmetries:
       Occupied  (A) (A) (A) (A) (A) (A) (A) (A) (A) (A) (A) (A)
                 (A) (A) (A) (A) (A) (A) (A) (A) (A)
       Virtual   (A) (A) (A) (A) (A) (A) (A) (A) (A) (A) (A) (A)
                 (A) (A) (A) (A) (A) (A) (A) (A) (A) (A) (A) (A)
                 (A) (A) (A) (A) (A) (A) (A) (A) (A) (A) (A) (A)
                 (A) (A) (A) (A) (A) (A) (A) (A) (A) (A) (A) (A)
                 (A) (A) (A) (A) (A) (A) (A) (A) (A) (A) (A) (A)
                 (A) (A) (A) (A) (A) (A) (A) (A) (A) (A) (A) (A)
                 (A) (A) (A) (A) (A) (A) (A) (A) (A) (A) (A) (A)
                 (A) (A) (A) (A) (A) (A) (A) (A) (A) (A) (A) (A)
                 (A) (A) (A) (A) (A) (A) (A) (A) (A) (A) (A) (A)
                 (A) (A) (A) (A) (A) (A) (A) (A) (A) (A) (A) (A)
                 (A) (A) (A) (A) (A) (A) (A) (A) (A) (A) (A) (A)
                 (A) (A) (A) (A) (A) (A) (A) (A) (A) (A) (A) (A)
                 (A) (A) (A) (A) (A) (A) (A) (A) (A) (A) (A) (A)
                 (A) (A) (A) (A) (A) (A) (A) (A) (A) (A) (A) (A)
                 (A) (A) (A) (A) (A) (A) (A) (A) (A) (A) (A) (A)
                 (A) (A) (A) (A) (A) (A) (A) (A)
 The electronic state is 1-A.
 Alpha  occ. eigenvalues --  -19.24875 -14.41028 -10.35100 -10.27164 -10.26508
 Alpha  occ. eigenvalues --   -1.13384  -0.97206  -0.86070  -0.74679  -0.68787
 Alpha  occ. eigenvalues --   -0.58675  -0.57115  -0.55118  -0.52672  -0.49261
 Alpha  occ. eigenvalues --   -0.45854  -0.43859  -0.41643  -0.41203  -0.37320
 Alpha  occ. eigenvalues --   -0.33693
 Alpha virt. eigenvalues --    0.11938   0.14140   0.15262   0.16878   0.19108
 Alpha virt. eigenvalues --    0.19277   0.20218   0.22536   0.22789   0.24514
 Alpha virt. eigenvalues --    0.27193   0.28504   0.30725   0.31758   0.33214
 Alpha virt. eigenvalues --    0.36756   0.36975   0.39942   0.40756   0.40923
 Alpha virt. eigenvalues --    0.44039   0.46395   0.47819   0.49201   0.50132
 Alpha virt. eigenvalues --    0.51259   0.52416   0.53639   0.55546   0.56540
 Alpha virt. eigenvalues --    0.56785   0.57442   0.59152   0.61265   0.62017
 Alpha virt. eigenvalues --    0.65647   0.67297   0.68807   0.69896   0.74334
 Alpha virt. eigenvalues --    0.80868   0.83859   0.85212   0.88154   0.92238
 Alpha virt. eigenvalues --    0.93813   0.98505   1.03418   1.07333   1.08513
 Alpha virt. eigenvalues --    1.10697   1.15634   1.18681   1.21456   1.22978
 Alpha virt. eigenvalues --    1.25391   1.26954   1.37381   1.43424   1.44401
 Alpha virt. eigenvalues --    1.47921   1.50079   1.52162   1.58210   1.59559
 Alpha virt. eigenvalues --    1.62525   1.64614   1.66506   1.67154   1.68378
 Alpha virt. eigenvalues --    1.71920   1.77404   1.79939   1.81423   1.86203
 Alpha virt. eigenvalues --    1.86768   1.90467   1.92531   1.95298   1.97139
 Alpha virt. eigenvalues --    1.98682   2.01507   2.02276   2.07332   2.10848
 Alpha virt. eigenvalues --    2.11885   2.16298   2.19310   2.22116   2.25598
 Alpha virt. eigenvalues --    2.32042   2.33715   2.35772   2.39534   2.39920
 Alpha virt. eigenvalues --    2.42289   2.46654   2.49511   2.49615   2.52510
 Alpha virt. eigenvalues --    2.53996   2.59134   2.62163   2.63495   2.65247
 Alpha virt. eigenvalues --    2.68929   2.71931   2.74101   2.74565   2.76221
 Alpha virt. eigenvalues --    2.80229   2.81854   2.83179   2.85633   2.94377
 Alpha virt. eigenvalues --    2.95924   2.99873   3.03301   3.08282   3.12842
 Alpha virt. eigenvalues --    3.15504   3.19089   3.22323   3.27145   3.27796
 Alpha virt. eigenvalues --    3.30248   3.33611   3.35526   3.37683   3.41598
 Alpha virt. eigenvalues --    3.43918   3.45299   3.47325   3.50059   3.53523
 Alpha virt. eigenvalues --    3.59221   3.61710   3.65592   3.68249   3.72382
 Alpha virt. eigenvalues --    3.75831   3.86422   3.93848   3.96649   3.98931
 Alpha virt. eigenvalues --    4.02739   4.06385   4.12013   4.14003   4.24270
 Alpha virt. eigenvalues --    4.32981   4.35778   4.41623   4.45554   4.49295
 Alpha virt. eigenvalues --    4.60903   4.64274   4.67236   4.71614   4.76739
 Alpha virt. eigenvalues --    4.85608   4.89672   4.92437   5.00836   5.01077
 Alpha virt. eigenvalues --    5.16710   5.26659   5.32391   5.36076   5.41358
 Alpha virt. eigenvalues --    5.48676   5.55872   5.65754   5.80424   5.85262
 Alpha virt. eigenvalues --    5.96494   6.11314   6.39529   6.57492   6.81555
 Alpha virt. eigenvalues --    6.93828   7.07395   7.25607  22.41129  22.53963
 Alpha virt. eigenvalues --   22.70236  32.06500  43.94931
          Condensed to atoms (all electrons):
               1          2          3          4          5          6
     1  O    8.169296   0.252129  -0.075919  -0.031964  -0.019778   0.294940
     2  C    0.252129   4.668501   0.300211   0.352101  -0.031564  -0.022492
     3  N   -0.075919   0.300211   6.758899  -0.072985   0.006516   0.008514
     4  C   -0.031964   0.352101  -0.072985   5.054842   0.276863  -0.013044
     5  C   -0.019778  -0.031564   0.006516   0.276863   4.992267   0.000454
     6  H    0.294940  -0.022492   0.008514  -0.013044   0.000454   0.356412
     7  H   -0.048497   0.435105  -0.050654  -0.072712   0.004881   0.010648
     8  H    0.005448  -0.023339   0.361164  -0.007071   0.000325  -0.000144
     9  H    0.004995  -0.026479   0.357338   0.008520  -0.000856  -0.001597
    10  H   -0.005794  -0.029162   0.006502   0.393194  -0.028504   0.005608
    11  H    0.006540  -0.042917   0.001456   0.409804  -0.026619   0.000196
    12  H    0.018462  -0.016891   0.000843  -0.035027   0.408949   0.000498
    13  H    0.000336  -0.002383   0.000340  -0.034732   0.403615   0.000090
    14  H    0.000569   0.009791  -0.000164  -0.038788   0.412421  -0.000118
               7          8          9         10         11         12
     1  O   -0.048497   0.005448   0.004995  -0.005794   0.006540   0.018462
     2  C    0.435105  -0.023339  -0.026479  -0.029162  -0.042917  -0.016891
     3  N   -0.050654   0.361164   0.357338   0.006502   0.001456   0.000843
     4  C   -0.072712  -0.007071   0.008520   0.393194   0.409804  -0.035027
     5  C    0.004881   0.000325  -0.000856  -0.028504  -0.026619   0.408949
     6  H    0.010648  -0.000144  -0.001597   0.005608   0.000196   0.000498
     7  H    0.626298   0.000348  -0.008705   0.009659  -0.003284   0.000379
     8  H    0.000348   0.419089  -0.022611   0.000047   0.000882  -0.000109
     9  H   -0.008705  -0.022611   0.429762  -0.000414  -0.000391  -0.000061
    10  H    0.009659   0.000047  -0.000414   0.573217  -0.028798  -0.004289
    11  H   -0.003284   0.000882  -0.000391  -0.028798   0.569603   0.007028
    12  H    0.000379  -0.000109  -0.000061  -0.004289   0.007028   0.548593
    13  H    0.003002   0.000014  -0.000003   0.006104  -0.004282  -0.025884
    14  H   -0.000348  -0.000067   0.000014  -0.004494  -0.004241  -0.021382
              13         14
     1  O    0.000336   0.000569
     2  C   -0.002383   0.009791
     3  N    0.000340  -0.000164
     4  C   -0.034732  -0.038788
     5  C    0.403615   0.412421
     6  H    0.000090  -0.000118
     7  H    0.003002  -0.000348
     8  H    0.000014  -0.000067
     9  H   -0.000003   0.000014
    10  H    0.006104  -0.004494
    11  H   -0.004282  -0.004241
    12  H   -0.025884  -0.021382
    13  H    0.551052  -0.021489
    14  H   -0.021489   0.530577
 Mulliken charges:
               1
     1  O   -0.570762
     2  C    0.177388
     3  N   -0.602060
     4  C   -0.189000
     5  C   -0.398971
     6  H    0.360035
     7  H    0.093880
     8  H    0.266026
     9  H    0.260486
    10  H    0.107124
    11  H    0.115021
    12  H    0.118892
    13  H    0.124220
    14  H    0.137720
 Sum of Mulliken charges =  -0.00000
 Mulliken charges with hydrogens summed into heavy atoms:
               1
     1  O   -0.210728
     2  C    0.271268
     3  N   -0.075547
     4  C    0.033145
     5  C   -0.018139
 Electronic spatial extent (au):  <R**2>=            495.8039
 Charge=              0.0000 electrons
 Dipole moment (field-independent basis, Debye):
    X=              0.0339    Y=             -2.4656    Z=              0.3566  Tot=              2.4915
 Quadrupole moment (field-independent basis, Debye-Ang):
   XX=            -31.9767   YY=            -33.3337   ZZ=            -30.8778
   XY=              1.1921   XZ=             -2.8238   YZ=             -3.5871
 Traceless Quadrupole moment (field-independent basis, Debye-Ang):
   XX=              0.0860   YY=             -1.2710   ZZ=              1.1849
   XY=              1.1921   XZ=             -2.8238   YZ=             -3.5871
 Octapole moment (field-independent basis, Debye-Ang**2):
  XXX=            -12.1508  YYY=             -8.2054  ZZZ=             -0.5046  XYY=             -3.8824
  XXY=             -2.4026  XXZ=              7.0627  XZZ=             -1.7076  YZZ=              4.9645
  YYZ=             -3.4168  XYZ=              3.6741
 Hexadecapole moment (field-independent basis, Debye-Ang**3):
 XXXX=           -397.2269 YYYY=           -161.2100 ZZZZ=            -63.4447 XXXY=             -0.1014
 XXXZ=            -23.5292 YYYX=             10.2113 YYYZ=            -11.1960 ZZZX=             -1.2218
 ZZZY=             -6.2956 XXYY=            -92.8104 XXZZ=            -82.1380 YYZZ=            -36.0534
 XXYZ=             -5.2589 YYXZ=              0.7439 ZZXY=             -4.1898
 N-N= 1.953232823433D+02 E-N=-9.739235104054D+02  KE= 2.484244896046D+02
 No NMR shielding tensors so no spin-rotation constants.
 Leave Link  601 at Wed Oct 22 10:09:06 2025, MaxMem=  4294967296 cpu:               1.1 elap:               0.2
 (Enter /lrz/sys/applications/gaussian/g16.C.01/x86_64_legacy/exe/l9999.exe)
 Unable to Open any file for archive entry.
 1\1\GINC-CM4R15C05S03\SP\RwB97XD\def2TZVP\C3H9N1O1\GO29TIZ2\22-Oct-202
 5\0\\#p wb97xd scrf=(smd,solvent=water) def2tzvp\\g16_g16_C2-a_7\\0,1\
 O,0,-0.577313,1.379334,-0.067202\C,0,-0.508415,0.021913,0.318696\N,0,-
 1.716384,-0.656016,-0.102569\C,0,0.715722,-0.676828,-0.263354\C,0,2.02
 8807,-0.004902,0.10837\H,0,-0.701133,1.387015,-1.026425\H,0,-0.398455,
 0.063264,1.419325\H,0,-1.614997,-1.65849,0.051305\H,0,-2.492138,-0.355
 753,0.48652\H,0,0.596977,-0.709286,-1.360652\H,0,0.714886,-1.722927,0.
 085467\H,0,2.050812,1.037779,-0.241714\H,0,2.176292,0.005486,1.200199\
 H,0,2.884264,-0.530739,-0.340695\\Version=EM64L-G16RevC.01\State=1-A\H
 F=-249.7505934\RMSD=4.320e-09\Dipole=0.0133453,-0.970045,0.1403137\Qua
 drupole=0.0639584,-0.9449362,0.8809778,0.8863134,-2.0994455,-2.6668889
 \PG=C01 [X(C3H9N1O1)]\\@
 The archive entry for this job was punched.


 CHRISTMAS IS ON TOP OF A STEEP HILL.
 THE CLOSER YOU GET, THE STEEPER THE HILL IS.
          -- LINUS, OF PEANUTS
 Job cpu time:       0 days  0 hours  8 minutes 13.8 seconds.
 Elapsed time:       0 days  0 hours  1 minutes  2.2 seconds.
 File lengths (MBytes):  RWF=    288 Int=      0 D2E=      0 Chk=      8 Scr=     32
 Normal termination of Gaussian 16 at Wed Oct 22 10:09:06 2025.
