 Entering Gaussian System, Link 0=g16
 Input=../../g16_g16_C17-a_11.com
 Output=../../g16_g16_C17-a_11.log
 Initial command:
 /lrz/sys/applications/gaussian/g16.C.01/x86_64_legacy/exe/l1.exe "/dss/lxclscratch/0D/go29tiz2/Gau-228650.inp" -scrdir="/dss/lxclscratch/0D/go29tiz2/"
 Entering Link 1 = /lrz/sys/applications/gaussian/g16.C.01/x86_64_legacy/exe/l1.exe PID=    228653.
  
 Copyright (c) 1988-2019, Gaussian, Inc.  All Rights Reserved.
  
 This is part of the Gaussian(R) 16 program.  It is based on
 the Gaussian(R) 09 system (copyright 2009, Gaussian, Inc.),
 the Gaussian(R) 03 system (copyright 2003, Gaussian, Inc.),
 the Gaussian(R) 98 system (copyright 1998, Gaussian, Inc.),
 the Gaussian(R) 94 system (copyright 1995, Gaussian, Inc.),
 the Gaussian 92(TM) system (copyright 1992, Gaussian, Inc.),
 the Gaussian 90(TM) system (copyright 1990, Gaussian, Inc.),
 the Gaussian 88(TM) system (copyright 1988, Gaussian, Inc.),
 the Gaussian 86(TM) system (copyright 1986, Carnegie Mellon
 University), and the Gaussian 82(TM) system (copyright 1983,
 Carnegie Mellon University). Gaussian is a federally registered
 trademark of Gaussian, Inc.
  
 This software contains proprietary and confidential information,
 including trade secrets, belonging to Gaussian, Inc.
  
 This software is provided under written license and may be
 used, copied, transmitted, or stored only in accord with that
 written license.
  
 The following legend is applicable only to US Government
 contracts under FAR:
  
                    RESTRICTED RIGHTS LEGEND
  
 Use, reproduction and disclosure by the US Government is
 subject to restrictions as set forth in subparagraphs (a)
 and (c) of the Commercial Computer Software - Restricted
 Rights clause in FAR 52.227-19.
  
 Gaussian, Inc.
 340 Quinnipiac St., Bldg. 40, Wallingford CT 06492
  
  
 ---------------------------------------------------------------
 Warning -- This program may not be used in any manner that
 competes with the business of Gaussian, Inc. or will provide
 assistance to any competitor of Gaussian, Inc.  The licensee
 of this program is prohibited from giving any competitor of
 Gaussian, Inc. access to this program.  By using this program,
 the user acknowledges that Gaussian, Inc. is engaged in the
 business of creating and licensing software in the field of
 computational chemistry and represents and warrants to the
 licensee that it is not a competitor of Gaussian, Inc. and that
 it will not use this program in any manner prohibited above.
 ---------------------------------------------------------------
  

 Cite this work as:
 Gaussian 16, Revision C.01,
 M. J. Frisch, G. W. Trucks, H. B. Schlegel, G. E. Scuseria, 
 M. A. Robb, J. R. Cheeseman, G. Scalmani, V. Barone, 
 G. A. Petersson, H. Nakatsuji, X. Li, M. Caricato, A. V. Marenich, 
 J. Bloino, B. G. Janesko, R. Gomperts, B. Mennucci, H. P. Hratchian, 
 J. V. Ortiz, A. F. Izmaylov, J. L. Sonnenberg, D. Williams-Young, 
 F. Ding, F. Lipparini, F. Egidi, J. Goings, B. Peng, A. Petrone, 
 T. Henderson, D. Ranasinghe, V. G. Zakrzewski, J. Gao, N. Rega, 
 G. Zheng, W. Liang, M. Hada, M. Ehara, K. Toyota, R. Fukuda, 
 J. Hasegawa, M. Ishida, T. Nakajima, Y. Honda, O. Kitao, H. Nakai, 
 T. Vreven, K. Throssell, J. A. Montgomery, Jr., J. E. Peralta, 
 F. Ogliaro, M. J. Bearpark, J. J. Heyd, E. N. Brothers, K. N. Kudin, 
 V. N. Staroverov, T. A. Keith, R. Kobayashi, J. Normand, 
 K. Raghavachari, A. P. Rendell, J. C. Burant, S. S. Iyengar, 
 J. Tomasi, M. Cossi, J. M. Millam, M. Klene, C. Adamo, R. Cammi, 
 J. W. Ochterski, R. L. Martin, K. Morokuma, O. Farkas, 
 J. B. Foresman, and D. J. Fox, Gaussian, Inc., Wallingford CT, 2019.
 
 ******************************************
 Gaussian 16:  EM64L-G16RevC.01  3-Jul-2019
                22-Oct-2025 
 ******************************************
 %chk=g16_g16_C17-a_11.chk
 %nprocshared=8
 Will use up to    8 processors via shared memory.
 %mem=32GB
 -------------------------------------------
 #p wb97xd scrf=(smd,solvent=water) def2tzvp
 -------------------------------------------
 1/38=1,172=1/1;
 2/12=2,17=6,18=5,40=1/2;
 3/5=44,7=101,11=2,25=1,30=1,70=32201,72=1,74=-58/1,2,3;
 4//1;
 5/5=2,38=5,53=1/2;
 6/7=2,8=2,9=2,10=2,28=1/1;
 99/5=1,9=1/99;
 Leave Link    1 at Wed Oct 22 13:36:36 2025, MaxMem=  4294967296 cpu:               5.2 elap:               0.7
 (Enter /lrz/sys/applications/gaussian/g16.C.01/x86_64_legacy/exe/l101.exe)
 ----------------
 g16_g16_C17-a_11
 ----------------
 Symbolic Z-matrix:
 Charge =  0 Multiplicity = 1
 O                     1.32662   1.32741  -0.14699 
 C                     1.09476   0.01317   0.31742 
 N                     2.15288  -0.85389  -0.15742 
 C                    -0.26116  -0.52057  -0.12891 
 C                    -1.4369    0.34608   0.30607 
 C                    -2.78144  -0.2008   -0.15565 
 H                     1.3634    1.27595  -1.11203 
 H                     1.08601   0.11839   1.41897 
 H                     1.92016  -1.82344   0.05401 
 H                     3.0096   -0.64933   0.35553 
 H                    -0.38325  -1.54124   0.27315 
 H                    -0.24658  -0.6151   -1.22997 
 H                    -1.29366   1.36559  -0.08675 
 H                    -1.43157   0.43823   1.40603 
 H                    -2.96295  -1.20881   0.25092 
 H                    -3.61156   0.44505   0.16866 
 H                    -2.82428  -0.27457  -1.25429 
 
 ITRead=  0  0  0  0  0  0  0  0  0  0  0  0  0  0  0  0  0
 MicOpt= -1 -1 -1 -1 -1 -1 -1 -1 -1 -1 -1 -1 -1 -1 -1 -1 -1
 NAtoms=     17 NQM=       17 NQMF=       0 NMMI=      0 NMMIF=      0
                NMic=       0 NMicF=      0.
                    Isotopes and Nuclear Properties:
 (Nuclear quadrupole moments (NQMom) in fm**2, nuclear magnetic moments (NMagM)
  in nuclear magnetons)

  Atom         1           2           3           4           5           6           7           8           9          10
 IAtWgt=          16          12          14          12          12          12           1           1           1           1
 AtmWgt=  15.9949146  12.0000000  14.0030740  12.0000000  12.0000000  12.0000000   1.0078250   1.0078250   1.0078250   1.0078250
 NucSpn=           0           0           2           0           0           0           1           1           1           1
 AtZEff=  -0.0000000  -0.0000000  -0.0000000  -0.0000000  -0.0000000  -0.0000000  -0.0000000  -0.0000000  -0.0000000  -0.0000000
 NQMom=    0.0000000   0.0000000   2.0440000   0.0000000   0.0000000   0.0000000   0.0000000   0.0000000   0.0000000   0.0000000
 NMagM=    0.0000000   0.0000000   0.4037610   0.0000000   0.0000000   0.0000000   2.7928460   2.7928460   2.7928460   2.7928460
 AtZNuc=   8.0000000   6.0000000   7.0000000   6.0000000   6.0000000   6.0000000   1.0000000   1.0000000   1.0000000   1.0000000

  Atom        11          12          13          14          15          16          17
 IAtWgt=           1           1           1           1           1           1           1
 AtmWgt=   1.0078250   1.0078250   1.0078250   1.0078250   1.0078250   1.0078250   1.0078250
 NucSpn=           1           1           1           1           1           1           1
 AtZEff=  -0.0000000  -0.0000000  -0.0000000  -0.0000000  -0.0000000  -0.0000000  -0.0000000
 NQMom=    0.0000000   0.0000000   0.0000000   0.0000000   0.0000000   0.0000000   0.0000000
 NMagM=    2.7928460   2.7928460   2.7928460   2.7928460   2.7928460   2.7928460   2.7928460
 AtZNuc=   1.0000000   1.0000000   1.0000000   1.0000000   1.0000000   1.0000000   1.0000000
 Leave Link  101 at Wed Oct 22 13:36:36 2025, MaxMem=  4294967296 cpu:               0.6 elap:               0.1
 (Enter /lrz/sys/applications/gaussian/g16.C.01/x86_64_legacy/exe/l202.exe)
                          Input orientation:                          
 ---------------------------------------------------------------------
 Center     Atomic      Atomic             Coordinates (Angstroms)
 Number     Number       Type             X           Y           Z
 ---------------------------------------------------------------------
      1          8           0        1.326618    1.327408   -0.146989
      2          6           0        1.094759    0.013174    0.317423
      3          7           0        2.152879   -0.853890   -0.157419
      4          6           0       -0.261155   -0.520574   -0.128909
      5          6           0       -1.436904    0.346081    0.306071
      6          6           0       -2.781437   -0.200804   -0.155652
      7          1           0        1.363398    1.275945   -1.112028
      8          1           0        1.086006    0.118388    1.418973
      9          1           0        1.920164   -1.823437    0.054014
     10          1           0        3.009604   -0.649328    0.355532
     11          1           0       -0.383253   -1.541238    0.273146
     12          1           0       -0.246576   -0.615100   -1.229970
     13          1           0       -1.293660    1.365586   -0.086745
     14          1           0       -1.431570    0.438228    1.406028
     15          1           0       -2.962946   -1.208812    0.250917
     16          1           0       -3.611560    0.445045    0.168663
     17          1           0       -2.824283   -0.274570   -1.254287
 ---------------------------------------------------------------------
                    Distance matrix (angstroms):
                    1          2          3          4          5
     1  O    0.000000
     2  C    1.413028   0.000000
     3  N    2.332569   1.448065   0.000000
     4  C    2.436470   1.524009   2.437103   0.000000
     5  C    2.967376   2.553483   3.813305   1.524035   0.000000
     6  C    4.383107   3.910816   4.977349   2.540628   1.523168
     7  H    0.967110   1.926159   2.463890   2.614034   3.273735
     8  H    1.992953   1.106598   2.137418   2.149198   2.766852
     9  H    3.212557   2.030719   1.019255   2.547364   4.005028
    10  H    2.644325   2.026572   1.019285   3.308946   4.556832
    11  H    3.365903   2.145385   2.662668   1.103771   2.161767
    12  H    2.724174   2.142039   2.639085   1.105207   2.167988
    13  H    2.621248   2.774332   4.099963   2.150685   1.101914
    14  H    3.287872   2.783536   4.118520   2.155274   1.103823
    15  H    4.999110   4.238236   5.144354   2.813825   2.179344
    16  H    5.026311   4.728433   5.917966   3.499455   2.181239
    17  H    4.585021   4.232252   5.129413   2.810092   2.178244
                    6          7          8          9         10
     6  C    0.000000
     7  H    4.502788   0.000000
     8  H    4.187892   2.796936   0.000000
     9  H    4.978147   3.357947   2.515873   0.000000
    10  H    5.830835   2.927525   2.328202   1.629823   0.000000
    11  H    2.780633   3.592495   2.495195   2.330962   3.509098
    12  H    2.784119   2.486358   3.054616   2.793467   3.621836
    13  H    2.161436   2.849421   3.079854   4.529718   4.772166
    14  H    2.160867   3.854118   2.537844   4.263472   4.691519
    15  H    1.101964   5.171933   4.418125   4.925576   5.999610
    16  H    1.100639   5.203919   4.872074   5.979893   6.713597
    17  H    1.101942   4.467774   4.753009   5.159498   6.063514
                   11         12         13         14         15
    11  H    0.000000
    12  H    1.770811   0.000000
    13  H    3.067244   2.515247   0.000000
    14  H    2.510115   3.076068   1.762777   0.000000
    15  H    2.601118   3.150268   3.086755   2.528267   0.000000
    16  H    3.791860   3.795155   2.507048   2.506686   1.778401
    17  H    3.145811   2.600216   2.529046   3.086261   1.776985
                   16         17
    16  H    0.000000
    17  H    1.778324   0.000000
 Stoichiometry    C4H11NO
 Framework group  C1[X(C4H11NO)]
 Deg. of freedom    45
 Full point group                 C1      NOp   1
 Largest Abelian subgroup         C1      NOp   1
 Largest concise Abelian subgroup C1      NOp   1
                         Standard orientation:                         
 ---------------------------------------------------------------------
 Center     Atomic      Atomic             Coordinates (Angstroms)
 Number     Number       Type             X           Y           Z
 ---------------------------------------------------------------------
      1          8           0        1.326618    1.327408   -0.146989
      2          6           0        1.094759    0.013174    0.317423
      3          7           0        2.152879   -0.853890   -0.157419
      4          6           0       -0.261155   -0.520574   -0.128909
      5          6           0       -1.436904    0.346081    0.306071
      6          6           0       -2.781437   -0.200804   -0.155652
      7          1           0        1.363398    1.275945   -1.112028
      8          1           0        1.086006    0.118388    1.418973
      9          1           0        1.920164   -1.823437    0.054014
     10          1           0        3.009604   -0.649328    0.355532
     11          1           0       -0.383253   -1.541238    0.273146
     12          1           0       -0.246576   -0.615100   -1.229970
     13          1           0       -1.293660    1.365586   -0.086745
     14          1           0       -1.431570    0.438228    1.406028
     15          1           0       -2.962946   -1.208812    0.250917
     16          1           0       -3.611560    0.445045    0.168663
     17          1           0       -2.824283   -0.274570   -1.254287
 ---------------------------------------------------------------------
 Rotational constants (GHZ):           7.4657570           1.7568637           1.5268447
 Leave Link  202 at Wed Oct 22 13:36:36 2025, MaxMem=  4294967296 cpu:               0.0 elap:               0.0
 (Enter /lrz/sys/applications/gaussian/g16.C.01/x86_64_legacy/exe/l301.exe)
 Standard basis: def2TZVP (5D, 7F)
 Ernie: Thresh=  0.10000D-02 Tol=  0.10000D-05 Strict=F.
 There are   282 symmetry adapted cartesian basis functions of A   symmetry.
 There are   252 symmetry adapted basis functions of A   symmetry.
   252 basis functions,   394 primitive gaussians,   282 cartesian basis functions
    25 alpha electrons       25 beta electrons
       nuclear repulsion energy       257.0823139902 Hartrees.
 IExCor= 4639 DFT=T Ex+Corr=wB97XD ExCW=0 ScaHFX=  1.000000
 ScaDFX=  1.000000  1.000000  1.000000  1.000000 ScalE2=  1.000000  1.000000
 IRadAn=      5 IRanWt=     -1 IRanGd=            0 ICorTp=0 IEmpDi=121
 HFx  wShort=  0.000000 wLong=  0.200000 cFull=  0.222036 cShort=  0.000000 cLong=  0.777964
 DFx  wShort=  0.000000 wLong=  0.200000 cFull=  0.000000 cShort=  0.000000 cLong=  1.000000
 NAtoms=   17 NActive=   17 NUniq=   17 SFac= 1.00D+00 NAtFMM=   60 NAOKFM=F Big=F
 Integral buffers will be    131072 words long.
 Raffenetti 2 integral format.
 Two-electron integral symmetry is turned on.
 R6Disp:  Grimme-D2 Dispersion energy=       -0.0088783810 Hartrees.
 Nuclear repulsion after empirical dispersion term =      257.0734356093 Hartrees.
 ------------------------------------------------------------------------------
 Polarizable Continuum Model (PCM)
 =================================
 Model                : PCM.
 Atomic radii         : SMD-Coulomb.
 Polarization charges : Total charges.
 Charge compensation  : None.
 Solution method      : On-the-fly selection.
 Cavity type          : VdW (van der Waals Surface) (Alpha=1.000).
 Cavity algorithm     : GePol (No added spheres)
                        Default sphere list used, NSphG=   17.
                        Lebedev-Laikov grids with approx.  5.0 points / Ang**2.
                        Smoothing algorithm: York/Karplus (Gamma=1.0000).
                        Polarization charges: spherical gaussians, with
                                              point-specific exponents (IZeta= 3).
                        Self-potential: point-specific (ISelfS= 7).
                        Self-field    : sphere-specific E.n sum rule (ISelfD= 2).
 Solvent              : Water, Eps=  78.355300 Eps(inf)=   1.777849
 ------------------------------------------------------------------------------
 Spheres list:
 ISph  on   Nord     Re0    Alpha      Xe            Ye            Ze
    1   O      1    1.5200  1.000      1.326618      1.327408     -0.146989
    2   C      2    1.8500  1.000      1.094759      0.013174      0.317423
    3   N      3    1.8900  1.000      2.152879     -0.853890     -0.157419
    4   C      4    1.8500  1.000     -0.261155     -0.520574     -0.128909
    5   C      5    1.8500  1.000     -1.436904      0.346081      0.306071
    6   C      6    1.8500  1.000     -2.781437     -0.200804     -0.155652
    7   H      7    1.2000  1.000      1.363398      1.275945     -1.112028
    8   H      8    1.2000  1.000      1.086006      0.118388      1.418973
    9   H      9    1.2000  1.000      1.920164     -1.823437      0.054014
   10   H     10    1.2000  1.000      3.009604     -0.649328      0.355532
   11   H     11    1.2000  1.000     -0.383253     -1.541238      0.273146
   12   H     12    1.2000  1.000     -0.246576     -0.615100     -1.229970
   13   H     13    1.2000  1.000     -1.293660      1.365586     -0.086745
   14   H     14    1.2000  1.000     -1.431570      0.438228      1.406028
   15   H     15    1.2000  1.000     -2.962946     -1.208812      0.250917
   16   H     16    1.2000  1.000     -3.611560      0.445045      0.168663
   17   H     17    1.2000  1.000     -2.824283     -0.274570     -1.254287
 ------------------------------------------------------------------------------
 GePol: Number of generator spheres                  =      17
 GePol: Total number of spheres                      =      17
 GePol: Number of exposed spheres                    =      17 (100.00%)
 GePol: Number of points                             =    1194
 GePol: Average weight of points                     =       0.12
 GePol: Minimum weight of points                     =   0.50D-08
 GePol: Maximum weight of points                     =    0.21991
 GePol: Number of points with low weight             =      75
 GePol: Fraction of low-weight points (<1% of avg)   =       6.28%
 GePol: Cavity surface area                          =    138.002 Ang**2
 GePol: Cavity volume                                =    108.064 Ang**3
 ------------------------------------------------------------------------------
 Atomic radii for non-electrostatic terms: SMD-CDS.
 ------------------------------------------------------------------------------
 PCM non-electrostatic energy =         0.0033732550 Hartrees.
 Nuclear repulsion after PCM non-electrostatic terms =      257.0768088643 Hartrees.
 Leave Link  301 at Wed Oct 22 13:36:36 2025, MaxMem=  4294967296 cpu:               0.5 elap:               0.1
 (Enter /lrz/sys/applications/gaussian/g16.C.01/x86_64_legacy/exe/l302.exe)
 NPDir=0 NMtPBC=     1 NCelOv=     1 NCel=       1 NClECP=     1 NCelD=      1
         NCelK=      1 NCelE2=     1 NClLst=     1 CellRange=     0.0.
 One-electron integrals computed using PRISM.
 One-electron integral symmetry used in STVInt
   1 Symmetry operations used in ECPInt.
 ECPInt:  NShTT=    6105 NPrTT=   17556 LenC2=    5984 LenP2D=   14121.
 LDataN:  DoStor=T MaxTD1= 6 Len=  172
 NBasis=   252 RedAO= T EigKep=  1.41D-04  NBF=   252
 NBsUse=   252 1.00D-06 EigRej= -1.00D+00 NBFU=   252
 Precomputing XC quadrature grid using
 IXCGrd= 4 IRadAn=           5 IRanWt=          -1 IRanGd=           0 AccXCQ= 0.00D+00.
 Generated NRdTot=       0 NPtTot=           0 NUsed=           0 NTot=          32
 NSgBfM=   281   281   281   281   281 MxSgAt=    17 MxSgA2=    17.
 Leave Link  302 at Wed Oct 22 13:36:36 2025, MaxMem=  4294967296 cpu:               2.1 elap:               0.3
 (Enter /lrz/sys/applications/gaussian/g16.C.01/x86_64_legacy/exe/l303.exe)
 DipDrv:  MaxL=1.
 Leave Link  303 at Wed Oct 22 13:36:36 2025, MaxMem=  4294967296 cpu:               0.3 elap:               0.0
 (Enter /lrz/sys/applications/gaussian/g16.C.01/x86_64_legacy/exe/l401.exe)
 ExpMin= 9.52D-02 ExpMax= 2.70D+04 ExpMxC= 9.22D+02 IAcc=3 IRadAn=         5 AccDes= 0.00D+00
 Harris functional with IExCor= 4639 and IRadAn=       5 diagonalized for initial guess.
 HarFok:  IExCor= 4639 AccDes= 0.00D+00 IRadAn=         5 IDoV= 1 UseB2=F ITyADJ=14
 ICtDFT=  3500011 ScaDFX=  1.000000  1.000000  1.000000  1.000000
 FoFCou: FMM=F IPFlag=           0 FMFlag=      100000 FMFlg1=           0
         NFxFlg=           0 DoJE=T BraDBF=F KetDBF=T FulRan=T
         wScrn=  0.000000 ICntrl=       500 IOpCl=  0 I1Cent=   200000004 NGrid=           0
         NMat0=    1 NMatS0=      1 NMatT0=    0 NMatD0=    1 NMtDS0=    0 NMtDT0=    0
 Petite list used in FoFCou.
 Harris En= -276.200036585101    
 JPrj=0 DoOrth=F DoCkMO=F.
 Leave Link  401 at Wed Oct 22 13:36:38 2025, MaxMem=  4294967296 cpu:              16.6 elap:               2.1
 (Enter /lrz/sys/applications/gaussian/g16.C.01/x86_64_legacy/exe/l502.exe)
 Integral symmetry usage will be decided dynamically.
 Closed shell SCF:
 Using DIIS extrapolation, IDIIS=  1040.
 NGot=  4294967296 LenX=  4294802854 LenY=  4294722889
 Requested convergence on RMS density matrix=1.00D-08 within 128 cycles.
 Requested convergence on MAX density matrix=1.00D-06.
 Requested convergence on             energy=1.00D-06.
 No special actions if energy rises.
 Fock matrices will be formed incrementally for  20 cycles.

 Cycle   1  Pass 1  IDiag  1:
 FoFJK:  IHMeth= 1 ICntrl=       0 DoSepK=T KAlg= 0 I1Cent=           0 FoldK=F
 IRaf=         1 NMat=       1 IRICut=       1 DoRegI=T DoRafI=F ISym2E= 0 IDoP0=0 IntGTp=1.
 FoFCou: FMM=F IPFlag=           0 FMFlag=      100000 FMFlg1=           0
         NFxFlg=           0 DoJE=T BraDBF=F KetDBF=F FulRan=T
         wScrn=  0.000000 ICntrl=       500 IOpCl=  0 I1Cent=           0 NGrid=           0
         NMat0=    1 NMatS0=      1 NMatT0=    0 NMatD0=    1 NMtDS0=    0 NMtDT0=    0
 Symmetry not used in FoFCou.
 Inv3:  Mode=1 IEnd=     4276908.
 Iteration    1 A*A^-1 deviation from unit magnitude is 5.11D-15 for    528.
 Iteration    1 A*A^-1 deviation from orthogonality  is 6.22D-15 for    548    296.
 Iteration    1 A^-1*A deviation from unit magnitude is 4.88D-15 for    233.
 Iteration    1 A^-1*A deviation from orthogonality  is 1.15D-14 for    978    740.
 E= -288.987836298932    
 DIIS: error= 4.37D-02 at cycle   1 NSaved=   1.
 NSaved= 1 IEnMin= 1 EnMin= -288.987836298932     IErMin= 1 ErrMin= 4.37D-02
 ErrMax= 4.37D-02  0.00D+00 EMaxC= 1.00D-01 BMatC= 6.11D-01 BMatP= 6.11D-01
 IDIUse=3 WtCom= 5.63D-01 WtEn= 4.37D-01
 Coeff-Com:  0.100D+01
 Coeff-En:   0.100D+01
 Coeff:      0.100D+01
 Gap=     0.488 Goal=   None    Shift=    0.000
 GapD=    0.488 DampG=2.000 DampE=0.500 DampFc=1.0000 IDamp=-1.
 RMSDP=1.67D-03 MaxDP=5.33D-02              OVMax= 5.72D-02

 Cycle   2  Pass 1  IDiag  1:
 RMSU=  1.63D-03    CP:  9.62D-01
 E= -289.042203169403     Delta-E=       -0.054366870472 Rises=F Damp=F
 DIIS: error= 6.74D-03 at cycle   2 NSaved=   2.
 NSaved= 2 IEnMin= 2 EnMin= -289.042203169403     IErMin= 2 ErrMin= 6.74D-03
 ErrMax= 6.74D-03  0.00D+00 EMaxC= 1.00D-01 BMatC= 3.37D-02 BMatP= 6.11D-01
 IDIUse=3 WtCom= 9.33D-01 WtEn= 6.74D-02
 Coeff-Com:  0.122D+00 0.878D+00
 Coeff-En:   0.000D+00 0.100D+01
 Coeff:      0.114D+00 0.886D+00
 Gap=     0.460 Goal=   None    Shift=    0.000
 RMSDP=6.89D-04 MaxDP=3.18D-02 DE=-5.44D-02 OVMax= 4.80D-02

 Cycle   3  Pass 1  IDiag  1:
 RMSU=  5.84D-04    CP:  9.67D-01  7.77D-01
 E= -289.052120599408     Delta-E=       -0.009917430004 Rises=F Damp=F
 DIIS: error= 5.79D-03 at cycle   3 NSaved=   3.
 NSaved= 3 IEnMin= 3 EnMin= -289.052120599408     IErMin= 3 ErrMin= 5.79D-03
 ErrMax= 5.79D-03  0.00D+00 EMaxC= 1.00D-01 BMatC= 2.02D-02 BMatP= 3.37D-02
 IDIUse=3 WtCom= 9.42D-01 WtEn= 5.79D-02
 Coeff-Com:  0.240D-01 0.444D+00 0.532D+00
 Coeff-En:   0.000D+00 0.365D+00 0.635D+00
 Coeff:      0.226D-01 0.439D+00 0.538D+00
 Gap=     0.471 Goal=   None    Shift=    0.000
 RMSDP=3.58D-04 MaxDP=1.63D-02 DE=-9.92D-03 OVMax= 2.52D-02

 Cycle   4  Pass 1  IDiag  1:
 RMSU=  1.42D-04    CP:  9.62D-01  9.33D-01  6.54D-01
 E= -289.066223868964     Delta-E=       -0.014103269557 Rises=F Damp=F
 DIIS: error= 5.51D-04 at cycle   4 NSaved=   4.
 NSaved= 4 IEnMin= 4 EnMin= -289.066223868964     IErMin= 4 ErrMin= 5.51D-04
 ErrMax= 5.51D-04  0.00D+00 EMaxC= 1.00D-01 BMatC= 2.14D-04 BMatP= 2.02D-02
 IDIUse=3 WtCom= 9.94D-01 WtEn= 5.51D-03
 Coeff-Com:  0.879D-02 0.165D+00 0.223D+00 0.603D+00
 Coeff-En:   0.000D+00 0.000D+00 0.000D+00 0.100D+01
 Coeff:      0.874D-02 0.164D+00 0.222D+00 0.605D+00
 Gap=     0.456 Goal=   None    Shift=    0.000
 RMSDP=4.05D-05 MaxDP=1.54D-03 DE=-1.41D-02 OVMax= 2.17D-03

 Cycle   5  Pass 1  IDiag  1:
 RMSU=  3.56D-05    CP:  9.62D-01  9.41D-01  6.75D-01  9.71D-01
 E= -289.066375141289     Delta-E=       -0.000151272325 Rises=F Damp=F
 DIIS: error= 1.16D-04 at cycle   5 NSaved=   5.
 NSaved= 5 IEnMin= 5 EnMin= -289.066375141289     IErMin= 5 ErrMin= 1.16D-04
 ErrMax= 1.16D-04  0.00D+00 EMaxC= 1.00D-01 BMatC= 9.02D-06 BMatP= 2.14D-04
 IDIUse=3 WtCom= 9.99D-01 WtEn= 1.16D-03
 Coeff-Com: -0.200D-02-0.345D-01-0.331D-01 0.114D+00 0.955D+00
 Coeff-En:   0.000D+00 0.000D+00 0.000D+00 0.000D+00 0.100D+01
 Coeff:     -0.200D-02-0.344D-01-0.331D-01 0.114D+00 0.955D+00
 Gap=     0.456 Goal=   None    Shift=    0.000
 RMSDP=3.18D-05 MaxDP=1.17D-03 DE=-1.51D-04 OVMax= 1.02D-03

 Cycle   6  Pass 1  IDiag  1:
 RMSU=  9.94D-06    CP:  9.61D-01  9.51D-01  6.95D-01  1.12D+00  1.22D+00
 E= -289.066386850642     Delta-E=       -0.000011709353 Rises=F Damp=F
 DIIS: error= 2.83D-05 at cycle   6 NSaved=   6.
 NSaved= 6 IEnMin= 6 EnMin= -289.066386850642     IErMin= 6 ErrMin= 2.83D-05
 ErrMax= 2.83D-05  0.00D+00 EMaxC= 1.00D-01 BMatC= 3.60D-07 BMatP= 9.02D-06
 IDIUse=1 WtCom= 1.00D+00 WtEn= 0.00D+00
 Coeff-Com: -0.737D-03-0.123D-01-0.136D-01 0.895D-02 0.190D+00 0.828D+00
 Coeff:     -0.737D-03-0.123D-01-0.136D-01 0.895D-02 0.190D+00 0.828D+00
 Gap=     0.456 Goal=   None    Shift=    0.000
 RMSDP=7.05D-06 MaxDP=2.39D-04 DE=-1.17D-05 OVMax= 3.44D-04

 Cycle   7  Pass 1  IDiag  1:
 RMSU=  2.81D-06    CP:  9.61D-01  9.53D-01  6.98D-01  1.15D+00  1.31D+00
                    CP:  1.16D+00
 E= -289.066387310519     Delta-E=       -0.000000459877 Rises=F Damp=F
 DIIS: error= 1.78D-05 at cycle   7 NSaved=   7.
 NSaved= 7 IEnMin= 7 EnMin= -289.066387310519     IErMin= 7 ErrMin= 1.78D-05
 ErrMax= 1.78D-05  0.00D+00 EMaxC= 1.00D-01 BMatC= 9.10D-08 BMatP= 3.60D-07
 IDIUse=1 WtCom= 1.00D+00 WtEn= 0.00D+00
 Coeff-Com: -0.534D-05-0.423D-03-0.120D-02-0.115D-01-0.585D-01 0.312D+00
 Coeff-Com:  0.760D+00
 Coeff:     -0.534D-05-0.423D-03-0.120D-02-0.115D-01-0.585D-01 0.312D+00
 Coeff:      0.760D+00
 Gap=     0.456 Goal=   None    Shift=    0.000
 RMSDP=2.78D-06 MaxDP=9.26D-05 DE=-4.60D-07 OVMax= 1.20D-04

 Cycle   8  Pass 1  IDiag  1:
 RMSU=  9.54D-07    CP:  9.61D-01  9.53D-01  6.98D-01  1.16D+00  1.34D+00
                    CP:  1.31D+00  1.13D+00
 E= -289.066387414299     Delta-E=       -0.000000103780 Rises=F Damp=F
 DIIS: error= 3.82D-06 at cycle   8 NSaved=   8.
 NSaved= 8 IEnMin= 8 EnMin= -289.066387414299     IErMin= 8 ErrMin= 3.82D-06
 ErrMax= 3.82D-06  0.00D+00 EMaxC= 1.00D-01 BMatC= 3.52D-09 BMatP= 9.10D-08
 IDIUse=1 WtCom= 1.00D+00 WtEn= 0.00D+00
 Coeff-Com:  0.429D-04 0.700D-03 0.710D-03-0.236D-02-0.215D-01-0.784D-05
 Coeff-Com:  0.135D+00 0.888D+00
 Coeff:      0.429D-04 0.700D-03 0.710D-03-0.236D-02-0.215D-01-0.784D-05
 Coeff:      0.135D+00 0.888D+00
 Gap=     0.456 Goal=   None    Shift=    0.000
 RMSDP=8.11D-07 MaxDP=2.04D-05 DE=-1.04D-07 OVMax= 4.52D-05

 Cycle   9  Pass 1  IDiag  1:
 RMSU=  2.37D-07    CP:  9.61D-01  9.53D-01  6.99D-01  1.16D+00  1.35D+00
                    CP:  1.35D+00  1.26D+00  1.21D+00
 E= -289.066387420044     Delta-E=       -0.000000005745 Rises=F Damp=F
 DIIS: error= 9.15D-07 at cycle   9 NSaved=   9.
 NSaved= 9 IEnMin= 9 EnMin= -289.066387420044     IErMin= 9 ErrMin= 9.15D-07
 ErrMax= 9.15D-07  0.00D+00 EMaxC= 1.00D-01 BMatC= 7.13D-10 BMatP= 3.52D-09
 IDIUse=1 WtCom= 1.00D+00 WtEn= 0.00D+00
 Coeff-Com:  0.141D-04 0.289D-03 0.391D-03 0.347D-03-0.101D-02-0.340D-01
 Coeff-Com: -0.415D-01 0.302D+00 0.774D+00
 Coeff:      0.141D-04 0.289D-03 0.391D-03 0.347D-03-0.101D-02-0.340D-01
 Coeff:     -0.415D-01 0.302D+00 0.774D+00
 Gap=     0.456 Goal=   None    Shift=    0.000
 RMSDP=2.56D-07 MaxDP=6.84D-06 DE=-5.75D-09 OVMax= 1.38D-05

 Cycle  10  Pass 1  IDiag  1:
 RMSU=  8.82D-08    CP:  9.61D-01  9.53D-01  6.99D-01  1.16D+00  1.35D+00
                    CP:  1.36D+00  1.31D+00  1.33D+00  1.14D+00
 E= -289.066387421020     Delta-E=       -0.000000000976 Rises=F Damp=F
 DIIS: error= 3.40D-07 at cycle  10 NSaved=  10.
 NSaved=10 IEnMin=10 EnMin= -289.066387421020     IErMin=10 ErrMin= 3.40D-07
 ErrMax= 3.40D-07  0.00D+00 EMaxC= 1.00D-01 BMatC= 3.95D-11 BMatP= 7.13D-10
 IDIUse=1 WtCom= 1.00D+00 WtEn= 0.00D+00
 Coeff-Com: -0.255D-05-0.332D-04-0.123D-04 0.371D-03 0.270D-02-0.697D-02
 Coeff-Com: -0.273D-01-0.482D-01 0.137D+00 0.942D+00
 Coeff:     -0.255D-05-0.332D-04-0.123D-04 0.371D-03 0.270D-02-0.697D-02
 Coeff:     -0.273D-01-0.482D-01 0.137D+00 0.942D+00
 Gap=     0.456 Goal=   None    Shift=    0.000
 RMSDP=9.34D-08 MaxDP=2.31D-06 DE=-9.76D-10 OVMax= 5.47D-06

 Cycle  11  Pass 1  IDiag  1:
 RMSU=  2.49D-08    CP:  9.61D-01  9.53D-01  6.99D-01  1.16D+00  1.35D+00
                    CP:  1.37D+00  1.32D+00  1.37D+00  1.32D+00  1.29D+00
 E= -289.066387421098     Delta-E=       -0.000000000078 Rises=F Damp=F
 DIIS: error= 3.84D-08 at cycle  11 NSaved=  11.
 NSaved=11 IEnMin=11 EnMin= -289.066387421098     IErMin=11 ErrMin= 3.84D-08
 ErrMax= 3.84D-08  0.00D+00 EMaxC= 1.00D-01 BMatC= 9.20D-13 BMatP= 3.95D-11
 IDIUse=1 WtCom= 1.00D+00 WtEn= 0.00D+00
 Coeff-Com: -0.202D-06-0.717D-05-0.139D-04-0.258D-04-0.184D-03 0.173D-02
 Coeff-Com:  0.361D-02-0.783D-02-0.431D-01-0.591D-01 0.110D+01
 Coeff:     -0.202D-06-0.717D-05-0.139D-04-0.258D-04-0.184D-03 0.173D-02
 Coeff:      0.361D-02-0.783D-02-0.431D-01-0.591D-01 0.110D+01
 Gap=     0.456 Goal=   None    Shift=    0.000
 RMSDP=1.99D-08 MaxDP=5.29D-07 DE=-7.82D-11 OVMax= 8.93D-07

 Cycle  12  Pass 1  IDiag  1:
 RMSU=  5.94D-09    CP:  9.61D-01  9.53D-01  6.99D-01  1.16D+00  1.35D+00
                    CP:  1.37D+00  1.32D+00  1.38D+00  1.36D+00  1.42D+00
                    CP:  1.36D+00
 E= -289.066387421103     Delta-E=       -0.000000000005 Rises=F Damp=F
 DIIS: error= 1.67D-08 at cycle  12 NSaved=  12.
 NSaved=12 IEnMin=12 EnMin= -289.066387421103     IErMin=12 ErrMin= 1.67D-08
 ErrMax= 1.67D-08  0.00D+00 EMaxC= 1.00D-01 BMatC= 1.08D-13 BMatP= 9.20D-13
 IDIUse=1 WtCom= 1.00D+00 WtEn= 0.00D+00
 Coeff-Com:  0.717D-07 0.140D-06-0.256D-05-0.274D-04-0.193D-03 0.814D-03
 Coeff-Com:  0.242D-02 0.710D-03-0.173D-01-0.653D-01 0.280D+00 0.799D+00
 Coeff:      0.717D-07 0.140D-06-0.256D-05-0.274D-04-0.193D-03 0.814D-03
 Coeff:      0.242D-02 0.710D-03-0.173D-01-0.653D-01 0.280D+00 0.799D+00
 Gap=     0.456 Goal=   None    Shift=    0.000
 RMSDP=4.27D-09 MaxDP=1.03D-07 DE=-5.00D-12 OVMax= 1.51D-07

 Error on total polarization charges =  0.04428
 SCF Done:  E(RwB97XD) =  -289.066387421     A.U. after   12 cycles
            NFock= 12  Conv=0.43D-08     -V/T= 2.0055
 KE= 2.874906009559D+02 PE=-1.188364390372D+03 EE= 3.547305931308D+02
 SMD-CDS (non-electrostatic) energy       (kcal/mol) =       2.12
 (included in total energy above)
 Leave Link  502 at Wed Oct 22 13:38:12 2025, MaxMem=  4294967296 cpu:             745.7 elap:              93.5
 (Enter /lrz/sys/applications/gaussian/g16.C.01/x86_64_legacy/exe/l601.exe)
 Copying SCF densities to generalized density rwf, IOpCl= 0 IROHF=0.

 **********************************************************************

            Population analysis using the SCF Density.

 **********************************************************************

 Orbital symmetries:
       Occupied  (A) (A) (A) (A) (A) (A) (A) (A) (A) (A) (A) (A)
                 (A) (A) (A) (A) (A) (A) (A) (A) (A) (A) (A) (A)
                 (A)
       Virtual   (A) (A) (A) (A) (A) (A) (A) (A) (A) (A) (A) (A)
                 (A) (A) (A) (A) (A) (A) (A) (A) (A) (A) (A) (A)
                 (A) (A) (A) (A) (A) (A) (A) (A) (A) (A) (A) (A)
                 (A) (A) (A) (A) (A) (A) (A) (A) (A) (A) (A) (A)
                 (A) (A) (A) (A) (A) (A) (A) (A) (A) (A) (A) (A)
                 (A) (A) (A) (A) (A) (A) (A) (A) (A) (A) (A) (A)
                 (A) (A) (A) (A) (A) (A) (A) (A) (A) (A) (A) (A)
                 (A) (A) (A) (A) (A) (A) (A) (A) (A) (A) (A) (A)
                 (A) (A) (A) (A) (A) (A) (A) (A) (A) (A) (A) (A)
                 (A) (A) (A) (A) (A) (A) (A) (A) (A) (A) (A) (A)
                 (A) (A) (A) (A) (A) (A) (A) (A) (A) (A) (A) (A)
                 (A) (A) (A) (A) (A) (A) (A) (A) (A) (A) (A) (A)
                 (A) (A) (A) (A) (A) (A) (A) (A) (A) (A) (A) (A)
                 (A) (A) (A) (A) (A) (A) (A) (A) (A) (A) (A) (A)
                 (A) (A) (A) (A) (A) (A) (A) (A) (A) (A) (A) (A)
                 (A) (A) (A) (A) (A) (A) (A) (A) (A) (A) (A) (A)
                 (A) (A) (A) (A) (A) (A) (A) (A) (A) (A) (A) (A)
                 (A) (A) (A) (A) (A) (A) (A) (A) (A) (A) (A) (A)
                 (A) (A) (A) (A) (A) (A) (A) (A) (A) (A) (A)
 The electronic state is 1-A.
 Alpha  occ. eigenvalues --  -19.24865 -14.41021 -10.35106 -10.27083 -10.26915
 Alpha  occ. eigenvalues --  -10.26400  -1.13375  -0.97199  -0.88066  -0.79546
 Alpha  occ. eigenvalues --   -0.70981  -0.67545  -0.58790  -0.57275  -0.55535
 Alpha  occ. eigenvalues --   -0.52224  -0.51255  -0.48772  -0.44875  -0.44355
 Alpha  occ. eigenvalues --   -0.41656  -0.40688  -0.39936  -0.37172  -0.33680
 Alpha virt. eigenvalues --    0.11894   0.13359   0.14771   0.15986   0.17027
 Alpha virt. eigenvalues --    0.19073   0.19481   0.20882   0.21698   0.22053
 Alpha virt. eigenvalues --    0.22720   0.24893   0.27036   0.27731   0.30218
 Alpha virt. eigenvalues --    0.31192   0.32401   0.33857   0.35638   0.36168
 Alpha virt. eigenvalues --    0.38137   0.39872   0.40886   0.41361   0.43260
 Alpha virt. eigenvalues --    0.45053   0.47228   0.47957   0.50001   0.50964
 Alpha virt. eigenvalues --    0.51402   0.52385   0.53031   0.54418   0.54721
 Alpha virt. eigenvalues --    0.55946   0.56391   0.57801   0.57925   0.59335
 Alpha virt. eigenvalues --    0.60742   0.62596   0.64263   0.66480   0.67102
 Alpha virt. eigenvalues --    0.69550   0.71752   0.73048   0.76725   0.81830
 Alpha virt. eigenvalues --    0.83820   0.87061   0.88984   0.91935   0.92205
 Alpha virt. eigenvalues --    0.93846   0.98753   0.99030   1.04895   1.05706
 Alpha virt. eigenvalues --    1.10500   1.12453   1.14162   1.17317   1.18431
 Alpha virt. eigenvalues --    1.22119   1.24025   1.25077   1.28178   1.30137
 Alpha virt. eigenvalues --    1.35728   1.39492   1.43928   1.46309   1.49940
 Alpha virt. eigenvalues --    1.50654   1.52662   1.58767   1.60424   1.61604
 Alpha virt. eigenvalues --    1.62127   1.64344   1.67420   1.67535   1.68250
 Alpha virt. eigenvalues --    1.69721   1.73851   1.77547   1.78800   1.84464
 Alpha virt. eigenvalues --    1.85385   1.85894   1.89504   1.90730   1.92169
 Alpha virt. eigenvalues --    1.96494   1.97676   1.99678   2.01380   2.02777
 Alpha virt. eigenvalues --    2.03673   2.04746   2.07670   2.09715   2.12053
 Alpha virt. eigenvalues --    2.15172   2.19571   2.22294   2.26906   2.27538
 Alpha virt. eigenvalues --    2.31191   2.34838   2.36706   2.38903   2.41072
 Alpha virt. eigenvalues --    2.41892   2.46028   2.48567   2.49837   2.50483
 Alpha virt. eigenvalues --    2.52898   2.53747   2.54486   2.59905   2.62422
 Alpha virt. eigenvalues --    2.63807   2.65202   2.66344   2.67628   2.73017
 Alpha virt. eigenvalues --    2.73664   2.74168   2.75825   2.76848   2.79132
 Alpha virt. eigenvalues --    2.80531   2.83792   2.85660   2.87693   2.91800
 Alpha virt. eigenvalues --    2.93524   2.98918   3.02936   3.06150   3.08650
 Alpha virt. eigenvalues --    3.11196   3.15042   3.19196   3.21428   3.22001
 Alpha virt. eigenvalues --    3.25088   3.28986   3.31953   3.34749   3.35590
 Alpha virt. eigenvalues --    3.36378   3.38191   3.40314   3.41930   3.43412
 Alpha virt. eigenvalues --    3.44627   3.48761   3.50715   3.52228   3.54955
 Alpha virt. eigenvalues --    3.56963   3.58649   3.61048   3.67151   3.68214
 Alpha virt. eigenvalues --    3.71314   3.75301   3.81412   3.88971   3.90930
 Alpha virt. eigenvalues --    3.95575   3.96788   3.98055   3.99375   4.02256
 Alpha virt. eigenvalues --    4.08905   4.11969   4.17860   4.19877   4.30194
 Alpha virt. eigenvalues --    4.34848   4.36853   4.43277   4.46097   4.50322
 Alpha virt. eigenvalues --    4.59640   4.65395   4.67161   4.68882   4.69707
 Alpha virt. eigenvalues --    4.70388   4.77779   4.82917   4.91459   4.92764
 Alpha virt. eigenvalues --    5.00416   5.03019   5.10365   5.17338   5.27760
 Alpha virt. eigenvalues --    5.34039   5.37520   5.42360   5.49047   5.56289
 Alpha virt. eigenvalues --    5.66144   5.80644   5.85517   5.96735   6.11528
 Alpha virt. eigenvalues --    6.40019   6.57694   6.81761   6.94492   7.07677
 Alpha virt. eigenvalues --    7.25787  22.39668  22.51373  22.58420  22.70955
 Alpha virt. eigenvalues --   32.07789  43.96498
          Condensed to atoms (all electrons):
               1          2          3          4          5          6
     1  O    8.168527   0.248665  -0.077617  -0.023540  -0.027792   0.001823
     2  C    0.248665   4.624686   0.306247   0.342100  -0.022366   0.006758
     3  N   -0.077617   0.306247   6.753109  -0.073085   0.005396  -0.000096
     4  C   -0.023540   0.342100  -0.073085   5.141988   0.265069  -0.036083
     5  C   -0.027792  -0.022366   0.005396   0.265069   5.028748   0.284700
     6  C    0.001823   0.006758  -0.000096  -0.036083   0.284700   4.956528
     7  H    0.295276  -0.018132   0.007999  -0.015785   0.000690  -0.000233
     8  H   -0.047167   0.449248  -0.052622  -0.080102   0.006146  -0.000476
     9  H    0.005367  -0.020731   0.360842  -0.009251   0.000489  -0.000157
    10  H    0.005072  -0.028321   0.358309   0.009287  -0.000854   0.000023
    11  H    0.006535  -0.035745   0.000892   0.402668  -0.028688  -0.002972
    12  H   -0.006419  -0.019839   0.005905   0.386622  -0.029419  -0.004364
    13  H    0.021600  -0.017269   0.000999  -0.038671   0.409352  -0.026688
    14  H    0.000566  -0.001084   0.000344  -0.039037   0.407343  -0.028414
    15  H   -0.000033  -0.000092  -0.000048  -0.005978  -0.033537   0.410813
    16  H    0.000039  -0.000531   0.000011   0.010625  -0.046351   0.420161
    17  H   -0.000030  -0.000199  -0.000012  -0.004235  -0.038463   0.413943
               7          8          9         10         11         12
     1  O    0.295276  -0.047167   0.005367   0.005072   0.006535  -0.006419
     2  C   -0.018132   0.449248  -0.020731  -0.028321  -0.035745  -0.019839
     3  N    0.007999  -0.052622   0.360842   0.358309   0.000892   0.005905
     4  C   -0.015785  -0.080102  -0.009251   0.009287   0.402668   0.386622
     5  C    0.000690   0.006146   0.000489  -0.000854  -0.028688  -0.029419
     6  C   -0.000233  -0.000476  -0.000157   0.000023  -0.002972  -0.004364
     7  H    0.355302   0.010286  -0.000147  -0.001535   0.000166   0.005408
     8  H    0.010286   0.618550   0.000424  -0.008401  -0.003251   0.009087
     9  H   -0.000147   0.000424   0.418827  -0.022483   0.000746   0.000214
    10  H   -0.001535  -0.008401  -0.022483   0.429845  -0.000376  -0.000385
    11  H    0.000166  -0.003251   0.000746  -0.000376   0.569071  -0.029678
    12  H    0.005408   0.009087   0.000214  -0.000385  -0.029678   0.568857
    13  H    0.000458   0.000293  -0.000132  -0.000071   0.007707  -0.004975
    14  H    0.000078   0.002778   0.000013  -0.000003  -0.004979   0.006539
    15  H    0.000011   0.000155  -0.000003   0.000001   0.002632   0.000384
    16  H    0.000009   0.000023   0.000001  -0.000001   0.000038  -0.000071
    17  H   -0.000030  -0.000075   0.000005   0.000002   0.000006   0.002288
              13         14         15         16         17
     1  O    0.021600   0.000566  -0.000033   0.000039  -0.000030
     2  C   -0.017269  -0.001084  -0.000092  -0.000531  -0.000199
     3  N    0.000999   0.000344  -0.000048   0.000011  -0.000012
     4  C   -0.038671  -0.039037  -0.005978   0.010625  -0.004235
     5  C    0.409352   0.407343  -0.033537  -0.046351  -0.038463
     6  C   -0.026688  -0.028414   0.410813   0.420161   0.413943
     7  H    0.000458   0.000078   0.000011   0.000009  -0.000030
     8  H    0.000293   0.002778   0.000155   0.000023  -0.000075
     9  H   -0.000132   0.000013  -0.000003   0.000001   0.000005
    10  H   -0.000071  -0.000003   0.000001  -0.000001   0.000002
    11  H    0.007707  -0.004979   0.002632   0.000038   0.000006
    12  H   -0.004975   0.006539   0.000384  -0.000071   0.002288
    13  H    0.583512  -0.031087   0.006202  -0.003448  -0.005283
    14  H   -0.031087   0.586579  -0.005767  -0.004199   0.006714
    15  H    0.006202  -0.005767   0.554402  -0.023092  -0.028844
    16  H   -0.003448  -0.004199  -0.023092   0.534882  -0.022965
    17  H   -0.005283   0.006714  -0.028844  -0.022965   0.553022
 Mulliken charges:
               1
     1  O   -0.570872
     2  C    0.186606
     3  N   -0.596573
     4  C   -0.232593
     5  C   -0.180462
     6  C   -0.395266
     7  H    0.360181
     8  H    0.095104
     9  H    0.265975
    10  H    0.259891
    11  H    0.115230
    12  H    0.109846
    13  H    0.097501
    14  H    0.103615
    15  H    0.122794
    16  H    0.134868
    17  H    0.124155
 Sum of Mulliken charges =  -0.00000
 Mulliken charges with hydrogens summed into heavy atoms:
               1
     1  O   -0.210691
     2  C    0.281710
     3  N   -0.070707
     4  C   -0.007517
     5  C    0.020653
     6  C   -0.013448
 Electronic spatial extent (au):  <R**2>=            824.6023
 Charge=             -0.0000 electrons
 Dipole moment (field-independent basis, Debye):
    X=             -0.3760    Y=             -2.3262    Z=              0.5454  Tot=              2.4187
 Quadrupole moment (field-independent basis, Debye-Ang):
   XX=            -39.4483   YY=            -40.1699   ZZ=            -37.4544
   XY=             -3.3932   XZ=              2.4197   YZ=             -3.9201
 Traceless Quadrupole moment (field-independent basis, Debye-Ang):
   XX=             -0.4241   YY=             -1.1457   ZZ=              1.5698
   XY=             -3.3932   XZ=              2.4197   YZ=             -3.9201
 Octapole moment (field-independent basis, Debye-Ang**2):
  XXX=             19.3257  YYY=             -9.8837  ZZZ=             -1.8480  XYY=              3.0398
  XXY=             -3.9301  XXZ=              9.8941  XZZ=              4.0340  YZZ=              5.5128
  YYZ=             -1.3173  XYZ=             -6.1840
 Hexadecapole moment (field-independent basis, Debye-Ang**3):
 XXXX=           -789.5546 YYYY=           -181.4867 ZZZZ=            -80.4436 XXXY=            -19.6032
 XXXZ=             23.1345 YYYX=            -15.8374 YYYZ=            -11.8163 ZZZX=              1.1604
 ZZZY=             -7.4989 XXYY=           -165.3451 XXZZ=           -152.1252 YYZZ=            -43.7252
 XXYZ=            -13.9371 YYXZ=             -2.5832 ZZXY=              8.2526
 N-N= 2.570768088643D+02 E-N=-1.188364392898D+03  KE= 2.874906009559D+02
 No NMR shielding tensors so no spin-rotation constants.
 Leave Link  601 at Wed Oct 22 13:38:12 2025, MaxMem=  4294967296 cpu:               1.1 elap:               0.2
 (Enter /lrz/sys/applications/gaussian/g16.C.01/x86_64_legacy/exe/l9999.exe)
 Unable to Open any file for archive entry.
 1\1\GINC-CM4R13C05S08\SP\RwB97XD\def2TZVP\C4H11N1O1\GO29TIZ2\22-Oct-20
 25\0\\#p wb97xd scrf=(smd,solvent=water) def2tzvp\\g16_g16_C17-a_11\\0
 ,1\O,0,1.326618,1.327408,-0.146989\C,0,1.094759,0.013174,0.317423\N,0,
 2.152879,-0.85389,-0.157419\C,0,-0.261155,-0.520574,-0.128909\C,0,-1.4
 36904,0.346081,0.306071\C,0,-2.781437,-0.200804,-0.155652\H,0,1.363398
 ,1.275945,-1.112028\H,0,1.086006,0.118388,1.418973\H,0,1.920164,-1.823
 437,0.054014\H,0,3.009604,-0.649328,0.355532\H,0,-0.383253,-1.541238,0
 .273146\H,0,-0.246576,-0.6151,-1.22997\H,0,-1.29366,1.365586,-0.086745
 \H,0,-1.43157,0.438228,1.406028\H,0,-2.962946,-1.208812,0.250917\H,0,-
 3.61156,0.445045,0.168663\H,0,-2.824283,-0.27457,-1.254287\\Version=EM
 64L-G16RevC.01\State=1-A\HF=-289.0663874\RMSD=4.275e-09\Dipole=-0.1479
 41,-0.9151888,0.2145653\Quadrupole=-0.3153302,-0.8517817,1.1671119,-2.
 5227774,1.7989514,-2.9144619\PG=C01 [X(C4H11N1O1)]\\@
 The archive entry for this job was punched.


 THE MORE ACCURATE THE CALCULATIONS BECOME, THE MORE THE CONCEPTS
 TEND TO VANISH INTO THIN AIR.
     -- R.S. MULLIKEN, J.C.P. 43,S2(1965)
 Job cpu time:       0 days  0 hours 12 minutes 52.4 seconds.
 Elapsed time:       0 days  0 hours  1 minutes 37.1 seconds.
 File lengths (MBytes):  RWF=    288 Int=      0 D2E=      0 Chk=     12 Scr=     32
 Normal termination of Gaussian 16 at Wed Oct 22 13:38:12 2025.
