 Entering Gaussian System, Link 0=g16
 Input=../../g16_g16_C14-w_3.com
 Output=../../g16_g16_C14-w_3.log
 Initial command:
 /lrz/sys/applications/gaussian/g16.C.01/x86_64_legacy/exe/l1.exe "/dss/lxclscratch/0D/go29tiz2/Gau-217911.inp" -scrdir="/dss/lxclscratch/0D/go29tiz2/"
 Entering Link 1 = /lrz/sys/applications/gaussian/g16.C.01/x86_64_legacy/exe/l1.exe PID=    217912.
  
 Copyright (c) 1988-2019, Gaussian, Inc.  All Rights Reserved.
  
 This is part of the Gaussian(R) 16 program.  It is based on
 the Gaussian(R) 09 system (copyright 2009, Gaussian, Inc.),
 the Gaussian(R) 03 system (copyright 2003, Gaussian, Inc.),
 the Gaussian(R) 98 system (copyright 1998, Gaussian, Inc.),
 the Gaussian(R) 94 system (copyright 1995, Gaussian, Inc.),
 the Gaussian 92(TM) system (copyright 1992, Gaussian, Inc.),
 the Gaussian 90(TM) system (copyright 1990, Gaussian, Inc.),
 the Gaussian 88(TM) system (copyright 1988, Gaussian, Inc.),
 the Gaussian 86(TM) system (copyright 1986, Carnegie Mellon
 University), and the Gaussian 82(TM) system (copyright 1983,
 Carnegie Mellon University). Gaussian is a federally registered
 trademark of Gaussian, Inc.
  
 This software contains proprietary and confidential information,
 including trade secrets, belonging to Gaussian, Inc.
  
 This software is provided under written license and may be
 used, copied, transmitted, or stored only in accord with that
 written license.
  
 The following legend is applicable only to US Government
 contracts under FAR:
  
                    RESTRICTED RIGHTS LEGEND
  
 Use, reproduction and disclosure by the US Government is
 subject to restrictions as set forth in subparagraphs (a)
 and (c) of the Commercial Computer Software - Restricted
 Rights clause in FAR 52.227-19.
  
 Gaussian, Inc.
 340 Quinnipiac St., Bldg. 40, Wallingford CT 06492
  
  
 ---------------------------------------------------------------
 Warning -- This program may not be used in any manner that
 competes with the business of Gaussian, Inc. or will provide
 assistance to any competitor of Gaussian, Inc.  The licensee
 of this program is prohibited from giving any competitor of
 Gaussian, Inc. access to this program.  By using this program,
 the user acknowledges that Gaussian, Inc. is engaged in the
 business of creating and licensing software in the field of
 computational chemistry and represents and warrants to the
 licensee that it is not a competitor of Gaussian, Inc. and that
 it will not use this program in any manner prohibited above.
 ---------------------------------------------------------------
  

 Cite this work as:
 Gaussian 16, Revision C.01,
 M. J. Frisch, G. W. Trucks, H. B. Schlegel, G. E. Scuseria, 
 M. A. Robb, J. R. Cheeseman, G. Scalmani, V. Barone, 
 G. A. Petersson, H. Nakatsuji, X. Li, M. Caricato, A. V. Marenich, 
 J. Bloino, B. G. Janesko, R. Gomperts, B. Mennucci, H. P. Hratchian, 
 J. V. Ortiz, A. F. Izmaylov, J. L. Sonnenberg, D. Williams-Young, 
 F. Ding, F. Lipparini, F. Egidi, J. Goings, B. Peng, A. Petrone, 
 T. Henderson, D. Ranasinghe, V. G. Zakrzewski, J. Gao, N. Rega, 
 G. Zheng, W. Liang, M. Hada, M. Ehara, K. Toyota, R. Fukuda, 
 J. Hasegawa, M. Ishida, T. Nakajima, Y. Honda, O. Kitao, H. Nakai, 
 T. Vreven, K. Throssell, J. A. Montgomery, Jr., J. E. Peralta, 
 F. Ogliaro, M. J. Bearpark, J. J. Heyd, E. N. Brothers, K. N. Kudin, 
 V. N. Staroverov, T. A. Keith, R. Kobayashi, J. Normand, 
 K. Raghavachari, A. P. Rendell, J. C. Burant, S. S. Iyengar, 
 J. Tomasi, M. Cossi, J. M. Millam, M. Klene, C. Adamo, R. Cammi, 
 J. W. Ochterski, R. L. Martin, K. Morokuma, O. Farkas, 
 J. B. Foresman, and D. J. Fox, Gaussian, Inc., Wallingford CT, 2019.
 
 ******************************************
 Gaussian 16:  EM64L-G16RevC.01  3-Jul-2019
                22-Oct-2025 
 ******************************************
 %chk=g16_g16_C14-w_3.chk
 %nprocshared=8
 Will use up to    8 processors via shared memory.
 %mem=32GB
 -------------------------------------------
 #p wb97xd scrf=(smd,solvent=water) def2tzvp
 -------------------------------------------
 1/38=1,172=1/1;
 2/12=2,17=6,18=5,40=1/2;
 3/5=44,7=101,11=2,25=1,30=1,70=32201,72=1,74=-58/1,2,3;
 4//1;
 5/5=2,38=5,53=1/2;
 6/7=2,8=2,9=2,10=2,28=1/1;
 99/5=1,9=1/99;
 Leave Link    1 at Wed Oct 22 09:06:12 2025, MaxMem=  4294967296 cpu:               4.7 elap:               0.7
 (Enter /lrz/sys/applications/gaussian/g16.C.01/x86_64_legacy/exe/l101.exe)
 ---------------
 g16_g16_C14-w_3
 ---------------
 Symbolic Z-matrix:
 Charge =  0 Multiplicity = 1
 O                     3.46677   1.01702  -0.12711 
 C                     2.83829  -0.14502   0.32985 
 O                     3.35248  -1.30833  -0.25159 
 C                     1.32125  -0.06694   0.18607 
 C                     0.67666   1.16884   0.13761 
 C                    -0.7095    1.21055   0.03553 
 N                    -1.37763   2.51822  -0.0244 
 O                    -2.58746   2.53455  -0.10625 
 O                    -0.68485   3.51271   0.01126 
 C                    -1.49367   0.06842  -0.01472 
 C                    -0.82299  -1.14411   0.04039 
 N                    -1.61395  -2.38142  -0.01181 
 O                    -2.81985  -2.28154  -0.09253 
 O                    -1.02012  -3.4378    0.02903 
 C                     0.56038  -1.23556   0.13839 
 H                     3.20401   1.17445  -1.04537 
 H                     3.08559  -0.21384   1.40016 
 H                     3.06185  -1.35017  -1.17402 
 H                     1.24905   2.09479   0.1741 
 H                    -2.5776    0.12026  -0.09516 
 H                     1.03987  -2.21304   0.17269 
 
 ITRead=  0  0  0  0  0  0  0  0  0  0  0  0  0  0  0  0  0  0  0  0
 ITRead=  0
 MicOpt= -1 -1 -1 -1 -1 -1 -1 -1 -1 -1 -1 -1 -1 -1 -1 -1 -1 -1 -1 -1
 MicOpt= -1
 NAtoms=     21 NQM=       21 NQMF=       0 NMMI=      0 NMMIF=      0
                NMic=       0 NMicF=      0.
                    Isotopes and Nuclear Properties:
 (Nuclear quadrupole moments (NQMom) in fm**2, nuclear magnetic moments (NMagM)
  in nuclear magnetons)

  Atom         1           2           3           4           5           6           7           8           9          10
 IAtWgt=          16          12          16          12          12          12          14          16          16          12
 AtmWgt=  15.9949146  12.0000000  15.9949146  12.0000000  12.0000000  12.0000000  14.0030740  15.9949146  15.9949146  12.0000000
 NucSpn=           0           0           0           0           0           0           2           0           0           0
 AtZEff=  -0.0000000  -0.0000000  -0.0000000  -0.0000000  -0.0000000  -0.0000000  -0.0000000  -0.0000000  -0.0000000  -0.0000000
 NQMom=    0.0000000   0.0000000   0.0000000   0.0000000   0.0000000   0.0000000   2.0440000   0.0000000   0.0000000   0.0000000
 NMagM=    0.0000000   0.0000000   0.0000000   0.0000000   0.0000000   0.0000000   0.4037610   0.0000000   0.0000000   0.0000000
 AtZNuc=   8.0000000   6.0000000   8.0000000   6.0000000   6.0000000   6.0000000   7.0000000   8.0000000   8.0000000   6.0000000

  Atom        11          12          13          14          15          16          17          18          19          20
 IAtWgt=          12          14          16          16          12           1           1           1           1           1
 AtmWgt=  12.0000000  14.0030740  15.9949146  15.9949146  12.0000000   1.0078250   1.0078250   1.0078250   1.0078250   1.0078250
 NucSpn=           0           2           0           0           0           1           1           1           1           1
 AtZEff=  -0.0000000  -0.0000000  -0.0000000  -0.0000000  -0.0000000  -0.0000000  -0.0000000  -0.0000000  -0.0000000  -0.0000000
 NQMom=    0.0000000   2.0440000   0.0000000   0.0000000   0.0000000   0.0000000   0.0000000   0.0000000   0.0000000   0.0000000
 NMagM=    0.0000000   0.4037610   0.0000000   0.0000000   0.0000000   2.7928460   2.7928460   2.7928460   2.7928460   2.7928460
 AtZNuc=   6.0000000   7.0000000   8.0000000   8.0000000   6.0000000   1.0000000   1.0000000   1.0000000   1.0000000   1.0000000

  Atom        21
 IAtWgt=           1
 AtmWgt=   1.0078250
 NucSpn=           1
 AtZEff=  -0.0000000
 NQMom=    0.0000000
 NMagM=    2.7928460
 AtZNuc=   1.0000000
 Leave Link  101 at Wed Oct 22 09:06:12 2025, MaxMem=  4294967296 cpu:               1.3 elap:               0.2
 (Enter /lrz/sys/applications/gaussian/g16.C.01/x86_64_legacy/exe/l202.exe)
                          Input orientation:                          
 ---------------------------------------------------------------------
 Center     Atomic      Atomic             Coordinates (Angstroms)
 Number     Number       Type             X           Y           Z
 ---------------------------------------------------------------------
      1          8           0        3.466771    1.017019   -0.127106
      2          6           0        2.838289   -0.145021    0.329845
      3          8           0        3.352476   -1.308329   -0.251594
      4          6           0        1.321249   -0.066937    0.186065
      5          6           0        0.676657    1.168839    0.137609
      6          6           0       -0.709501    1.210548    0.035530
      7          7           0       -1.377628    2.518220   -0.024395
      8          8           0       -2.587461    2.534548   -0.106249
      9          8           0       -0.684852    3.512713    0.011260
     10          6           0       -1.493670    0.068424   -0.014723
     11          6           0       -0.822989   -1.144114    0.040387
     12          7           0       -1.613945   -2.381421   -0.011813
     13          8           0       -2.819845   -2.281539   -0.092531
     14          8           0       -1.020118   -3.437804    0.029027
     15          6           0        0.560375   -1.235559    0.138388
     16          1           0        3.204006    1.174447   -1.045374
     17          1           0        3.085588   -0.213835    1.400163
     18          1           0        3.061855   -1.350172   -1.174022
     19          1           0        1.249048    2.094793    0.174095
     20          1           0       -2.577598    0.120260   -0.095162
     21          1           0        1.039870   -2.213035    0.172692
 ---------------------------------------------------------------------
                    Distance matrix (angstroms):
                    1          2          3          4          5
     1  O    0.000000
     2  C    1.397902   0.000000
     3  O    2.331481   1.398480   0.000000
     4  C    2.424108   1.525838   2.420430   0.000000
     5  C    2.806752   2.536895   3.667131   1.394629   0.000000
     6  C    4.183916   3.809331   4.788198   2.403867   1.390537
     7  N    5.072707   4.999229   6.088348   3.743163   2.463161
     8  O    6.241559   6.067045   7.076135   4.704379   3.546702
     9  O    4.845989   5.088520   6.293771   4.107176   2.713562
    10  C    5.051578   4.350880   5.043480   2.825315   2.438122
    11  C    4.806307   3.806170   4.188881   2.404015   2.758286
    12  N    6.113621   4.994057   5.086684   3.743175   4.227710
    13  O    7.099523   6.062804   6.250599   4.704332   4.917682
    14  O    6.324713   5.081360   4.871652   4.107238   4.910397
    15  C    3.686697   2.532750   2.820144   1.395306   2.407208
    16  H    0.968011   1.940611   2.610806   2.569484   2.790515
    17  H    1.998212   1.100669   1.999362   2.146743   3.051029
    18  H    2.619844   1.940100   0.968031   2.554650   3.708768
    19  H    2.484072   2.750766   4.023290   2.162969   1.089199
    20  H    6.110613   5.439011   6.101731   3.913456   3.426934
    21  H    4.051293   2.745121   2.519257   2.164507   3.401504
                    6          7          8          9         10
     6  C    0.000000
     7  N    1.469691   0.000000
     8  O    2.302132   1.212709   0.000000
     9  O    2.302425   1.212529   2.142554   0.000000
    10  C    1.386324   2.452562   2.699356   3.538077   0.000000
    11  C    2.357400   3.704661   4.082575   4.658966   1.386758
    12  N    3.704390   4.905353   5.012325   5.966956   2.452797
    13  O    4.082233   5.012217   4.821710   6.175947   2.699467
    14  O    4.658723   5.966983   6.176071   6.958621   3.538333
    15  C    2.758007   4.227672   4.917563   4.910483   2.437810
    16  H    4.060196   4.882570   6.022700   4.659096   4.934946
    17  H    4.277124   5.423448   6.481232   5.480185   4.801164
    18  H    4.716294   5.999592   6.938729   6.252228   4.910112
    19  H    2.153370   2.667980   3.871793   2.403535   3.415308
    20  H    2.166932   2.682377   2.414334   3.886200   1.088144
    21  H    3.847081   5.316758   5.981211   5.982050   3.414528
                   11         12         13         14         15
    11  C    0.000000
    12  N    1.469444   0.000000
    13  O    2.301920   1.212719   0.000000
    14  O    2.302173   1.212536   2.142602   0.000000
    15  C    1.389843   2.462362   3.545883   2.712895   0.000000
    16  H    4.771927   6.076602   7.009888   6.345898   3.768051
    17  H    4.241625   5.364487   6.432548   5.397297   3.002115
    18  H    4.075446   4.927201   6.052393   4.740046   2.827182
    19  H    3.847302   5.316745   5.981577   5.981621   3.400998
    20  H    2.166949   2.682160   2.413986   3.885999   3.426319
    21  H    2.151823   2.665545   3.869423   2.400885   1.089289
                   16         17         18         19         20
    16  H    0.000000
    17  H    2.814605   0.000000
    18  H    2.531888   2.813939   0.000000
    19  H    2.481129   3.194665   4.119645   0.000000
    20  H    5.953248   5.866796   5.927018   4.314452   0.000000
    21  H    4.200262   3.112627   2.578099   4.312904   4.313014
                   21
    21  H    0.000000
 Stoichiometry    C7H6N2O6
 Framework group  C1[X(C7H6N2O6)]
 Deg. of freedom    57
 Full point group                 C1      NOp   1
 Largest Abelian subgroup         C1      NOp   1
 Largest concise Abelian subgroup C1      NOp   1
                         Standard orientation:                         
 ---------------------------------------------------------------------
 Center     Atomic      Atomic             Coordinates (Angstroms)
 Number     Number       Type             X           Y           Z
 ---------------------------------------------------------------------
      1          8           0        3.466771    1.017018   -0.127106
      2          6           0        2.838289   -0.145022    0.329845
      3          8           0        3.352476   -1.308330   -0.251594
      4          6           0        1.321249   -0.066937    0.186065
      5          6           0        0.676657    1.168839    0.137609
      6          6           0       -0.709501    1.210548    0.035530
      7          7           0       -1.377627    2.518220   -0.024395
      8          8           0       -2.587460    2.534549   -0.106249
      9          8           0       -0.684851    3.512713    0.011260
     10          6           0       -1.493670    0.068424   -0.014723
     11          6           0       -0.822989   -1.144114    0.040387
     12          7           0       -1.613946   -2.381421   -0.011813
     13          8           0       -2.819846   -2.281538   -0.092531
     14          8           0       -1.020119   -3.437804    0.029027
     15          6           0        0.560375   -1.235559    0.138388
     16          1           0        3.204006    1.174446   -1.045374
     17          1           0        3.085588   -0.213836    1.400163
     18          1           0        3.061855   -1.350173   -1.174022
     19          1           0        1.249049    2.094793    0.174095
     20          1           0       -2.577598    0.120261   -0.095162
     21          1           0        1.039870   -2.213035    0.172692
 ---------------------------------------------------------------------
 Rotational constants (GHZ):           0.5783103           0.5565492           0.2862967
 Leave Link  202 at Wed Oct 22 09:06:12 2025, MaxMem=  4294967296 cpu:               0.1 elap:               0.0
 (Enter /lrz/sys/applications/gaussian/g16.C.01/x86_64_legacy/exe/l301.exe)
 Standard basis: def2TZVP (5D, 7F)
 Ernie: Thresh=  0.10000D-02 Tol=  0.10000D-05 Strict=F.
 There are   576 symmetry adapted cartesian basis functions of A   symmetry.
 There are   501 symmetry adapted basis functions of A   symmetry.
   501 basis functions,   813 primitive gaussians,   576 cartesian basis functions
    55 alpha electrons       55 beta electrons
       nuclear repulsion energy       990.2068843427 Hartrees.
 IExCor= 4639 DFT=T Ex+Corr=wB97XD ExCW=0 ScaHFX=  1.000000
 ScaDFX=  1.000000  1.000000  1.000000  1.000000 ScalE2=  1.000000  1.000000
 IRadAn=      5 IRanWt=     -1 IRanGd=            0 ICorTp=0 IEmpDi=121
 HFx  wShort=  0.000000 wLong=  0.200000 cFull=  0.222036 cShort=  0.000000 cLong=  0.777964
 DFx  wShort=  0.000000 wLong=  0.200000 cFull=  0.000000 cShort=  0.000000 cLong=  1.000000
 NAtoms=   21 NActive=   21 NUniq=   21 SFac= 1.00D+00 NAtFMM=   60 NAOKFM=F Big=F
 Integral buffers will be    131072 words long.
 Raffenetti 2 integral format.
 Two-electron integral symmetry is turned on.
 R6Disp:  Grimme-D2 Dispersion energy=       -0.0116917596 Hartrees.
 Nuclear repulsion after empirical dispersion term =      990.1951925831 Hartrees.
 ------------------------------------------------------------------------------
 Polarizable Continuum Model (PCM)
 =================================
 Model                : PCM.
 Atomic radii         : SMD-Coulomb.
 Polarization charges : Total charges.
 Charge compensation  : None.
 Solution method      : On-the-fly selection.
 Cavity type          : VdW (van der Waals Surface) (Alpha=1.000).
 Cavity algorithm     : GePol (No added spheres)
                        Default sphere list used, NSphG=   21.
                        Lebedev-Laikov grids with approx.  5.0 points / Ang**2.
                        Smoothing algorithm: York/Karplus (Gamma=1.0000).
                        Polarization charges: spherical gaussians, with
                                              point-specific exponents (IZeta= 3).
                        Self-potential: point-specific (ISelfS= 7).
                        Self-field    : sphere-specific E.n sum rule (ISelfD= 2).
 Solvent              : Water, Eps=  78.355300 Eps(inf)=   1.777849
 ------------------------------------------------------------------------------
 GePol: Number of generator spheres                  =      21
 GePol: Total number of spheres                      =      21
 GePol: Number of exposed spheres                    =      21 (100.00%)
 GePol: Number of points                             =    1612
 GePol: Average weight of points                     =       0.13
 GePol: Minimum weight of points                     =   0.50D-09
 GePol: Maximum weight of points                     =    0.21991
 GePol: Number of points with low weight             =      95
 GePol: Fraction of low-weight points (<1% of avg)   =       5.89%
 GePol: Cavity surface area                          =    202.866 Ang**2
 GePol: Cavity volume                                =    175.167 Ang**3
 ------------------------------------------------------------------------------
 Atomic radii for non-electrostatic terms: SMD-CDS.
 ------------------------------------------------------------------------------
 PCM non-electrostatic energy =         0.0151216591 Hartrees.
 Nuclear repulsion after PCM non-electrostatic terms =      990.2103142423 Hartrees.
 Leave Link  301 at Wed Oct 22 09:06:12 2025, MaxMem=  4294967296 cpu:               0.8 elap:               0.1
 (Enter /lrz/sys/applications/gaussian/g16.C.01/x86_64_legacy/exe/l302.exe)
 NPDir=0 NMtPBC=     1 NCelOv=     1 NCel=       1 NClECP=     1 NCelD=      1
         NCelK=      1 NCelE2=     1 NClLst=     1 CellRange=     0.0.
 One-electron integrals computed using PRISM.
 One-electron integral symmetry used in STVInt
   1 Symmetry operations used in ECPInt.
 ECPInt:  NShTT=   17955 NPrTT=   56964 LenC2=   16161 LenP2D=   37415.
 LDataN:  DoStor=T MaxTD1= 6 Len=  172
 NBasis=   501 RedAO= T EigKep=  7.54D-06  NBF=   501
 NBsUse=   501 1.00D-06 EigRej= -1.00D+00 NBFU=   501
 Precomputing XC quadrature grid using
 IXCGrd= 4 IRadAn=           5 IRanWt=          -1 IRanGd=           0 AccXCQ= 0.00D+00.
 Generated NRdTot=       0 NPtTot=           0 NUsed=           0 NTot=          32
 NSgBfM=   567   567   567   567   567 MxSgAt=    21 MxSgA2=    21.
 Leave Link  302 at Wed Oct 22 09:06:13 2025, MaxMem=  4294967296 cpu:               6.6 elap:               0.8
 (Enter /lrz/sys/applications/gaussian/g16.C.01/x86_64_legacy/exe/l303.exe)
 DipDrv:  MaxL=1.
 Leave Link  303 at Wed Oct 22 09:06:13 2025, MaxMem=  4294967296 cpu:               0.7 elap:               0.1
 (Enter /lrz/sys/applications/gaussian/g16.C.01/x86_64_legacy/exe/l401.exe)
 ExpMin= 9.52D-02 ExpMax= 2.70D+04 ExpMxC= 9.22D+02 IAcc=3 IRadAn=         5 AccDes= 0.00D+00
 Harris functional with IExCor= 4639 and IRadAn=       5 diagonalized for initial guess.
 HarFok:  IExCor= 4639 AccDes= 0.00D+00 IRadAn=         5 IDoV= 1 UseB2=F ITyADJ=14
 ICtDFT=  3500011 ScaDFX=  1.000000  1.000000  1.000000  1.000000
 FoFCou: FMM=F IPFlag=           0 FMFlag=      100000 FMFlg1=           0
         NFxFlg=           0 DoJE=T BraDBF=F KetDBF=T FulRan=T
         wScrn=  0.000000 ICntrl=       500 IOpCl=  0 I1Cent=   200000004 NGrid=           0
         NMat0=    1 NMatS0=      1 NMatT0=    0 NMatD0=    1 NMtDS0=    0 NMtDT0=    0
 Petite list used in FoFCou.
 Harris En= -799.611937371239    
 JPrj=0 DoOrth=F DoCkMO=F.
 Leave Link  401 at Wed Oct 22 09:06:18 2025, MaxMem=  4294967296 cpu:              43.3 elap:               5.4
 (Enter /lrz/sys/applications/gaussian/g16.C.01/x86_64_legacy/exe/l502.exe)
 Integral symmetry usage will be decided dynamically.
 Closed shell SCF:
 Using DIIS extrapolation, IDIIS=  1040.
 NGot=  4294967296 LenX=  4294293690 LenY=  4293961338
 Requested convergence on RMS density matrix=1.00D-08 within 128 cycles.
 Requested convergence on MAX density matrix=1.00D-06.
 Requested convergence on             energy=1.00D-06.
 No special actions if energy rises.
 Fock matrices will be formed incrementally for  20 cycles.

 Cycle   1  Pass 1  IDiag  1:
 FoFJK:  IHMeth= 1 ICntrl=       0 DoSepK=T KAlg= 0 I1Cent=           0 FoldK=F
 IRaf=         1 NMat=       1 IRICut=       1 DoRegI=T DoRafI=F ISym2E= 0 IDoP0=0 IntGTp=1.
 FoFCou: FMM=F IPFlag=           0 FMFlag=      100000 FMFlg1=           0
         NFxFlg=           0 DoJE=T BraDBF=F KetDBF=F FulRan=T
         wScrn=  0.000000 ICntrl=       500 IOpCl=  0 I1Cent=           0 NGrid=           0
         NMat0=    1 NMatS0=      1 NMatT0=    0 NMatD0=    1 NMtDS0=    0 NMtDT0=    0
 Symmetry not used in FoFCou.
 Inv3:  Mode=1 IEnd=     7795632.
 Iteration    1 A*A^-1 deviation from unit magnitude is 6.44D-15 for     39.
 Iteration    1 A*A^-1 deviation from orthogonality  is 5.39D-15 for   1596    858.
 Iteration    1 A^-1*A deviation from unit magnitude is 6.77D-15 for   1079.
 Iteration    1 A^-1*A deviation from orthogonality  is 6.47D-13 for   1337   1302.
 E= -830.618625994439    
 DIIS: error= 5.72D-02 at cycle   1 NSaved=   1.
 NSaved= 1 IEnMin= 1 EnMin= -830.618625994439     IErMin= 1 ErrMin= 5.72D-02
 ErrMax= 5.72D-02  0.00D+00 EMaxC= 1.00D-01 BMatC= 2.10D+00 BMatP= 2.10D+00
 IDIUse=3 WtCom= 4.28D-01 WtEn= 5.72D-01
 Coeff-Com:  0.100D+01
 Coeff-En:   0.100D+01
 Coeff:      0.100D+01
 Gap=     0.437 Goal=   None    Shift=    0.000
 GapD=    0.437 DampG=2.000 DampE=0.500 DampFc=1.0000 IDamp=-1.
 RMSDP=5.18D-03 MaxDP=2.85D-01              OVMax= 2.18D-01

 Cycle   2  Pass 1  IDiag  1:
 RMSU=  4.04D-03    CP:  6.90D-01
 E= -830.731172220635     Delta-E=       -0.112546226196 Rises=F Damp=F
 DIIS: error= 3.40D-02 at cycle   2 NSaved=   2.
 NSaved= 2 IEnMin= 2 EnMin= -830.731172220635     IErMin= 2 ErrMin= 3.40D-02
 ErrMax= 3.40D-02  0.00D+00 EMaxC= 1.00D-01 BMatC= 5.25D-01 BMatP= 2.10D+00
 IDIUse=3 WtCom= 6.60D-01 WtEn= 3.40D-01
 Coeff-Com:  0.291D+00 0.709D+00
 Coeff-En:   0.417D+00 0.583D+00
 Coeff:      0.334D+00 0.666D+00
 Gap=     0.397 Goal=   None    Shift=    0.000
 RMSDP=1.08D-03 MaxDP=7.81D-02 DE=-1.13D-01 OVMax= 1.63D-01

 Cycle   3  Pass 1  IDiag  1:
 RMSU=  9.59D-04    CP:  7.02D-01  8.83D-01
 E= -831.014863328432     Delta-E=       -0.283691107797 Rises=F Damp=F
 DIIS: error= 1.67D-02 at cycle   3 NSaved=   3.
 NSaved= 3 IEnMin= 3 EnMin= -831.014863328432     IErMin= 3 ErrMin= 1.67D-02
 ErrMax= 1.67D-02  0.00D+00 EMaxC= 1.00D-01 BMatC= 1.03D-01 BMatP= 5.25D-01
 IDIUse=3 WtCom= 8.33D-01 WtEn= 1.67D-01
 Coeff-Com:  0.469D-01 0.314D+00 0.640D+00
 Coeff-En:   0.000D+00 0.127D+00 0.873D+00
 Coeff:      0.391D-01 0.282D+00 0.679D+00
 Gap=     0.353 Goal=   None    Shift=    0.000
 RMSDP=4.28D-04 MaxDP=2.62D-02 DE=-2.84D-01 OVMax= 6.95D-02

 Cycle   4  Pass 1  IDiag  1:
 RMSU=  2.97D-04    CP:  6.94D-01  9.25D-01  7.51D-01
 E= -831.079388701380     Delta-E=       -0.064525372948 Rises=F Damp=F
 DIIS: error= 4.71D-03 at cycle   4 NSaved=   4.
 NSaved= 4 IEnMin= 4 EnMin= -831.079388701380     IErMin= 4 ErrMin= 4.71D-03
 ErrMax= 4.71D-03  0.00D+00 EMaxC= 1.00D-01 BMatC= 1.18D-02 BMatP= 1.03D-01
 IDIUse=3 WtCom= 9.53D-01 WtEn= 4.71D-02
 Coeff-Com:  0.770D-02 0.108D+00 0.347D+00 0.538D+00
 Coeff-En:   0.000D+00 0.000D+00 0.000D+00 0.100D+01
 Coeff:      0.734D-02 0.102D+00 0.330D+00 0.560D+00
 Gap=     0.317 Goal=   None    Shift=    0.000
 RMSDP=2.12D-04 MaxDP=9.86D-03 DE=-6.45D-02 OVMax= 1.67D-02

 Cycle   5  Pass 1  IDiag  1:
 RMSU=  1.09D-04    CP:  6.83D-01  9.53D-01  8.26D-01  7.92D-01
 E= -831.086331296476     Delta-E=       -0.006942595096 Rises=F Damp=F
 DIIS: error= 7.48D-04 at cycle   5 NSaved=   5.
 NSaved= 5 IEnMin= 5 EnMin= -831.086331296476     IErMin= 5 ErrMin= 7.48D-04
 ErrMax= 7.48D-04  0.00D+00 EMaxC= 1.00D-01 BMatC= 2.29D-04 BMatP= 1.18D-02
 IDIUse=3 WtCom= 9.93D-01 WtEn= 7.48D-03
 Coeff-Com: -0.610D-03 0.479D-02 0.434D-01 0.169D+00 0.783D+00
 Coeff-En:   0.000D+00 0.000D+00 0.000D+00 0.000D+00 0.100D+01
 Coeff:     -0.605D-03 0.476D-02 0.431D-01 0.168D+00 0.785D+00
 Gap=     0.320 Goal=   None    Shift=    0.000
 RMSDP=5.09D-05 MaxDP=1.83D-03 DE=-6.94D-03 OVMax= 5.62D-03

 Cycle   6  Pass 1  IDiag  1:
 RMSU=  2.69D-05    CP:  6.82D-01  9.58D-01  8.43D-01  8.83D-01  1.13D+00
 E= -831.086531308981     Delta-E=       -0.000200012505 Rises=F Damp=F
 DIIS: error= 1.43D-04 at cycle   6 NSaved=   6.
 NSaved= 6 IEnMin= 6 EnMin= -831.086531308981     IErMin= 6 ErrMin= 1.43D-04
 ErrMax= 1.43D-04  0.00D+00 EMaxC= 1.00D-01 BMatC= 1.80D-05 BMatP= 2.29D-04
 IDIUse=3 WtCom= 9.99D-01 WtEn= 1.43D-03
 Coeff-Com: -0.833D-03-0.942D-02-0.196D-01-0.128D-03 0.259D+00 0.771D+00
 Coeff-En:   0.000D+00 0.000D+00 0.000D+00 0.000D+00 0.000D+00 0.100D+01
 Coeff:     -0.831D-03-0.941D-02-0.195D-01-0.128D-03 0.259D+00 0.771D+00
 Gap=     0.320 Goal=   None    Shift=    0.000
 RMSDP=2.71D-05 MaxDP=1.06D-03 DE=-2.00D-04 OVMax= 1.47D-03

 Cycle   7  Pass 1  IDiag  1:
 RMSU=  9.02D-06    CP:  6.81D-01  9.61D-01  8.49D-01  9.25D-01  1.26D+00
                    CP:  1.07D+00
 E= -831.086553839209     Delta-E=       -0.000022530228 Rises=F Damp=F
 DIIS: error= 7.04D-05 at cycle   7 NSaved=   7.
 NSaved= 7 IEnMin= 7 EnMin= -831.086553839209     IErMin= 7 ErrMin= 7.04D-05
 ErrMax= 7.04D-05  0.00D+00 EMaxC= 1.00D-01 BMatC= 1.69D-06 BMatP= 1.80D-05
 IDIUse=1 WtCom= 1.00D+00 WtEn= 0.00D+00
 Coeff-Com: -0.223D-03-0.375D-02-0.108D-01-0.158D-01 0.120D-01 0.231D+00
 Coeff-Com:  0.787D+00
 Coeff:     -0.223D-03-0.375D-02-0.108D-01-0.158D-01 0.120D-01 0.231D+00
 Coeff:      0.787D+00
 Gap=     0.320 Goal=   None    Shift=    0.000
 RMSDP=9.05D-06 MaxDP=3.75D-04 DE=-2.25D-05 OVMax= 8.88D-04

 Cycle   8  Pass 1  IDiag  1:
 RMSU=  3.90D-06    CP:  6.80D-01  9.61D-01  8.50D-01  9.37D-01  1.30D+00
                    CP:  1.21D+00  1.24D+00
 E= -831.086556332773     Delta-E=       -0.000002493563 Rises=F Damp=F
 DIIS: error= 2.78D-05 at cycle   8 NSaved=   8.
 NSaved= 8 IEnMin= 8 EnMin= -831.086556332773     IErMin= 8 ErrMin= 2.78D-05
 ErrMax= 2.78D-05  0.00D+00 EMaxC= 1.00D-01 BMatC= 6.20D-07 BMatP= 1.69D-06
 IDIUse=1 WtCom= 1.00D+00 WtEn= 0.00D+00
 Coeff-Com:  0.485D-04 0.246D-03-0.753D-03-0.722D-02-0.512D-01-0.590D-01
 Coeff-Com:  0.406D+00 0.712D+00
 Coeff:      0.485D-04 0.246D-03-0.753D-03-0.722D-02-0.512D-01-0.590D-01
 Coeff:      0.406D+00 0.712D+00
 Gap=     0.320 Goal=   None    Shift=    0.000
 RMSDP=4.17D-06 MaxDP=1.44D-04 DE=-2.49D-06 OVMax= 4.02D-04

 Cycle   9  Pass 1  IDiag  1:
 RMSU=  1.42D-06    CP:  6.80D-01  9.61D-01  8.50D-01  9.42D-01  1.32D+00
                    CP:  1.27D+00  1.48D+00  1.03D+00
 E= -831.086557025679     Delta-E=       -0.000000692906 Rises=F Damp=F
 DIIS: error= 1.15D-05 at cycle   9 NSaved=   9.
 NSaved= 9 IEnMin= 9 EnMin= -831.086557025679     IErMin= 9 ErrMin= 1.15D-05
 ErrMax= 1.15D-05  0.00D+00 EMaxC= 1.00D-01 BMatC= 9.81D-08 BMatP= 6.20D-07
 IDIUse=1 WtCom= 1.00D+00 WtEn= 0.00D+00
 Coeff-Com:  0.502D-04 0.623D-03 0.104D-02-0.185D-02-0.294D-01-0.618D-01
 Coeff-Com:  0.126D+00 0.377D+00 0.588D+00
 Coeff:      0.502D-04 0.623D-03 0.104D-02-0.185D-02-0.294D-01-0.618D-01
 Coeff:      0.126D+00 0.377D+00 0.588D+00
 Gap=     0.320 Goal=   None    Shift=    0.000
 RMSDP=9.02D-07 MaxDP=2.36D-05 DE=-6.93D-07 OVMax= 1.05D-04

 Cycle  10  Pass 1  IDiag  1:
 RMSU=  5.23D-07    CP:  6.80D-01  9.61D-01  8.50D-01  9.43D-01  1.32D+00
                    CP:  1.28D+00  1.53D+00  1.13D+00  8.78D-01
 E= -831.086557116302     Delta-E=       -0.000000090624 Rises=F Damp=F
 DIIS: error= 4.35D-06 at cycle  10 NSaved=  10.
 NSaved=10 IEnMin=10 EnMin= -831.086557116302     IErMin=10 ErrMin= 4.35D-06
 ErrMax= 4.35D-06  0.00D+00 EMaxC= 1.00D-01 BMatC= 5.78D-09 BMatP= 9.81D-08
 IDIUse=1 WtCom= 1.00D+00 WtEn= 0.00D+00
 Coeff-Com:  0.839D-05 0.132D-03 0.450D-03 0.764D-03 0.112D-02-0.672D-02
 Coeff-Com: -0.356D-01-0.292D-01 0.153D+00 0.917D+00
 Coeff:      0.839D-05 0.132D-03 0.450D-03 0.764D-03 0.112D-02-0.672D-02
 Coeff:     -0.356D-01-0.292D-01 0.153D+00 0.917D+00
 Gap=     0.320 Goal=   None    Shift=    0.000
 RMSDP=4.92D-07 MaxDP=1.76D-05 DE=-9.06D-08 OVMax= 6.48D-05

 Cycle  11  Pass 1  IDiag  1:
 RMSU=  2.27D-07    CP:  6.80D-01  9.61D-01  8.50D-01  9.42D-01  1.32D+00
                    CP:  1.29D+00  1.55D+00  1.17D+00  9.93D-01  1.15D+00
 E= -831.086557128305     Delta-E=       -0.000000012003 Rises=F Damp=F
 DIIS: error= 1.47D-06 at cycle  11 NSaved=  11.
 NSaved=11 IEnMin=11 EnMin= -831.086557128305     IErMin=11 ErrMin= 1.47D-06
 ErrMax= 1.47D-06  0.00D+00 EMaxC= 1.00D-01 BMatC= 6.18D-10 BMatP= 5.78D-09
 IDIUse=1 WtCom= 1.00D+00 WtEn= 0.00D+00
 Coeff-Com: -0.107D-05-0.201D-04 0.268D-04 0.338D-03 0.256D-02 0.373D-02
 Coeff-Com: -0.167D-01-0.398D-01-0.248D-01 0.215D+00 0.859D+00
 Coeff:     -0.107D-05-0.201D-04 0.268D-04 0.338D-03 0.256D-02 0.373D-02
 Coeff:     -0.167D-01-0.398D-01-0.248D-01 0.215D+00 0.859D+00
 Gap=     0.320 Goal=   None    Shift=    0.000
 RMSDP=1.70D-07 MaxDP=5.99D-06 DE=-1.20D-08 OVMax= 2.51D-05

 Cycle  12  Pass 1  IDiag  1:
 RMSU=  7.66D-08    CP:  6.80D-01  9.61D-01  8.50D-01  9.42D-01  1.32D+00
                    CP:  1.28D+00  1.55D+00  1.18D+00  1.01D+00  1.24D+00
                    CP:  1.29D+00
 E= -831.086557129757     Delta-E=       -0.000000001452 Rises=F Damp=F
 DIIS: error= 5.61D-07 at cycle  12 NSaved=  12.
 NSaved=12 IEnMin=12 EnMin= -831.086557129757     IErMin=12 ErrMin= 5.61D-07
 ErrMax= 5.61D-07  0.00D+00 EMaxC= 1.00D-01 BMatC= 1.36D-10 BMatP= 6.18D-10
 IDIUse=1 WtCom= 1.00D+00 WtEn= 0.00D+00
 Coeff-Com: -0.110D-05-0.215D-04-0.404D-04 0.267D-04 0.569D-03 0.208D-02
 Coeff-Com: -0.808D-03-0.108D-01-0.321D-01-0.502D-01 0.302D+00 0.790D+00
 Coeff:     -0.110D-05-0.215D-04-0.404D-04 0.267D-04 0.569D-03 0.208D-02
 Coeff:     -0.808D-03-0.108D-01-0.321D-01-0.502D-01 0.302D+00 0.790D+00
 Gap=     0.320 Goal=   None    Shift=    0.000
 RMSDP=6.47D-08 MaxDP=2.24D-06 DE=-1.45D-09 OVMax= 1.20D-05

 Cycle  13  Pass 1  IDiag  1:
 RMSU=  2.60D-08    CP:  6.80D-01  9.61D-01  8.50D-01  9.42D-01  1.32D+00
                    CP:  1.28D+00  1.55D+00  1.18D+00  1.01D+00  1.27D+00
                    CP:  1.45D+00  1.15D+00
 E= -831.086557129997     Delta-E=       -0.000000000240 Rises=F Damp=F
 DIIS: error= 2.49D-07 at cycle  13 NSaved=  13.
 NSaved=13 IEnMin=13 EnMin= -831.086557129997     IErMin=13 ErrMin= 2.49D-07
 ErrMax= 2.49D-07  0.00D+00 EMaxC= 1.00D-01 BMatC= 1.65D-11 BMatP= 1.36D-10
 IDIUse=1 WtCom= 1.00D+00 WtEn= 0.00D+00
 Coeff-Com: -0.111D-06-0.108D-05-0.108D-04-0.406D-04-0.357D-03-0.118D-03
 Coeff-Com:  0.287D-02 0.398D-02-0.329D-02-0.426D-01-0.904D-01 0.120D+00
 Coeff-Com:  0.101D+01
 Coeff:     -0.111D-06-0.108D-05-0.108D-04-0.406D-04-0.357D-03-0.118D-03
 Coeff:      0.287D-02 0.398D-02-0.329D-02-0.426D-01-0.904D-01 0.120D+00
 Coeff:      0.101D+01
 Gap=     0.320 Goal=   None    Shift=    0.000
 RMSDP=3.18D-08 MaxDP=1.21D-06 DE=-2.40D-10 OVMax= 6.14D-06

 Cycle  14  Pass 1  IDiag  1:
 RMSU=  1.06D-08    CP:  6.80D-01  9.61D-01  8.50D-01  9.42D-01  1.32D+00
                    CP:  1.28D+00  1.55D+00  1.18D+00  1.01D+00  1.29D+00
                    CP:  1.52D+00  1.34D+00  1.35D+00
 E= -831.086557130077     Delta-E=       -0.000000000080 Rises=F Damp=F
 DIIS: error= 6.74D-08 at cycle  14 NSaved=  14.
 NSaved=14 IEnMin=14 EnMin= -831.086557130077     IErMin=14 ErrMin= 6.74D-08
 ErrMax= 6.74D-08  0.00D+00 EMaxC= 1.00D-01 BMatC= 2.43D-12 BMatP= 1.65D-11
 IDIUse=1 WtCom= 1.00D+00 WtEn= 0.00D+00
 Coeff-Com:  0.122D-06 0.219D-05 0.268D-05-0.103D-04-0.170D-03-0.253D-03
 Coeff-Com:  0.869D-03 0.207D-02 0.235D-02-0.492D-02-0.549D-01-0.555D-01
 Coeff-Com:  0.318D+00 0.793D+00
 Coeff:      0.122D-06 0.219D-05 0.268D-05-0.103D-04-0.170D-03-0.253D-03
 Coeff:      0.869D-03 0.207D-02 0.235D-02-0.492D-02-0.549D-01-0.555D-01
 Coeff:      0.318D+00 0.793D+00
 Gap=     0.320 Goal=   None    Shift=    0.000
 RMSDP=6.55D-09 MaxDP=2.87D-07 DE=-7.98D-11 OVMax= 1.50D-06

 Error on total polarization charges =  0.05137
 SCF Done:  E(RwB97XD) =  -831.086557130     A.U. after   14 cycles
            NFock= 14  Conv=0.65D-08     -V/T= 2.0043
 KE= 8.275412835029D+02 PE=-3.927308779051D+03 EE= 1.278470624176D+03
 SMD-CDS (non-electrostatic) energy       (kcal/mol) =       9.49
 (included in total energy above)
 Leave Link  502 at Wed Oct 22 09:16:10 2025, MaxMem=  4294967296 cpu:            4727.4 elap:             591.5
 (Enter /lrz/sys/applications/gaussian/g16.C.01/x86_64_legacy/exe/l601.exe)
 Copying SCF densities to generalized density rwf, IOpCl= 0 IROHF=0.

 **********************************************************************

            Population analysis using the SCF Density.

 **********************************************************************

 Orbital symmetries:
       Occupied  (A) (A) (A) (A) (A) (A) (A) (A) (A) (A) (A) (A)
                 (A) (A) (A) (A) (A) (A) (A) (A) (A) (A) (A) (A)
                 (A) (A) (A) (A) (A) (A) (A) (A) (A) (A) (A) (A)
                 (A) (A) (A) (A) (A) (A) (A) (A) (A) (A) (A) (A)
                 (A) (A) (A) (A) (A) (A) (A)
       Virtual   (A) (A) (A) (A) (A) (A) (A) (A) (A) (A) (A) (A)
                 (A) (A) (A) (A) (A) (A) (A) (A) (A) (A) (A) (A)
                 (A) (A) (A) (A) (A) (A) (A) (A) (A) (A) (A) (A)
                 (A) (A) (A) (A) (A) (A) (A) (A) (A) (A) (A) (A)
                 (A) (A) (A) (A) (A) (A) (A) (A) (A) (A) (A) (A)
                 (A) (A) (A) (A) (A) (A) (A) (A) (A) (A) (A) (A)
                 (A) (A) (A) (A) (A) (A) (A) (A) (A) (A) (A) (A)
                 (A) (A) (A) (A) (A) (A) (A) (A) (A) (A) (A) (A)
                 (A) (A) (A) (A) (A) (A) (A) (A) (A) (A) (A) (A)
                 (A) (A) (A) (A) (A) (A) (A) (A) (A) (A) (A) (A)
                 (A) (A) (A) (A) (A) (A) (A) (A) (A) (A) (A) (A)
                 (A) (A) (A) (A) (A) (A) (A) (A) (A) (A) (A) (A)
                 (A) (A) (A) (A) (A) (A) (A) (A) (A) (A) (A) (A)
                 (A) (A) (A) (A) (A) (A) (A) (A) (A) (A) (A) (A)
                 (A) (A) (A) (A) (A) (A) (A) (A) (A) (A) (A) (A)
                 (A) (A) (A) (A) (A) (A) (A) (A) (A) (A) (A) (A)
                 (A) (A) (A) (A) (A) (A) (A) (A) (A) (A) (A) (A)
                 (A) (A) (A) (A) (A) (A) (A) (A) (A) (A) (A) (A)
                 (A) (A) (A) (A) (A) (A) (A) (A) (A) (A) (A) (A)
                 (A) (A) (A) (A) (A) (A) (A) (A) (A) (A) (A) (A)
                 (A) (A) (A) (A) (A) (A) (A) (A) (A) (A) (A) (A)
                 (A) (A) (A) (A) (A) (A) (A) (A) (A) (A) (A) (A)
                 (A) (A) (A) (A) (A) (A) (A) (A) (A) (A) (A) (A)
                 (A) (A) (A) (A) (A) (A) (A) (A) (A) (A) (A) (A)
                 (A) (A) (A) (A) (A) (A) (A) (A) (A) (A) (A) (A)
                 (A) (A) (A) (A) (A) (A) (A) (A) (A) (A) (A) (A)
                 (A) (A) (A) (A) (A) (A) (A) (A) (A) (A) (A) (A)
                 (A) (A) (A) (A) (A) (A) (A) (A) (A) (A) (A) (A)
                 (A) (A) (A) (A) (A) (A) (A) (A) (A) (A) (A) (A)
                 (A) (A) (A) (A) (A) (A) (A) (A) (A) (A) (A) (A)
                 (A) (A) (A) (A) (A) (A) (A) (A) (A) (A) (A) (A)
                 (A) (A) (A) (A) (A) (A) (A) (A) (A) (A) (A) (A)
                 (A) (A) (A) (A) (A) (A) (A) (A) (A) (A) (A) (A)
                 (A) (A) (A) (A) (A) (A) (A) (A) (A) (A) (A) (A)
                 (A) (A) (A) (A) (A) (A) (A) (A) (A) (A) (A) (A)
                 (A) (A) (A) (A) (A) (A) (A) (A) (A) (A) (A) (A)
                 (A) (A) (A) (A) (A) (A) (A) (A) (A) (A) (A) (A)
                 (A) (A)
 The electronic state is 1-A.
 Alpha  occ. eigenvalues --  -19.30363 -19.30359 -19.30352 -19.30344 -19.26705
 Alpha  occ. eigenvalues --  -19.26700 -14.70020 -14.70015 -10.40045 -10.36966
 Alpha  occ. eigenvalues --  -10.36964 -10.33861 -10.33226 -10.33208 -10.32932
 Alpha  occ. eigenvalues --   -1.36759  -1.36744  -1.18734  -1.18717  -1.18215
 Alpha  occ. eigenvalues --   -1.11322  -1.02071  -0.94711  -0.91719  -0.83241
 Alpha  occ. eigenvalues --   -0.81356  -0.79422  -0.71508  -0.70278  -0.68705
 Alpha  occ. eigenvalues --   -0.65841  -0.65558  -0.64451  -0.63962  -0.63095
 Alpha  occ. eigenvalues --   -0.62471  -0.60948  -0.59568  -0.58105  -0.57181
 Alpha  occ. eigenvalues --   -0.50243  -0.49502  -0.49308  -0.47491  -0.45622
 Alpha  occ. eigenvalues --   -0.43381  -0.42448  -0.42396  -0.42201  -0.40992
 Alpha  occ. eigenvalues --   -0.40690  -0.39823  -0.39391  -0.37686  -0.36510
 Alpha virt. eigenvalues --   -0.04481  -0.03539   0.03811   0.06990   0.12382
 Alpha virt. eigenvalues --    0.14359   0.15527   0.15708   0.16993   0.19157
 Alpha virt. eigenvalues --    0.19362   0.20493   0.21208   0.23033   0.24090
 Alpha virt. eigenvalues --    0.25704   0.27046   0.28104   0.28290   0.29195
 Alpha virt. eigenvalues --    0.29413   0.30621   0.31508   0.32884   0.33381
 Alpha virt. eigenvalues --    0.34325   0.34695   0.35000   0.37032   0.38073
 Alpha virt. eigenvalues --    0.38563   0.38713   0.38945   0.39275   0.40798
 Alpha virt. eigenvalues --    0.42011   0.42207   0.42458   0.42810   0.44026
 Alpha virt. eigenvalues --    0.46036   0.46223   0.47352   0.47503   0.49144
 Alpha virt. eigenvalues --    0.50383   0.50836   0.51810   0.52211   0.52558
 Alpha virt. eigenvalues --    0.52635   0.52771   0.55581   0.55785   0.56909
 Alpha virt. eigenvalues --    0.58012   0.58243   0.58654   0.59839   0.60067
 Alpha virt. eigenvalues --    0.61571   0.62407   0.62498   0.63907   0.64610
 Alpha virt. eigenvalues --    0.66936   0.67340   0.67806   0.68887   0.69443
 Alpha virt. eigenvalues --    0.69682   0.70342   0.70567   0.72622   0.72748
 Alpha virt. eigenvalues --    0.73859   0.74443   0.74810   0.76041   0.76633
 Alpha virt. eigenvalues --    0.77042   0.79487   0.79884   0.81103   0.83020
 Alpha virt. eigenvalues --    0.84586   0.85910   0.86061   0.86727   0.87544
 Alpha virt. eigenvalues --    0.90732   0.91476   0.93552   0.96417   0.96776
 Alpha virt. eigenvalues --    0.96894   0.99032   1.00938   1.01117   1.03484
 Alpha virt. eigenvalues --    1.03836   1.06843   1.09238   1.09351   1.10241
 Alpha virt. eigenvalues --    1.11982   1.14818   1.15341   1.15708   1.16758
 Alpha virt. eigenvalues --    1.18471   1.21375   1.22643   1.25792   1.27660
 Alpha virt. eigenvalues --    1.28045   1.28083   1.31932   1.33381   1.33598
 Alpha virt. eigenvalues --    1.36178   1.39778   1.40489   1.41036   1.41480
 Alpha virt. eigenvalues --    1.42308   1.45108   1.45955   1.47371   1.47691
 Alpha virt. eigenvalues --    1.49211   1.50764   1.52213   1.55237   1.55613
 Alpha virt. eigenvalues --    1.56106   1.57825   1.58378   1.61919   1.62798
 Alpha virt. eigenvalues --    1.64543   1.67454   1.68678   1.70276   1.71038
 Alpha virt. eigenvalues --    1.71234   1.71735   1.74083   1.74663   1.75935
 Alpha virt. eigenvalues --    1.76767   1.77725   1.79047   1.79710   1.82428
 Alpha virt. eigenvalues --    1.82548   1.85430   1.85654   1.85765   1.86520
 Alpha virt. eigenvalues --    1.90369   1.93143   1.94518   1.95491   1.97606
 Alpha virt. eigenvalues --    1.97893   2.00194   2.01046   2.01480   2.02412
 Alpha virt. eigenvalues --    2.03813   2.05354   2.05490   2.06006   2.09167
 Alpha virt. eigenvalues --    2.12445   2.13447   2.15872   2.16122   2.16602
 Alpha virt. eigenvalues --    2.17077   2.18407   2.19292   2.20623   2.20862
 Alpha virt. eigenvalues --    2.22396   2.22817   2.25645   2.27551   2.29292
 Alpha virt. eigenvalues --    2.32063   2.33422   2.33603   2.34442   2.34733
 Alpha virt. eigenvalues --    2.36291   2.37656   2.38728   2.39880   2.45395
 Alpha virt. eigenvalues --    2.46890   2.50691   2.53306   2.54097   2.55867
 Alpha virt. eigenvalues --    2.56738   2.57348   2.59708   2.60420   2.65167
 Alpha virt. eigenvalues --    2.66329   2.68175   2.69141   2.70075   2.71065
 Alpha virt. eigenvalues --    2.71658   2.72106   2.73037   2.77047   2.78421
 Alpha virt. eigenvalues --    2.79301   2.80349   2.82104   2.82527   2.83456
 Alpha virt. eigenvalues --    2.85070   2.85594   2.86288   2.88264   2.89324
 Alpha virt. eigenvalues --    2.91240   2.91416   2.92227   2.95500   2.97014
 Alpha virt. eigenvalues --    2.98352   3.00570   3.00900   3.02605   3.03360
 Alpha virt. eigenvalues --    3.04571   3.05908   3.06605   3.08313   3.09041
 Alpha virt. eigenvalues --    3.10650   3.11042   3.13440   3.16307   3.17076
 Alpha virt. eigenvalues --    3.19422   3.20154   3.20465   3.22453   3.22544
 Alpha virt. eigenvalues --    3.23329   3.26052   3.27251   3.28140   3.28628
 Alpha virt. eigenvalues --    3.29008   3.30296   3.31872   3.32849   3.35254
 Alpha virt. eigenvalues --    3.35501   3.35587   3.37282   3.40576   3.41894
 Alpha virt. eigenvalues --    3.42711   3.46427   3.47020   3.47712   3.48751
 Alpha virt. eigenvalues --    3.49921   3.51143   3.51987   3.54073   3.55978
 Alpha virt. eigenvalues --    3.56475   3.58797   3.61756   3.63545   3.66700
 Alpha virt. eigenvalues --    3.68808   3.71834   3.74451   3.77667   3.80682
 Alpha virt. eigenvalues --    3.80909   3.83319   3.85040   3.85628   3.88654
 Alpha virt. eigenvalues --    3.89264   3.92267   3.97542   3.99971   4.01974
 Alpha virt. eigenvalues --    4.05397   4.05766   4.07168   4.08198   4.08769
 Alpha virt. eigenvalues --    4.10791   4.13978   4.14884   4.15307   4.20426
 Alpha virt. eigenvalues --    4.21898   4.22971   4.24140   4.26878   4.28954
 Alpha virt. eigenvalues --    4.35369   4.35583   4.37680   4.37959   4.39559
 Alpha virt. eigenvalues --    4.45541   4.46804   4.56461   4.59716   4.59730
 Alpha virt. eigenvalues --    4.62903   4.64965   4.66436   4.69542   4.72058
 Alpha virt. eigenvalues --    4.74105   4.74805   4.77896   4.78869   4.79480
 Alpha virt. eigenvalues --    4.81620   4.82422   4.85870   4.86390   4.88365
 Alpha virt. eigenvalues --    4.91239   4.98876   5.00499   5.02886   5.08455
 Alpha virt. eigenvalues --    5.13067   5.13900   5.16022   5.17358   5.18998
 Alpha virt. eigenvalues --    5.19249   5.19722   5.20151   5.21317   5.21649
 Alpha virt. eigenvalues --    5.25240   5.26100   5.32588   5.33228   5.36105
 Alpha virt. eigenvalues --    5.36376   5.38196   5.38769   5.39525   5.39972
 Alpha virt. eigenvalues --    5.42216   5.42634   5.47985   5.49401   5.52575
 Alpha virt. eigenvalues --    5.53639   5.56122   5.57936   5.58661   5.63694
 Alpha virt. eigenvalues --    5.67935   5.70091   5.70313   5.75705   5.79617
 Alpha virt. eigenvalues --    5.85144   5.88882   5.92497   5.99596   6.02612
 Alpha virt. eigenvalues --    6.06936   6.07850   6.11546   6.22752   6.31064
 Alpha virt. eigenvalues --    6.31276   6.35813   6.35908   6.37167   6.39033
 Alpha virt. eigenvalues --    6.42712   6.42895   6.48785   6.51260   6.51347
 Alpha virt. eigenvalues --    6.51758   6.52938   6.54211   6.54456   6.61139
 Alpha virt. eigenvalues --    6.79342   6.81273   6.81829   6.83049   6.86087
 Alpha virt. eigenvalues --    6.92825   6.92845   6.95619   6.95998   7.01971
 Alpha virt. eigenvalues --    7.02593   7.02872   7.06568   7.09283   7.21235
 Alpha virt. eigenvalues --    7.22431   7.27062   7.27489   7.36104   7.36397
 Alpha virt. eigenvalues --    7.51096   7.52035   7.52684   7.57980   7.60468
 Alpha virt. eigenvalues --    7.63074  22.48747  22.79227  22.87570  22.93265
 Alpha virt. eigenvalues --   23.09763  23.10963  23.39018  32.67798  32.71312
 Alpha virt. eigenvalues --   43.95648  43.97029  44.16931  44.21469  44.21911
 Alpha virt. eigenvalues --   44.33023
          Condensed to atoms (all electrons):
               1          2          3          4          5          6
     1  O    8.082652   0.280378  -0.067226  -0.106985   0.038353  -0.001472
     2  C    0.280378   4.607840   0.275215   0.465356  -0.119583   0.018872
     3  O   -0.067226   0.275215   8.088310  -0.106955   0.016134  -0.000714
     4  C   -0.106985   0.465356  -0.106955   5.220349   0.306266   0.027279
     5  C    0.038353  -0.119583   0.016134   0.306266   5.353270   0.328175
     6  C   -0.001472   0.018872  -0.000714   0.027279   0.328175   5.133992
     7  N    0.000098  -0.000321   0.000004   0.001245  -0.049822   0.391197
     8  O    0.000000  -0.000003  -0.000000  -0.002236   0.017603  -0.113758
     9  O   -0.000022  -0.000201  -0.000000  -0.004769   0.019284  -0.110474
    10  C   -0.000150  -0.003690  -0.000126  -0.148419  -0.012397   0.338654
    11  C   -0.000913   0.019815  -0.003328   0.039803  -0.111074   0.031638
    12  N    0.000004  -0.000306   0.000102   0.001356   0.000193   0.001911
    13  O   -0.000000  -0.000006   0.000000  -0.002263   0.000894  -0.006657
    14  O   -0.000000  -0.000235  -0.000020  -0.004790   0.001007  -0.002912
    15  C    0.015926  -0.130921   0.040491   0.288698   0.054712  -0.110094
    16  H    0.301624  -0.028244  -0.000114   0.007499  -0.005040  -0.002927
    17  H   -0.029720   0.385556  -0.029920  -0.021113  -0.003884  -0.001844
    18  H    0.000103  -0.026720   0.301726   0.006643   0.000268  -0.000219
    19  H    0.022287  -0.018352   0.000938  -0.043725   0.406828  -0.021042
    20  H    0.000002   0.000028   0.000002  -0.002303   0.007560  -0.014160
    21  H    0.000900  -0.017878   0.022445  -0.046168   0.010461  -0.003058
               7          8          9         10         11         12
     1  O    0.000098   0.000000  -0.000022  -0.000150  -0.000913   0.000004
     2  C   -0.000321  -0.000003  -0.000201  -0.003690   0.019815  -0.000306
     3  O    0.000004  -0.000000  -0.000000  -0.000126  -0.003328   0.000102
     4  C    0.001245  -0.002236  -0.004769  -0.148419   0.039803   0.001356
     5  C   -0.049822   0.017603   0.019284  -0.012397  -0.111074   0.000193
     6  C    0.391197  -0.113758  -0.110474   0.338654   0.031638   0.001911
     7  N    5.434175   0.360252   0.358521  -0.055078   0.001837  -0.000049
     8  O    0.360252   8.209298  -0.120909   0.026756  -0.006714   0.000091
     9  O    0.358521  -0.120909   8.208898   0.020539  -0.002927   0.000004
    10  C   -0.055078   0.026756   0.020539   5.310371   0.336590  -0.055573
    11  C    0.001837  -0.006714  -0.002927   0.336590   5.142713   0.391625
    12  N   -0.000049   0.000091   0.000004  -0.055573   0.391625   5.434729
    13  O    0.000092  -0.000039   0.000000   0.026650  -0.113610   0.359773
    14  O    0.000004   0.000000  -0.000000   0.020465  -0.111260   0.358925
    15  C    0.000416   0.000894   0.001029  -0.013180   0.311536  -0.049884
    16  H    0.000042   0.000000  -0.000017  -0.000342  -0.000153   0.000001
    17  H    0.000027  -0.000000  -0.000002  -0.000570  -0.001856   0.000030
    18  H    0.000001  -0.000000  -0.000000  -0.000352  -0.002635   0.000035
    19  H   -0.006674   0.000748   0.018729   0.009884  -0.002713   0.000026
    20  H   -0.007263   0.017741   0.000706   0.374436  -0.014176  -0.007326
    21  H    0.000026   0.000004   0.000005   0.010516  -0.025791  -0.006802
              13         14         15         16         17         18
     1  O   -0.000000  -0.000000   0.015926   0.301624  -0.029720   0.000103
     2  C   -0.000006  -0.000235  -0.130921  -0.028244   0.385556  -0.026720
     3  O    0.000000  -0.000020   0.040491  -0.000114  -0.029920   0.301726
     4  C   -0.002263  -0.004790   0.288698   0.007499  -0.021113   0.006643
     5  C    0.000894   0.001007   0.054712  -0.005040  -0.003884   0.000268
     6  C   -0.006657  -0.002912  -0.110094  -0.002927  -0.001844  -0.000219
     7  N    0.000092   0.000004   0.000416   0.000042   0.000027   0.000001
     8  O   -0.000039   0.000000   0.000894   0.000000  -0.000000  -0.000000
     9  O    0.000000  -0.000000   0.001029  -0.000017  -0.000002  -0.000000
    10  C    0.026650   0.020465  -0.013180  -0.000342  -0.000570  -0.000352
    11  C   -0.113610  -0.111260   0.311536  -0.000153  -0.001856  -0.002635
    12  N    0.359773   0.358925  -0.049884   0.000001   0.000030   0.000035
    13  O    8.209941  -0.120874   0.017687  -0.000000   0.000000   0.000000
    14  O   -0.120874   8.208305   0.019955  -0.000000  -0.000003  -0.000015
    15  C    0.017687   0.019955   5.389989   0.000357  -0.003796  -0.004892
    16  H   -0.000000  -0.000000   0.000357   0.337044   0.007246   0.003561
    17  H    0.000000  -0.000003  -0.003796   0.007246   0.546026   0.007132
    18  H    0.000000  -0.000015  -0.004892   0.003561   0.007132   0.335842
    19  H    0.000004   0.000005   0.009838  -0.001618  -0.000022  -0.000092
    20  H    0.017703   0.000707   0.007617   0.000001   0.000002   0.000001
    21  H    0.000759   0.018646   0.412523  -0.000087  -0.000219  -0.001687
              19         20         21
     1  O    0.022287   0.000002   0.000900
     2  C   -0.018352   0.000028  -0.017878
     3  O    0.000938   0.000002   0.022445
     4  C   -0.043725  -0.002303  -0.046168
     5  C    0.406828   0.007560   0.010461
     6  C   -0.021042  -0.014160  -0.003058
     7  N   -0.006674  -0.007263   0.000026
     8  O    0.000748   0.017741   0.000004
     9  O    0.018729   0.000706   0.000005
    10  C    0.009884   0.374436   0.010516
    11  C   -0.002713  -0.014176  -0.025791
    12  N    0.000026  -0.007326  -0.006802
    13  O    0.000004   0.017703   0.000759
    14  O    0.000005   0.000707   0.018646
    15  C    0.009838   0.007617   0.412523
    16  H   -0.001618   0.000001  -0.000087
    17  H   -0.000022   0.000002  -0.000219
    18  H   -0.000092   0.000001  -0.001687
    19  H    0.422425  -0.000053   0.000105
    20  H   -0.000053   0.399730  -0.000041
    21  H    0.000105  -0.000041   0.424560
 Mulliken charges:
               1
     1  O   -0.535837
     2  C    0.293400
     3  O   -0.536963
     4  C    0.125233
     5  C   -0.259209
     6  C    0.117615
     7  N    0.571270
     8  O   -0.389729
     9  O   -0.388393
    10  C   -0.184984
    11  C    0.121593
    12  N    0.571137
    13  O   -0.390056
    14  O   -0.387913
    15  C   -0.258900
    16  H    0.381167
    17  H    0.146930
    18  H    0.381298
    19  H    0.202475
    20  H    0.219085
    21  H    0.200780
 Sum of Mulliken charges =  -0.00000
 Mulliken charges with hydrogens summed into heavy atoms:
               1
     1  O   -0.154670
     2  C    0.440331
     3  O   -0.155665
     4  C    0.125233
     5  C   -0.056734
     6  C    0.117615
     7  N    0.571270
     8  O   -0.389729
     9  O   -0.388393
    10  C    0.034102
    11  C    0.121593
    12  N    0.571137
    13  O   -0.390056
    14  O   -0.387913
    15  C   -0.058121
 Electronic spatial extent (au):  <R**2>=           3486.2471
 Charge=             -0.0000 electrons
 Dipole moment (field-independent basis, Debye):
    X=              3.5377    Y=             -0.0699    Z=             -1.9534  Tot=              4.0418
 Quadrupole moment (field-independent basis, Debye-Ang):
   XX=           -106.1316   YY=           -113.8536   ZZ=            -75.7033
   XY=             -0.0448   XZ=             -7.1254   YZ=             -0.0672
 Traceless Quadrupole moment (field-independent basis, Debye-Ang):
   XX=             -7.5688   YY=            -15.2907   ZZ=             22.8596
   XY=             -0.0448   XZ=             -7.1254   YZ=             -0.0672
 Octapole moment (field-independent basis, Debye-Ang**2):
  XXX=            -24.9539  YYY=             -5.6190  ZZZ=             -8.7302  XYY=             47.5097
  XXY=              6.9848  XXZ=            -18.1775  XZZ=             16.7089  YZZ=             -1.1664
  YYZ=             -5.5667  XYZ=             -1.3531
 Hexadecapole moment (field-independent basis, Debye-Ang**3):
 XXXX=          -2549.2988 YYYY=          -2406.6903 ZZZZ=            -86.7193 XXXY=              2.5105
 XXXZ=            -67.5674 YYYX=              4.0276 YYYZ=              3.3734 ZZZX=            -21.5161
 ZZZY=              1.6478 XXYY=           -834.1195 XXZZ=           -297.6143 YYZZ=           -318.3415
 XXYZ=             -5.3303 YYXZ=            -26.5762 ZZXY=             -3.0306
 N-N= 9.902103142423D+02 E-N=-3.927308772688D+03  KE= 8.275412835029D+02
 No NMR shielding tensors so no spin-rotation constants.
 Leave Link  601 at Wed Oct 22 09:16:10 2025, MaxMem=  4294967296 cpu:               2.9 elap:               0.4
 (Enter /lrz/sys/applications/gaussian/g16.C.01/x86_64_legacy/exe/l9999.exe)
 Unable to Open any file for archive entry.
 1\1\GINC-CM4R15C05S03\SP\RwB97XD\def2TZVP\C7H6N2O6\GO29TIZ2\22-Oct-202
 5\0\\#p wb97xd scrf=(smd,solvent=water) def2tzvp\\g16_g16_C14-w_3\\0,1
 \O,0,3.466771,1.017019,-0.127106\C,0,2.838289,-0.145021,0.329845\O,0,3
 .352476,-1.308329,-0.251594\C,0,1.321249,-0.066937,0.186065\C,0,0.6766
 57,1.168839,0.137609\C,0,-0.709501,1.210548,0.03553\N,0,-1.377628,2.51
 822,-0.024395\O,0,-2.587461,2.534548,-0.106249\O,0,-0.684852,3.512713,
 0.01126\C,0,-1.49367,0.068424,-0.014723\C,0,-0.822989,-1.144114,0.0403
 87\N,0,-1.613945,-2.381421,-0.011813\O,0,-2.819845,-2.281539,-0.092531
 \O,0,-1.020118,-3.437804,0.029027\C,0,0.560375,-1.235559,0.138388\H,0,
 3.204006,1.174447,-1.045374\H,0,3.085588,-0.213835,1.400163\H,0,3.0618
 55,-1.350172,-1.174022\H,0,1.249048,2.094793,0.174095\H,0,-2.577598,0.
 12026,-0.095162\H,0,1.03987,-2.213035,0.172692\\Version=EM64L-G16RevC.
 01\State=1-A\HF=-831.0865571\RMSD=6.546e-09\Dipole=1.3918555,-0.027511
 5,-0.7685144\Quadrupole=-5.6272267,-11.3682909,16.9955176,-0.0332908,-
 5.2975453,-0.0499348\PG=C01 [X(C7H6N2O6)]\\@
 The archive entry for this job was punched.


 BE LIKE A POSTAGE STAMP.  STICK TO ONE THING UNTIL
 YOU GET THERE -- JOSH BILLINGS
 Job cpu time:       0 days  1 hours 19 minutes 49.0 seconds.
 Elapsed time:       0 days  0 hours  9 minutes 59.5 seconds.
 File lengths (MBytes):  RWF=    400 Int=      0 D2E=      0 Chk=     20 Scr=     32
 Normal termination of Gaussian 16 at Wed Oct 22 09:16:10 2025.
