 Entering Gaussian System, Link 0=g16
 Input=../../g16_g16_C2_2.com
 Output=../../g16_g16_C2_2.log
 Initial command:
 /lrz/sys/applications/gaussian/g16.C.01/x86_64_legacy/exe/l1.exe "/dss/lxclscratch/0D/go29tiz2/Gau-12507.inp" -scrdir="/dss/lxclscratch/0D/go29tiz2/"
 Entering Link 1 = /lrz/sys/applications/gaussian/g16.C.01/x86_64_legacy/exe/l1.exe PID=     12508.
  
 Copyright (c) 1988-2019, Gaussian, Inc.  All Rights Reserved.
  
 This is part of the Gaussian(R) 16 program.  It is based on
 the Gaussian(R) 09 system (copyright 2009, Gaussian, Inc.),
 the Gaussian(R) 03 system (copyright 2003, Gaussian, Inc.),
 the Gaussian(R) 98 system (copyright 1998, Gaussian, Inc.),
 the Gaussian(R) 94 system (copyright 1995, Gaussian, Inc.),
 the Gaussian 92(TM) system (copyright 1992, Gaussian, Inc.),
 the Gaussian 90(TM) system (copyright 1990, Gaussian, Inc.),
 the Gaussian 88(TM) system (copyright 1988, Gaussian, Inc.),
 the Gaussian 86(TM) system (copyright 1986, Carnegie Mellon
 University), and the Gaussian 82(TM) system (copyright 1983,
 Carnegie Mellon University). Gaussian is a federally registered
 trademark of Gaussian, Inc.
  
 This software contains proprietary and confidential information,
 including trade secrets, belonging to Gaussian, Inc.
  
 This software is provided under written license and may be
 used, copied, transmitted, or stored only in accord with that
 written license.
  
 The following legend is applicable only to US Government
 contracts under FAR:
  
                    RESTRICTED RIGHTS LEGEND
  
 Use, reproduction and disclosure by the US Government is
 subject to restrictions as set forth in subparagraphs (a)
 and (c) of the Commercial Computer Software - Restricted
 Rights clause in FAR 52.227-19.
  
 Gaussian, Inc.
 340 Quinnipiac St., Bldg. 40, Wallingford CT 06492
  
  
 ---------------------------------------------------------------
 Warning -- This program may not be used in any manner that
 competes with the business of Gaussian, Inc. or will provide
 assistance to any competitor of Gaussian, Inc.  The licensee
 of this program is prohibited from giving any competitor of
 Gaussian, Inc. access to this program.  By using this program,
 the user acknowledges that Gaussian, Inc. is engaged in the
 business of creating and licensing software in the field of
 computational chemistry and represents and warrants to the
 licensee that it is not a competitor of Gaussian, Inc. and that
 it will not use this program in any manner prohibited above.
 ---------------------------------------------------------------
  

 Cite this work as:
 Gaussian 16, Revision C.01,
 M. J. Frisch, G. W. Trucks, H. B. Schlegel, G. E. Scuseria, 
 M. A. Robb, J. R. Cheeseman, G. Scalmani, V. Barone, 
 G. A. Petersson, H. Nakatsuji, X. Li, M. Caricato, A. V. Marenich, 
 J. Bloino, B. G. Janesko, R. Gomperts, B. Mennucci, H. P. Hratchian, 
 J. V. Ortiz, A. F. Izmaylov, J. L. Sonnenberg, D. Williams-Young, 
 F. Ding, F. Lipparini, F. Egidi, J. Goings, B. Peng, A. Petrone, 
 T. Henderson, D. Ranasinghe, V. G. Zakrzewski, J. Gao, N. Rega, 
 G. Zheng, W. Liang, M. Hada, M. Ehara, K. Toyota, R. Fukuda, 
 J. Hasegawa, M. Ishida, T. Nakajima, Y. Honda, O. Kitao, H. Nakai, 
 T. Vreven, K. Throssell, J. A. Montgomery, Jr., J. E. Peralta, 
 F. Ogliaro, M. J. Bearpark, J. J. Heyd, E. N. Brothers, K. N. Kudin, 
 V. N. Staroverov, T. A. Keith, R. Kobayashi, J. Normand, 
 K. Raghavachari, A. P. Rendell, J. C. Burant, S. S. Iyengar, 
 J. Tomasi, M. Cossi, J. M. Millam, M. Klene, C. Adamo, R. Cammi, 
 J. W. Ochterski, R. L. Martin, K. Morokuma, O. Farkas, 
 J. B. Foresman, and D. J. Fox, Gaussian, Inc., Wallingford CT, 2019.
 
 ******************************************
 Gaussian 16:  EM64L-G16RevC.01  3-Jul-2019
                22-Oct-2025 
 ******************************************
 %chk=g16_g16_C2_2.chk
 %nprocshared=8
 Will use up to    8 processors via shared memory.
 %mem=32GB
 -------------------------------------------
 #p wb97xd scrf=(smd,solvent=water) def2tzvp
 -------------------------------------------
 1/38=1,172=1/1;
 2/12=2,17=6,18=5,40=1/2;
 3/5=44,7=101,11=2,25=1,30=1,70=32201,72=1,74=-58/1,2,3;
 4//1;
 5/5=2,38=5,53=1/2;
 6/7=2,8=2,9=2,10=2,28=1/1;
 99/5=1,9=1/99;
 Leave Link    1 at Wed Oct 22 10:03:55 2025, MaxMem=  4294967296 cpu:               4.9 elap:               0.7
 (Enter /lrz/sys/applications/gaussian/g16.C.01/x86_64_legacy/exe/l101.exe)
 ------------
 g16_g16_C2_2
 ------------
 Symbolic Z-matrix:
 Charge =  0 Multiplicity = 1
 O                     1.39995  -0.69131  -0.00001 
 C                     0.92403   0.42421   0.00003 
 C                    -0.54021   0.7251   -0.00001 
 C                    -1.43857  -0.49815   0.00001 
 H                     1.59259   1.3171    0.00001 
 H                    -0.72262   1.37566  -0.87411 
 H                    -0.72266   1.37572   0.87403 
 H                    -2.49696  -0.20161  -0.00004 
 H                    -1.26076  -1.12164   0.88902 
 H                    -1.26069  -1.1217   -0.88894 
 
 ITRead=  0  0  0  0  0  0  0  0  0  0
 MicOpt= -1 -1 -1 -1 -1 -1 -1 -1 -1 -1
 NAtoms=     10 NQM=       10 NQMF=       0 NMMI=      0 NMMIF=      0
                NMic=       0 NMicF=      0.
                    Isotopes and Nuclear Properties:
 (Nuclear quadrupole moments (NQMom) in fm**2, nuclear magnetic moments (NMagM)
  in nuclear magnetons)

  Atom         1           2           3           4           5           6           7           8           9          10
 IAtWgt=          16          12          12          12           1           1           1           1           1           1
 AtmWgt=  15.9949146  12.0000000  12.0000000  12.0000000   1.0078250   1.0078250   1.0078250   1.0078250   1.0078250   1.0078250
 NucSpn=           0           0           0           0           1           1           1           1           1           1
 AtZEff=  -0.0000000  -0.0000000  -0.0000000  -0.0000000  -0.0000000  -0.0000000  -0.0000000  -0.0000000  -0.0000000  -0.0000000
 NQMom=    0.0000000   0.0000000   0.0000000   0.0000000   0.0000000   0.0000000   0.0000000   0.0000000   0.0000000   0.0000000
 NMagM=    0.0000000   0.0000000   0.0000000   0.0000000   2.7928460   2.7928460   2.7928460   2.7928460   2.7928460   2.7928460
 AtZNuc=   8.0000000   6.0000000   6.0000000   6.0000000   1.0000000   1.0000000   1.0000000   1.0000000   1.0000000   1.0000000
 Leave Link  101 at Wed Oct 22 10:03:55 2025, MaxMem=  4294967296 cpu:               1.1 elap:               0.2
 (Enter /lrz/sys/applications/gaussian/g16.C.01/x86_64_legacy/exe/l202.exe)
                          Input orientation:                          
 ---------------------------------------------------------------------
 Center     Atomic      Atomic             Coordinates (Angstroms)
 Number     Number       Type             X           Y           Z
 ---------------------------------------------------------------------
      1          8           0        1.399946   -0.691313   -0.000012
      2          6           0        0.924034    0.424210    0.000029
      3          6           0       -0.540207    0.725101   -0.000012
      4          6           0       -1.438572   -0.498149    0.000006
      5          1           0        1.592586    1.317099    0.000006
      6          1           0       -0.722619    1.375660   -0.874112
      7          1           0       -0.722661    1.375724    0.874029
      8          1           0       -2.496958   -0.201613   -0.000043
      9          1           0       -1.260756   -1.121635    0.889017
     10          1           0       -1.260689   -1.121704   -0.888942
 ---------------------------------------------------------------------
                    Distance matrix (angstroms):
                    1          2          3          4          5
     1  O    0.000000
     2  C    1.212800   0.000000
     3  C    2.402170   1.494837   0.000000
     4  C    2.845083   2.536268   1.517696   0.000000
     5  H    2.017630   1.115443   2.213429   3.533135   0.000000
     6  H    3.088966   2.093047   1.104786   2.188111   2.475416
     7  H    3.089021   2.093050   1.104784   2.188114   2.475424
     8  H    3.927552   3.477764   2.165104   1.099143   4.362437
     9  H    2.838113   2.820150   2.172555   1.100315   3.857373
    10  H    2.838030   2.820130   2.172551   1.100314   3.857352
                    6          7          8          9         10
     6  H    0.000000
     7  H    1.748141   0.000000
     8  H    2.529835   2.529847   0.000000
     9  H    3.103981   2.554716   1.779063   0.000000
    10  H    2.554715   3.103979   1.779064   1.777959   0.000000
 Stoichiometry    C3H6O
 Framework group  C1[X(C3H6O)]
 Deg. of freedom    24
 Full point group                 C1      NOp   1
 Largest Abelian subgroup         C1      NOp   1
 Largest concise Abelian subgroup C1      NOp   1
                         Standard orientation:                         
 ---------------------------------------------------------------------
 Center     Atomic      Atomic             Coordinates (Angstroms)
 Number     Number       Type             X           Y           Z
 ---------------------------------------------------------------------
      1          8           0       -1.399946   -0.691313    0.000012
      2          6           0       -0.924034    0.424210   -0.000029
      3          6           0        0.540207    0.725101    0.000012
      4          6           0        1.438572   -0.498149   -0.000006
      5          1           0       -1.592586    1.317099   -0.000006
      6          1           0        0.722619    1.375660    0.874112
      7          1           0        0.722661    1.375724   -0.874029
      8          1           0        2.496958   -0.201614    0.000043
      9          1           0        1.260756   -1.121635   -0.889017
     10          1           0        1.260689   -1.121704    0.888942
 ---------------------------------------------------------------------
 Rotational constants (GHZ):          16.7754057           5.8799177           4.6022866
 Leave Link  202 at Wed Oct 22 10:03:55 2025, MaxMem=  4294967296 cpu:               0.0 elap:               0.0
 (Enter /lrz/sys/applications/gaussian/g16.C.01/x86_64_legacy/exe/l301.exe)
 Standard basis: def2TZVP (5D, 7F)
 Ernie: Thresh=  0.10000D-02 Tol=  0.10000D-05 Strict=F.
 There are   180 symmetry adapted cartesian basis functions of A   symmetry.
 There are   160 symmetry adapted basis functions of A   symmetry.
   160 basis functions,   252 primitive gaussians,   180 cartesian basis functions
    16 alpha electrons       16 beta electrons
       nuclear repulsion energy       118.4227348849 Hartrees.
 IExCor= 4639 DFT=T Ex+Corr=wB97XD ExCW=0 ScaHFX=  1.000000
 ScaDFX=  1.000000  1.000000  1.000000  1.000000 ScalE2=  1.000000  1.000000
 IRadAn=      5 IRanWt=     -1 IRanGd=            0 ICorTp=0 IEmpDi=121
 HFx  wShort=  0.000000 wLong=  0.200000 cFull=  0.222036 cShort=  0.000000 cLong=  0.777964
 DFx  wShort=  0.000000 wLong=  0.200000 cFull=  0.000000 cShort=  0.000000 cLong=  1.000000
 NAtoms=   10 NActive=   10 NUniq=   10 SFac= 1.00D+00 NAtFMM=   60 NAOKFM=F Big=F
 Integral buffers will be    131072 words long.
 Raffenetti 2 integral format.
 Two-electron integral symmetry is turned on.
 R6Disp:  Grimme-D2 Dispersion energy=       -0.0032570882 Hartrees.
 Nuclear repulsion after empirical dispersion term =      118.4194777967 Hartrees.
 ------------------------------------------------------------------------------
 Polarizable Continuum Model (PCM)
 =================================
 Model                : PCM.
 Atomic radii         : SMD-Coulomb.
 Polarization charges : Total charges.
 Charge compensation  : None.
 Solution method      : On-the-fly selection.
 Cavity type          : VdW (van der Waals Surface) (Alpha=1.000).
 Cavity algorithm     : GePol (No added spheres)
                        Default sphere list used, NSphG=   10.
                        Lebedev-Laikov grids with approx.  5.0 points / Ang**2.
                        Smoothing algorithm: York/Karplus (Gamma=1.0000).
                        Polarization charges: spherical gaussians, with
                                              point-specific exponents (IZeta= 3).
                        Self-potential: point-specific (ISelfS= 7).
                        Self-field    : sphere-specific E.n sum rule (ISelfD= 2).
 Solvent              : Water, Eps=  78.355300 Eps(inf)=   1.777849
 ------------------------------------------------------------------------------
 Spheres list:
 ISph  on   Nord     Re0    Alpha      Xe            Ye            Ze
    1   O      1    1.5200  1.000     -1.399946     -0.691313      0.000012
    2   C      2    1.8500  1.000     -0.924034      0.424210     -0.000029
    3   C      3    1.8500  1.000      0.540207      0.725101      0.000012
    4   C      4    1.8500  1.000      1.438572     -0.498149     -0.000006
    5   H      5    1.2000  1.000     -1.592586      1.317099     -0.000006
    6   H      6    1.2000  1.000      0.722619      1.375660      0.874112
    7   H      7    1.2000  1.000      0.722661      1.375724     -0.874029
    8   H      8    1.2000  1.000      2.496958     -0.201614      0.000043
    9   H      9    1.2000  1.000      1.260756     -1.121635     -0.889017
   10   H     10    1.2000  1.000      1.260689     -1.121704      0.888942
 ------------------------------------------------------------------------------
 GePol: Number of generator spheres                  =      10
 GePol: Total number of spheres                      =      10
 GePol: Number of exposed spheres                    =      10 (100.00%)
 GePol: Number of points                             =     809
 GePol: Average weight of points                     =       0.12
 GePol: Minimum weight of points                     =   0.33D-06
 GePol: Maximum weight of points                     =    0.21991
 GePol: Number of points with low weight             =      61
 GePol: Fraction of low-weight points (<1% of avg)   =       7.54%
 GePol: Cavity surface area                          =     94.628 Ang**2
 GePol: Cavity volume                                =     69.769 Ang**3
 ------------------------------------------------------------------------------
 Atomic radii for non-electrostatic terms: SMD-CDS.
 ------------------------------------------------------------------------------
 PCM non-electrostatic energy =         0.0057870087 Hartrees.
 Nuclear repulsion after PCM non-electrostatic terms =      118.4252648054 Hartrees.
 Leave Link  301 at Wed Oct 22 10:03:55 2025, MaxMem=  4294967296 cpu:               0.5 elap:               0.1
 (Enter /lrz/sys/applications/gaussian/g16.C.01/x86_64_legacy/exe/l302.exe)
 NPDir=0 NMtPBC=     1 NCelOv=     1 NCel=       1 NClECP=     1 NCelD=      1
         NCelK=      1 NCelE2=     1 NClLst=     1 CellRange=     0.0.
 One-electron integrals computed using PRISM.
 One-electron integral symmetry used in STVInt
   1 Symmetry operations used in ECPInt.
 ECPInt:  NShTT=    2346 NPrTT=    6892 LenC2=    2338 LenP2D=    5955.
 LDataN:  DoStor=T MaxTD1= 6 Len=  172
 NBasis=   160 RedAO= T EigKep=  3.31D-04  NBF=   160
 NBsUse=   160 1.00D-06 EigRej= -1.00D+00 NBFU=   160
 Precomputing XC quadrature grid using
 IXCGrd= 4 IRadAn=           5 IRanWt=          -1 IRanGd=           0 AccXCQ= 0.00D+00.
 Generated NRdTot=       0 NPtTot=           0 NUsed=           0 NTot=          32
 NSgBfM=   179   179   179   179   179 MxSgAt=    10 MxSgA2=    10.
 Leave Link  302 at Wed Oct 22 10:03:55 2025, MaxMem=  4294967296 cpu:               1.5 elap:               0.2
 (Enter /lrz/sys/applications/gaussian/g16.C.01/x86_64_legacy/exe/l303.exe)
 DipDrv:  MaxL=1.
 Leave Link  303 at Wed Oct 22 10:03:55 2025, MaxMem=  4294967296 cpu:               0.3 elap:               0.0
 (Enter /lrz/sys/applications/gaussian/g16.C.01/x86_64_legacy/exe/l401.exe)
 ExpMin= 9.52D-02 ExpMax= 2.70D+04 ExpMxC= 9.22D+02 IAcc=3 IRadAn=         5 AccDes= 0.00D+00
 Harris functional with IExCor= 4639 and IRadAn=       5 diagonalized for initial guess.
 HarFok:  IExCor= 4639 AccDes= 0.00D+00 IRadAn=         5 IDoV= 1 UseB2=F ITyADJ=14
 ICtDFT=  3500011 ScaDFX=  1.000000  1.000000  1.000000  1.000000
 FoFCou: FMM=F IPFlag=           0 FMFlag=      100000 FMFlg1=           0
         NFxFlg=           0 DoJE=T BraDBF=F KetDBF=T FulRan=T
         wScrn=  0.000000 ICntrl=       500 IOpCl=  0 I1Cent=   200000004 NGrid=           0
         NMat0=    1 NMatS0=      1 NMatT0=    0 NMatD0=    1 NMtDS0=    0 NMtDT0=    0
 Petite list used in FoFCou.
 Harris En= -184.797851943084    
 JPrj=0 DoOrth=F DoCkMO=F.
 Leave Link  401 at Wed Oct 22 10:03:56 2025, MaxMem=  4294967296 cpu:               5.9 elap:               0.8
 (Enter /lrz/sys/applications/gaussian/g16.C.01/x86_64_legacy/exe/l502.exe)
 Keep R1 ints in memory in canonical form, NReq=176071796.
 FoFCou: FMM=F IPFlag=           0 FMFlag=           0 FMFlg1=           0
         NFxFlg=           0 DoJE=F BraDBF=F KetDBF=F FulRan=T
         wScrn=  0.000000 ICntrl=       600 IOpCl=  0 I1Cent=           0 NGrid=           0
         NMat0=    1 NMatS0=  12880 NMatT0=    0 NMatD0=    1 NMtDS0=    0 NMtDT0=    0
 Symmetry not used in FoFCou.
 Two-electron integral symmetry not used.
 Closed shell SCF:
 Using DIIS extrapolation, IDIIS=  1040.
 NGot=  4294967296 LenX=  4128991762 LenY=  4128958921
 Requested convergence on RMS density matrix=1.00D-08 within 128 cycles.
 Requested convergence on MAX density matrix=1.00D-06.
 Requested convergence on             energy=1.00D-06.
 No special actions if energy rises.

 Cycle   1  Pass 1  IDiag  1:
 Inv3:  Mode=1 IEnd=     1963443.
 Iteration    1 A*A^-1 deviation from unit magnitude is 5.55D-15 for    455.
 Iteration    1 A*A^-1 deviation from orthogonality  is 3.08D-15 for    562     86.
 Iteration    1 A^-1*A deviation from unit magnitude is 5.55D-15 for    455.
 Iteration    1 A^-1*A deviation from orthogonality  is 1.87D-15 for    712    178.
 E= -193.104968676134    
 DIIS: error= 4.98D-02 at cycle   1 NSaved=   1.
 NSaved= 1 IEnMin= 1 EnMin= -193.104968676134     IErMin= 1 ErrMin= 4.98D-02
 ErrMax= 4.98D-02  0.00D+00 EMaxC= 1.00D-01 BMatC= 4.14D-01 BMatP= 4.14D-01
 IDIUse=3 WtCom= 5.02D-01 WtEn= 4.98D-01
 Coeff-Com:  0.100D+01
 Coeff-En:   0.100D+01
 Coeff:      0.100D+01
 Gap=     0.411 Goal=   None    Shift=    0.000
 GapD=    0.411 DampG=2.000 DampE=0.500 DampFc=1.0000 IDamp=-1.
 RMSDP=3.85D-03 MaxDP=2.53D-01              OVMax= 7.70D-02

 Cycle   2  Pass 1  IDiag  1:
 E= -193.137452246992     Delta-E=       -0.032483570858 Rises=F Damp=F
 DIIS: error= 1.50D-02 at cycle   2 NSaved=   2.
 NSaved= 2 IEnMin= 2 EnMin= -193.137452246992     IErMin= 2 ErrMin= 1.50D-02
 ErrMax= 1.50D-02  0.00D+00 EMaxC= 1.00D-01 BMatC= 4.02D-02 BMatP= 4.14D-01
 IDIUse=3 WtCom= 8.50D-01 WtEn= 1.50D-01
 Coeff-Com:  0.169D+00 0.831D+00
 Coeff-En:   0.190D+00 0.810D+00
 Coeff:      0.172D+00 0.828D+00
 Gap=     0.423 Goal=   None    Shift=    0.000
 RMSDP=1.19D-03 MaxDP=3.96D-02 DE=-3.25D-02 OVMax= 8.14D-02

 Cycle   3  Pass 1  IDiag  1:
 E= -193.146845702285     Delta-E=       -0.009393455293 Rises=F Damp=F
 DIIS: error= 1.12D-02 at cycle   3 NSaved=   3.
 NSaved= 3 IEnMin= 3 EnMin= -193.146845702285     IErMin= 3 ErrMin= 1.12D-02
 ErrMax= 1.12D-02  0.00D+00 EMaxC= 1.00D-01 BMatC= 2.62D-02 BMatP= 4.02D-02
 IDIUse=3 WtCom= 8.88D-01 WtEn= 1.12D-01
 Coeff-Com:  0.305D-01 0.451D+00 0.519D+00
 Coeff-En:   0.000D+00 0.398D+00 0.602D+00
 Coeff:      0.271D-01 0.445D+00 0.528D+00
 Gap=     0.405 Goal=   None    Shift=    0.000
 RMSDP=8.17D-04 MaxDP=4.05D-02 DE=-9.39D-03 OVMax= 4.16D-02

 Cycle   4  Pass 1  IDiag  1:
 E= -193.164085940492     Delta-E=       -0.017240238207 Rises=F Damp=F
 DIIS: error= 1.89D-03 at cycle   4 NSaved=   4.
 NSaved= 4 IEnMin= 4 EnMin= -193.164085940492     IErMin= 4 ErrMin= 1.89D-03
 ErrMax= 1.89D-03  0.00D+00 EMaxC= 1.00D-01 BMatC= 6.08D-04 BMatP= 2.62D-02
 IDIUse=3 WtCom= 9.81D-01 WtEn= 1.89D-02
 Coeff-Com:  0.102D-01 0.183D+00 0.255D+00 0.551D+00
 Coeff-En:   0.000D+00 0.000D+00 0.000D+00 0.100D+01
 Coeff:      0.100D-01 0.180D+00 0.250D+00 0.560D+00
 Gap=     0.397 Goal=   None    Shift=    0.000
 RMSDP=8.99D-05 MaxDP=2.73D-03 DE=-1.72D-02 OVMax= 5.27D-03

 Cycle   5  Pass 1  IDiag  1:
 E= -193.164535541361     Delta-E=       -0.000449600869 Rises=F Damp=F
 DIIS: error= 1.93D-04 at cycle   5 NSaved=   5.
 NSaved= 5 IEnMin= 5 EnMin= -193.164535541361     IErMin= 5 ErrMin= 1.93D-04
 ErrMax= 1.93D-04  0.00D+00 EMaxC= 1.00D-01 BMatC= 6.52D-06 BMatP= 6.08D-04
 IDIUse=3 WtCom= 9.98D-01 WtEn= 1.93D-03
 Coeff-Com: -0.207D-02-0.269D-01-0.229D-01 0.187D-01 0.103D+01
 Coeff-En:   0.000D+00 0.000D+00 0.000D+00 0.000D+00 0.100D+01
 Coeff:     -0.206D-02-0.269D-01-0.228D-01 0.186D-01 0.103D+01
 Gap=     0.398 Goal=   None    Shift=    0.000
 RMSDP=8.07D-05 MaxDP=3.93D-03 DE=-4.50D-04 OVMax= 1.64D-03

 Cycle   6  Pass 1  IDiag  1:
 E= -193.164548122227     Delta-E=       -0.000012580866 Rises=F Damp=F
 DIIS: error= 6.31D-05 at cycle   6 NSaved=   6.
 NSaved= 6 IEnMin= 6 EnMin= -193.164548122227     IErMin= 6 ErrMin= 6.31D-05
 ErrMax= 6.31D-05  0.00D+00 EMaxC= 1.00D-01 BMatC= 5.50D-07 BMatP= 6.52D-06
 IDIUse=1 WtCom= 1.00D+00 WtEn= 0.00D+00
 Coeff-Com: -0.684D-03-0.134D-01-0.166D-01-0.264D-01 0.154D+00 0.903D+00
 Coeff:     -0.684D-03-0.134D-01-0.166D-01-0.264D-01 0.154D+00 0.903D+00
 Gap=     0.398 Goal=   None    Shift=    0.000
 RMSDP=1.66D-05 MaxDP=6.60D-04 DE=-1.26D-05 OVMax= 4.73D-04

 Cycle   7  Pass 1  IDiag  1:
 E= -193.164549164258     Delta-E=       -0.000001042031 Rises=F Damp=F
 DIIS: error= 1.82D-05 at cycle   7 NSaved=   7.
 NSaved= 7 IEnMin= 7 EnMin= -193.164549164258     IErMin= 7 ErrMin= 1.82D-05
 ErrMax= 1.82D-05  0.00D+00 EMaxC= 1.00D-01 BMatC= 7.83D-08 BMatP= 5.50D-07
 IDIUse=1 WtCom= 1.00D+00 WtEn= 0.00D+00
 Coeff-Com:  0.114D-03 0.149D-02 0.663D-03-0.682D-02-0.107D+00 0.198D+00
 Coeff-Com:  0.914D+00
 Coeff:      0.114D-03 0.149D-02 0.663D-03-0.682D-02-0.107D+00 0.198D+00
 Coeff:      0.914D+00
 Gap=     0.398 Goal=   None    Shift=    0.000
 RMSDP=6.16D-06 MaxDP=2.11D-04 DE=-1.04D-06 OVMax= 2.27D-04

 Cycle   8  Pass 1  IDiag  1:
 E= -193.164549308044     Delta-E=       -0.000000143786 Rises=F Damp=F
 DIIS: error= 3.39D-06 at cycle   8 NSaved=   8.
 NSaved= 8 IEnMin= 8 EnMin= -193.164549308044     IErMin= 8 ErrMin= 3.39D-06
 ErrMax= 3.39D-06  0.00D+00 EMaxC= 1.00D-01 BMatC= 2.65D-09 BMatP= 7.83D-08
 IDIUse=1 WtCom= 1.00D+00 WtEn= 0.00D+00
 Coeff-Com:  0.332D-04 0.662D-03 0.986D-03 0.117D-02-0.361D-02-0.586D-01
 Coeff-Com: -0.298D-01 0.109D+01
 Coeff:      0.332D-04 0.662D-03 0.986D-03 0.117D-02-0.361D-02-0.586D-01
 Coeff:     -0.298D-01 0.109D+01
 Gap=     0.398 Goal=   None    Shift=    0.000
 RMSDP=1.51D-06 MaxDP=3.72D-05 DE=-1.44D-07 OVMax= 5.63D-05

 Cycle   9  Pass 1  IDiag  1:
 E= -193.164549314707     Delta-E=       -0.000000006663 Rises=F Damp=F
 DIIS: error= 7.39D-07 at cycle   9 NSaved=   9.
 NSaved= 9 IEnMin= 9 EnMin= -193.164549314707     IErMin= 9 ErrMin= 7.39D-07
 ErrMax= 7.39D-07  0.00D+00 EMaxC= 1.00D-01 BMatC= 1.39D-10 BMatP= 2.65D-09
 IDIUse=1 WtCom= 1.00D+00 WtEn= 0.00D+00
 Coeff-Com:  0.191D-06 0.302D-04 0.124D-03 0.547D-03 0.513D-02-0.192D-01
 Coeff-Com: -0.490D-01 0.997D-01 0.963D+00
 Coeff:      0.191D-06 0.302D-04 0.124D-03 0.547D-03 0.513D-02-0.192D-01
 Coeff:     -0.490D-01 0.997D-01 0.963D+00
 Gap=     0.398 Goal=   None    Shift=    0.000
 RMSDP=4.40D-07 MaxDP=1.79D-05 DE=-6.66D-09 OVMax= 1.30D-05

 Cycle  10  Pass 1  IDiag  1:
 E= -193.164549315041     Delta-E=       -0.000000000333 Rises=F Damp=F
 DIIS: error= 4.76D-07 at cycle  10 NSaved=  10.
 NSaved=10 IEnMin=10 EnMin= -193.164549315041     IErMin=10 ErrMin= 4.76D-07
 ErrMax= 4.76D-07  0.00D+00 EMaxC= 1.00D-01 BMatC= 2.61D-11 BMatP= 1.39D-10
 IDIUse=1 WtCom= 1.00D+00 WtEn= 0.00D+00
 Coeff-Com: -0.190D-05-0.301D-04-0.244D-04 0.107D-03 0.179D-02-0.221D-02
 Coeff-Com: -0.136D-01-0.471D-01 0.310D+00 0.751D+00
 Coeff:     -0.190D-05-0.301D-04-0.244D-04 0.107D-03 0.179D-02-0.221D-02
 Coeff:     -0.136D-01-0.471D-01 0.310D+00 0.751D+00
 Gap=     0.398 Goal=   None    Shift=    0.000
 RMSDP=1.12D-07 MaxDP=4.84D-06 DE=-3.33D-10 OVMax= 2.81D-06

 Cycle  11  Pass 1  IDiag  1:
 E= -193.164549315071     Delta-E=       -0.000000000030 Rises=F Damp=F
 DIIS: error= 8.78D-08 at cycle  11 NSaved=  11.
 NSaved=11 IEnMin=11 EnMin= -193.164549315071     IErMin=11 ErrMin= 8.78D-08
 ErrMax= 8.78D-08  0.00D+00 EMaxC= 1.00D-01 BMatC= 1.11D-12 BMatP= 2.61D-11
 IDIUse=1 WtCom= 1.00D+00 WtEn= 0.00D+00
 Coeff-Com:  0.128D-06-0.414D-06-0.103D-04-0.505D-04-0.543D-03 0.204D-02
 Coeff-Com:  0.505D-02-0.967D-02-0.103D+00 0.203D-01 0.109D+01
 Coeff:      0.128D-06-0.414D-06-0.103D-04-0.505D-04-0.543D-03 0.204D-02
 Coeff:      0.505D-02-0.967D-02-0.103D+00 0.203D-01 0.109D+01
 Gap=     0.398 Goal=   None    Shift=    0.000
 RMSDP=5.50D-08 MaxDP=2.29D-06 DE=-3.05D-11 OVMax= 1.19D-06

 Cycle  12  Pass 1  IDiag  1:
 E= -193.164549315078     Delta-E=       -0.000000000007 Rises=F Damp=F
 DIIS: error= 1.36D-08 at cycle  12 NSaved=  12.
 NSaved=12 IEnMin=12 EnMin= -193.164549315078     IErMin=12 ErrMin= 1.36D-08
 ErrMax= 1.36D-08  0.00D+00 EMaxC= 1.00D-01 BMatC= 3.77D-14 BMatP= 1.11D-12
 IDIUse=1 WtCom= 1.00D+00 WtEn= 0.00D+00
 Coeff-Com:  0.751D-09 0.298D-06 0.153D-05-0.135D-05 0.142D-06-0.145D-03
 Coeff-Com:  0.114D-03 0.203D-02-0.158D-02-0.239D-01-0.941D-01 0.112D+01
 Coeff:      0.751D-09 0.298D-06 0.153D-05-0.135D-05 0.142D-06-0.145D-03
 Coeff:      0.114D-03 0.203D-02-0.158D-02-0.239D-01-0.941D-01 0.112D+01
 Gap=     0.398 Goal=   None    Shift=    0.000
 RMSDP=7.93D-09 MaxDP=2.95D-07 DE=-6.59D-12 OVMax= 1.79D-07

 Error on total polarization charges =  0.03790
 SCF Done:  E(RwB97XD) =  -193.164549315     A.U. after   12 cycles
            NFock= 12  Conv=0.79D-08     -V/T= 2.0053
 KE= 1.921480535007D+02 PE=-6.878073678196D+02 EE= 1.840695001984D+02
 SMD-CDS (non-electrostatic) energy       (kcal/mol) =       3.63
 (included in total energy above)
 Leave Link  502 at Wed Oct 22 10:04:14 2025, MaxMem=  4294967296 cpu:             132.9 elap:              18.1
 (Enter /lrz/sys/applications/gaussian/g16.C.01/x86_64_legacy/exe/l601.exe)
 Copying SCF densities to generalized density rwf, IOpCl= 0 IROHF=0.

 **********************************************************************

            Population analysis using the SCF Density.

 **********************************************************************

 Orbital symmetries:
       Occupied  (A) (A) (A) (A) (A) (A) (A) (A) (A) (A) (A) (A)
                 (A) (A) (A) (A)
       Virtual   (A) (A) (A) (A) (A) (A) (A) (A) (A) (A) (A) (A)
                 (A) (A) (A) (A) (A) (A) (A) (A) (A) (A) (A) (A)
                 (A) (A) (A) (A) (A) (A) (A) (A) (A) (A) (A) (A)
                 (A) (A) (A) (A) (A) (A) (A) (A) (A) (A) (A) (A)
                 (A) (A) (A) (A) (A) (A) (A) (A) (A) (A) (A) (A)
                 (A) (A) (A) (A) (A) (A) (A) (A) (A) (A) (A) (A)
                 (A) (A) (A) (A) (A) (A) (A) (A) (A) (A) (A) (A)
                 (A) (A) (A) (A) (A) (A) (A) (A) (A) (A) (A) (A)
                 (A) (A) (A) (A) (A) (A) (A) (A) (A) (A) (A) (A)
                 (A) (A) (A) (A) (A) (A) (A) (A) (A) (A) (A) (A)
                 (A) (A) (A) (A) (A) (A) (A) (A) (A) (A) (A) (A)
                 (A) (A) (A) (A) (A) (A) (A) (A) (A) (A) (A) (A)
 The electronic state is 1-A.
 Alpha  occ. eigenvalues --  -19.25417 -10.37746 -10.28708 -10.27074  -1.15706
 Alpha  occ. eigenvalues --   -0.87799  -0.75847  -0.64480  -0.57865  -0.54698
 Alpha  occ. eigenvalues --   -0.53616  -0.47278  -0.46154  -0.44305  -0.42339
 Alpha  occ. eigenvalues --   -0.34896
 Alpha virt. eigenvalues --    0.04895   0.12528   0.15591   0.18096   0.18572
 Alpha virt. eigenvalues --    0.19902   0.21632   0.22801   0.25717   0.28116
 Alpha virt. eigenvalues --    0.30115   0.31717   0.33933   0.36416   0.37098
 Alpha virt. eigenvalues --    0.40064   0.42912   0.46086   0.47940   0.49693
 Alpha virt. eigenvalues --    0.51147   0.51206   0.51581   0.55144   0.57126
 Alpha virt. eigenvalues --    0.57408   0.60407   0.61020   0.64135   0.69468
 Alpha virt. eigenvalues --    0.74682   0.75033   0.82993   0.84305   0.90056
 Alpha virt. eigenvalues --    0.94095   0.94384   1.02737   1.06792   1.08220
 Alpha virt. eigenvalues --    1.14408   1.16859   1.16865   1.20064   1.22681
 Alpha virt. eigenvalues --    1.25621   1.39703   1.50476   1.50514   1.56791
 Alpha virt. eigenvalues --    1.58997   1.60530   1.62850   1.64001   1.64452
 Alpha virt. eigenvalues --    1.65980   1.68615   1.76553   1.79413   1.87486
 Alpha virt. eigenvalues --    1.90814   1.90971   1.93247   1.98912   1.99941
 Alpha virt. eigenvalues --    2.09184   2.13475   2.16843   2.18718   2.26214
 Alpha virt. eigenvalues --    2.26690   2.32392   2.38088   2.41125   2.41758
 Alpha virt. eigenvalues --    2.46282   2.52877   2.58434   2.61070   2.63726
 Alpha virt. eigenvalues --    2.64474   2.68685   2.70743   2.72912   2.75713
 Alpha virt. eigenvalues --    2.78379   2.83602   2.87874   2.94570   2.95554
 Alpha virt. eigenvalues --    3.02872   3.07279   3.09430   3.11968   3.14874
 Alpha virt. eigenvalues --    3.17623   3.18145   3.18653   3.25825   3.30188
 Alpha virt. eigenvalues --    3.30650   3.34852   3.36663   3.41705   3.47471
 Alpha virt. eigenvalues --    3.51084   3.52772   3.57153   3.59429   3.63405
 Alpha virt. eigenvalues --    3.71819   3.80354   3.85962   3.96221   3.97873
 Alpha virt. eigenvalues --    4.03368   4.07637   4.09327   4.18377   4.32609
 Alpha virt. eigenvalues --    4.37111   4.45851   4.47475   4.60266   4.64120
 Alpha virt. eigenvalues --    4.73285   4.82801   4.90962   5.25676   5.26673
 Alpha virt. eigenvalues --    5.63038   5.71961   6.17954   6.38027   6.42148
 Alpha virt. eigenvalues --    6.46859   6.53419   6.86560   7.00623   7.11830
 Alpha virt. eigenvalues --   22.40858  22.54172  22.80647  43.83394
          Condensed to atoms (all electrons):
               1          2          3          4          5          6
     1  O    8.022540   0.568400  -0.127348   0.022854  -0.052948   0.002391
     2  C    0.568400   4.583928   0.270629  -0.022113   0.450850  -0.016123
     3  C   -0.127348   0.270629   5.215889   0.259007  -0.124169   0.383437
     4  C    0.022854  -0.022113   0.259007   4.962105   0.012189  -0.025117
     5  H   -0.052948   0.450850  -0.124169   0.012189   0.579247   0.002774
     6  H    0.002391  -0.016123   0.383437  -0.025117   0.002774   0.528947
     7  H    0.002392  -0.016127   0.383442  -0.025120   0.002774  -0.022360
     8  H    0.000851   0.006943  -0.035177   0.411459   0.000009  -0.003826
     9  H    0.003254  -0.004824  -0.033397   0.409956   0.000164   0.005999
    10  H    0.003256  -0.004827  -0.033394   0.409953   0.000164  -0.004967
               7          8          9         10
     1  O    0.002392   0.000851   0.003254   0.003256
     2  C   -0.016127   0.006943  -0.004824  -0.004827
     3  C    0.383442  -0.035177  -0.033397  -0.033394
     4  C   -0.025120   0.411459   0.409956   0.409953
     5  H    0.002774   0.000009   0.000164   0.000164
     6  H   -0.022360  -0.003826   0.005999  -0.004967
     7  H    0.528951  -0.003826  -0.004966   0.005999
     8  H   -0.003826   0.522339  -0.020659  -0.020659
     9  H   -0.004966  -0.020659   0.538985  -0.028158
    10  H    0.005999  -0.020659  -0.028158   0.538988
 Mulliken charges:
               1
     1  O   -0.445641
     2  C    0.183264
     3  C   -0.158918
     4  C   -0.415174
     5  H    0.128946
     6  H    0.148846
     7  H    0.148842
     8  H    0.142545
     9  H    0.133646
    10  H    0.133644
 Sum of Mulliken charges =  -0.00000
 Mulliken charges with hydrogens summed into heavy atoms:
               1
     1  O   -0.445641
     2  C    0.312210
     3  C    0.138769
     4  C   -0.005339
 Electronic spatial extent (au):  <R**2>=            302.2609
 Charge=             -0.0000 electrons
 Dipole moment (field-independent basis, Debye):
    X=              2.1753    Y=              3.4768    Z=             -0.0000  Tot=              4.1012
 Quadrupole moment (field-independent basis, Debye-Ang):
   XX=            -27.6089   YY=            -25.0104   ZZ=            -23.9712
   XY=             -3.4270   XZ=              0.0001   YZ=              0.0001
 Traceless Quadrupole moment (field-independent basis, Debye-Ang):
   XX=             -2.0787   YY=              0.5198   ZZ=              1.5590
   XY=             -3.4270   XZ=              0.0001   YZ=              0.0001
 Octapole moment (field-independent basis, Debye-Ang**2):
  XXX=              3.1689  YYY=              3.1564  ZZZ=              0.0001  XYY=             -0.2599
  XXY=              6.6326  XXZ=              0.0000  XZZ=             -1.1329  YZZ=              0.3787
  YYZ=              0.0001  XYZ=              0.0000
 Hexadecapole moment (field-independent basis, Debye-Ang**3):
 XXXX=           -254.4970 YYYY=           -106.5119 ZZZZ=            -36.4291 XXXY=             -5.0661
 XXXZ=              0.0003 YYYX=              0.3010 YYYZ=             -0.0002 ZZZX=             -0.0001
 ZZZY=              0.0003 XXYY=            -60.6182 XXZZ=            -48.2880 YYZZ=            -21.1585
 XXYZ=              0.0002 YYXZ=             -0.0001 ZZXY=              1.2403
 N-N= 1.184252648054D+02 E-N=-6.878073672567D+02  KE= 1.921480535007D+02
 No NMR shielding tensors so no spin-rotation constants.
 Leave Link  601 at Wed Oct 22 10:04:14 2025, MaxMem=  4294967296 cpu:               1.0 elap:               0.2
 (Enter /lrz/sys/applications/gaussian/g16.C.01/x86_64_legacy/exe/l9999.exe)
 Unable to Open any file for archive entry.
 1\1\GINC-CM4R15C05S03\SP\RwB97XD\def2TZVP\C3H6O1\GO29TIZ2\22-Oct-2025\
 0\\#p wb97xd scrf=(smd,solvent=water) def2tzvp\\g16_g16_C2_2\\0,1\O,0,
 1.399946,-0.691313,-0.000012\C,0,0.924034,0.42421,0.000029\C,0,-0.5402
 07,0.725101,-0.000012\C,0,-1.438572,-0.498149,0.000006\H,0,1.592586,1.
 317099,0.000006\H,0,-0.722619,1.37566,-0.874112\H,0,-0.722661,1.375724
 ,0.874029\H,0,-2.496958,-0.201613,-0.000043\H,0,-1.260756,-1.121635,0.
 889017\H,0,-1.260689,-1.121704,-0.888942\\Version=EM64L-G16RevC.01\Sta
 te=1-A\HF=-193.1645493\RMSD=7.932e-09\Dipole=-0.8558355,1.3678839,0.00
 00115\Quadrupole=-1.545493,0.3864403,1.1590526,2.5479074,0.0000644,-0.
 0000424\PG=C01 [X(C3H6O1)]\\@
 The archive entry for this job was punched.


 ... IT CAN BE VERY DIFFICULT, IN THESE COMPLEX TIMES,
 TO UNDERSTAND JUST HOW SCIENTISTS DO WHAT THEY DO.

                     DON MOSER IN THE FEBRUARY 1979 SMITHSONIAN
 Job cpu time:       0 days  0 hours  2 minutes 28.4 seconds.
 Elapsed time:       0 days  0 hours  0 minutes 20.2 seconds.
 File lengths (MBytes):  RWF=    272 Int=      0 D2E=      0 Chk=      8 Scr=     32
 Normal termination of Gaussian 16 at Wed Oct 22 10:04:14 2025.
