 Entering Gaussian System, Link 0=g16
 Input=../../g16_g16_C17-a_4.com
 Output=../../g16_g16_C17-a_4.log
 Initial command:
 /lrz/sys/applications/gaussian/g16.C.01/x86_64_legacy/exe/l1.exe "/dss/lxclscratch/0D/go29tiz2/Gau-220284.inp" -scrdir="/dss/lxclscratch/0D/go29tiz2/"
 Entering Link 1 = /lrz/sys/applications/gaussian/g16.C.01/x86_64_legacy/exe/l1.exe PID=    220285.
  
 Copyright (c) 1988-2019, Gaussian, Inc.  All Rights Reserved.
  
 This is part of the Gaussian(R) 16 program.  It is based on
 the Gaussian(R) 09 system (copyright 2009, Gaussian, Inc.),
 the Gaussian(R) 03 system (copyright 2003, Gaussian, Inc.),
 the Gaussian(R) 98 system (copyright 1998, Gaussian, Inc.),
 the Gaussian(R) 94 system (copyright 1995, Gaussian, Inc.),
 the Gaussian 92(TM) system (copyright 1992, Gaussian, Inc.),
 the Gaussian 90(TM) system (copyright 1990, Gaussian, Inc.),
 the Gaussian 88(TM) system (copyright 1988, Gaussian, Inc.),
 the Gaussian 86(TM) system (copyright 1986, Carnegie Mellon
 University), and the Gaussian 82(TM) system (copyright 1983,
 Carnegie Mellon University). Gaussian is a federally registered
 trademark of Gaussian, Inc.
  
 This software contains proprietary and confidential information,
 including trade secrets, belonging to Gaussian, Inc.
  
 This software is provided under written license and may be
 used, copied, transmitted, or stored only in accord with that
 written license.
  
 The following legend is applicable only to US Government
 contracts under FAR:
  
                    RESTRICTED RIGHTS LEGEND
  
 Use, reproduction and disclosure by the US Government is
 subject to restrictions as set forth in subparagraphs (a)
 and (c) of the Commercial Computer Software - Restricted
 Rights clause in FAR 52.227-19.
  
 Gaussian, Inc.
 340 Quinnipiac St., Bldg. 40, Wallingford CT 06492
  
  
 ---------------------------------------------------------------
 Warning -- This program may not be used in any manner that
 competes with the business of Gaussian, Inc. or will provide
 assistance to any competitor of Gaussian, Inc.  The licensee
 of this program is prohibited from giving any competitor of
 Gaussian, Inc. access to this program.  By using this program,
 the user acknowledges that Gaussian, Inc. is engaged in the
 business of creating and licensing software in the field of
 computational chemistry and represents and warrants to the
 licensee that it is not a competitor of Gaussian, Inc. and that
 it will not use this program in any manner prohibited above.
 ---------------------------------------------------------------
  

 Cite this work as:
 Gaussian 16, Revision C.01,
 M. J. Frisch, G. W. Trucks, H. B. Schlegel, G. E. Scuseria, 
 M. A. Robb, J. R. Cheeseman, G. Scalmani, V. Barone, 
 G. A. Petersson, H. Nakatsuji, X. Li, M. Caricato, A. V. Marenich, 
 J. Bloino, B. G. Janesko, R. Gomperts, B. Mennucci, H. P. Hratchian, 
 J. V. Ortiz, A. F. Izmaylov, J. L. Sonnenberg, D. Williams-Young, 
 F. Ding, F. Lipparini, F. Egidi, J. Goings, B. Peng, A. Petrone, 
 T. Henderson, D. Ranasinghe, V. G. Zakrzewski, J. Gao, N. Rega, 
 G. Zheng, W. Liang, M. Hada, M. Ehara, K. Toyota, R. Fukuda, 
 J. Hasegawa, M. Ishida, T. Nakajima, Y. Honda, O. Kitao, H. Nakai, 
 T. Vreven, K. Throssell, J. A. Montgomery, Jr., J. E. Peralta, 
 F. Ogliaro, M. J. Bearpark, J. J. Heyd, E. N. Brothers, K. N. Kudin, 
 V. N. Staroverov, T. A. Keith, R. Kobayashi, J. Normand, 
 K. Raghavachari, A. P. Rendell, J. C. Burant, S. S. Iyengar, 
 J. Tomasi, M. Cossi, J. M. Millam, M. Klene, C. Adamo, R. Cammi, 
 J. W. Ochterski, R. L. Martin, K. Morokuma, O. Farkas, 
 J. B. Foresman, and D. J. Fox, Gaussian, Inc., Wallingford CT, 2019.
 
 ******************************************
 Gaussian 16:  EM64L-G16RevC.01  3-Jul-2019
                22-Oct-2025 
 ******************************************
 %chk=g16_g16_C17-a_4.chk
 %nprocshared=8
 Will use up to    8 processors via shared memory.
 %mem=32GB
 -------------------------------------------
 #p wb97xd scrf=(smd,solvent=water) def2tzvp
 -------------------------------------------
 1/38=1,172=1/1;
 2/12=2,17=6,18=5,40=1/2;
 3/5=44,7=101,11=2,25=1,30=1,70=32201,72=1,74=-58/1,2,3;
 4//1;
 5/5=2,38=5,53=1/2;
 6/7=2,8=2,9=2,10=2,28=1/1;
 99/5=1,9=1/99;
 Leave Link    1 at Wed Oct 22 09:15:27 2025, MaxMem=  4294967296 cpu:               5.1 elap:               0.7
 (Enter /lrz/sys/applications/gaussian/g16.C.01/x86_64_legacy/exe/l101.exe)
 ---------------
 g16_g16_C17-a_4
 ---------------
 Symbolic Z-matrix:
 Charge =  0 Multiplicity = 1
 O                    -3.5779   -0.17878  -0.46088 
 C                    -2.59126  -1.16761  -0.24644 
 N                    -2.84776  -1.90033   0.95518 
 C                    -1.19698  -0.55814  -0.17373 
 C                    -1.01379   0.81901  -0.09775 
 C                     0.27724   1.33239  -0.00166 
 N                     0.4566    2.78818   0.07909 
 O                    -0.53509   3.48585   0.04755 
 O                     1.5867    3.21867   0.17335 
 C                     1.40466   0.5286    0.02064 
 C                     1.18836  -0.84082  -0.06054 
 N                     2.35593  -1.73203  -0.04629 
 O                     3.45479  -1.22813   0.05369 
 O                     2.16216  -2.92592  -0.13533 
 C                    -0.08029  -1.39693  -0.15563 
 H                    -3.50263   0.14416  -1.36835 
 H                    -2.6017   -1.87992  -1.0894 
 H                    -2.86782  -1.25515   1.74586 
 H                    -3.77124  -2.32782   0.8944 
 H                    -1.87198   1.48911  -0.11546 
 H                     2.40692   0.94556   0.09381 
 H                    -0.19776  -2.4792   -0.21303 
 
 ITRead=  0  0  0  0  0  0  0  0  0  0  0  0  0  0  0  0  0  0  0  0
 ITRead=  0  0
 MicOpt= -1 -1 -1 -1 -1 -1 -1 -1 -1 -1 -1 -1 -1 -1 -1 -1 -1 -1 -1 -1
 MicOpt= -1 -1
 NAtoms=     22 NQM=       22 NQMF=       0 NMMI=      0 NMMIF=      0
                NMic=       0 NMicF=      0.
                    Isotopes and Nuclear Properties:
 (Nuclear quadrupole moments (NQMom) in fm**2, nuclear magnetic moments (NMagM)
  in nuclear magnetons)

  Atom         1           2           3           4           5           6           7           8           9          10
 IAtWgt=          16          12          14          12          12          12          14          16          16          12
 AtmWgt=  15.9949146  12.0000000  14.0030740  12.0000000  12.0000000  12.0000000  14.0030740  15.9949146  15.9949146  12.0000000
 NucSpn=           0           0           2           0           0           0           2           0           0           0
 AtZEff=  -0.0000000  -0.0000000  -0.0000000  -0.0000000  -0.0000000  -0.0000000  -0.0000000  -0.0000000  -0.0000000  -0.0000000
 NQMom=    0.0000000   0.0000000   2.0440000   0.0000000   0.0000000   0.0000000   2.0440000   0.0000000   0.0000000   0.0000000
 NMagM=    0.0000000   0.0000000   0.4037610   0.0000000   0.0000000   0.0000000   0.4037610   0.0000000   0.0000000   0.0000000
 AtZNuc=   8.0000000   6.0000000   7.0000000   6.0000000   6.0000000   6.0000000   7.0000000   8.0000000   8.0000000   6.0000000

  Atom        11          12          13          14          15          16          17          18          19          20
 IAtWgt=          12          14          16          16          12           1           1           1           1           1
 AtmWgt=  12.0000000  14.0030740  15.9949146  15.9949146  12.0000000   1.0078250   1.0078250   1.0078250   1.0078250   1.0078250
 NucSpn=           0           2           0           0           0           1           1           1           1           1
 AtZEff=  -0.0000000  -0.0000000  -0.0000000  -0.0000000  -0.0000000  -0.0000000  -0.0000000  -0.0000000  -0.0000000  -0.0000000
 NQMom=    0.0000000   2.0440000   0.0000000   0.0000000   0.0000000   0.0000000   0.0000000   0.0000000   0.0000000   0.0000000
 NMagM=    0.0000000   0.4037610   0.0000000   0.0000000   0.0000000   2.7928460   2.7928460   2.7928460   2.7928460   2.7928460
 AtZNuc=   6.0000000   7.0000000   8.0000000   8.0000000   6.0000000   1.0000000   1.0000000   1.0000000   1.0000000   1.0000000

  Atom        21          22
 IAtWgt=           1           1
 AtmWgt=   1.0078250   1.0078250
 NucSpn=           1           1
 AtZEff=  -0.0000000  -0.0000000
 NQMom=    0.0000000   0.0000000
 NMagM=    2.7928460   2.7928460
 AtZNuc=   1.0000000   1.0000000
 Leave Link  101 at Wed Oct 22 09:15:27 2025, MaxMem=  4294967296 cpu:               1.2 elap:               0.2
 (Enter /lrz/sys/applications/gaussian/g16.C.01/x86_64_legacy/exe/l202.exe)
                          Input orientation:                          
 ---------------------------------------------------------------------
 Center     Atomic      Atomic             Coordinates (Angstroms)
 Number     Number       Type             X           Y           Z
 ---------------------------------------------------------------------
      1          8           0       -3.577895   -0.178780   -0.460883
      2          6           0       -2.591256   -1.167612   -0.246438
      3          7           0       -2.847764   -1.900332    0.955181
      4          6           0       -1.196982   -0.558138   -0.173727
      5          6           0       -1.013791    0.819012   -0.097752
      6          6           0        0.277242    1.332393   -0.001659
      7          7           0        0.456602    2.788175    0.079085
      8          8           0       -0.535088    3.485854    0.047548
      9          8           0        1.586696    3.218666    0.173353
     10          6           0        1.404661    0.528597    0.020642
     11          6           0        1.188356   -0.840821   -0.060544
     12          7           0        2.355927   -1.732025   -0.046293
     13          8           0        3.454786   -1.228132    0.053689
     14          8           0        2.162155   -2.925917   -0.135329
     15          6           0       -0.080290   -1.396931   -0.155633
     16          1           0       -3.502631    0.144162   -1.368347
     17          1           0       -2.601697   -1.879918   -1.089403
     18          1           0       -2.867818   -1.255152    1.745856
     19          1           0       -3.771242   -2.327815    0.894397
     20          1           0       -1.871976    1.489106   -0.115459
     21          1           0        2.406917    0.945563    0.093812
     22          1           0       -0.197764   -2.479204   -0.213027
 ---------------------------------------------------------------------
                    Distance matrix (angstroms):
                    1          2          3          4          5
     1  O    0.000000
     2  C    1.413235   0.000000
     3  N    2.345649   1.430581   0.000000
     4  C    2.427986   1.523399   2.408526   0.000000
     5  C    2.775263   2.541098   3.444845   1.391357   0.000000
     6  C    4.166127   3.812902   4.596925   2.403550   1.392681
     7  N    5.037018   5.004364   5.802454   3.741131   2.463926
     8  O    4.790273   5.095979   5.931548   4.103771   2.713359
     9  O    6.214330   6.072145   6.817612   4.704633   3.548855
    10  C    5.055503   4.349231   4.985597   2.826184   2.438702
    11  C    4.828635   3.798265   4.294709   2.404695   2.757876
    12  N    6.147739   4.983296   5.301856   3.743984   4.226753
    13  O    7.129132   6.053789   6.402084   4.705269   4.917511
    14  O    6.371885   5.069408   5.228798   4.109946   4.910452
    15  C    3.716223   2.523050   3.024274   1.396747   2.405240
    16  H    0.966151   1.951931   3.163477   2.690048   2.874745
    17  H    2.059580   1.103666   2.059439   2.135132   3.284667
    18  H    2.555872   2.013302   1.020699   2.638621   3.337434
    19  H    2.548042   2.009961   1.019435   3.301433   4.300048
    20  H    2.410668   2.755480   3.686017   2.156437   1.088954
    21  H    6.114721   5.437188   6.037611   3.914177   3.428404
    22  H    4.096177   2.729504   2.953354   2.165751   3.399620
                    6          7          8          9         10
     6  C    0.000000
     7  N    1.469010   0.000000
     8  O    2.302107   1.212930   0.000000
     9  O    2.302895   1.212980   2.142238   0.000000
    10  C    1.384796   2.451107   3.536767   2.700542   0.000000
    11  C    2.357213   3.704669   4.658547   4.085684   1.388771
    12  N    3.703185   4.904627   5.965990   5.014908   2.453528
    13  O    4.081193   5.012033   6.175824   4.824738   2.700037
    14  O    4.658752   5.967054   6.958403   6.179186   3.540027
    15  C    2.756945   4.225927   4.908127   4.918415   2.437993
    16  H    4.191321   4.976082   4.688067   6.142529   5.114547
    17  H    4.448642   5.701723   5.861317   6.718091   4.804586
    18  H    4.431772   5.493486   5.550047   6.506190   4.940870
    19  H    5.530846   6.686759   6.707354   7.745376   5.975994
    20  H    2.157927   2.673519   2.408494   3.877783   3.417229
    21  H    2.166626   2.683126   3.887237   2.417868   1.087994
    22  H    3.846892   5.315901   5.980268   5.983252   3.416026
                   11         12         13         14         15
    11  C    0.000000
    12  N    1.468901   0.000000
    13  O    2.302122   1.213011   0.000000
    14  O    2.302499   1.212787   2.142218   0.000000
    15  C    1.388439   2.461584   3.545289   2.714179   0.000000
    16  H    4.968491   6.292107   7.232636   6.560146   3.944371
    17  H    4.062361   5.068332   6.197779   4.969774   2.731794
    18  H    4.459518   5.543169   6.545188   5.624139   3.377288
    19  H    5.265043   6.227525   7.357416   6.051716   3.948700
    20  H    3.846714   5.315603   5.982172   5.980555   3.397199
    21  H    2.167922   2.681736   2.413419   3.885971   3.425741
    22  H    2.151483   2.665973   3.870070   2.403083   1.090142
                   16         17         18         19         20
    16  H    0.000000
    17  H    2.233023   0.000000
    18  H    3.472654   2.915450   0.000000
    19  H    3.361969   2.346041   1.640659   0.000000
    20  H    2.457161   3.582092   3.462246   4.381313   0.000000
    21  H    6.140270   5.871078   5.949389   7.037442   4.318351
    22  H    4.374810   2.627941   3.530540   3.744202   4.308131
                   21         22
    21  H    0.000000
    22  H    4.313646   0.000000
 Stoichiometry    C7H7N3O5
 Framework group  C1[X(C7H7N3O5)]
 Deg. of freedom    60
 Full point group                 C1      NOp   1
 Largest Abelian subgroup         C1      NOp   1
 Largest concise Abelian subgroup C1      NOp   1
                         Standard orientation:                         
 ---------------------------------------------------------------------
 Center     Atomic      Atomic             Coordinates (Angstroms)
 Number     Number       Type             X           Y           Z
 ---------------------------------------------------------------------
      1          8           0       -3.577895   -0.178780   -0.460883
      2          6           0       -2.591256   -1.167612   -0.246438
      3          7           0       -2.847764   -1.900332    0.955181
      4          6           0       -1.196982   -0.558138   -0.173727
      5          6           0       -1.013791    0.819012   -0.097752
      6          6           0        0.277242    1.332393   -0.001659
      7          7           0        0.456602    2.788175    0.079085
      8          8           0       -0.535088    3.485854    0.047548
      9          8           0        1.586696    3.218666    0.173353
     10          6           0        1.404661    0.528597    0.020642
     11          6           0        1.188356   -0.840821   -0.060544
     12          7           0        2.355927   -1.732025   -0.046293
     13          8           0        3.454786   -1.228132    0.053689
     14          8           0        2.162155   -2.925917   -0.135329
     15          6           0       -0.080290   -1.396931   -0.155633
     16          1           0       -3.502631    0.144162   -1.368347
     17          1           0       -2.601697   -1.879918   -1.089403
     18          1           0       -2.867818   -1.255152    1.745856
     19          1           0       -3.771242   -2.327815    0.894397
     20          1           0       -1.871976    1.489106   -0.115459
     21          1           0        2.406917    0.945563    0.093812
     22          1           0       -0.197764   -2.479204   -0.213027
 ---------------------------------------------------------------------
 Rotational constants (GHZ):           0.5945200           0.5372368           0.2905597
 Leave Link  202 at Wed Oct 22 09:15:27 2025, MaxMem=  4294967296 cpu:               0.1 elap:               0.0
 (Enter /lrz/sys/applications/gaussian/g16.C.01/x86_64_legacy/exe/l301.exe)
 Standard basis: def2TZVP (5D, 7F)
 Ernie: Thresh=  0.10000D-02 Tol=  0.10000D-05 Strict=F.
 There are   582 symmetry adapted cartesian basis functions of A   symmetry.
 There are   507 symmetry adapted basis functions of A   symmetry.
   507 basis functions,   821 primitive gaussians,   582 cartesian basis functions
    55 alpha electrons       55 beta electrons
       nuclear repulsion energy       989.1463759822 Hartrees.
 IExCor= 4639 DFT=T Ex+Corr=wB97XD ExCW=0 ScaHFX=  1.000000
 ScaDFX=  1.000000  1.000000  1.000000  1.000000 ScalE2=  1.000000  1.000000
 IRadAn=      5 IRanWt=     -1 IRanGd=            0 ICorTp=0 IEmpDi=121
 HFx  wShort=  0.000000 wLong=  0.200000 cFull=  0.222036 cShort=  0.000000 cLong=  0.777964
 DFx  wShort=  0.000000 wLong=  0.200000 cFull=  0.000000 cShort=  0.000000 cLong=  1.000000
 NAtoms=   22 NActive=   22 NUniq=   22 SFac= 1.00D+00 NAtFMM=   60 NAOKFM=F Big=F
 Integral buffers will be    131072 words long.
 Raffenetti 2 integral format.
 Two-electron integral symmetry is turned on.
 R6Disp:  Grimme-D2 Dispersion energy=       -0.0124413041 Hartrees.
 Nuclear repulsion after empirical dispersion term =      989.1339346781 Hartrees.
 ------------------------------------------------------------------------------
 Polarizable Continuum Model (PCM)
 =================================
 Model                : PCM.
 Atomic radii         : SMD-Coulomb.
 Polarization charges : Total charges.
 Charge compensation  : None.
 Solution method      : On-the-fly selection.
 Cavity type          : VdW (van der Waals Surface) (Alpha=1.000).
 Cavity algorithm     : GePol (No added spheres)
                        Default sphere list used, NSphG=   22.
                        Lebedev-Laikov grids with approx.  5.0 points / Ang**2.
                        Smoothing algorithm: York/Karplus (Gamma=1.0000).
                        Polarization charges: spherical gaussians, with
                                              point-specific exponents (IZeta= 3).
                        Self-potential: point-specific (ISelfS= 7).
                        Self-field    : sphere-specific E.n sum rule (ISelfD= 2).
 Solvent              : Water, Eps=  78.355300 Eps(inf)=   1.777849
 ------------------------------------------------------------------------------
 GePol: Number of generator spheres                  =      22
 GePol: Total number of spheres                      =      22
 GePol: Number of exposed spheres                    =      22 (100.00%)
 GePol: Number of points                             =    1706
 GePol: Average weight of points                     =       0.12
 GePol: Minimum weight of points                     =   0.15D-11
 GePol: Maximum weight of points                     =    0.21991
 GePol: Number of points with low weight             =      91
 GePol: Fraction of low-weight points (<1% of avg)   =       5.33%
 GePol: Cavity surface area                          =    210.796 Ang**2
 GePol: Cavity volume                                =    183.677 Ang**3
 ------------------------------------------------------------------------------
 Atomic radii for non-electrostatic terms: SMD-CDS.
 ------------------------------------------------------------------------------
 PCM non-electrostatic energy =         0.0134588449 Hartrees.
 Nuclear repulsion after PCM non-electrostatic terms =      989.1473935230 Hartrees.
 Leave Link  301 at Wed Oct 22 09:15:27 2025, MaxMem=  4294967296 cpu:               0.6 elap:               0.1
 (Enter /lrz/sys/applications/gaussian/g16.C.01/x86_64_legacy/exe/l302.exe)
 NPDir=0 NMtPBC=     1 NCelOv=     1 NCel=       1 NClECP=     1 NCelD=      1
         NCelK=      1 NCelE2=     1 NClLst=     1 CellRange=     0.0.
 One-electron integrals computed using PRISM.
 One-electron integral symmetry used in STVInt
   1 Symmetry operations used in ECPInt.
 ECPInt:  NShTT=   18721 NPrTT=   59004 LenC2=   16876 LenP2D=   38881.
 LDataN:  DoStor=T MaxTD1= 6 Len=  172
 NBasis=   507 RedAO= T EigKep=  7.44D-06  NBF=   507
 NBsUse=   507 1.00D-06 EigRej= -1.00D+00 NBFU=   507
 Precomputing XC quadrature grid using
 IXCGrd= 4 IRadAn=           5 IRanWt=          -1 IRanGd=           0 AccXCQ= 0.00D+00.
 Generated NRdTot=       0 NPtTot=           0 NUsed=           0 NTot=          32
 NSgBfM=   574   574   574   574   574 MxSgAt=    22 MxSgA2=    22.
 Leave Link  302 at Wed Oct 22 09:15:28 2025, MaxMem=  4294967296 cpu:               6.4 elap:               0.8
 (Enter /lrz/sys/applications/gaussian/g16.C.01/x86_64_legacy/exe/l303.exe)
 DipDrv:  MaxL=1.
 Leave Link  303 at Wed Oct 22 09:15:28 2025, MaxMem=  4294967296 cpu:               0.6 elap:               0.1
 (Enter /lrz/sys/applications/gaussian/g16.C.01/x86_64_legacy/exe/l401.exe)
 ExpMin= 9.52D-02 ExpMax= 2.70D+04 ExpMxC= 9.22D+02 IAcc=3 IRadAn=         5 AccDes= 0.00D+00
 Harris functional with IExCor= 4639 and IRadAn=       5 diagonalized for initial guess.
 HarFok:  IExCor= 4639 AccDes= 0.00D+00 IRadAn=         5 IDoV= 1 UseB2=F ITyADJ=14
 ICtDFT=  3500011 ScaDFX=  1.000000  1.000000  1.000000  1.000000
 FoFCou: FMM=F IPFlag=           0 FMFlag=      100000 FMFlg1=           0
         NFxFlg=           0 DoJE=T BraDBF=F KetDBF=T FulRan=T
         wScrn=  0.000000 ICntrl=       500 IOpCl=  0 I1Cent=   200000004 NGrid=           0
         NMat0=    1 NMatS0=      1 NMatT0=    0 NMatD0=    1 NMtDS0=    0 NMtDT0=    0
 Petite list used in FoFCou.
 Harris En= -780.031038585568    
 JPrj=0 DoOrth=F DoCkMO=F.
 Leave Link  401 at Wed Oct 22 09:15:34 2025, MaxMem=  4294967296 cpu:              45.7 elap:               5.7
 (Enter /lrz/sys/applications/gaussian/g16.C.01/x86_64_legacy/exe/l502.exe)
 Integral symmetry usage will be decided dynamically.
 Closed shell SCF:
 Using DIIS extrapolation, IDIIS=  1040.
 NGot=  4294967296 LenX=  4294279646 LenY=  4293940340
 Requested convergence on RMS density matrix=1.00D-08 within 128 cycles.
 Requested convergence on MAX density matrix=1.00D-06.
 Requested convergence on             energy=1.00D-06.
 No special actions if energy rises.
 Fock matrices will be formed incrementally for  20 cycles.

 Cycle   1  Pass 1  IDiag  1:
 FoFJK:  IHMeth= 1 ICntrl=       0 DoSepK=T KAlg= 0 I1Cent=           0 FoldK=F
 IRaf=         1 NMat=       1 IRICut=       1 DoRegI=T DoRafI=F ISym2E= 0 IDoP0=0 IntGTp=1.
 FoFCou: FMM=F IPFlag=           0 FMFlag=      100000 FMFlg1=           0
         NFxFlg=           0 DoJE=T BraDBF=F KetDBF=F FulRan=T
         wScrn=  0.000000 ICntrl=       500 IOpCl=  0 I1Cent=           0 NGrid=           0
         NMat0=    1 NMatS0=      1 NMatT0=    0 NMatD0=    1 NMtDS0=    0 NMtDT0=    0
 Symmetry not used in FoFCou.
 Inv3:  Mode=1 IEnd=     8731308.
 Iteration    1 A*A^-1 deviation from unit magnitude is 6.44D-15 for   1029.
 Iteration    1 A*A^-1 deviation from orthogonality  is 3.71D-15 for   1342    641.
 Iteration    1 A^-1*A deviation from unit magnitude is 6.44D-15 for     15.
 Iteration    1 A^-1*A deviation from orthogonality  is 2.58D-15 for   1278   1202.
 E= -810.754883091261    
 DIIS: error= 6.35D-02 at cycle   1 NSaved=   1.
 NSaved= 1 IEnMin= 1 EnMin= -810.754883091261     IErMin= 1 ErrMin= 6.35D-02
 ErrMax= 6.35D-02  0.00D+00 EMaxC= 1.00D-01 BMatC= 2.06D+00 BMatP= 2.06D+00
 IDIUse=3 WtCom= 3.65D-01 WtEn= 6.35D-01
 Coeff-Com:  0.100D+01
 Coeff-En:   0.100D+01
 Coeff:      0.100D+01
 Gap=     0.440 Goal=   None    Shift=    0.000
 GapD=    0.440 DampG=2.000 DampE=0.500 DampFc=1.0000 IDamp=-1.
 RMSDP=5.77D-03 MaxDP=4.66D-01              OVMax= 2.18D-01

 Cycle   2  Pass 1  IDiag  1:
 RMSU=  4.19D-03    CP:  6.46D-01
 E= -810.863938296776     Delta-E=       -0.109055205515 Rises=F Damp=F
 DIIS: error= 3.20D-02 at cycle   2 NSaved=   2.
 NSaved= 2 IEnMin= 2 EnMin= -810.863938296776     IErMin= 2 ErrMin= 3.20D-02
 ErrMax= 3.20D-02  0.00D+00 EMaxC= 1.00D-01 BMatC= 5.15D-01 BMatP= 2.06D+00
 IDIUse=3 WtCom= 6.80D-01 WtEn= 3.20D-01
 Coeff-Com:  0.290D+00 0.710D+00
 Coeff-En:   0.418D+00 0.582D+00
 Coeff:      0.331D+00 0.669D+00
 Gap=     0.385 Goal=   None    Shift=    0.000
 RMSDP=1.11D-03 MaxDP=7.86D-02 DE=-1.09D-01 OVMax= 1.64D-01

 Cycle   3  Pass 1  IDiag  1:
 RMSU=  9.77D-04    CP:  6.62D-01  8.83D-01
 E= -811.141186301802     Delta-E=       -0.277248005026 Rises=F Damp=F
 DIIS: error= 1.54D-02 at cycle   3 NSaved=   3.
 NSaved= 3 IEnMin= 3 EnMin= -811.141186301802     IErMin= 3 ErrMin= 1.54D-02
 ErrMax= 1.54D-02  0.00D+00 EMaxC= 1.00D-01 BMatC= 1.04D-01 BMatP= 5.15D-01
 IDIUse=3 WtCom= 8.46D-01 WtEn= 1.54D-01
 Coeff-Com:  0.467D-01 0.317D+00 0.637D+00
 Coeff-En:   0.000D+00 0.134D+00 0.866D+00
 Coeff:      0.395D-01 0.289D+00 0.672D+00
 Gap=     0.316 Goal=   None    Shift=    0.000
 RMSDP=4.57D-04 MaxDP=3.78D-02 DE=-2.77D-01 OVMax= 6.94D-02

 Cycle   4  Pass 1  IDiag  1:
 RMSU=  2.99D-04    CP:  6.49D-01  9.31D-01  7.53D-01
 E= -811.207323198073     Delta-E=       -0.066136896271 Rises=F Damp=F
 DIIS: error= 4.12D-03 at cycle   4 NSaved=   4.
 NSaved= 4 IEnMin= 4 EnMin= -811.207323198073     IErMin= 4 ErrMin= 4.12D-03
 ErrMax= 4.12D-03  0.00D+00 EMaxC= 1.00D-01 BMatC= 1.11D-02 BMatP= 1.04D-01
 IDIUse=3 WtCom= 9.59D-01 WtEn= 4.12D-02
 Coeff-Com:  0.778D-02 0.110D+00 0.342D+00 0.541D+00
 Coeff-En:   0.000D+00 0.000D+00 0.000D+00 0.100D+01
 Coeff:      0.745D-02 0.106D+00 0.327D+00 0.560D+00
 Gap=     0.304 Goal=   None    Shift=    0.000
 RMSDP=2.14D-04 MaxDP=1.08D-02 DE=-6.61D-02 OVMax= 1.58D-02

 Cycle   5  Pass 1  IDiag  1:
 RMSU=  1.08D-04    CP:  6.38D-01  9.57D-01  8.23D-01  7.74D-01
 E= -811.213852321812     Delta-E=       -0.006529123740 Rises=F Damp=F
 DIIS: error= 5.20D-04 at cycle   5 NSaved=   5.
 NSaved= 5 IEnMin= 5 EnMin= -811.213852321812     IErMin= 5 ErrMin= 5.20D-04
 ErrMax= 5.20D-04  0.00D+00 EMaxC= 1.00D-01 BMatC= 1.99D-04 BMatP= 1.11D-02
 IDIUse=3 WtCom= 9.95D-01 WtEn= 5.20D-03
 Coeff-Com: -0.669D-03 0.403D-02 0.390D-01 0.159D+00 0.798D+00
 Coeff-En:   0.000D+00 0.000D+00 0.000D+00 0.000D+00 0.100D+01
 Coeff:     -0.665D-03 0.401D-02 0.388D-01 0.158D+00 0.799D+00
 Gap=     0.305 Goal=   None    Shift=    0.000
 RMSDP=5.32D-05 MaxDP=2.89D-03 DE=-6.53D-03 OVMax= 5.34D-03

 Cycle   6  Pass 1  IDiag  1:
 RMSU=  2.70D-05    CP:  6.36D-01  9.61D-01  8.42D-01  8.58D-01  1.15D+00
 E= -811.214033264480     Delta-E=       -0.000180942668 Rises=F Damp=F
 DIIS: error= 1.21D-04 at cycle   6 NSaved=   6.
 NSaved= 6 IEnMin= 6 EnMin= -811.214033264480     IErMin= 6 ErrMin= 1.21D-04
 ErrMax= 1.21D-04  0.00D+00 EMaxC= 1.00D-01 BMatC= 1.81D-05 BMatP= 1.99D-04
 IDIUse=3 WtCom= 9.99D-01 WtEn= 1.21D-03
 Coeff-Com: -0.829D-03-0.945D-02-0.189D-01 0.436D-04 0.273D+00 0.757D+00
 Coeff-En:   0.000D+00 0.000D+00 0.000D+00 0.000D+00 0.000D+00 0.100D+01
 Coeff:     -0.828D-03-0.944D-02-0.189D-01 0.436D-04 0.272D+00 0.757D+00
 Gap=     0.305 Goal=   None    Shift=    0.000
 RMSDP=2.86D-05 MaxDP=2.10D-03 DE=-1.81D-04 OVMax= 1.22D-03

 Cycle   7  Pass 1  IDiag  1:
 RMSU=  9.45D-06    CP:  6.35D-01  9.64D-01  8.47D-01  9.00D-01  1.27D+00
                    CP:  1.04D+00
 E= -811.214055600957     Delta-E=       -0.000022336477 Rises=F Damp=F
 DIIS: error= 4.93D-05 at cycle   7 NSaved=   7.
 NSaved= 7 IEnMin= 7 EnMin= -811.214055600957     IErMin= 7 ErrMin= 4.93D-05
 ErrMax= 4.93D-05  0.00D+00 EMaxC= 1.00D-01 BMatC= 1.82D-06 BMatP= 1.81D-05
 IDIUse=1 WtCom= 1.00D+00 WtEn= 0.00D+00
 Coeff-Com: -0.235D-03-0.391D-02-0.107D-01-0.154D-01 0.189D-01 0.243D+00
 Coeff-Com:  0.768D+00
 Coeff:     -0.235D-03-0.391D-02-0.107D-01-0.154D-01 0.189D-01 0.243D+00
 Coeff:      0.768D+00
 Gap=     0.305 Goal=   None    Shift=    0.000
 RMSDP=8.65D-06 MaxDP=3.69D-04 DE=-2.23D-05 OVMax= 8.47D-04

 Cycle   8  Pass 1  IDiag  1:
 RMSU=  4.43D-06    CP:  6.35D-01  9.65D-01  8.49D-01  9.07D-01  1.31D+00
                    CP:  1.19D+00  1.13D+00
 E= -811.214058229159     Delta-E=       -0.000002628202 Rises=F Damp=F
 DIIS: error= 2.06D-05 at cycle   8 NSaved=   8.
 NSaved= 8 IEnMin= 8 EnMin= -811.214058229159     IErMin= 8 ErrMin= 2.06D-05
 ErrMax= 2.06D-05  0.00D+00 EMaxC= 1.00D-01 BMatC= 6.03D-07 BMatP= 1.82D-06
 IDIUse=1 WtCom= 1.00D+00 WtEn= 0.00D+00
 Coeff-Com:  0.516D-04 0.299D-03-0.600D-03-0.697D-02-0.540D-01-0.609D-01
 Coeff-Com:  0.388D+00 0.734D+00
 Coeff:      0.516D-04 0.299D-03-0.600D-03-0.697D-02-0.540D-01-0.609D-01
 Coeff:      0.388D+00 0.734D+00
 Gap=     0.305 Goal=   None    Shift=    0.000
 RMSDP=4.35D-06 MaxDP=1.76D-04 DE=-2.63D-06 OVMax= 4.06D-04

 Cycle   9  Pass 1  IDiag  1:
 RMSU=  1.43D-06    CP:  6.35D-01  9.65D-01  8.49D-01  9.12D-01  1.33D+00
                    CP:  1.25D+00  1.36D+00  1.07D+00
 E= -811.214058950648     Delta-E=       -0.000000721489 Rises=F Damp=F
 DIIS: error= 8.67D-06 at cycle   9 NSaved=   9.
 NSaved= 9 IEnMin= 9 EnMin= -811.214058950648     IErMin= 9 ErrMin= 8.67D-06
 ErrMax= 8.67D-06  0.00D+00 EMaxC= 1.00D-01 BMatC= 9.46D-08 BMatP= 6.03D-07
 IDIUse=1 WtCom= 1.00D+00 WtEn= 0.00D+00
 Coeff-Com:  0.507D-04 0.624D-03 0.991D-03-0.191D-02-0.310D-01-0.611D-01
 Coeff-Com:  0.122D+00 0.385D+00 0.585D+00
 Coeff:      0.507D-04 0.624D-03 0.991D-03-0.191D-02-0.310D-01-0.611D-01
 Coeff:      0.122D+00 0.385D+00 0.585D+00
 Gap=     0.305 Goal=   None    Shift=    0.000
 RMSDP=9.49D-07 MaxDP=6.15D-05 DE=-7.21D-07 OVMax= 8.34D-05

 Cycle  10  Pass 1  IDiag  1:
 RMSU=  6.14D-07    CP:  6.35D-01  9.65D-01  8.49D-01  9.13D-01  1.33D+00
                    CP:  1.26D+00  1.42D+00  1.13D+00  8.68D-01
 E= -811.214059039140     Delta-E=       -0.000000088492 Rises=F Damp=F
 DIIS: error= 3.21D-06 at cycle  10 NSaved=  10.
 NSaved=10 IEnMin=10 EnMin= -811.214059039140     IErMin=10 ErrMin= 3.21D-06
 ErrMax= 3.21D-06  0.00D+00 EMaxC= 1.00D-01 BMatC= 6.72D-09 BMatP= 9.46D-08
 IDIUse=1 WtCom= 1.00D+00 WtEn= 0.00D+00
 Coeff-Com:  0.861D-05 0.142D-03 0.458D-03 0.744D-03 0.935D-03-0.739D-02
 Coeff-Com: -0.358D-01-0.257D-01 0.176D+00 0.891D+00
 Coeff:      0.861D-05 0.142D-03 0.458D-03 0.744D-03 0.935D-03-0.739D-02
 Coeff:     -0.358D-01-0.257D-01 0.176D+00 0.891D+00
 Gap=     0.305 Goal=   None    Shift=    0.000
 RMSDP=5.68D-07 MaxDP=4.68D-05 DE=-8.85D-08 OVMax= 5.56D-05

 Cycle  11  Pass 1  IDiag  1:
 RMSU=  2.35D-07    CP:  6.35D-01  9.65D-01  8.49D-01  9.13D-01  1.33D+00
                    CP:  1.26D+00  1.43D+00  1.18D+00  1.00D+00  1.10D+00
 E= -811.214059051231     Delta-E=       -0.000000012090 Rises=F Damp=F
 DIIS: error= 1.04D-06 at cycle  11 NSaved=  11.
 NSaved=11 IEnMin=11 EnMin= -811.214059051231     IErMin=11 ErrMin= 1.04D-06
 ErrMax= 1.04D-06  0.00D+00 EMaxC= 1.00D-01 BMatC= 7.59D-10 BMatP= 6.72D-09
 IDIUse=1 WtCom= 1.00D+00 WtEn= 0.00D+00
 Coeff-Com: -0.583D-06-0.115D-04 0.531D-04 0.375D-03 0.279D-02 0.324D-02
 Coeff-Com: -0.194D-01-0.407D-01-0.531D-02 0.266D+00 0.793D+00
 Coeff:     -0.583D-06-0.115D-04 0.531D-04 0.375D-03 0.279D-02 0.324D-02
 Coeff:     -0.194D-01-0.407D-01-0.531D-02 0.266D+00 0.793D+00
 Gap=     0.305 Goal=   None    Shift=    0.000
 RMSDP=2.03D-07 MaxDP=2.18D-05 DE=-1.21D-08 OVMax= 2.04D-05

 Cycle  12  Pass 1  IDiag  1:
 RMSU=  1.00D-07    CP:  6.35D-01  9.65D-01  8.49D-01  9.13D-01  1.33D+00
                    CP:  1.26D+00  1.43D+00  1.19D+00  1.02D+00  1.20D+00
                    CP:  1.28D+00
 E= -811.214059052634     Delta-E=       -0.000000001403 Rises=F Damp=F
 DIIS: error= 4.95D-07 at cycle  12 NSaved=  12.
 NSaved=12 IEnMin=12 EnMin= -811.214059052634     IErMin=12 ErrMin= 4.95D-07
 ErrMax= 4.95D-07  0.00D+00 EMaxC= 1.00D-01 BMatC= 1.50D-10 BMatP= 7.59D-10
 IDIUse=1 WtCom= 1.00D+00 WtEn= 0.00D+00
 Coeff-Com: -0.101D-05-0.207D-04-0.367D-04 0.316D-04 0.618D-03 0.203D-02
 Coeff-Com: -0.112D-02-0.104D-01-0.302D-01-0.465D-01 0.279D+00 0.807D+00
 Coeff:     -0.101D-05-0.207D-04-0.367D-04 0.316D-04 0.618D-03 0.203D-02
 Coeff:     -0.112D-02-0.104D-01-0.302D-01-0.465D-01 0.279D+00 0.807D+00
 Gap=     0.305 Goal=   None    Shift=    0.000
 RMSDP=7.41D-08 MaxDP=3.48D-06 DE=-1.40D-09 OVMax= 9.16D-06

 Cycle  13  Pass 1  IDiag  1:
 RMSU=  3.18D-08    CP:  6.35D-01  9.65D-01  8.49D-01  9.13D-01  1.33D+00
                    CP:  1.26D+00  1.43D+00  1.19D+00  1.03D+00  1.23D+00
                    CP:  1.45D+00  1.04D+00
 E= -811.214059053013     Delta-E=       -0.000000000379 Rises=F Damp=F
 DIIS: error= 1.89D-07 at cycle  13 NSaved=  13.
 NSaved=13 IEnMin=13 EnMin= -811.214059053013     IErMin=13 ErrMin= 1.89D-07
 ErrMax= 1.89D-07  0.00D+00 EMaxC= 1.00D-01 BMatC= 1.67D-11 BMatP= 1.50D-10
 IDIUse=1 WtCom= 1.00D+00 WtEn= 0.00D+00
 Coeff-Com: -0.171D-06-0.220D-05-0.127D-04-0.374D-04-0.331D-03-0.692D-05
 Coeff-Com:  0.270D-02 0.349D-02-0.560D-02-0.455D-01-0.705D-01 0.102D+00
 Coeff-Com:  0.101D+01
 Coeff:     -0.171D-06-0.220D-05-0.127D-04-0.374D-04-0.331D-03-0.692D-05
 Coeff:      0.270D-02 0.349D-02-0.560D-02-0.455D-01-0.705D-01 0.102D+00
 Coeff:      0.101D+01
 Gap=     0.305 Goal=   None    Shift=    0.000
 RMSDP=3.32D-08 MaxDP=1.21D-06 DE=-3.79D-10 OVMax= 5.38D-06

 Cycle  14  Pass 1  IDiag  1:
 RMSU=  1.09D-08    CP:  6.35D-01  9.65D-01  8.49D-01  9.13D-01  1.33D+00
                    CP:  1.26D+00  1.43D+00  1.19D+00  1.03D+00  1.24D+00
                    CP:  1.52D+00  1.16D+00  1.38D+00
 E= -811.214059053075     Delta-E=       -0.000000000062 Rises=F Damp=F
 DIIS: error= 6.03D-08 at cycle  14 NSaved=  14.
 NSaved=14 IEnMin=14 EnMin= -811.214059053075     IErMin=14 ErrMin= 6.03D-08
 ErrMax= 6.03D-08  0.00D+00 EMaxC= 1.00D-01 BMatC= 3.03D-12 BMatP= 1.67D-11
 IDIUse=1 WtCom= 1.00D+00 WtEn= 0.00D+00
 Coeff-Com:  0.111D-06 0.218D-05 0.224D-05-0.111D-04-0.190D-03-0.253D-03
 Coeff-Com:  0.949D-03 0.224D-02 0.218D-02-0.605D-02-0.530D-01-0.734D-01
 Coeff-Com:  0.344D+00 0.784D+00
 Coeff:      0.111D-06 0.218D-05 0.224D-05-0.111D-04-0.190D-03-0.253D-03
 Coeff:      0.949D-03 0.224D-02 0.218D-02-0.605D-02-0.530D-01-0.734D-01
 Coeff:      0.344D+00 0.784D+00
 Gap=     0.305 Goal=   None    Shift=    0.000
 RMSDP=7.57D-09 MaxDP=2.96D-07 DE=-6.18D-11 OVMax= 1.39D-06

 Error on total polarization charges =  0.04820
 SCF Done:  E(RwB97XD) =  -811.214059053     A.U. after   14 cycles
            NFock= 14  Conv=0.76D-08     -V/T= 2.0043
 KE= 8.077128230455D+02 PE=-3.877463876405D+03 EE= 1.269389600784D+03
 SMD-CDS (non-electrostatic) energy       (kcal/mol) =       8.45
 (included in total energy above)
 Leave Link  502 at Wed Oct 22 09:25:40 2025, MaxMem=  4294967296 cpu:            4844.2 elap:             606.2
 (Enter /lrz/sys/applications/gaussian/g16.C.01/x86_64_legacy/exe/l601.exe)
 Copying SCF densities to generalized density rwf, IOpCl= 0 IROHF=0.

 **********************************************************************

            Population analysis using the SCF Density.

 **********************************************************************

 Orbital symmetries:
       Occupied  (A) (A) (A) (A) (A) (A) (A) (A) (A) (A) (A) (A)
                 (A) (A) (A) (A) (A) (A) (A) (A) (A) (A) (A) (A)
                 (A) (A) (A) (A) (A) (A) (A) (A) (A) (A) (A) (A)
                 (A) (A) (A) (A) (A) (A) (A) (A) (A) (A) (A) (A)
                 (A) (A) (A) (A) (A) (A) (A)
       Virtual   (A) (A) (A) (A) (A) (A) (A) (A) (A) (A) (A) (A)
                 (A) (A) (A) (A) (A) (A) (A) (A) (A) (A) (A) (A)
                 (A) (A) (A) (A) (A) (A) (A) (A) (A) (A) (A) (A)
                 (A) (A) (A) (A) (A) (A) (A) (A) (A) (A) (A) (A)
                 (A) (A) (A) (A) (A) (A) (A) (A) (A) (A) (A) (A)
                 (A) (A) (A) (A) (A) (A) (A) (A) (A) (A) (A) (A)
                 (A) (A) (A) (A) (A) (A) (A) (A) (A) (A) (A) (A)
                 (A) (A) (A) (A) (A) (A) (A) (A) (A) (A) (A) (A)
                 (A) (A) (A) (A) (A) (A) (A) (A) (A) (A) (A) (A)
                 (A) (A) (A) (A) (A) (A) (A) (A) (A) (A) (A) (A)
                 (A) (A) (A) (A) (A) (A) (A) (A) (A) (A) (A) (A)
                 (A) (A) (A) (A) (A) (A) (A) (A) (A) (A) (A) (A)
                 (A) (A) (A) (A) (A) (A) (A) (A) (A) (A) (A) (A)
                 (A) (A) (A) (A) (A) (A) (A) (A) (A) (A) (A) (A)
                 (A) (A) (A) (A) (A) (A) (A) (A) (A) (A) (A) (A)
                 (A) (A) (A) (A) (A) (A) (A) (A) (A) (A) (A) (A)
                 (A) (A) (A) (A) (A) (A) (A) (A) (A) (A) (A) (A)
                 (A) (A) (A) (A) (A) (A) (A) (A) (A) (A) (A) (A)
                 (A) (A) (A) (A) (A) (A) (A) (A) (A) (A) (A) (A)
                 (A) (A) (A) (A) (A) (A) (A) (A) (A) (A) (A) (A)
                 (A) (A) (A) (A) (A) (A) (A) (A) (A) (A) (A) (A)
                 (A) (A) (A) (A) (A) (A) (A) (A) (A) (A) (A) (A)
                 (A) (A) (A) (A) (A) (A) (A) (A) (A) (A) (A) (A)
                 (A) (A) (A) (A) (A) (A) (A) (A) (A) (A) (A) (A)
                 (A) (A) (A) (A) (A) (A) (A) (A) (A) (A) (A) (A)
                 (A) (A) (A) (A) (A) (A) (A) (A) (A) (A) (A) (A)
                 (A) (A) (A) (A) (A) (A) (A) (A) (A) (A) (A) (A)
                 (A) (A) (A) (A) (A) (A) (A) (A) (A) (A) (A) (A)
                 (A) (A) (A) (A) (A) (A) (A) (A) (A) (A) (A) (A)
                 (A) (A) (A) (A) (A) (A) (A) (A) (A) (A) (A) (A)
                 (A) (A) (A) (A) (A) (A) (A) (A) (A) (A) (A) (A)
                 (A) (A) (A) (A) (A) (A) (A) (A) (A) (A) (A) (A)
                 (A) (A) (A) (A) (A) (A) (A) (A) (A) (A) (A) (A)
                 (A) (A) (A) (A) (A) (A) (A) (A) (A) (A) (A) (A)
                 (A) (A) (A) (A) (A) (A) (A) (A) (A) (A) (A) (A)
                 (A) (A) (A) (A) (A) (A) (A) (A) (A) (A) (A) (A)
                 (A) (A) (A) (A) (A) (A) (A) (A) (A) (A) (A) (A)
                 (A) (A) (A) (A) (A) (A) (A) (A)
 The electronic state is 1-A.
 Alpha  occ. eigenvalues --  -19.30287 -19.30280 -19.30261 -19.30242 -19.25778
 Alpha  occ. eigenvalues --  -14.69939 -14.69903 -14.42135 -10.37313 -10.36795
 Alpha  occ. eigenvalues --  -10.36751 -10.33624 -10.33026 -10.32762 -10.32498
 Alpha  occ. eigenvalues --   -1.36672  -1.36633  -1.18633  -1.18594  -1.14450
 Alpha  occ. eigenvalues --   -1.01964  -0.98831  -0.94555  -0.91022  -0.83056
 Alpha  occ. eigenvalues --   -0.81174  -0.77392  -0.70218  -0.69807  -0.67773
 Alpha  occ. eigenvalues --   -0.65750  -0.65467  -0.64332  -0.63779  -0.62955
 Alpha  occ. eigenvalues --   -0.61725  -0.60671  -0.59328  -0.57901  -0.54941
 Alpha  occ. eigenvalues --   -0.51668  -0.49395  -0.48719  -0.47498  -0.44859
 Alpha  occ. eigenvalues --   -0.42958  -0.42380  -0.42323  -0.42090  -0.40804
 Alpha  occ. eigenvalues --   -0.40598  -0.38412  -0.37636  -0.36825  -0.34875
 Alpha virt. eigenvalues --   -0.04344  -0.03447   0.04326   0.07183   0.11915
 Alpha virt. eigenvalues --    0.14412   0.14991   0.15598   0.16192   0.18784
 Alpha virt. eigenvalues --    0.19678   0.20200   0.21061   0.22025   0.23119
 Alpha virt. eigenvalues --    0.23915   0.26851   0.27262   0.28295   0.28613
 Alpha virt. eigenvalues --    0.29173   0.29337   0.31177   0.32166   0.32967
 Alpha virt. eigenvalues --    0.33231   0.33849   0.34083   0.35662   0.36870
 Alpha virt. eigenvalues --    0.37527   0.38265   0.38737   0.39268   0.40042
 Alpha virt. eigenvalues --    0.40490   0.41655   0.42395   0.42618   0.43106
 Alpha virt. eigenvalues --    0.44738   0.45921   0.46144   0.46946   0.47572
 Alpha virt. eigenvalues --    0.48579   0.50404   0.50756   0.51315   0.51791
 Alpha virt. eigenvalues --    0.52269   0.52628   0.53103   0.54340   0.54966
 Alpha virt. eigenvalues --    0.56158   0.57525   0.57901   0.58297   0.59185
 Alpha virt. eigenvalues --    0.59546   0.60851   0.60999   0.61415   0.62243
 Alpha virt. eigenvalues --    0.63020   0.64580   0.65835   0.66655   0.67834
 Alpha virt. eigenvalues --    0.68424   0.69157   0.69670   0.70794   0.71344
 Alpha virt. eigenvalues --    0.72595   0.72822   0.73472   0.73649   0.74629
 Alpha virt. eigenvalues --    0.75797   0.76813   0.77252   0.79230   0.80426
 Alpha virt. eigenvalues --    0.80845   0.81191   0.84378   0.84953   0.86573
 Alpha virt. eigenvalues --    0.87040   0.88928   0.89983   0.90815   0.92084
 Alpha virt. eigenvalues --    0.93413   0.96679   0.98076   1.00421   1.01300
 Alpha virt. eigenvalues --    1.02814   1.04055   1.05137   1.06347   1.07705
 Alpha virt. eigenvalues --    1.09083   1.10433   1.13013   1.14151   1.14755
 Alpha virt. eigenvalues --    1.15831   1.16038   1.17486   1.19221   1.23718
 Alpha virt. eigenvalues --    1.24696   1.26775   1.27557   1.28803   1.31710
 Alpha virt. eigenvalues --    1.32478   1.33616   1.34160   1.36873   1.38988
 Alpha virt. eigenvalues --    1.39718   1.39773   1.41038   1.42051   1.44906
 Alpha virt. eigenvalues --    1.46246   1.47566   1.48334   1.49190   1.49885
 Alpha virt. eigenvalues --    1.50570   1.51908   1.53479   1.54188   1.55664
 Alpha virt. eigenvalues --    1.57624   1.58441   1.59200   1.60271   1.64030
 Alpha virt. eigenvalues --    1.65769   1.67803   1.68665   1.70119   1.71499
 Alpha virt. eigenvalues --    1.72060   1.73933   1.75264   1.76762   1.77583
 Alpha virt. eigenvalues --    1.78735   1.79559   1.81344   1.82874   1.83021
 Alpha virt. eigenvalues --    1.84226   1.85144   1.85231   1.86134   1.88438
 Alpha virt. eigenvalues --    1.92777   1.94091   1.96328   1.97975   1.98642
 Alpha virt. eigenvalues --    1.99518   2.00826   2.01510   2.02027   2.02695
 Alpha virt. eigenvalues --    2.04902   2.05715   2.06007   2.06492   2.09937
 Alpha virt. eigenvalues --    2.10237   2.13108   2.13859   2.14219   2.15341
 Alpha virt. eigenvalues --    2.16266   2.17015   2.18421   2.19956   2.20600
 Alpha virt. eigenvalues --    2.21049   2.21426   2.24669   2.26140   2.27093
 Alpha virt. eigenvalues --    2.28345   2.29613   2.32969   2.33913   2.35652
 Alpha virt. eigenvalues --    2.36501   2.38409   2.40720   2.41713   2.44754
 Alpha virt. eigenvalues --    2.48462   2.52730   2.53642   2.55210   2.55887
 Alpha virt. eigenvalues --    2.57638   2.59077   2.59610   2.60186   2.61641
 Alpha virt. eigenvalues --    2.65653   2.66245   2.68688   2.69796   2.70477
 Alpha virt. eigenvalues --    2.70848   2.71688   2.73621   2.74733   2.76216
 Alpha virt. eigenvalues --    2.77756   2.79717   2.81183   2.82233   2.82706
 Alpha virt. eigenvalues --    2.83089   2.84288   2.86653   2.87617   2.88364
 Alpha virt. eigenvalues --    2.89599   2.90135   2.91105   2.92270   2.94383
 Alpha virt. eigenvalues --    2.95777   2.97860   2.99336   3.00444   3.01883
 Alpha virt. eigenvalues --    3.02496   3.03546   3.04533   3.05621   3.06468
 Alpha virt. eigenvalues --    3.08021   3.10044   3.11051   3.11886   3.14353
 Alpha virt. eigenvalues --    3.15416   3.17092   3.18757   3.19925   3.21023
 Alpha virt. eigenvalues --    3.22365   3.22984   3.25511   3.27140   3.27942
 Alpha virt. eigenvalues --    3.29065   3.29638   3.31721   3.32243   3.33276
 Alpha virt. eigenvalues --    3.33627   3.35508   3.36542   3.38045   3.38936
 Alpha virt. eigenvalues --    3.40939   3.41541   3.44955   3.45790   3.47959
 Alpha virt. eigenvalues --    3.48362   3.48700   3.50753   3.53571   3.55224
 Alpha virt. eigenvalues --    3.56041   3.57947   3.58040   3.58770   3.60727
 Alpha virt. eigenvalues --    3.63266   3.67397   3.73172   3.75313   3.77964
 Alpha virt. eigenvalues --    3.78412   3.80017   3.81347   3.82250   3.86062
 Alpha virt. eigenvalues --    3.88413   3.88683   3.90602   3.92910   3.96885
 Alpha virt. eigenvalues --    3.99207   4.00589   4.05555   4.05751   4.06238
 Alpha virt. eigenvalues --    4.08197   4.09766   4.13076   4.13887   4.14908
 Alpha virt. eigenvalues --    4.16057   4.19704   4.21586   4.23619   4.24937
 Alpha virt. eigenvalues --    4.27075   4.28717   4.31245   4.34824   4.36347
 Alpha virt. eigenvalues --    4.38259   4.39664   4.40981   4.44404   4.49229
 Alpha virt. eigenvalues --    4.53008   4.55509   4.59581   4.60273   4.63382
 Alpha virt. eigenvalues --    4.66328   4.66570   4.69167   4.73193   4.73948
 Alpha virt. eigenvalues --    4.75959   4.77009   4.78026   4.80697   4.81139
 Alpha virt. eigenvalues --    4.83250   4.85972   4.86375   4.88010   4.89753
 Alpha virt. eigenvalues --    4.93275   4.97098   4.97972   5.00644   5.04935
 Alpha virt. eigenvalues --    5.05870   5.08903   5.13502   5.14021   5.14515
 Alpha virt. eigenvalues --    5.16919   5.17909   5.19213   5.19493   5.19814
 Alpha virt. eigenvalues --    5.20736   5.21388   5.21705   5.22669   5.28543
 Alpha virt. eigenvalues --    5.30031   5.30923   5.34141   5.35878   5.36332
 Alpha virt. eigenvalues --    5.38180   5.38816   5.40130   5.43179   5.43377
 Alpha virt. eigenvalues --    5.48700   5.50481   5.53266   5.56293   5.57314
 Alpha virt. eigenvalues --    5.59502   5.60712   5.63372   5.66193   5.70244
 Alpha virt. eigenvalues --    5.70466   5.79531   5.83088   5.85457   5.88807
 Alpha virt. eigenvalues --    5.93599   5.94109   5.98045   6.06972   6.07795
 Alpha virt. eigenvalues --    6.09686   6.31174   6.31372   6.35866   6.35972
 Alpha virt. eigenvalues --    6.42771   6.42931   6.43266   6.49167   6.51264
 Alpha virt. eigenvalues --    6.51345   6.51695   6.53298   6.54612   6.59992
 Alpha virt. eigenvalues --    6.80244   6.83088   6.86113   6.92844   6.92872
 Alpha virt. eigenvalues --    6.93403   6.95700   6.96030   7.02614   7.02940
 Alpha virt. eigenvalues --    7.09949   7.21286   7.22511   7.28947   7.36105
 Alpha virt. eigenvalues --    7.36404   7.51134   7.52090   7.52678   7.58024
 Alpha virt. eigenvalues --    7.60535   7.63144  22.49374  22.78428  22.88169
 Alpha virt. eigenvalues --   22.92806  23.10723  23.11258  23.39823  32.07986
 Alpha virt. eigenvalues --   32.67852  32.71264  44.02667  44.16962  44.21276
 Alpha virt. eigenvalues --   44.23840  44.33134
          Condensed to atoms (all electrons):
               1          2          3          4          5          6
     1  O    8.132334   0.270177  -0.080838  -0.109727   0.023621   0.002079
     2  C    0.270177   4.679197   0.291175   0.312861  -0.013321   0.003361
     3  N   -0.080838   0.291175   6.736804  -0.091311  -0.015061  -0.000151
     4  C   -0.109727   0.312861  -0.091311   5.585350   0.066859   0.099144
     5  C    0.023621  -0.013321  -0.015061   0.066859   5.507794   0.281121
     6  C    0.002079   0.003361  -0.000151   0.099144   0.281121   5.163730
     7  N    0.000056  -0.000273   0.000010   0.002320  -0.059579   0.399355
     8  O   -0.000030  -0.000187   0.000001  -0.004719   0.019147  -0.111368
     9  O    0.000000   0.000000  -0.000000  -0.002212   0.017058  -0.114827
    10  C    0.000788   0.001433  -0.000195  -0.188010   0.056734   0.274677
    11  C   -0.003654   0.014888  -0.012221   0.187851  -0.152391   0.072709
    12  N    0.000003  -0.000150   0.000064   0.002816  -0.001275   0.003193
    13  O   -0.000000  -0.000022   0.000001  -0.002521   0.000895  -0.006898
    14  O   -0.000000  -0.000458  -0.000007  -0.004297   0.000978  -0.002833
    15  C    0.022231  -0.119013   0.065840   0.154421   0.046995  -0.118996
    16  H    0.303682  -0.029120   0.008347   0.015418  -0.005571  -0.000334
    17  H   -0.050469   0.477730  -0.046122  -0.085800   0.029985  -0.001976
    18  H   -0.000352   0.003092   0.351656  -0.029812   0.013009  -0.001397
    19  H    0.001172  -0.031774   0.367722   0.010262  -0.000609   0.000085
    20  H    0.030566  -0.010521  -0.000447  -0.073916   0.420026  -0.028739
    21  H    0.000003   0.000053   0.000002  -0.003310   0.007577  -0.018123
    22  H    0.000768  -0.002406   0.015425  -0.058780   0.015546  -0.004880
               7          8          9         10         11         12
     1  O    0.000056  -0.000030   0.000000   0.000788  -0.003654   0.000003
     2  C   -0.000273  -0.000187   0.000000   0.001433   0.014888  -0.000150
     3  N    0.000010   0.000001  -0.000000  -0.000195  -0.012221   0.000064
     4  C    0.002320  -0.004719  -0.002212  -0.188010   0.187851   0.002816
     5  C   -0.059579   0.019147   0.017058   0.056734  -0.152391  -0.001275
     6  C    0.399355  -0.111368  -0.114827   0.274677   0.072709   0.003193
     7  N    5.431566   0.359499   0.360026  -0.052796   0.001351  -0.000064
     8  O    0.359499   8.211315  -0.121289   0.020878  -0.002982   0.000004
     9  O    0.360026  -0.121289   8.211836   0.027936  -0.006579   0.000086
    10  C   -0.052796   0.020878   0.027936   5.326845   0.294417  -0.057173
    11  C    0.001351  -0.002982  -0.006579   0.294417   5.284417   0.398352
    12  N   -0.000064   0.000004   0.000086  -0.057173   0.398352   5.435309
    13  O    0.000096   0.000000  -0.000038   0.027773  -0.114859   0.359450
    14  O    0.000004  -0.000000   0.000000   0.019555  -0.113586   0.360431
    15  C    0.001076   0.001175   0.000917   0.032018   0.110932  -0.056515
    16  H    0.000017  -0.000005   0.000000  -0.000327   0.000577   0.000000
    17  H    0.000003   0.000001  -0.000000   0.000950  -0.002227  -0.000011
    18  H   -0.000000  -0.000000   0.000000   0.000364  -0.000854  -0.000001
    19  H   -0.000001   0.000000   0.000000  -0.000002   0.000398  -0.000002
    20  H   -0.006671   0.018705   0.000761   0.013841  -0.006200   0.000014
    21  H   -0.007147   0.000733   0.017927   0.379779  -0.016239  -0.007673
    22  H    0.000025   0.000005   0.000004   0.011289  -0.058691  -0.006881
              13         14         15         16         17         18
     1  O   -0.000000  -0.000000   0.022231   0.303682  -0.050469  -0.000352
     2  C   -0.000022  -0.000458  -0.119013  -0.029120   0.477730   0.003092
     3  N    0.000001  -0.000007   0.065840   0.008347  -0.046122   0.351656
     4  C   -0.002521  -0.004297   0.154421   0.015418  -0.085800  -0.029812
     5  C    0.000895   0.000978   0.046995  -0.005571   0.029985   0.013009
     6  C   -0.006898  -0.002833  -0.118996  -0.000334  -0.001976  -0.001397
     7  N    0.000096   0.000004   0.001076   0.000017   0.000003  -0.000000
     8  O    0.000000  -0.000000   0.001175  -0.000005   0.000001  -0.000000
     9  O   -0.000038   0.000000   0.000917   0.000000  -0.000000   0.000000
    10  C    0.027773   0.019555   0.032018  -0.000327   0.000950   0.000364
    11  C   -0.114859  -0.113586   0.110932   0.000577  -0.002227  -0.000854
    12  N    0.359450   0.360431  -0.056515   0.000000  -0.000011  -0.000001
    13  O    8.212059  -0.121284   0.018186  -0.000000   0.000000   0.000000
    14  O   -0.121284   8.209295   0.022795   0.000000   0.000003  -0.000000
    15  C    0.018186   0.022795   5.649143  -0.001428  -0.015129  -0.003122
    16  H   -0.000000   0.000000  -0.001428   0.334440  -0.006155  -0.000428
    17  H    0.000000   0.000003  -0.015129  -0.006155   0.552759   0.007129
    18  H    0.000000  -0.000000  -0.003122  -0.000428   0.007129   0.417541
    19  H    0.000000   0.000000  -0.001036  -0.000057  -0.006557  -0.025592
    20  H    0.000005   0.000005   0.014392  -0.002844   0.002268   0.001032
    21  H    0.017807   0.000727   0.009006  -0.000001   0.000002   0.000002
    22  H    0.000816   0.017681   0.439761  -0.000147   0.001004  -0.000060
              19         20         21         22
     1  O    0.001172   0.030566   0.000003   0.000768
     2  C   -0.031774  -0.010521   0.000053  -0.002406
     3  N    0.367722  -0.000447   0.000002   0.015425
     4  C    0.010262  -0.073916  -0.003310  -0.058780
     5  C   -0.000609   0.420026   0.007577   0.015546
     6  C    0.000085  -0.028739  -0.018123  -0.004880
     7  N   -0.000001  -0.006671  -0.007147   0.000025
     8  O    0.000000   0.018705   0.000733   0.000005
     9  O    0.000000   0.000761   0.017927   0.000004
    10  C   -0.000002   0.013841   0.379779   0.011289
    11  C    0.000398  -0.006200  -0.016239  -0.058691
    12  N   -0.000002   0.000014  -0.007673  -0.006881
    13  O    0.000000   0.000005   0.017807   0.000816
    14  O    0.000000   0.000005   0.000727   0.017681
    15  C   -0.001036   0.014392   0.009006   0.439761
    16  H   -0.000057  -0.002844  -0.000001  -0.000147
    17  H   -0.006557   0.002268   0.000002   0.001004
    18  H   -0.025592   0.001032   0.000002  -0.000060
    19  H    0.415015  -0.000177  -0.000000  -0.000461
    20  H   -0.000177   0.434299   0.000017   0.000252
    21  H   -0.000000   0.000017   0.401051   0.000020
    22  H   -0.000461   0.000252   0.000020   0.433954
 Mulliken charges:
               1
     1  O   -0.542410
     2  C    0.153279
     3  N   -0.590694
     4  C    0.217114
     5  C   -0.259540
     6  C    0.111066
     7  N    0.571125
     8  O   -0.390885
     9  O   -0.391607
    10  C   -0.190774
    11  C    0.124593
    12  N    0.570021
    13  O   -0.391465
    14  O   -0.389008
    15  C   -0.273648
    16  H    0.383938
    17  H    0.142610
    18  H    0.267795
    19  H    0.271614
    20  H    0.193332
    21  H    0.217787
    22  H    0.195756
 Sum of Mulliken charges =  -0.00000
 Mulliken charges with hydrogens summed into heavy atoms:
               1
     1  O   -0.158472
     2  C    0.295889
     3  N   -0.051285
     4  C    0.217114
     5  C   -0.066208
     6  C    0.111066
     7  N    0.571125
     8  O   -0.390885
     9  O   -0.391607
    10  C    0.027014
    11  C    0.124593
    12  N    0.570021
    13  O   -0.391465
    14  O   -0.389008
    15  C   -0.077893
 Electronic spatial extent (au):  <R**2>=           3500.8655
 Charge=             -0.0000 electrons
 Dipole moment (field-independent basis, Debye):
    X=             -5.9795    Y=             -2.1154    Z=             -1.9573  Tot=              6.6377
 Quadrupole moment (field-independent basis, Debye-Ang):
   XX=            -93.9203   YY=           -110.8854   ZZ=            -77.5278
   XY=             10.0929   XZ=              3.6556   YZ=              0.3088
 Traceless Quadrupole moment (field-independent basis, Debye-Ang):
   XX=              0.1909   YY=            -16.7742   ZZ=             16.5834
   XY=             10.0929   XZ=              3.6556   YZ=              0.3088
 Octapole moment (field-independent basis, Debye-Ang**2):
  XXX=            -63.9520  YYY=            -46.0218  ZZZ=             -1.8270  XYY=            -42.5660
  XXY=              3.6456  XXZ=             -9.8562  XZZ=            -14.9775  YZZ=              2.8079
  YYZ=             -9.1917  XYZ=             -0.1535
 Hexadecapole moment (field-independent basis, Debye-Ang**3):
 XXXX=          -2358.5438 YYYY=          -2340.3374 ZZZZ=           -125.6713 XXXY=            157.7066
 XXXZ=             14.6161 YYYX=             41.6580 YYYZ=              3.8263 ZZZX=             10.6444
 ZZZY=              0.4531 XXYY=           -734.4961 XXZZ=           -311.2365 YYZZ=           -333.1803
 XXYZ=            -23.6836 YYXZ=              9.0655 ZZXY=             -3.6575
 N-N= 9.891473935230D+02 E-N=-3.877463869979D+03  KE= 8.077128230455D+02
 No NMR shielding tensors so no spin-rotation constants.
 Leave Link  601 at Wed Oct 22 09:25:40 2025, MaxMem=  4294967296 cpu:               2.7 elap:               0.4
 (Enter /lrz/sys/applications/gaussian/g16.C.01/x86_64_legacy/exe/l9999.exe)
 Unable to Open any file for archive entry.
 1\1\GINC-CM4R15C05S03\SP\RwB97XD\def2TZVP\C7H7N3O5\GO29TIZ2\22-Oct-202
 5\0\\#p wb97xd scrf=(smd,solvent=water) def2tzvp\\g16_g16_C17-a_4\\0,1
 \O,0,-3.577895,-0.17878,-0.460883\C,0,-2.591256,-1.167612,-0.246438\N,
 0,-2.847764,-1.900332,0.955181\C,0,-1.196982,-0.558138,-0.173727\C,0,-
 1.013791,0.819012,-0.097752\C,0,0.277242,1.332393,-0.001659\N,0,0.4566
 02,2.788175,0.079085\O,0,-0.535088,3.485854,0.047548\O,0,1.586696,3.21
 8666,0.173353\C,0,1.404661,0.528597,0.020642\C,0,1.188356,-0.840821,-0
 .060544\N,0,2.355927,-1.732025,-0.046293\O,0,3.454786,-1.228132,0.0536
 89\O,0,2.162155,-2.925917,-0.135329\C,0,-0.08029,-1.396931,-0.155633\H
 ,0,-3.502631,0.144162,-1.368347\H,0,-2.601697,-1.879918,-1.089403\H,0,
 -2.867818,-1.255152,1.745856\H,0,-3.771242,-2.327815,0.894397\H,0,-1.8
 71976,1.489106,-0.115459\H,0,2.406917,0.945563,0.093812\H,0,-0.197764,
 -2.479204,-0.213027\\Version=EM64L-G16RevC.01\State=1-A\HF=-811.214059
 1\RMSD=7.568e-09\Dipole=-2.3525001,-0.832246,-0.7700569\Quadrupole=0.1
 419015,-12.4712247,12.3293231,7.5038503,2.7178199,0.2296103\PG=C01 [X(
 C7H7N3O5)]\\@
 The archive entry for this job was punched.


 THEORY:  SUPPOSITION WHICH HAS SCIENTIFIC BASIS,
          BUT NOT EXPERIMENTALLY PROVEN.
 FACT:    A THEORY WHICH HAS BEEN PROVEN BY ENOUGH 
          MONEY TO PAY FOR THE EXPERIMENTS.

                          --  THE WIZARD OF ID
 Job cpu time:       0 days  1 hours 21 minutes 47.6 seconds.
 Elapsed time:       0 days  0 hours 10 minutes 14.4 seconds.
 File lengths (MBytes):  RWF=    416 Int=      0 D2E=      0 Chk=     20 Scr=     32
 Normal termination of Gaussian 16 at Wed Oct 22 09:25:40 2025.
