 Entering Gaussian System, Link 0=g16
 Input=../../g16_g16_C17-w_17.com
 Output=../../g16_g16_C17-w_17.log
 Initial command:
 /lrz/sys/applications/gaussian/g16.C.01/x86_64_legacy/exe/l1.exe "/dss/lxclscratch/0D/go29tiz2/Gau-223419.inp" -scrdir="/dss/lxclscratch/0D/go29tiz2/"
 Entering Link 1 = /lrz/sys/applications/gaussian/g16.C.01/x86_64_legacy/exe/l1.exe PID=    223420.
  
 Copyright (c) 1988-2019, Gaussian, Inc.  All Rights Reserved.
  
 This is part of the Gaussian(R) 16 program.  It is based on
 the Gaussian(R) 09 system (copyright 2009, Gaussian, Inc.),
 the Gaussian(R) 03 system (copyright 2003, Gaussian, Inc.),
 the Gaussian(R) 98 system (copyright 1998, Gaussian, Inc.),
 the Gaussian(R) 94 system (copyright 1995, Gaussian, Inc.),
 the Gaussian 92(TM) system (copyright 1992, Gaussian, Inc.),
 the Gaussian 90(TM) system (copyright 1990, Gaussian, Inc.),
 the Gaussian 88(TM) system (copyright 1988, Gaussian, Inc.),
 the Gaussian 86(TM) system (copyright 1986, Carnegie Mellon
 University), and the Gaussian 82(TM) system (copyright 1983,
 Carnegie Mellon University). Gaussian is a federally registered
 trademark of Gaussian, Inc.
  
 This software contains proprietary and confidential information,
 including trade secrets, belonging to Gaussian, Inc.
  
 This software is provided under written license and may be
 used, copied, transmitted, or stored only in accord with that
 written license.
  
 The following legend is applicable only to US Government
 contracts under FAR:
  
                    RESTRICTED RIGHTS LEGEND
  
 Use, reproduction and disclosure by the US Government is
 subject to restrictions as set forth in subparagraphs (a)
 and (c) of the Commercial Computer Software - Restricted
 Rights clause in FAR 52.227-19.
  
 Gaussian, Inc.
 340 Quinnipiac St., Bldg. 40, Wallingford CT 06492
  
  
 ---------------------------------------------------------------
 Warning -- This program may not be used in any manner that
 competes with the business of Gaussian, Inc. or will provide
 assistance to any competitor of Gaussian, Inc.  The licensee
 of this program is prohibited from giving any competitor of
 Gaussian, Inc. access to this program.  By using this program,
 the user acknowledges that Gaussian, Inc. is engaged in the
 business of creating and licensing software in the field of
 computational chemistry and represents and warrants to the
 licensee that it is not a competitor of Gaussian, Inc. and that
 it will not use this program in any manner prohibited above.
 ---------------------------------------------------------------
  

 Cite this work as:
 Gaussian 16, Revision C.01,
 M. J. Frisch, G. W. Trucks, H. B. Schlegel, G. E. Scuseria, 
 M. A. Robb, J. R. Cheeseman, G. Scalmani, V. Barone, 
 G. A. Petersson, H. Nakatsuji, X. Li, M. Caricato, A. V. Marenich, 
 J. Bloino, B. G. Janesko, R. Gomperts, B. Mennucci, H. P. Hratchian, 
 J. V. Ortiz, A. F. Izmaylov, J. L. Sonnenberg, D. Williams-Young, 
 F. Ding, F. Lipparini, F. Egidi, J. Goings, B. Peng, A. Petrone, 
 T. Henderson, D. Ranasinghe, V. G. Zakrzewski, J. Gao, N. Rega, 
 G. Zheng, W. Liang, M. Hada, M. Ehara, K. Toyota, R. Fukuda, 
 J. Hasegawa, M. Ishida, T. Nakajima, Y. Honda, O. Kitao, H. Nakai, 
 T. Vreven, K. Throssell, J. A. Montgomery, Jr., J. E. Peralta, 
 F. Ogliaro, M. J. Bearpark, J. J. Heyd, E. N. Brothers, K. N. Kudin, 
 V. N. Staroverov, T. A. Keith, R. Kobayashi, J. Normand, 
 K. Raghavachari, A. P. Rendell, J. C. Burant, S. S. Iyengar, 
 J. Tomasi, M. Cossi, J. M. Millam, M. Klene, C. Adamo, R. Cammi, 
 J. W. Ochterski, R. L. Martin, K. Morokuma, O. Farkas, 
 J. B. Foresman, and D. J. Fox, Gaussian, Inc., Wallingford CT, 2019.
 
 ******************************************
 Gaussian 16:  EM64L-G16RevC.01  3-Jul-2019
                22-Oct-2025 
 ******************************************
 %chk=g16_g16_C17-w_17.chk
 %nprocshared=8
 Will use up to    8 processors via shared memory.
 %mem=32GB
 -------------------------------------------
 #p wb97xd scrf=(smd,solvent=water) def2tzvp
 -------------------------------------------
 1/38=1,172=1/1;
 2/12=2,17=6,18=5,40=1/2;
 3/5=44,7=101,11=2,25=1,30=1,70=32201,72=1,74=-58/1,2,3;
 4//1;
 5/5=2,38=5,53=1/2;
 6/7=2,8=2,9=2,10=2,28=1/1;
 99/5=1,9=1/99;
 Leave Link    1 at Wed Oct 22 09:21:50 2025, MaxMem=  4294967296 cpu:               4.4 elap:               0.6
 (Enter /lrz/sys/applications/gaussian/g16.C.01/x86_64_legacy/exe/l101.exe)
 ----------------
 g16_g16_C17-w_17
 ----------------
 Symbolic Z-matrix:
 Charge =  0 Multiplicity = 1
 O                    -2.05151  -0.96116  -0.10399 
 C                    -1.09297  -0.01131   0.29344 
 O                    -1.32162   1.23611  -0.31439 
 C                     0.26819  -0.51741  -0.1372 
 C                     1.4275    0.37098   0.29874 
 C                     2.78149  -0.17449  -0.13623 
 H                    -2.88728  -0.74041   0.32499 
 H                    -1.12917   0.1091    1.39325 
 H                    -2.04791   1.66944   0.14974 
 H                     0.39361  -1.53108   0.27552 
 H                     0.25513  -0.618    -1.23667 
 H                     1.28335   1.38225  -0.11394 
 H                     1.40653   0.48019   1.39682 
 H                     2.96422  -1.17405   0.28993 
 H                     3.60255   0.48286   0.18768 
 H                     2.8387   -0.26645  -1.23277 
 
 ITRead=  0  0  0  0  0  0  0  0  0  0  0  0  0  0  0  0
 MicOpt= -1 -1 -1 -1 -1 -1 -1 -1 -1 -1 -1 -1 -1 -1 -1 -1
 NAtoms=     16 NQM=       16 NQMF=       0 NMMI=      0 NMMIF=      0
                NMic=       0 NMicF=      0.
                    Isotopes and Nuclear Properties:
 (Nuclear quadrupole moments (NQMom) in fm**2, nuclear magnetic moments (NMagM)
  in nuclear magnetons)

  Atom         1           2           3           4           5           6           7           8           9          10
 IAtWgt=          16          12          16          12          12          12           1           1           1           1
 AtmWgt=  15.9949146  12.0000000  15.9949146  12.0000000  12.0000000  12.0000000   1.0078250   1.0078250   1.0078250   1.0078250
 NucSpn=           0           0           0           0           0           0           1           1           1           1
 AtZEff=  -0.0000000  -0.0000000  -0.0000000  -0.0000000  -0.0000000  -0.0000000  -0.0000000  -0.0000000  -0.0000000  -0.0000000
 NQMom=    0.0000000   0.0000000   0.0000000   0.0000000   0.0000000   0.0000000   0.0000000   0.0000000   0.0000000   0.0000000
 NMagM=    0.0000000   0.0000000   0.0000000   0.0000000   0.0000000   0.0000000   2.7928460   2.7928460   2.7928460   2.7928460
 AtZNuc=   8.0000000   6.0000000   8.0000000   6.0000000   6.0000000   6.0000000   1.0000000   1.0000000   1.0000000   1.0000000

  Atom        11          12          13          14          15          16
 IAtWgt=           1           1           1           1           1           1
 AtmWgt=   1.0078250   1.0078250   1.0078250   1.0078250   1.0078250   1.0078250
 NucSpn=           1           1           1           1           1           1
 AtZEff=  -0.0000000  -0.0000000  -0.0000000  -0.0000000  -0.0000000  -0.0000000
 NQMom=    0.0000000   0.0000000   0.0000000   0.0000000   0.0000000   0.0000000
 NMagM=    2.7928460   2.7928460   2.7928460   2.7928460   2.7928460   2.7928460
 AtZNuc=   1.0000000   1.0000000   1.0000000   1.0000000   1.0000000   1.0000000
 Leave Link  101 at Wed Oct 22 09:21:51 2025, MaxMem=  4294967296 cpu:               1.2 elap:               0.2
 (Enter /lrz/sys/applications/gaussian/g16.C.01/x86_64_legacy/exe/l202.exe)
                          Input orientation:                          
 ---------------------------------------------------------------------
 Center     Atomic      Atomic             Coordinates (Angstroms)
 Number     Number       Type             X           Y           Z
 ---------------------------------------------------------------------
      1          8           0       -2.051506   -0.961164   -0.103991
      2          6           0       -1.092969   -0.011306    0.293443
      3          8           0       -1.321619    1.236110   -0.314390
      4          6           0        0.268190   -0.517414   -0.137200
      5          6           0        1.427501    0.370975    0.298741
      6          6           0        2.781492   -0.174491   -0.136232
      7          1           0       -2.887276   -0.740414    0.324986
      8          1           0       -1.129166    0.109100    1.393246
      9          1           0       -2.047906    1.669441    0.149744
     10          1           0        0.393608   -1.531080    0.275517
     11          1           0        0.255127   -0.618001   -1.236672
     12          1           0        1.283353    1.382252   -0.113944
     13          1           0        1.406527    0.480190    1.396817
     14          1           0        2.964217   -1.174047    0.289928
     15          1           0        3.602548    0.482864    0.187676
     16          1           0        2.838695   -0.266450   -1.232767
 ---------------------------------------------------------------------
                    Distance matrix (angstroms):
                    1          2          3          4          5
     1  O    0.000000
     2  C    1.406761   0.000000
     3  O    2.324869   1.406339   0.000000
     4  C    2.361992   1.514712   2.373549   0.000000
     5  C    3.747036   2.549301   2.946532   1.524231   0.000000
     6  C    4.896709   3.901628   4.342471   2.536589   1.523163
     7  H    0.965020   1.937042   2.601294   3.196922   4.455690
     8  H    2.058615   1.106966   2.055045   2.165038   2.793397
     9  H    2.642816   1.938418   0.964722   3.198276   3.713040
    10  H    2.539176   2.126016   3.308676   1.101628   2.165014
    11  H    2.592544   2.127603   2.602779   1.104141   2.170260
    12  H    4.075903   2.784757   2.616757   2.154026   1.101712
    13  H    4.035829   2.776055   3.307934   2.155048   1.103693
    14  H    5.035670   4.220514   4.954033   2.807520   2.179144
    15  H    5.842826   4.722634   5.006683   3.496290   2.180753
    16  H    5.066639   4.225210   4.517667   2.805485   2.177911
                    6          7          8          9         10
     6  C    0.000000
     7  H    5.715586   0.000000
     8  H    4.208678   2.225714   0.000000
     9  H    5.177350   2.557861   2.196598   0.000000
    10  H    2.777024   3.375174   2.501669   4.027424   0.000000
    11  H    2.791091   3.511190   3.059642   3.529660   1.771893
    12  H    2.160640   4.700268   3.116534   3.353997   3.070966
    13  H    2.160874   4.590799   2.562706   3.860391   2.515656
    14  H    1.101868   5.867643   4.429397   5.764239   2.595325
    15  H    1.100529   6.605534   4.897164   5.773823   3.789589
    16  H    1.101870   5.952981   4.772934   5.434876   3.138895
                   11         12         13         14         15
    11  H    0.000000
    12  H    2.513718   0.000000
    13  H    3.076851   1.763884   0.000000
    14  H    3.158934   3.085949   2.527469   0.000000
    15  H    3.800776   2.505701   2.506898   1.778560   0.000000
    16  H    2.607379   2.527661   3.085983   1.777101   1.778370
                   16
    16  H    0.000000
 Stoichiometry    C4H10O2
 Framework group  C1[X(C4H10O2)]
 Deg. of freedom    42
 Full point group                 C1      NOp   1
 Largest Abelian subgroup         C1      NOp   1
 Largest concise Abelian subgroup C1      NOp   1
                         Standard orientation:                         
 ---------------------------------------------------------------------
 Center     Atomic      Atomic             Coordinates (Angstroms)
 Number     Number       Type             X           Y           Z
 ---------------------------------------------------------------------
      1          8           0       -2.051506   -0.961164   -0.103991
      2          6           0       -1.092969   -0.011306    0.293443
      3          8           0       -1.321619    1.236110   -0.314390
      4          6           0        0.268190   -0.517414   -0.137200
      5          6           0        1.427501    0.370975    0.298741
      6          6           0        2.781492   -0.174491   -0.136232
      7          1           0       -2.887276   -0.740414    0.324986
      8          1           0       -1.129166    0.109100    1.393246
      9          1           0       -2.047906    1.669441    0.149744
     10          1           0        0.393608   -1.531080    0.275517
     11          1           0        0.255127   -0.618001   -1.236672
     12          1           0        1.283353    1.382252   -0.113944
     13          1           0        1.406527    0.480190    1.396817
     14          1           0        2.964217   -1.174047    0.289928
     15          1           0        3.602548    0.482864    0.187676
     16          1           0        2.838695   -0.266450   -1.232767
 ---------------------------------------------------------------------
 Rotational constants (GHZ):           7.6591919           1.7626280           1.5333469
 Leave Link  202 at Wed Oct 22 09:21:51 2025, MaxMem=  4294967296 cpu:               0.0 elap:               0.0
 (Enter /lrz/sys/applications/gaussian/g16.C.01/x86_64_legacy/exe/l301.exe)
 Standard basis: def2TZVP (5D, 7F)
 Ernie: Thresh=  0.10000D-02 Tol=  0.10000D-05 Strict=F.
 There are   276 symmetry adapted cartesian basis functions of A   symmetry.
 There are   246 symmetry adapted basis functions of A   symmetry.
   246 basis functions,   386 primitive gaussians,   276 cartesian basis functions
    25 alpha electrons       25 beta electrons
       nuclear repulsion energy       256.7467275679 Hartrees.
 IExCor= 4639 DFT=T Ex+Corr=wB97XD ExCW=0 ScaHFX=  1.000000
 ScaDFX=  1.000000  1.000000  1.000000  1.000000 ScalE2=  1.000000  1.000000
 IRadAn=      5 IRanWt=     -1 IRanGd=            0 ICorTp=0 IEmpDi=121
 HFx  wShort=  0.000000 wLong=  0.200000 cFull=  0.222036 cShort=  0.000000 cLong=  0.777964
 DFx  wShort=  0.000000 wLong=  0.200000 cFull=  0.000000 cShort=  0.000000 cLong=  1.000000
 NAtoms=   16 NActive=   16 NUniq=   16 SFac= 1.00D+00 NAtFMM=   60 NAOKFM=F Big=F
 Integral buffers will be    131072 words long.
 Raffenetti 2 integral format.
 Two-electron integral symmetry is turned on.
 R6Disp:  Grimme-D2 Dispersion energy=       -0.0077434021 Hartrees.
 Nuclear repulsion after empirical dispersion term =      256.7389841658 Hartrees.
 ------------------------------------------------------------------------------
 Polarizable Continuum Model (PCM)
 =================================
 Model                : PCM.
 Atomic radii         : SMD-Coulomb.
 Polarization charges : Total charges.
 Charge compensation  : None.
 Solution method      : On-the-fly selection.
 Cavity type          : VdW (van der Waals Surface) (Alpha=1.000).
 Cavity algorithm     : GePol (No added spheres)
                        Default sphere list used, NSphG=   16.
                        Lebedev-Laikov grids with approx.  5.0 points / Ang**2.
                        Smoothing algorithm: York/Karplus (Gamma=1.0000).
                        Polarization charges: spherical gaussians, with
                                              point-specific exponents (IZeta= 3).
                        Self-potential: point-specific (ISelfS= 7).
                        Self-field    : sphere-specific E.n sum rule (ISelfD= 2).
 Solvent              : Water, Eps=  78.355300 Eps(inf)=   1.777849
 ------------------------------------------------------------------------------
 Spheres list:
 ISph  on   Nord     Re0    Alpha      Xe            Ye            Ze
    1   O      1    1.5200  1.000     -2.051506     -0.961164     -0.103991
    2   C      2    1.8500  1.000     -1.092969     -0.011306      0.293443
    3   O      3    1.5200  1.000     -1.321619      1.236110     -0.314390
    4   C      4    1.8500  1.000      0.268190     -0.517414     -0.137200
    5   C      5    1.8500  1.000      1.427501      0.370975      0.298741
    6   C      6    1.8500  1.000      2.781492     -0.174491     -0.136232
    7   H      7    1.2000  1.000     -2.887276     -0.740414      0.324986
    8   H      8    1.2000  1.000     -1.129166      0.109100      1.393246
    9   H      9    1.2000  1.000     -2.047906      1.669441      0.149744
   10   H     10    1.2000  1.000      0.393608     -1.531080      0.275517
   11   H     11    1.2000  1.000      0.255127     -0.618001     -1.236672
   12   H     12    1.2000  1.000      1.283353      1.382252     -0.113944
   13   H     13    1.2000  1.000      1.406527      0.480190      1.396817
   14   H     14    1.2000  1.000      2.964217     -1.174047      0.289928
   15   H     15    1.2000  1.000      3.602548      0.482864      0.187676
   16   H     16    1.2000  1.000      2.838695     -0.266450     -1.232767
 ------------------------------------------------------------------------------
 GePol: Number of generator spheres                  =      16
 GePol: Total number of spheres                      =      16
 GePol: Number of exposed spheres                    =      16 (100.00%)
 GePol: Number of points                             =    1086
 GePol: Average weight of points                     =       0.12
 GePol: Minimum weight of points                     =   0.17D-07
 GePol: Maximum weight of points                     =    0.21991
 GePol: Number of points with low weight             =      53
 GePol: Fraction of low-weight points (<1% of avg)   =       4.88%
 GePol: Cavity surface area                          =    131.732 Ang**2
 GePol: Cavity volume                                =     99.924 Ang**3
 ------------------------------------------------------------------------------
 Atomic radii for non-electrostatic terms: SMD-CDS.
 ------------------------------------------------------------------------------
 PCM non-electrostatic energy =         0.0052486327 Hartrees.
 Nuclear repulsion after PCM non-electrostatic terms =      256.7442327985 Hartrees.
 Leave Link  301 at Wed Oct 22 09:21:51 2025, MaxMem=  4294967296 cpu:               0.6 elap:               0.1
 (Enter /lrz/sys/applications/gaussian/g16.C.01/x86_64_legacy/exe/l302.exe)
 NPDir=0 NMtPBC=     1 NCelOv=     1 NCel=       1 NClECP=     1 NCelD=      1
         NCelK=      1 NCelE2=     1 NClLst=     1 CellRange=     0.0.
 One-electron integrals computed using PRISM.
 One-electron integral symmetry used in STVInt
   1 Symmetry operations used in ECPInt.
 ECPInt:  NShTT=    5671 NPrTT=   16452 LenC2=    5547 LenP2D=   13185.
 LDataN:  DoStor=T MaxTD1= 6 Len=  172
 NBasis=   246 RedAO= T EigKep=  1.91D-04  NBF=   246
 NBsUse=   246 1.00D-06 EigRej= -1.00D+00 NBFU=   246
 Precomputing XC quadrature grid using
 IXCGrd= 4 IRadAn=           5 IRanWt=          -1 IRanGd=           0 AccXCQ= 0.00D+00.
 Generated NRdTot=       0 NPtTot=           0 NUsed=           0 NTot=          32
 NSgBfM=   275   275   275   275   275 MxSgAt=    16 MxSgA2=    16.
 Leave Link  302 at Wed Oct 22 09:21:51 2025, MaxMem=  4294967296 cpu:               2.3 elap:               0.3
 (Enter /lrz/sys/applications/gaussian/g16.C.01/x86_64_legacy/exe/l303.exe)
 DipDrv:  MaxL=1.
 Leave Link  303 at Wed Oct 22 09:21:51 2025, MaxMem=  4294967296 cpu:               0.3 elap:               0.1
 (Enter /lrz/sys/applications/gaussian/g16.C.01/x86_64_legacy/exe/l401.exe)
 ExpMin= 9.52D-02 ExpMax= 2.70D+04 ExpMxC= 9.22D+02 IAcc=3 IRadAn=         5 AccDes= 0.00D+00
 Harris functional with IExCor= 4639 and IRadAn=       5 diagonalized for initial guess.
 HarFok:  IExCor= 4639 AccDes= 0.00D+00 IRadAn=         5 IDoV= 1 UseB2=F ITyADJ=14
 ICtDFT=  3500011 ScaDFX=  1.000000  1.000000  1.000000  1.000000
 FoFCou: FMM=F IPFlag=           0 FMFlag=      100000 FMFlg1=           0
         NFxFlg=           0 DoJE=T BraDBF=F KetDBF=T FulRan=T
         wScrn=  0.000000 ICntrl=       500 IOpCl=  0 I1Cent=   200000004 NGrid=           0
         NMat0=    1 NMatS0=      1 NMatT0=    0 NMatD0=    1 NMtDS0=    0 NMtDT0=    0
 Petite list used in FoFCou.
 Harris En= -295.781491486340    
 JPrj=0 DoOrth=F DoCkMO=F.
 Leave Link  401 at Wed Oct 22 09:21:53 2025, MaxMem=  4294967296 cpu:              15.5 elap:               1.9
 (Enter /lrz/sys/applications/gaussian/g16.C.01/x86_64_legacy/exe/l502.exe)
 Integral symmetry usage will be decided dynamically.
 Closed shell SCF:
 Using DIIS extrapolation, IDIIS=  1040.
 NGot=  4294967296 LenX=  4294809698 LenY=  4294733081
 Requested convergence on RMS density matrix=1.00D-08 within 128 cycles.
 Requested convergence on MAX density matrix=1.00D-06.
 Requested convergence on             energy=1.00D-06.
 No special actions if energy rises.
 Fock matrices will be formed incrementally for  20 cycles.

 Cycle   1  Pass 1  IDiag  1:
 FoFJK:  IHMeth= 1 ICntrl=       0 DoSepK=T KAlg= 0 I1Cent=           0 FoldK=F
 IRaf=         1 NMat=       1 IRICut=       1 DoRegI=T DoRafI=F ISym2E= 0 IDoP0=0 IntGTp=1.
 FoFCou: FMM=F IPFlag=           0 FMFlag=      100000 FMFlg1=           0
         NFxFlg=           0 DoJE=T BraDBF=F KetDBF=F FulRan=T
         wScrn=  0.000000 ICntrl=       500 IOpCl=  0 I1Cent=           0 NGrid=           0
         NMat0=    1 NMatS0=      1 NMatT0=    0 NMatD0=    1 NMtDS0=    0 NMtDT0=    0
 Symmetry not used in FoFCou.
 Inv3:  Mode=1 IEnd=     3538188.
 Iteration    1 A*A^-1 deviation from unit magnitude is 5.33D-15 for    297.
 Iteration    1 A*A^-1 deviation from orthogonality  is 4.09D-15 for    968    435.
 Iteration    1 A^-1*A deviation from unit magnitude is 5.11D-15 for    297.
 Iteration    1 A^-1*A deviation from orthogonality  is 5.52D-13 for   1023    997.
 E= -308.855363768171    
 DIIS: error= 3.72D-02 at cycle   1 NSaved=   1.
 NSaved= 1 IEnMin= 1 EnMin= -308.855363768171     IErMin= 1 ErrMin= 3.72D-02
 ErrMax= 3.72D-02  0.00D+00 EMaxC= 1.00D-01 BMatC= 6.49D-01 BMatP= 6.49D-01
 IDIUse=3 WtCom= 6.28D-01 WtEn= 3.72D-01
 Coeff-Com:  0.100D+01
 Coeff-En:   0.100D+01
 Coeff:      0.100D+01
 Gap=     0.560 Goal=   None    Shift=    0.000
 GapD=    0.560 DampG=2.000 DampE=0.500 DampFc=1.0000 IDamp=-1.
 RMSDP=2.15D-03 MaxDP=1.14D-01              OVMax= 6.49D-02

 Cycle   2  Pass 1  IDiag  1:
 RMSU=  2.04D-03    CP:  9.36D-01
 E= -308.911038656767     Delta-E=       -0.055674888597 Rises=F Damp=F
 DIIS: error= 1.11D-02 at cycle   2 NSaved=   2.
 NSaved= 2 IEnMin= 2 EnMin= -308.911038656767     IErMin= 2 ErrMin= 1.11D-02
 ErrMax= 1.11D-02  0.00D+00 EMaxC= 1.00D-01 BMatC= 4.64D-02 BMatP= 6.49D-01
 IDIUse=3 WtCom= 8.89D-01 WtEn= 1.11D-01
 Coeff-Com:  0.146D+00 0.854D+00
 Coeff-En:   0.710D-01 0.929D+00
 Coeff:      0.138D+00 0.862D+00
 Gap=     0.545 Goal=   None    Shift=    0.000
 RMSDP=8.09D-04 MaxDP=2.63D-02 DE=-5.57D-02 OVMax= 4.53D-02

 Cycle   3  Pass 1  IDiag  1:
 RMSU=  6.21D-04    CP:  9.48D-01  7.53D-01
 E= -308.927020288635     Delta-E=       -0.015981631867 Rises=F Damp=F
 DIIS: error= 9.00D-03 at cycle   3 NSaved=   3.
 NSaved= 3 IEnMin= 3 EnMin= -308.927020288635     IErMin= 3 ErrMin= 9.00D-03
 ErrMax= 9.00D-03  0.00D+00 EMaxC= 1.00D-01 BMatC= 2.31D-02 BMatP= 4.64D-02
 IDIUse=3 WtCom= 9.10D-01 WtEn= 9.00D-02
 Coeff-Com:  0.233D-01 0.422D+00 0.555D+00
 Coeff-En:   0.000D+00 0.320D+00 0.680D+00
 Coeff:      0.212D-01 0.412D+00 0.566D+00
 Gap=     0.505 Goal=   None    Shift=    0.000
 RMSDP=4.45D-04 MaxDP=2.27D-02 DE=-1.60D-02 OVMax= 2.14D-02

 Cycle   4  Pass 1  IDiag  1:
 RMSU=  1.43D-04    CP:  9.37D-01  9.28D-01  6.85D-01
 E= -308.942608735545     Delta-E=       -0.015588446910 Rises=F Damp=F
 DIIS: error= 8.65D-04 at cycle   4 NSaved=   4.
 NSaved= 4 IEnMin= 4 EnMin= -308.942608735545     IErMin= 4 ErrMin= 8.65D-04
 ErrMax= 8.65D-04  0.00D+00 EMaxC= 1.00D-01 BMatC= 2.30D-04 BMatP= 2.31D-02
 IDIUse=3 WtCom= 9.91D-01 WtEn= 8.65D-03
 Coeff-Com:  0.797D-02 0.150D+00 0.228D+00 0.614D+00
 Coeff-En:   0.000D+00 0.000D+00 0.000D+00 0.100D+01
 Coeff:      0.790D-02 0.149D+00 0.226D+00 0.617D+00
 Gap=     0.500 Goal=   None    Shift=    0.000
 RMSDP=4.11D-05 MaxDP=1.38D-03 DE=-1.56D-02 OVMax= 2.18D-03

 Cycle   5  Pass 1  IDiag  1:
 RMSU=  3.55D-05    CP:  9.37D-01  9.34D-01  7.11D-01  9.83D-01
 E= -308.942764390513     Delta-E=       -0.000155654968 Rises=F Damp=F
 DIIS: error= 1.29D-04 at cycle   5 NSaved=   5.
 NSaved= 5 IEnMin= 5 EnMin= -308.942764390513     IErMin= 5 ErrMin= 1.29D-04
 ErrMax= 1.29D-04  0.00D+00 EMaxC= 1.00D-01 BMatC= 9.11D-06 BMatP= 2.30D-04
 IDIUse=3 WtCom= 9.99D-01 WtEn= 1.29D-03
 Coeff-Com: -0.191D-02-0.305D-01-0.304D-01 0.120D+00 0.943D+00
 Coeff-En:   0.000D+00 0.000D+00 0.000D+00 0.000D+00 0.100D+01
 Coeff:     -0.191D-02-0.305D-01-0.304D-01 0.120D+00 0.943D+00
 Gap=     0.500 Goal=   None    Shift=    0.000
 RMSDP=3.61D-05 MaxDP=1.47D-03 DE=-1.56D-04 OVMax= 7.80D-04

 Cycle   6  Pass 1  IDiag  1:
 RMSU=  1.06D-05    CP:  9.36D-01  9.44D-01  7.36D-01  1.13D+00  1.23D+00
 E= -308.942776305103     Delta-E=       -0.000011914590 Rises=F Damp=F
 DIIS: error= 2.12D-05 at cycle   6 NSaved=   6.
 NSaved= 6 IEnMin= 6 EnMin= -308.942776305103     IErMin= 6 ErrMin= 2.12D-05
 ErrMax= 2.12D-05  0.00D+00 EMaxC= 1.00D-01 BMatC= 2.04D-07 BMatP= 9.11D-06
 IDIUse=1 WtCom= 1.00D+00 WtEn= 0.00D+00
 Coeff-Com: -0.438D-03-0.795D-02-0.107D-01-0.101D-01 0.604D-01 0.969D+00
 Coeff:     -0.438D-03-0.795D-02-0.107D-01-0.101D-01 0.604D-01 0.969D+00
 Gap=     0.500 Goal=   None    Shift=    0.000
 RMSDP=9.19D-06 MaxDP=3.22D-04 DE=-1.19D-05 OVMax= 2.26D-04

 Cycle   7  Pass 1  IDiag  1:
 RMSU=  2.66D-06    CP:  9.36D-01  9.46D-01  7.41D-01  1.16D+00  1.35D+00
                    CP:  1.30D+00
 E= -308.942776700478     Delta-E=       -0.000000395375 Rises=F Damp=F
 DIIS: error= 8.77D-06 at cycle   7 NSaved=   7.
 NSaved= 7 IEnMin= 7 EnMin= -308.942776700478     IErMin= 7 ErrMin= 8.77D-06
 ErrMax= 8.77D-06  0.00D+00 EMaxC= 1.00D-01 BMatC= 3.49D-08 BMatP= 2.04D-07
 IDIUse=1 WtCom= 1.00D+00 WtEn= 0.00D+00
 Coeff-Com:  0.117D-04-0.144D-03-0.840D-03-0.950D-02-0.488D-01 0.258D+00
 Coeff-Com:  0.801D+00
 Coeff:      0.117D-04-0.144D-03-0.840D-03-0.950D-02-0.488D-01 0.258D+00
 Coeff:      0.801D+00
 Gap=     0.500 Goal=   None    Shift=    0.000
 RMSDP=2.36D-06 MaxDP=1.01D-04 DE=-3.95D-07 OVMax= 5.58D-05

 Cycle   8  Pass 1  IDiag  1:
 RMSU=  7.43D-07    CP:  9.36D-01  9.46D-01  7.42D-01  1.17D+00  1.38D+00
                    CP:  1.44D+00  1.24D+00
 E= -308.942776744557     Delta-E=       -0.000000044079 Rises=F Damp=F
 DIIS: error= 2.38D-06 at cycle   8 NSaved=   8.
 NSaved= 8 IEnMin= 8 EnMin= -308.942776744557     IErMin= 8 ErrMin= 2.38D-06
 ErrMax= 2.38D-06  0.00D+00 EMaxC= 1.00D-01 BMatC= 3.59D-09 BMatP= 3.49D-08
 IDIUse=1 WtCom= 1.00D+00 WtEn= 0.00D+00
 Coeff-Com:  0.414D-04 0.714D-03 0.840D-03-0.130D-02-0.191D-01-0.264D-01
 Coeff-Com:  0.218D+00 0.827D+00
 Coeff:      0.414D-04 0.714D-03 0.840D-03-0.130D-02-0.191D-01-0.264D-01
 Coeff:      0.218D+00 0.827D+00
 Gap=     0.500 Goal=   None    Shift=    0.000
 RMSDP=8.51D-07 MaxDP=4.24D-05 DE=-4.41D-08 OVMax= 2.29D-05

 Cycle   9  Pass 1  IDiag  1:
 RMSU=  2.08D-07    CP:  9.36D-01  9.46D-01  7.42D-01  1.17D+00  1.39D+00
                    CP:  1.49D+00  1.40D+00  1.16D+00
 E= -308.942776749309     Delta-E=       -0.000000004752 Rises=F Damp=F
 DIIS: error= 9.67D-07 at cycle   9 NSaved=   9.
 NSaved= 9 IEnMin= 9 EnMin= -308.942776749309     IErMin= 9 ErrMin= 9.67D-07
 ErrMax= 9.67D-07  0.00D+00 EMaxC= 1.00D-01 BMatC= 3.41D-10 BMatP= 3.59D-09
 IDIUse=1 WtCom= 1.00D+00 WtEn= 0.00D+00
 Coeff-Com:  0.871D-05 0.188D-03 0.293D-03 0.511D-03-0.539D-03-0.286D-01
 Coeff-Com: -0.140D-01 0.211D+00 0.831D+00
 Coeff:      0.871D-05 0.188D-03 0.293D-03 0.511D-03-0.539D-03-0.286D-01
 Coeff:     -0.140D-01 0.211D+00 0.831D+00
 Gap=     0.500 Goal=   None    Shift=    0.000
 RMSDP=2.99D-07 MaxDP=1.68D-05 DE=-4.75D-09 OVMax= 8.01D-06

 Cycle  10  Pass 1  IDiag  1:
 RMSU=  8.01D-08    CP:  9.36D-01  9.46D-01  7.42D-01  1.17D+00  1.39D+00
                    CP:  1.50D+00  1.46D+00  1.29D+00  1.16D+00
 E= -308.942776749664     Delta-E=       -0.000000000355 Rises=F Damp=F
 DIIS: error= 5.44D-07 at cycle  10 NSaved=  10.
 NSaved=10 IEnMin=10 EnMin= -308.942776749664     IErMin=10 ErrMin= 5.44D-07
 ErrMax= 5.44D-07  0.00D+00 EMaxC= 1.00D-01 BMatC= 1.04D-10 BMatP= 3.41D-10
 IDIUse=1 WtCom= 1.00D+00 WtEn= 0.00D+00
 Coeff-Com: -0.192D-05-0.164D-04 0.188D-04 0.486D-03 0.278D-02-0.109D-01
 Coeff-Com: -0.425D-01-0.212D-01 0.413D+00 0.658D+00
 Coeff:     -0.192D-05-0.164D-04 0.188D-04 0.486D-03 0.278D-02-0.109D-01
 Coeff:     -0.425D-01-0.212D-01 0.413D+00 0.658D+00
 Gap=     0.500 Goal=   None    Shift=    0.000
 RMSDP=9.98D-08 MaxDP=6.44D-06 DE=-3.55D-10 OVMax= 3.04D-06

 Cycle  11  Pass 1  IDiag  1:
 RMSU=  2.91D-08    CP:  9.36D-01  9.46D-01  7.42D-01  1.17D+00  1.39D+00
                    CP:  1.51D+00  1.48D+00  1.34D+00  1.32D+00  1.04D+00
 E= -308.942776749750     Delta-E=       -0.000000000086 Rises=F Damp=F
 DIIS: error= 5.44D-08 at cycle  11 NSaved=  11.
 NSaved=11 IEnMin=11 EnMin= -308.942776749750     IErMin=11 ErrMin= 5.44D-08
 ErrMax= 5.44D-08  0.00D+00 EMaxC= 1.00D-01 BMatC= 1.18D-12 BMatP= 1.04D-10
 IDIUse=1 WtCom= 1.00D+00 WtEn= 0.00D+00
 Coeff-Com: -0.111D-06-0.716D-05-0.159D-04-0.416D-04-0.182D-03 0.217D-02
 Coeff-Com:  0.337D-02-0.110D-01-0.731D-01-0.297D-01 0.111D+01
 Coeff:     -0.111D-06-0.716D-05-0.159D-04-0.416D-04-0.182D-03 0.217D-02
 Coeff:      0.337D-02-0.110D-01-0.731D-01-0.297D-01 0.111D+01
 Gap=     0.500 Goal=   None    Shift=    0.000
 RMSDP=3.04D-08 MaxDP=2.18D-06 DE=-8.58D-11 OVMax= 8.57D-07

 Cycle  12  Pass 1  IDiag  1:
 RMSU=  6.44D-09    CP:  9.36D-01  9.46D-01  7.42D-01  1.17D+00  1.39D+00
                    CP:  1.51D+00  1.48D+00  1.35D+00  1.38D+00  1.20D+00
                    CP:  1.33D+00
 E= -308.942776749754     Delta-E=       -0.000000000004 Rises=F Damp=F
 DIIS: error= 1.59D-08 at cycle  12 NSaved=  12.
 NSaved=12 IEnMin=12 EnMin= -308.942776749754     IErMin=12 ErrMin= 1.59D-08
 ErrMax= 1.59D-08  0.00D+00 EMaxC= 1.00D-01 BMatC= 1.27D-13 BMatP= 1.18D-12
 IDIUse=1 WtCom= 1.00D+00 WtEn= 0.00D+00
 Coeff-Com:  0.102D-06 0.231D-06-0.360D-05-0.363D-04-0.223D-03 0.113D-02
 Coeff-Com:  0.336D-02-0.104D-02-0.410D-01-0.424D-01 0.300D+00 0.780D+00
 Coeff:      0.102D-06 0.231D-06-0.360D-05-0.363D-04-0.223D-03 0.113D-02
 Coeff:      0.336D-02-0.104D-02-0.410D-01-0.424D-01 0.300D+00 0.780D+00
 Gap=     0.500 Goal=   None    Shift=    0.000
 RMSDP=4.23D-09 MaxDP=2.61D-07 DE=-4.21D-12 OVMax= 1.52D-07

 Error on total polarization charges =  0.04726
 SCF Done:  E(RwB97XD) =  -308.942776750     A.U. after   12 cycles
            NFock= 12  Conv=0.42D-08     -V/T= 2.0052
 KE= 3.073431972614D+02 PE=-1.236522830644D+03 EE= 3.634926238347D+02
 SMD-CDS (non-electrostatic) energy       (kcal/mol) =       3.29
 (included in total energy above)
 Leave Link  502 at Wed Oct 22 09:23:18 2025, MaxMem=  4294967296 cpu:             680.0 elap:              85.2
 (Enter /lrz/sys/applications/gaussian/g16.C.01/x86_64_legacy/exe/l601.exe)
 Copying SCF densities to generalized density rwf, IOpCl= 0 IROHF=0.

 **********************************************************************

            Population analysis using the SCF Density.

 **********************************************************************

 Orbital symmetries:
       Occupied  (A) (A) (A) (A) (A) (A) (A) (A) (A) (A) (A) (A)
                 (A) (A) (A) (A) (A) (A) (A) (A) (A) (A) (A) (A)
                 (A)
       Virtual   (A) (A) (A) (A) (A) (A) (A) (A) (A) (A) (A) (A)
                 (A) (A) (A) (A) (A) (A) (A) (A) (A) (A) (A) (A)
                 (A) (A) (A) (A) (A) (A) (A) (A) (A) (A) (A) (A)
                 (A) (A) (A) (A) (A) (A) (A) (A) (A) (A) (A) (A)
                 (A) (A) (A) (A) (A) (A) (A) (A) (A) (A) (A) (A)
                 (A) (A) (A) (A) (A) (A) (A) (A) (A) (A) (A) (A)
                 (A) (A) (A) (A) (A) (A) (A) (A) (A) (A) (A) (A)
                 (A) (A) (A) (A) (A) (A) (A) (A) (A) (A) (A) (A)
                 (A) (A) (A) (A) (A) (A) (A) (A) (A) (A) (A) (A)
                 (A) (A) (A) (A) (A) (A) (A) (A) (A) (A) (A) (A)
                 (A) (A) (A) (A) (A) (A) (A) (A) (A) (A) (A) (A)
                 (A) (A) (A) (A) (A) (A) (A) (A) (A) (A) (A) (A)
                 (A) (A) (A) (A) (A) (A) (A) (A) (A) (A) (A) (A)
                 (A) (A) (A) (A) (A) (A) (A) (A) (A) (A) (A) (A)
                 (A) (A) (A) (A) (A) (A) (A) (A) (A) (A) (A) (A)
                 (A) (A) (A) (A) (A) (A) (A) (A) (A) (A) (A) (A)
                 (A) (A) (A) (A) (A) (A) (A) (A) (A) (A) (A) (A)
                 (A) (A) (A) (A) (A) (A) (A) (A) (A) (A) (A) (A)
                 (A) (A) (A) (A) (A)
 The electronic state is 1-A.
 Alpha  occ. eigenvalues --  -19.25489 -19.25462 -10.37672 -10.27263 -10.27172
 Alpha  occ. eigenvalues --  -10.26442  -1.16661  -1.09930  -0.88856  -0.81086
 Alpha  occ. eigenvalues --   -0.71490  -0.66769  -0.62527  -0.61159  -0.54261
 Alpha  occ. eigenvalues --   -0.53336  -0.48906  -0.47297  -0.46121  -0.45201
 Alpha  occ. eigenvalues --   -0.41517  -0.40984  -0.39920  -0.38327  -0.38217
 Alpha virt. eigenvalues --    0.11744   0.13003   0.15918   0.16569   0.17042
 Alpha virt. eigenvalues --    0.18232   0.20587   0.20827   0.22153   0.23185
 Alpha virt. eigenvalues --    0.23741   0.26777   0.27800   0.29612   0.31054
 Alpha virt. eigenvalues --    0.31879   0.33304   0.33657   0.35913   0.37981
 Alpha virt. eigenvalues --    0.38713   0.41868   0.43930   0.44549   0.45844
 Alpha virt. eigenvalues --    0.47928   0.48669   0.50152   0.50217   0.50768
 Alpha virt. eigenvalues --    0.52411   0.54523   0.54912   0.55052   0.56444
 Alpha virt. eigenvalues --    0.58006   0.59523   0.60502   0.61229   0.62294
 Alpha virt. eigenvalues --    0.65178   0.66331   0.68701   0.70333   0.71339
 Alpha virt. eigenvalues --    0.76226   0.78832   0.84131   0.87363   0.89909
 Alpha virt. eigenvalues --    0.91140   0.91270   0.92882   0.95959   0.97464
 Alpha virt. eigenvalues --    1.00374   1.04307   1.06102   1.09840   1.12573
 Alpha virt. eigenvalues --    1.15066   1.19190   1.20948   1.21984   1.24270
 Alpha virt. eigenvalues --    1.27918   1.30419   1.32713   1.36808   1.38719
 Alpha virt. eigenvalues --    1.48390   1.52123   1.58234   1.60631   1.61477
 Alpha virt. eigenvalues --    1.62504   1.64359   1.66201   1.66775   1.69187
 Alpha virt. eigenvalues --    1.69337   1.71335   1.73426   1.75844   1.77022
 Alpha virt. eigenvalues --    1.82685   1.83570   1.86745   1.90077   1.91135
 Alpha virt. eigenvalues --    1.92782   1.96263   1.99343   2.01575   2.01869
 Alpha virt. eigenvalues --    2.04495   2.05721   2.08253   2.08906   2.17277
 Alpha virt. eigenvalues --    2.21189   2.22201   2.24518   2.26739   2.28809
 Alpha virt. eigenvalues --    2.29632   2.34025   2.37875   2.39264   2.40843
 Alpha virt. eigenvalues --    2.41985   2.43310   2.46815   2.50375   2.52024
 Alpha virt. eigenvalues --    2.52871   2.55144   2.59440   2.60628   2.64051
 Alpha virt. eigenvalues --    2.64512   2.66318   2.69287   2.72561   2.73240
 Alpha virt. eigenvalues --    2.74348   2.75550   2.77982   2.80129   2.82760
 Alpha virt. eigenvalues --    2.83216   2.84252   2.88731   2.90584   2.96338
 Alpha virt. eigenvalues --    3.01042   3.02796   3.06940   3.09210   3.10197
 Alpha virt. eigenvalues --    3.12639   3.18523   3.20879   3.24877   3.26334
 Alpha virt. eigenvalues --    3.27496   3.31964   3.32955   3.35885   3.37552
 Alpha virt. eigenvalues --    3.37900   3.43011   3.44293   3.45914   3.46321
 Alpha virt. eigenvalues --    3.49450   3.51909   3.53925   3.56436   3.59202
 Alpha virt. eigenvalues --    3.61425   3.65861   3.66919   3.73074   3.77993
 Alpha virt. eigenvalues --    3.81732   3.83084   3.92433   3.94836   3.98070
 Alpha virt. eigenvalues --    3.98724   3.99669   4.02412   4.09767   4.12144
 Alpha virt. eigenvalues --    4.19052   4.22418   4.28228   4.35955   4.44773
 Alpha virt. eigenvalues --    4.48828   4.56874   4.57987   4.63629   4.67203
 Alpha virt. eigenvalues --    4.71715   4.73303   4.82123   4.82808   5.03898
 Alpha virt. eigenvalues --    5.11871   5.28101   5.37599   5.42741   5.44392
 Alpha virt. eigenvalues --    5.52309   5.52462   5.68012   5.78509   5.93272
 Alpha virt. eigenvalues --    5.95585   6.00000   6.21272   6.36120   6.38110
 Alpha virt. eigenvalues --    6.51491   6.60660   6.75128   6.76446   6.84741
 Alpha virt. eigenvalues --    6.99437   7.06227   7.08379   7.28311   7.29409
 Alpha virt. eigenvalues --   22.39290  22.50663  22.59020  22.72752  43.91901
 Alpha virt. eigenvalues --   43.96200
          Condensed to atoms (all electrons):
               1          2          3          4          5          6
     1  O    8.113180   0.337664  -0.076846  -0.095295   0.007309  -0.000384
     2  C    0.337664   4.599102   0.311196   0.210310  -0.015717   0.004877
     3  O   -0.076846   0.311196   8.136279  -0.086191  -0.000563  -0.000327
     4  C   -0.095295   0.210310  -0.086191   5.290444   0.234535  -0.026518
     5  C    0.007309  -0.015717  -0.000563   0.234535   5.033089   0.285952
     6  C   -0.000384   0.004877  -0.000327  -0.026518   0.285952   4.953271
     7  H    0.307575  -0.039055   0.002735   0.016764  -0.001195   0.000055
     8  H   -0.059912   0.506263  -0.064733  -0.087893  -0.000016  -0.000616
     9  H    0.002661  -0.038150   0.308339   0.016076  -0.000774   0.000094
    10  H    0.007010  -0.028527   0.005291   0.398715  -0.022352  -0.004771
    11  H    0.002845   0.003537   0.000091   0.366737  -0.024249  -0.006820
    12  H    0.000358  -0.010481   0.012706  -0.037333   0.412885  -0.027418
    13  H   -0.000206   0.004317  -0.000478  -0.044854   0.410745  -0.030505
    14  H   -0.000021  -0.000574  -0.000033  -0.004451  -0.036100   0.413158
    15  H    0.000004  -0.000310   0.000021   0.009638  -0.043015   0.417847
    16  H    0.000002   0.000047   0.000091  -0.005137  -0.037882   0.413547
               7          8          9         10         11         12
     1  O    0.307575  -0.059912   0.002661   0.007010   0.002845   0.000358
     2  C   -0.039055   0.506263  -0.038150  -0.028527   0.003537  -0.010481
     3  O    0.002735  -0.064733   0.308339   0.005291   0.000091   0.012706
     4  C    0.016764  -0.087893   0.016076   0.398715   0.366737  -0.037333
     5  C   -0.001195  -0.000016  -0.000774  -0.022352  -0.024249   0.412885
     6  C    0.000055  -0.000616   0.000094  -0.004771  -0.006820  -0.027418
     7  H    0.342717  -0.008261   0.002557  -0.000461  -0.000628  -0.000028
     8  H   -0.008261   0.606576  -0.009502  -0.004351   0.008824   0.000492
     9  H    0.002557  -0.009502   0.339970  -0.000515  -0.000597  -0.000663
    10  H   -0.000461  -0.004351  -0.000515   0.552044  -0.025369   0.006328
    11  H   -0.000628   0.008824  -0.000597  -0.025369   0.560884  -0.004027
    12  H   -0.000028   0.000492  -0.000663   0.006328  -0.004027   0.576236
    13  H   -0.000004   0.004122  -0.000148  -0.004839   0.006841  -0.031039
    14  H    0.000001   0.000091   0.000001   0.002348   0.000146   0.006281
    15  H   -0.000001   0.000004  -0.000004   0.000018  -0.000048  -0.004154
    16  H    0.000001  -0.000030  -0.000000   0.000169   0.002840  -0.005053
              13         14         15         16
     1  O   -0.000206  -0.000021   0.000004   0.000002
     2  C    0.004317  -0.000574  -0.000310   0.000047
     3  O   -0.000478  -0.000033   0.000021   0.000091
     4  C   -0.044854  -0.004451   0.009638  -0.005137
     5  C    0.410745  -0.036100  -0.043015  -0.037882
     6  C   -0.030505   0.413158   0.417847   0.413547
     7  H   -0.000004   0.000001  -0.000001   0.000001
     8  H    0.004122   0.000091   0.000004  -0.000030
     9  H   -0.000148   0.000001  -0.000004  -0.000000
    10  H   -0.004839   0.002348   0.000018   0.000169
    11  H    0.006841   0.000146  -0.000048   0.002840
    12  H   -0.031039   0.006281  -0.004154  -0.005053
    13  H    0.585118  -0.005691  -0.004076   0.006713
    14  H   -0.005691   0.552666  -0.022960  -0.028789
    15  H   -0.004076  -0.022960   0.534284  -0.022630
    16  H    0.006713  -0.028789  -0.022630   0.551725
 Mulliken charges:
               1
     1  O   -0.545947
     2  C    0.155498
     3  O   -0.547575
     4  C   -0.155548
     5  C   -0.202653
     6  C   -0.391441
     7  H    0.377228
     8  H    0.108942
     9  H    0.380653
    10  H    0.119262
    11  H    0.108993
    12  H    0.104911
    13  H    0.103983
    14  H    0.123928
    15  H    0.135379
    16  H    0.124385
 Sum of Mulliken charges =  -0.00000
 Mulliken charges with hydrogens summed into heavy atoms:
               1
     1  O   -0.168719
     2  C    0.264441
     3  O   -0.166922
     4  C    0.072708
     5  C    0.006241
     6  C   -0.007749
 Electronic spatial extent (au):  <R**2>=            805.0710
 Charge=              0.0000 electrons
 Dipole moment (field-independent basis, Debye):
    X=             -1.5569    Y=              1.0050    Z=              3.1593  Tot=              3.6626
 Quadrupole moment (field-independent basis, Debye-Ang):
   XX=            -29.4107   YY=            -40.4198   ZZ=            -38.3489
   XY=             -4.1898   XZ=             -5.9677   YZ=              0.9576
 Traceless Quadrupole moment (field-independent basis, Debye-Ang):
   XX=              6.6491   YY=             -4.3600   ZZ=             -2.2891
   XY=             -4.1898   XZ=             -5.9677   YZ=              0.9576
 Octapole moment (field-independent basis, Debye-Ang**2):
  XXX=            -54.2418  YYY=              7.5047  ZZZ=              1.6978  XYY=             -6.2793
  XXY=             11.0670  XXZ=             14.2826  XZZ=             -4.5046  YZZ=             -0.0143
  YYZ=              4.1162  XYZ=             -1.3048
 Hexadecapole moment (field-independent basis, Debye-Ang**3):
 XXXX=           -665.7698 YYYY=           -172.4764 ZZZZ=            -77.8137 XXXY=             -6.9625
 XXXZ=            -27.7199 YYYX=            -20.7185 YYYZ=              0.1073 ZZZX=             -5.2765
 ZZZY=              0.7539 XXYY=           -146.3774 XXZZ=           -143.8724 YYZZ=            -45.0971
 XXYZ=             -0.8176 YYXZ=             -5.1658 ZZXY=             -0.0305
 N-N= 2.567442327985D+02 E-N=-1.236522836407D+03  KE= 3.073431972614D+02
 No NMR shielding tensors so no spin-rotation constants.
 Leave Link  601 at Wed Oct 22 09:23:18 2025, MaxMem=  4294967296 cpu:               1.2 elap:               0.2
 (Enter /lrz/sys/applications/gaussian/g16.C.01/x86_64_legacy/exe/l9999.exe)
 Unable to Open any file for archive entry.
 1\1\GINC-CM4R15C05S03\SP\RwB97XD\def2TZVP\C4H10O2\GO29TIZ2\22-Oct-2025
 \0\\#p wb97xd scrf=(smd,solvent=water) def2tzvp\\g16_g16_C17-w_17\\0,1
 \O,0,-2.051506,-0.961164,-0.103991\C,0,-1.092969,-0.011306,0.293443\O,
 0,-1.321619,1.23611,-0.31439\C,0,0.26819,-0.517414,-0.1372\C,0,1.42750
 1,0.370975,0.298741\C,0,2.781492,-0.174491,-0.136232\H,0,-2.887276,-0.
 740414,0.324986\H,0,-1.129166,0.1091,1.393246\H,0,-2.047906,1.669441,0
 .149744\H,0,0.393608,-1.53108,0.275517\H,0,0.255127,-0.618001,-1.23667
 2\H,0,1.283353,1.382252,-0.113944\H,0,1.406527,0.48019,1.396817\H,0,2.
 964217,-1.174047,0.289928\H,0,3.602548,0.482864,0.187676\H,0,2.838695,
 -0.26645,-1.232767\\Version=EM64L-G16RevC.01\State=1-A\HF=-308.9427767
 \RMSD=4.230e-09\Dipole=-0.6125171,0.3953933,1.2429614\Quadrupole=4.943
 4309,-3.2415242,-1.7019067,-3.1150271,-4.436816,0.7119642\PG=C01 [X(C4
 H10O2)]\\@
 The archive entry for this job was punched.


 IF YOU'RE NOT PART OF THE SOLUTION,
 THEN YOU'RE PART OF THE PRECIPITATE.
 Job cpu time:       0 days  0 hours 11 minutes 46.1 seconds.
 Elapsed time:       0 days  0 hours  1 minutes 28.7 seconds.
 File lengths (MBytes):  RWF=    288 Int=      0 D2E=      0 Chk=     12 Scr=     32
 Normal termination of Gaussian 16 at Wed Oct 22 09:23:18 2025.
