 Entering Gaussian System, Link 0=g16
 Input=../../g16_g16_C17-a_58.com
 Output=../../g16_g16_C17-a_58.log
 Initial command:
 /lrz/sys/applications/gaussian/g16.C.01/x86_64_legacy/exe/l1.exe "/dss/lxclscratch/0D/go29tiz2/Gau-7057.inp" -scrdir="/dss/lxclscratch/0D/go29tiz2/"
 Entering Link 1 = /lrz/sys/applications/gaussian/g16.C.01/x86_64_legacy/exe/l1.exe PID=      7058.
  
 Copyright (c) 1988-2019, Gaussian, Inc.  All Rights Reserved.
  
 This is part of the Gaussian(R) 16 program.  It is based on
 the Gaussian(R) 09 system (copyright 2009, Gaussian, Inc.),
 the Gaussian(R) 03 system (copyright 2003, Gaussian, Inc.),
 the Gaussian(R) 98 system (copyright 1998, Gaussian, Inc.),
 the Gaussian(R) 94 system (copyright 1995, Gaussian, Inc.),
 the Gaussian 92(TM) system (copyright 1992, Gaussian, Inc.),
 the Gaussian 90(TM) system (copyright 1990, Gaussian, Inc.),
 the Gaussian 88(TM) system (copyright 1988, Gaussian, Inc.),
 the Gaussian 86(TM) system (copyright 1986, Carnegie Mellon
 University), and the Gaussian 82(TM) system (copyright 1983,
 Carnegie Mellon University). Gaussian is a federally registered
 trademark of Gaussian, Inc.
  
 This software contains proprietary and confidential information,
 including trade secrets, belonging to Gaussian, Inc.
  
 This software is provided under written license and may be
 used, copied, transmitted, or stored only in accord with that
 written license.
  
 The following legend is applicable only to US Government
 contracts under FAR:
  
                    RESTRICTED RIGHTS LEGEND
  
 Use, reproduction and disclosure by the US Government is
 subject to restrictions as set forth in subparagraphs (a)
 and (c) of the Commercial Computer Software - Restricted
 Rights clause in FAR 52.227-19.
  
 Gaussian, Inc.
 340 Quinnipiac St., Bldg. 40, Wallingford CT 06492
  
  
 ---------------------------------------------------------------
 Warning -- This program may not be used in any manner that
 competes with the business of Gaussian, Inc. or will provide
 assistance to any competitor of Gaussian, Inc.  The licensee
 of this program is prohibited from giving any competitor of
 Gaussian, Inc. access to this program.  By using this program,
 the user acknowledges that Gaussian, Inc. is engaged in the
 business of creating and licensing software in the field of
 computational chemistry and represents and warrants to the
 licensee that it is not a competitor of Gaussian, Inc. and that
 it will not use this program in any manner prohibited above.
 ---------------------------------------------------------------
  

 Cite this work as:
 Gaussian 16, Revision C.01,
 M. J. Frisch, G. W. Trucks, H. B. Schlegel, G. E. Scuseria, 
 M. A. Robb, J. R. Cheeseman, G. Scalmani, V. Barone, 
 G. A. Petersson, H. Nakatsuji, X. Li, M. Caricato, A. V. Marenich, 
 J. Bloino, B. G. Janesko, R. Gomperts, B. Mennucci, H. P. Hratchian, 
 J. V. Ortiz, A. F. Izmaylov, J. L. Sonnenberg, D. Williams-Young, 
 F. Ding, F. Lipparini, F. Egidi, J. Goings, B. Peng, A. Petrone, 
 T. Henderson, D. Ranasinghe, V. G. Zakrzewski, J. Gao, N. Rega, 
 G. Zheng, W. Liang, M. Hada, M. Ehara, K. Toyota, R. Fukuda, 
 J. Hasegawa, M. Ishida, T. Nakajima, Y. Honda, O. Kitao, H. Nakai, 
 T. Vreven, K. Throssell, J. A. Montgomery, Jr., J. E. Peralta, 
 F. Ogliaro, M. J. Bearpark, J. J. Heyd, E. N. Brothers, K. N. Kudin, 
 V. N. Staroverov, T. A. Keith, R. Kobayashi, J. Normand, 
 K. Raghavachari, A. P. Rendell, J. C. Burant, S. S. Iyengar, 
 J. Tomasi, M. Cossi, J. M. Millam, M. Klene, C. Adamo, R. Cammi, 
 J. W. Ochterski, R. L. Martin, K. Morokuma, O. Farkas, 
 J. B. Foresman, and D. J. Fox, Gaussian, Inc., Wallingford CT, 2019.
 
 ******************************************
 Gaussian 16:  EM64L-G16RevC.01  3-Jul-2019
                22-Oct-2025 
 ******************************************
 %chk=g16_g16_C17-a_58.chk
 %nprocshared=8
 Will use up to    8 processors via shared memory.
 %mem=32GB
 -------------------------------------------
 #p wb97xd scrf=(smd,solvent=water) def2tzvp
 -------------------------------------------
 1/38=1,172=1/1;
 2/12=2,17=6,18=5,40=1/2;
 3/5=44,7=101,11=2,25=1,30=1,70=32201,72=1,74=-58/1,2,3;
 4//1;
 5/5=2,38=5,53=1/2;
 6/7=2,8=2,9=2,10=2,28=1/1;
 99/5=1,9=1/99;
 Leave Link    1 at Wed Oct 22 13:43:26 2025, MaxMem=  4294967296 cpu:               4.9 elap:               0.7
 (Enter /lrz/sys/applications/gaussian/g16.C.01/x86_64_legacy/exe/l101.exe)
 ----------------
 g16_g16_C17-a_58
 ----------------
 Symbolic Z-matrix:
 Charge =  0 Multiplicity = 1
 O                    -1.10311   1.34803  -0.31505 
 C                    -1.1278   -0.06658  -0.31173 
 N                    -1.47123  -0.56843   1.00725 
 C                     0.14559  -0.66396  -0.92963 
 C                     1.40211  -0.7001   -0.05598 
 C                     1.90571   0.65111   0.44561 
 H                    -0.34531   1.64201   0.20307 
 H                    -1.96388  -0.32853  -0.97812 
 H                    -0.64455  -0.53749   1.60649 
 H                    -1.70559  -1.55787   0.92558 
 H                     0.35333  -0.11177  -1.86185 
 H                    -0.09311  -1.69823  -1.22838 
 H                     2.1995   -1.18129  -0.64494 
 H                     1.23064  -1.36671   0.80665 
 H                     1.24404   1.08227   1.21548 
 H                     2.89727   0.55042   0.91252 
 H                     1.9975    1.3792   -0.37646 
 
 ITRead=  0  0  0  0  0  0  0  0  0  0  0  0  0  0  0  0  0
 MicOpt= -1 -1 -1 -1 -1 -1 -1 -1 -1 -1 -1 -1 -1 -1 -1 -1 -1
 NAtoms=     17 NQM=       17 NQMF=       0 NMMI=      0 NMMIF=      0
                NMic=       0 NMicF=      0.
                    Isotopes and Nuclear Properties:
 (Nuclear quadrupole moments (NQMom) in fm**2, nuclear magnetic moments (NMagM)
  in nuclear magnetons)

  Atom         1           2           3           4           5           6           7           8           9          10
 IAtWgt=          16          12          14          12          12          12           1           1           1           1
 AtmWgt=  15.9949146  12.0000000  14.0030740  12.0000000  12.0000000  12.0000000   1.0078250   1.0078250   1.0078250   1.0078250
 NucSpn=           0           0           2           0           0           0           1           1           1           1
 AtZEff=  -0.0000000  -0.0000000  -0.0000000  -0.0000000  -0.0000000  -0.0000000  -0.0000000  -0.0000000  -0.0000000  -0.0000000
 NQMom=    0.0000000   0.0000000   2.0440000   0.0000000   0.0000000   0.0000000   0.0000000   0.0000000   0.0000000   0.0000000
 NMagM=    0.0000000   0.0000000   0.4037610   0.0000000   0.0000000   0.0000000   2.7928460   2.7928460   2.7928460   2.7928460
 AtZNuc=   8.0000000   6.0000000   7.0000000   6.0000000   6.0000000   6.0000000   1.0000000   1.0000000   1.0000000   1.0000000

  Atom        11          12          13          14          15          16          17
 IAtWgt=           1           1           1           1           1           1           1
 AtmWgt=   1.0078250   1.0078250   1.0078250   1.0078250   1.0078250   1.0078250   1.0078250
 NucSpn=           1           1           1           1           1           1           1
 AtZEff=  -0.0000000  -0.0000000  -0.0000000  -0.0000000  -0.0000000  -0.0000000  -0.0000000
 NQMom=    0.0000000   0.0000000   0.0000000   0.0000000   0.0000000   0.0000000   0.0000000
 NMagM=    2.7928460   2.7928460   2.7928460   2.7928460   2.7928460   2.7928460   2.7928460
 AtZNuc=   1.0000000   1.0000000   1.0000000   1.0000000   1.0000000   1.0000000   1.0000000
 Leave Link  101 at Wed Oct 22 13:43:26 2025, MaxMem=  4294967296 cpu:               0.7 elap:               0.1
 (Enter /lrz/sys/applications/gaussian/g16.C.01/x86_64_legacy/exe/l202.exe)
                          Input orientation:                          
 ---------------------------------------------------------------------
 Center     Atomic      Atomic             Coordinates (Angstroms)
 Number     Number       Type             X           Y           Z
 ---------------------------------------------------------------------
      1          8           0       -1.103108    1.348025   -0.315053
      2          6           0       -1.127801   -0.066582   -0.311730
      3          7           0       -1.471234   -0.568433    1.007246
      4          6           0        0.145589   -0.663962   -0.929627
      5          6           0        1.402114   -0.700097   -0.055982
      6          6           0        1.905709    0.651112    0.445614
      7          1           0       -0.345306    1.642005    0.203067
      8          1           0       -1.963881   -0.328529   -0.978121
      9          1           0       -0.644552   -0.537490    1.606493
     10          1           0       -1.705586   -1.557865    0.925580
     11          1           0        0.353326   -0.111769   -1.861852
     12          1           0       -0.093109   -1.698226   -1.228376
     13          1           0        2.199496   -1.181290   -0.644939
     14          1           0        1.230639   -1.366709    0.806652
     15          1           0        1.244035    1.082269    1.215484
     16          1           0        2.897272    0.550415    0.912520
     17          1           0        1.997501    1.379195   -0.376455
 ---------------------------------------------------------------------
                    Distance matrix (angstroms):
                    1          2          3          4          5
     1  O    0.000000
     2  C    1.414826   0.000000
     3  N    2.357287   1.452411   0.000000
     4  C    2.446434   1.536288   2.524821   0.000000
     5  C    3.246238   2.620538   3.066581   1.530822   0.000000
     6  C    3.180767   3.207934   3.634070   2.592051   1.526752
     7  H    0.963917   1.948482   2.607768   2.615618   2.933603
     8  H    1.997855   1.100783   2.059596   2.136523   3.509747
     9  H    2.730894   2.033436   1.021498   2.659365   2.641800
    10  H    3.216574   2.022053   1.020081   2.769062   3.370019
    11  H    2.577748   2.144448   3.430639   1.103229   2.169620
    12  H    3.336750   2.138478   2.858962   1.102692   2.146267
    13  H    4.172943   3.524841   4.071802   2.137103   1.101923
    14  H    3.751583   2.916050   2.824465   2.164683   1.103591
    15  H    2.814649   3.045956   3.184473   2.976140   2.195095
    16  H    4.259831   4.252139   4.510503   3.527035   2.176528
    17  H    3.101374   3.444122   4.211889   2.812484   2.186468
                    6          7          8          9         10
     6  C    0.000000
     7  H    2.471390   0.000000
     8  H    4.237976   2.810337   0.000000
     9  H    3.043722   2.609473   2.909385   0.000000
    10  H    4.260446   3.551275   2.280803   1.621913   0.000000
    11  H    2.883796   2.797803   2.489461   3.634063   3.755009
    12  H    3.509545   3.642770   2.332056   3.112536   2.694311
    13  H    2.152513   3.894371   4.262853   3.684024   4.225873
    14  H    2.158163   3.449678   3.803707   2.200839   2.944843
    15  H    1.102909   1.965782   4.134366   2.518585   3.969208
    16  H    1.100608   3.494167   5.289412   3.769569   5.062738
    17  H    1.101966   2.427686   4.355556   3.819189   4.902496
                   11         12         13         14         15
    11  H    0.000000
    12  H    1.765628   0.000000
    13  H    2.456236   2.421499   0.000000
    14  H    3.076600   2.450215   1.755044   0.000000
    15  H    3.418931   3.935932   3.081847   2.482905   0.000000
    16  H    3.821948   4.310708   2.431331   2.542487   1.762909
    17  H    2.670710   3.816666   2.582435   3.086715   1.786098
                   16         17
    16  H    0.000000
    17  H    1.777054   0.000000
 Stoichiometry    C4H11NO
 Framework group  C1[X(C4H11NO)]
 Deg. of freedom    45
 Full point group                 C1      NOp   1
 Largest Abelian subgroup         C1      NOp   1
 Largest concise Abelian subgroup C1      NOp   1
                         Standard orientation:                         
 ---------------------------------------------------------------------
 Center     Atomic      Atomic             Coordinates (Angstroms)
 Number     Number       Type             X           Y           Z
 ---------------------------------------------------------------------
      1          8           0       -1.103108    1.348025   -0.315053
      2          6           0       -1.127801   -0.066582   -0.311730
      3          7           0       -1.471234   -0.568433    1.007246
      4          6           0        0.145589   -0.663962   -0.929627
      5          6           0        1.402114   -0.700097   -0.055982
      6          6           0        1.905709    0.651112    0.445614
      7          1           0       -0.345306    1.642005    0.203067
      8          1           0       -1.963881   -0.328530   -0.978121
      9          1           0       -0.644552   -0.537490    1.606493
     10          1           0       -1.705586   -1.557865    0.925580
     11          1           0        0.353326   -0.111769   -1.861852
     12          1           0       -0.093109   -1.698226   -1.228376
     13          1           0        2.199496   -1.181289   -0.644939
     14          1           0        1.230639   -1.366709    0.806652
     15          1           0        1.244035    1.082269    1.215484
     16          1           0        2.897272    0.550416    0.912520
     17          1           0        1.997501    1.379196   -0.376455
 ---------------------------------------------------------------------
 Rotational constants (GHZ):           4.6979233           2.4899745           2.2433881
 Leave Link  202 at Wed Oct 22 13:43:26 2025, MaxMem=  4294967296 cpu:               0.0 elap:               0.0
 (Enter /lrz/sys/applications/gaussian/g16.C.01/x86_64_legacy/exe/l301.exe)
 Standard basis: def2TZVP (5D, 7F)
 Ernie: Thresh=  0.10000D-02 Tol=  0.10000D-05 Strict=F.
 There are   282 symmetry adapted cartesian basis functions of A   symmetry.
 There are   252 symmetry adapted basis functions of A   symmetry.
   252 basis functions,   394 primitive gaussians,   282 cartesian basis functions
    25 alpha electrons       25 beta electrons
       nuclear repulsion energy       265.2268748995 Hartrees.
 IExCor= 4639 DFT=T Ex+Corr=wB97XD ExCW=0 ScaHFX=  1.000000
 ScaDFX=  1.000000  1.000000  1.000000  1.000000 ScalE2=  1.000000  1.000000
 IRadAn=      5 IRanWt=     -1 IRanGd=            0 ICorTp=0 IEmpDi=121
 HFx  wShort=  0.000000 wLong=  0.200000 cFull=  0.222036 cShort=  0.000000 cLong=  0.777964
 DFx  wShort=  0.000000 wLong=  0.200000 cFull=  0.000000 cShort=  0.000000 cLong=  1.000000
 NAtoms=   17 NActive=   17 NUniq=   17 SFac= 1.00D+00 NAtFMM=   60 NAOKFM=F Big=F
 Integral buffers will be    131072 words long.
 Raffenetti 2 integral format.
 Two-electron integral symmetry is turned on.
 R6Disp:  Grimme-D2 Dispersion energy=       -0.0105111664 Hartrees.
 Nuclear repulsion after empirical dispersion term =      265.2163637332 Hartrees.
 ------------------------------------------------------------------------------
 Polarizable Continuum Model (PCM)
 =================================
 Model                : PCM.
 Atomic radii         : SMD-Coulomb.
 Polarization charges : Total charges.
 Charge compensation  : None.
 Solution method      : On-the-fly selection.
 Cavity type          : VdW (van der Waals Surface) (Alpha=1.000).
 Cavity algorithm     : GePol (No added spheres)
                        Default sphere list used, NSphG=   17.
                        Lebedev-Laikov grids with approx.  5.0 points / Ang**2.
                        Smoothing algorithm: York/Karplus (Gamma=1.0000).
                        Polarization charges: spherical gaussians, with
                                              point-specific exponents (IZeta= 3).
                        Self-potential: point-specific (ISelfS= 7).
                        Self-field    : sphere-specific E.n sum rule (ISelfD= 2).
 Solvent              : Water, Eps=  78.355300 Eps(inf)=   1.777849
 ------------------------------------------------------------------------------
 Spheres list:
 ISph  on   Nord     Re0    Alpha      Xe            Ye            Ze
    1   O      1    1.5200  1.000     -1.103108      1.348025     -0.315053
    2   C      2    1.8500  1.000     -1.127801     -0.066582     -0.311730
    3   N      3    1.8900  1.000     -1.471234     -0.568433      1.007246
    4   C      4    1.8500  1.000      0.145589     -0.663962     -0.929627
    5   C      5    1.8500  1.000      1.402114     -0.700097     -0.055982
    6   C      6    1.8500  1.000      1.905709      0.651112      0.445614
    7   H      7    1.2000  1.000     -0.345306      1.642005      0.203067
    8   H      8    1.2000  1.000     -1.963881     -0.328530     -0.978121
    9   H      9    1.2000  1.000     -0.644552     -0.537490      1.606493
   10   H     10    1.2000  1.000     -1.705586     -1.557865      0.925580
   11   H     11    1.2000  1.000      0.353326     -0.111769     -1.861852
   12   H     12    1.2000  1.000     -0.093109     -1.698226     -1.228376
   13   H     13    1.2000  1.000      2.199496     -1.181289     -0.644939
   14   H     14    1.2000  1.000      1.230639     -1.366709      0.806652
   15   H     15    1.2000  1.000      1.244035      1.082269      1.215484
   16   H     16    1.2000  1.000      2.897272      0.550416      0.912520
   17   H     17    1.2000  1.000      1.997501      1.379196     -0.376455
 ------------------------------------------------------------------------------
 GePol: Number of generator spheres                  =      17
 GePol: Total number of spheres                      =      17
 GePol: Number of exposed spheres                    =      17 (100.00%)
 GePol: Number of points                             =    1166
 GePol: Average weight of points                     =       0.11
 GePol: Minimum weight of points                     =   0.76D-08
 GePol: Maximum weight of points                     =    0.21991
 GePol: Number of points with low weight             =      75
 GePol: Fraction of low-weight points (<1% of avg)   =       6.43%
 GePol: Cavity surface area                          =    133.987 Ang**2
 GePol: Cavity volume                                =    108.025 Ang**3
 ------------------------------------------------------------------------------
 Atomic radii for non-electrostatic terms: SMD-CDS.
 ------------------------------------------------------------------------------
 PCM non-electrostatic energy =         0.0023108669 Hartrees.
 Nuclear repulsion after PCM non-electrostatic terms =      265.2186746001 Hartrees.
 Leave Link  301 at Wed Oct 22 13:43:26 2025, MaxMem=  4294967296 cpu:               1.2 elap:               0.2
 (Enter /lrz/sys/applications/gaussian/g16.C.01/x86_64_legacy/exe/l302.exe)
 NPDir=0 NMtPBC=     1 NCelOv=     1 NCel=       1 NClECP=     1 NCelD=      1
         NCelK=      1 NCelE2=     1 NClLst=     1 CellRange=     0.0.
 One-electron integrals computed using PRISM.
 One-electron integral symmetry used in STVInt
   1 Symmetry operations used in ECPInt.
 ECPInt:  NShTT=    6105 NPrTT=   17556 LenC2=    6060 LenP2D=   14553.
 LDataN:  DoStor=T MaxTD1= 6 Len=  172
 NBasis=   252 RedAO= T EigKep=  2.17D-04  NBF=   252
 NBsUse=   252 1.00D-06 EigRej= -1.00D+00 NBFU=   252
 Precomputing XC quadrature grid using
 IXCGrd= 4 IRadAn=           5 IRanWt=          -1 IRanGd=           0 AccXCQ= 0.00D+00.
 Generated NRdTot=       0 NPtTot=           0 NUsed=           0 NTot=          32
 NSgBfM=   281   281   281   281   281 MxSgAt=    17 MxSgA2=    17.
 Leave Link  302 at Wed Oct 22 13:43:27 2025, MaxMem=  4294967296 cpu:               2.4 elap:               0.3
 (Enter /lrz/sys/applications/gaussian/g16.C.01/x86_64_legacy/exe/l303.exe)
 DipDrv:  MaxL=1.
 Leave Link  303 at Wed Oct 22 13:43:27 2025, MaxMem=  4294967296 cpu:               0.3 elap:               0.1
 (Enter /lrz/sys/applications/gaussian/g16.C.01/x86_64_legacy/exe/l401.exe)
 ExpMin= 9.52D-02 ExpMax= 2.70D+04 ExpMxC= 9.22D+02 IAcc=3 IRadAn=         5 AccDes= 0.00D+00
 Harris functional with IExCor= 4639 and IRadAn=       5 diagonalized for initial guess.
 HarFok:  IExCor= 4639 AccDes= 0.00D+00 IRadAn=         5 IDoV= 1 UseB2=F ITyADJ=14
 ICtDFT=  3500011 ScaDFX=  1.000000  1.000000  1.000000  1.000000
 FoFCou: FMM=F IPFlag=           0 FMFlag=      100000 FMFlg1=           0
         NFxFlg=           0 DoJE=T BraDBF=F KetDBF=T FulRan=T
         wScrn=  0.000000 ICntrl=       500 IOpCl=  0 I1Cent=   200000004 NGrid=           0
         NMat0=    1 NMatS0=      1 NMatT0=    0 NMatD0=    1 NMtDS0=    0 NMtDT0=    0
 Petite list used in FoFCou.
 Harris En= -276.194807886839    
 JPrj=0 DoOrth=F DoCkMO=F.
 Leave Link  401 at Wed Oct 22 13:43:29 2025, MaxMem=  4294967296 cpu:              18.3 elap:               2.3
 (Enter /lrz/sys/applications/gaussian/g16.C.01/x86_64_legacy/exe/l502.exe)
 Integral symmetry usage will be decided dynamically.
 Closed shell SCF:
 Using DIIS extrapolation, IDIIS=  1040.
 NGot=  4294967296 LenX=  4294802854 LenY=  4294722889
 Requested convergence on RMS density matrix=1.00D-08 within 128 cycles.
 Requested convergence on MAX density matrix=1.00D-06.
 Requested convergence on             energy=1.00D-06.
 No special actions if energy rises.
 Fock matrices will be formed incrementally for  20 cycles.

 Cycle   1  Pass 1  IDiag  1:
 FoFJK:  IHMeth= 1 ICntrl=       0 DoSepK=T KAlg= 0 I1Cent=           0 FoldK=F
 IRaf=         1 NMat=       1 IRICut=       1 DoRegI=T DoRafI=F ISym2E= 0 IDoP0=0 IntGTp=1.
 FoFCou: FMM=F IPFlag=           0 FMFlag=      100000 FMFlg1=           0
         NFxFlg=           0 DoJE=T BraDBF=F KetDBF=F FulRan=T
         wScrn=  0.000000 ICntrl=       500 IOpCl=  0 I1Cent=           0 NGrid=           0
         NMat0=    1 NMatS0=      1 NMatT0=    0 NMatD0=    1 NMtDS0=    0 NMtDT0=    0
 Symmetry not used in FoFCou.
 Inv3:  Mode=1 IEnd=     4078668.
 Iteration    1 A*A^-1 deviation from unit magnitude is 5.55D-15 for    461.
 Iteration    1 A*A^-1 deviation from orthogonality  is 4.25D-15 for    931    573.
 Iteration    1 A^-1*A deviation from unit magnitude is 5.11D-15 for    217.
 Iteration    1 A^-1*A deviation from orthogonality  is 5.90D-15 for    825    759.
 E= -288.986004425179    
 DIIS: error= 3.27D-02 at cycle   1 NSaved=   1.
 NSaved= 1 IEnMin= 1 EnMin= -288.986004425179     IErMin= 1 ErrMin= 3.27D-02
 ErrMax= 3.27D-02  0.00D+00 EMaxC= 1.00D-01 BMatC= 6.09D-01 BMatP= 6.09D-01
 IDIUse=3 WtCom= 6.73D-01 WtEn= 3.27D-01
 Coeff-Com:  0.100D+01
 Coeff-En:   0.100D+01
 Coeff:      0.100D+01
 Gap=     0.453 Goal=   None    Shift=    0.000
 GapD=    0.453 DampG=2.000 DampE=0.500 DampFc=1.0000 IDamp=-1.
 RMSDP=1.67D-03 MaxDP=4.50D-02              OVMax= 5.75D-02

 Cycle   2  Pass 1  IDiag  1:
 RMSU=  1.63D-03    CP:  9.64D-01
 E= -289.040820487360     Delta-E=       -0.054816062181 Rises=F Damp=F
 DIIS: error= 6.19D-03 at cycle   2 NSaved=   2.
 NSaved= 2 IEnMin= 2 EnMin= -289.040820487360     IErMin= 2 ErrMin= 6.19D-03
 ErrMax= 6.19D-03  0.00D+00 EMaxC= 1.00D-01 BMatC= 3.01D-02 BMatP= 6.09D-01
 IDIUse=3 WtCom= 9.38D-01 WtEn= 6.19D-02
 Coeff-Com:  0.116D+00 0.884D+00
 Coeff-En:   0.000D+00 0.100D+01
 Coeff:      0.109D+00 0.891D+00
 Gap=     0.444 Goal=   None    Shift=    0.000
 RMSDP=6.69D-04 MaxDP=2.88D-02 DE=-5.48D-02 OVMax= 4.49D-02

 Cycle   3  Pass 1  IDiag  1:
 RMSU=  5.68D-04    CP:  9.69D-01  7.86D-01
 E= -289.049342979859     Delta-E=       -0.008522492499 Rises=F Damp=F
 DIIS: error= 6.02D-03 at cycle   3 NSaved=   3.
 NSaved= 3 IEnMin= 3 EnMin= -289.049342979859     IErMin= 3 ErrMin= 6.02D-03
 ErrMax= 6.02D-03  0.00D+00 EMaxC= 1.00D-01 BMatC= 1.84D-02 BMatP= 3.01D-02
 IDIUse=3 WtCom= 9.40D-01 WtEn= 6.02D-02
 Coeff-Com:  0.242D-01 0.447D+00 0.529D+00
 Coeff-En:   0.000D+00 0.370D+00 0.630D+00
 Coeff:      0.228D-01 0.443D+00 0.535D+00
 Gap=     0.448 Goal=   None    Shift=    0.000
 RMSDP=3.52D-04 MaxDP=1.48D-02 DE=-8.52D-03 OVMax= 2.42D-02

 Cycle   4  Pass 1  IDiag  1:
 RMSU=  1.46D-04    CP:  9.64D-01  9.35D-01  6.46D-01
 E= -289.062146191164     Delta-E=       -0.012803211305 Rises=F Damp=F
 DIIS: error= 5.06D-04 at cycle   4 NSaved=   4.
 NSaved= 4 IEnMin= 4 EnMin= -289.062146191164     IErMin= 4 ErrMin= 5.06D-04
 ErrMax= 5.06D-04  0.00D+00 EMaxC= 1.00D-01 BMatC= 2.01D-04 BMatP= 1.84D-02
 IDIUse=3 WtCom= 9.95D-01 WtEn= 5.06D-03
 Coeff-Com:  0.859D-02 0.162D+00 0.218D+00 0.611D+00
 Coeff-En:   0.000D+00 0.000D+00 0.000D+00 0.100D+01
 Coeff:      0.854D-02 0.162D+00 0.216D+00 0.613D+00
 Gap=     0.442 Goal=   None    Shift=    0.000
 RMSDP=3.89D-05 MaxDP=1.46D-03 DE=-1.28D-02 OVMax= 2.16D-03

 Cycle   5  Pass 1  IDiag  1:
 RMSU=  3.44D-05    CP:  9.63D-01  9.43D-01  6.65D-01  9.82D-01
 E= -289.062287944001     Delta-E=       -0.000141752837 Rises=F Damp=F
 DIIS: error= 1.37D-04 at cycle   5 NSaved=   5.
 NSaved= 5 IEnMin= 5 EnMin= -289.062287944001     IErMin= 5 ErrMin= 1.37D-04
 ErrMax= 1.37D-04  0.00D+00 EMaxC= 1.00D-01 BMatC= 8.71D-06 BMatP= 2.01D-04
 IDIUse=3 WtCom= 9.99D-01 WtEn= 1.37D-03
 Coeff-Com: -0.181D-02-0.313D-01-0.292D-01 0.120D+00 0.943D+00
 Coeff-En:   0.000D+00 0.000D+00 0.000D+00 0.000D+00 0.100D+01
 Coeff:     -0.181D-02-0.313D-01-0.292D-01 0.120D+00 0.943D+00
 Gap=     0.442 Goal=   None    Shift=    0.000
 RMSDP=3.07D-05 MaxDP=8.46D-04 DE=-1.42D-04 OVMax= 9.13D-04

 Cycle   6  Pass 1  IDiag  1:
 RMSU=  1.05D-05    CP:  9.63D-01  9.52D-01  6.84D-01  1.12D+00  1.19D+00
 E= -289.062298929878     Delta-E=       -0.000010985877 Rises=F Damp=F
 DIIS: error= 1.90D-05 at cycle   6 NSaved=   6.
 NSaved= 6 IEnMin= 6 EnMin= -289.062298929878     IErMin= 6 ErrMin= 1.90D-05
 ErrMax= 1.90D-05  0.00D+00 EMaxC= 1.00D-01 BMatC= 3.23D-07 BMatP= 8.71D-06
 IDIUse=1 WtCom= 1.00D+00 WtEn= 0.00D+00
 Coeff-Com: -0.706D-03-0.121D-01-0.136D-01 0.422D-02 0.171D+00 0.851D+00
 Coeff:     -0.706D-03-0.121D-01-0.136D-01 0.422D-02 0.171D+00 0.851D+00
 Gap=     0.442 Goal=   None    Shift=    0.000
 RMSDP=7.06D-06 MaxDP=1.65D-04 DE=-1.10D-05 OVMax= 3.14D-04

 Cycle   7  Pass 1  IDiag  1:
 RMSU=  2.90D-06    CP:  9.63D-01  9.54D-01  6.86D-01  1.15D+00  1.28D+00
                    CP:  1.19D+00
 E= -289.062299378547     Delta-E=       -0.000000448669 Rises=F Damp=F
 DIIS: error= 1.09D-05 at cycle   7 NSaved=   7.
 NSaved= 7 IEnMin= 7 EnMin= -289.062299378547     IErMin= 7 ErrMin= 1.09D-05
 ErrMax= 1.09D-05  0.00D+00 EMaxC= 1.00D-01 BMatC= 7.23D-08 BMatP= 3.23D-07
 IDIUse=1 WtCom= 1.00D+00 WtEn= 0.00D+00
 Coeff-Com: -0.635D-04-0.138D-02-0.219D-02-0.947D-02-0.365D-01 0.294D+00
 Coeff-Com:  0.755D+00
 Coeff:     -0.635D-04-0.138D-02-0.219D-02-0.947D-02-0.365D-01 0.294D+00
 Coeff:      0.755D+00
 Gap=     0.442 Goal=   None    Shift=    0.000
 RMSDP=2.56D-06 MaxDP=6.93D-05 DE=-4.49D-07 OVMax= 1.30D-04

 Cycle   8  Pass 1  IDiag  1:
 RMSU=  1.03D-06    CP:  9.63D-01  9.54D-01  6.87D-01  1.16D+00  1.30D+00
                    CP:  1.33D+00  1.22D+00
 E= -289.062299464147     Delta-E=       -0.000000085600 Rises=F Damp=F
 DIIS: error= 2.88D-06 at cycle   8 NSaved=   8.
 NSaved= 8 IEnMin= 8 EnMin= -289.062299464147     IErMin= 8 ErrMin= 2.88D-06
 ErrMax= 2.88D-06  0.00D+00 EMaxC= 1.00D-01 BMatC= 5.81D-09 BMatP= 7.23D-08
 IDIUse=1 WtCom= 1.00D+00 WtEn= 0.00D+00
 Coeff-Com:  0.567D-04 0.953D-03 0.953D-03-0.222D-02-0.269D-01-0.227D-01
 Coeff-Com:  0.199D+00 0.851D+00
 Coeff:      0.567D-04 0.953D-03 0.953D-03-0.222D-02-0.269D-01-0.227D-01
 Coeff:      0.199D+00 0.851D+00
 Gap=     0.442 Goal=   None    Shift=    0.000
 RMSDP=9.63D-07 MaxDP=2.08D-05 DE=-8.56D-08 OVMax= 5.92D-05

 Cycle   9  Pass 1  IDiag  1:
 RMSU=  2.92D-07    CP:  9.63D-01  9.54D-01  6.87D-01  1.16D+00  1.31D+00
                    CP:  1.39D+00  1.40D+00  1.21D+00
 E= -289.062299473757     Delta-E=       -0.000000009609 Rises=F Damp=F
 DIIS: error= 8.06D-07 at cycle   9 NSaved=   9.
 NSaved= 9 IEnMin= 9 EnMin= -289.062299473757     IErMin= 9 ErrMin= 8.06D-07
 ErrMax= 8.06D-07  0.00D+00 EMaxC= 1.00D-01 BMatC= 4.56D-10 BMatP= 5.81D-09
 IDIUse=1 WtCom= 1.00D+00 WtEn= 0.00D+00
 Coeff-Com:  0.132D-04 0.261D-03 0.342D-03 0.424D-03-0.936D-03-0.298D-01
 Coeff-Com: -0.349D-01 0.144D+00 0.921D+00
 Coeff:      0.132D-04 0.261D-03 0.342D-03 0.424D-03-0.936D-03-0.298D-01
 Coeff:     -0.349D-01 0.144D+00 0.921D+00
 Gap=     0.442 Goal=   None    Shift=    0.000
 RMSDP=3.42D-07 MaxDP=1.06D-05 DE=-9.61D-09 OVMax= 2.31D-05

 Cycle  10  Pass 1  IDiag  1:
 RMSU=  9.55D-08    CP:  9.63D-01  9.54D-01  6.87D-01  1.16D+00  1.31D+00
                    CP:  1.40D+00  1.46D+00  1.36D+00  1.35D+00
 E= -289.062299474775     Delta-E=       -0.000000001019 Rises=F Damp=F
 DIIS: error= 3.99D-07 at cycle  10 NSaved=  10.
 NSaved=10 IEnMin=10 EnMin= -289.062299474775     IErMin=10 ErrMin= 3.99D-07
 ErrMax= 3.99D-07  0.00D+00 EMaxC= 1.00D-01 BMatC= 8.94D-11 BMatP= 4.56D-10
 IDIUse=1 WtCom= 1.00D+00 WtEn= 0.00D+00
 Coeff-Com: -0.335D-05-0.420D-04-0.103D-04 0.516D-03 0.376D-02-0.826D-02
 Coeff-Com: -0.436D-01-0.685D-01 0.322D+00 0.794D+00
 Coeff:     -0.335D-05-0.420D-04-0.103D-04 0.516D-03 0.376D-02-0.826D-02
 Coeff:     -0.436D-01-0.685D-01 0.322D+00 0.794D+00
 Gap=     0.442 Goal=   None    Shift=    0.000
 RMSDP=1.22D-07 MaxDP=4.08D-06 DE=-1.02D-09 OVMax= 8.63D-06

 Cycle  11  Pass 1  IDiag  1:
 RMSU=  3.44D-08    CP:  9.63D-01  9.54D-01  6.87D-01  1.16D+00  1.31D+00
                    CP:  1.41D+00  1.48D+00  1.42D+00  1.54D+00  1.25D+00
 E= -289.062299474924     Delta-E=       -0.000000000149 Rises=F Damp=F
 DIIS: error= 5.82D-08 at cycle  11 NSaved=  11.
 NSaved=11 IEnMin=11 EnMin= -289.062299474924     IErMin=11 ErrMin= 5.82D-08
 ErrMax= 5.82D-08  0.00D+00 EMaxC= 1.00D-01 BMatC= 2.04D-12 BMatP= 8.94D-11
 IDIUse=1 WtCom= 1.00D+00 WtEn= 0.00D+00
 Coeff-Com: -0.449D-06-0.124D-04-0.225D-04-0.539D-04-0.243D-03 0.247D-02
 Coeff-Com:  0.520D-02-0.279D-02-0.876D-01-0.516D-01 0.113D+01
 Coeff:     -0.449D-06-0.124D-04-0.225D-04-0.539D-04-0.243D-03 0.247D-02
 Coeff:      0.520D-02-0.279D-02-0.876D-01-0.516D-01 0.113D+01
 Gap=     0.442 Goal=   None    Shift=    0.000
 RMSDP=3.47D-08 MaxDP=1.16D-06 DE=-1.49D-10 OVMax= 2.47D-06

 Cycle  12  Pass 1  IDiag  1:
 RMSU=  7.33D-09    CP:  9.63D-01  9.54D-01  6.87D-01  1.16D+00  1.31D+00
                    CP:  1.41D+00  1.48D+00  1.43D+00  1.61D+00  1.46D+00
                    CP:  1.34D+00
 E= -289.062299474934     Delta-E=       -0.000000000010 Rises=F Damp=F
 DIIS: error= 1.15D-08 at cycle  12 NSaved=  12.
 NSaved=12 IEnMin=12 EnMin= -289.062299474934     IErMin=12 ErrMin= 1.15D-08
 ErrMax= 1.15D-08  0.00D+00 EMaxC= 1.00D-01 BMatC= 7.88D-14 BMatP= 2.04D-12
 IDIUse=1 WtCom= 1.00D+00 WtEn= 0.00D+00
 Coeff-Com:  0.117D-06 0.144D-05-0.203D-06-0.270D-04-0.180D-03 0.458D-03
 Coeff-Com:  0.232D-02 0.348D-02-0.165D-01-0.408D-01 0.271D-01 0.102D+01
 Coeff:      0.117D-06 0.144D-05-0.203D-06-0.270D-04-0.180D-03 0.458D-03
 Coeff:      0.232D-02 0.348D-02-0.165D-01-0.408D-01 0.271D-01 0.102D+01
 Gap=     0.442 Goal=   None    Shift=    0.000
 RMSDP=6.67D-09 MaxDP=1.50D-07 DE=-1.02D-11 OVMax= 3.70D-07

 Error on total polarization charges =  0.04363
 SCF Done:  E(RwB97XD) =  -289.062299475     A.U. after   12 cycles
            NFock= 12  Conv=0.67D-08     -V/T= 2.0055
 KE= 2.874744902330D+02 PE=-1.204305725266D+03 EE= 3.625502609578D+02
 SMD-CDS (non-electrostatic) energy       (kcal/mol) =       1.45
 (included in total energy above)
 Leave Link  502 at Wed Oct 22 13:45:13 2025, MaxMem=  4294967296 cpu:             827.5 elap:             103.7
 (Enter /lrz/sys/applications/gaussian/g16.C.01/x86_64_legacy/exe/l601.exe)
 Copying SCF densities to generalized density rwf, IOpCl= 0 IROHF=0.

 **********************************************************************

            Population analysis using the SCF Density.

 **********************************************************************

 Orbital symmetries:
       Occupied  (A) (A) (A) (A) (A) (A) (A) (A) (A) (A) (A) (A)
                 (A) (A) (A) (A) (A) (A) (A) (A) (A) (A) (A) (A)
                 (A)
       Virtual   (A) (A) (A) (A) (A) (A) (A) (A) (A) (A) (A) (A)
                 (A) (A) (A) (A) (A) (A) (A) (A) (A) (A) (A) (A)
                 (A) (A) (A) (A) (A) (A) (A) (A) (A) (A) (A) (A)
                 (A) (A) (A) (A) (A) (A) (A) (A) (A) (A) (A) (A)
                 (A) (A) (A) (A) (A) (A) (A) (A) (A) (A) (A) (A)
                 (A) (A) (A) (A) (A) (A) (A) (A) (A) (A) (A) (A)
                 (A) (A) (A) (A) (A) (A) (A) (A) (A) (A) (A) (A)
                 (A) (A) (A) (A) (A) (A) (A) (A) (A) (A) (A) (A)
                 (A) (A) (A) (A) (A) (A) (A) (A) (A) (A) (A) (A)
                 (A) (A) (A) (A) (A) (A) (A) (A) (A) (A) (A) (A)
                 (A) (A) (A) (A) (A) (A) (A) (A) (A) (A) (A) (A)
                 (A) (A) (A) (A) (A) (A) (A) (A) (A) (A) (A) (A)
                 (A) (A) (A) (A) (A) (A) (A) (A) (A) (A) (A) (A)
                 (A) (A) (A) (A) (A) (A) (A) (A) (A) (A) (A) (A)
                 (A) (A) (A) (A) (A) (A) (A) (A) (A) (A) (A) (A)
                 (A) (A) (A) (A) (A) (A) (A) (A) (A) (A) (A) (A)
                 (A) (A) (A) (A) (A) (A) (A) (A) (A) (A) (A) (A)
                 (A) (A) (A) (A) (A) (A) (A) (A) (A) (A) (A) (A)
                 (A) (A) (A) (A) (A) (A) (A) (A) (A) (A) (A)
 The electronic state is 1-A.
 Alpha  occ. eigenvalues --  -19.24824 -14.40934 -10.35166 -10.27407 -10.26951
 Alpha  occ. eigenvalues --  -10.26774  -1.13256  -0.97259  -0.87686  -0.79955
 Alpha  occ. eigenvalues --   -0.72360  -0.66530  -0.59176  -0.57995  -0.54331
 Alpha  occ. eigenvalues --   -0.52711  -0.50278  -0.47803  -0.47136  -0.45173
 Alpha  occ. eigenvalues --   -0.41877  -0.40512  -0.39548  -0.37240  -0.33257
 Alpha virt. eigenvalues --    0.10951   0.14132   0.14866   0.15970   0.17619
 Alpha virt. eigenvalues --    0.19213   0.19866   0.20752   0.21310   0.21946
 Alpha virt. eigenvalues --    0.25100   0.25615   0.27150   0.27838   0.28834
 Alpha virt. eigenvalues --    0.30518   0.31798   0.32935   0.35457   0.36485
 Alpha virt. eigenvalues --    0.37976   0.38945   0.39594   0.41063   0.43742
 Alpha virt. eigenvalues --    0.46204   0.47825   0.49051   0.49421   0.50549
 Alpha virt. eigenvalues --    0.51213   0.51820   0.53292   0.53603   0.54712
 Alpha virt. eigenvalues --    0.55030   0.56801   0.57872   0.58469   0.59827
 Alpha virt. eigenvalues --    0.60473   0.61949   0.64478   0.65486   0.69575
 Alpha virt. eigenvalues --    0.72345   0.73406   0.75773   0.79425   0.83737
 Alpha virt. eigenvalues --    0.85445   0.86120   0.89529   0.91359   0.93922
 Alpha virt. eigenvalues --    0.95321   0.99152   1.02861   1.03073   1.08932
 Alpha virt. eigenvalues --    1.09820   1.13351   1.17895   1.18930   1.20837
 Alpha virt. eigenvalues --    1.22255   1.24992   1.25795   1.28960   1.31356
 Alpha virt. eigenvalues --    1.33977   1.38939   1.42119   1.45869   1.46671
 Alpha virt. eigenvalues --    1.51863   1.55974   1.59381   1.60002   1.61389
 Alpha virt. eigenvalues --    1.64192   1.65994   1.66513   1.68849   1.69535
 Alpha virt. eigenvalues --    1.71106   1.74273   1.75966   1.78041   1.84503
 Alpha virt. eigenvalues --    1.85591   1.86472   1.87739   1.90142   1.92127
 Alpha virt. eigenvalues --    1.94636   1.96524   1.99986   2.00708   2.05490
 Alpha virt. eigenvalues --    2.06197   2.08312   2.09587   2.12495   2.15697
 Alpha virt. eigenvalues --    2.18401   2.19059   2.23291   2.24818   2.28494
 Alpha virt. eigenvalues --    2.34001   2.34282   2.37584   2.40551   2.43188
 Alpha virt. eigenvalues --    2.44727   2.46282   2.49258   2.50229   2.51705
 Alpha virt. eigenvalues --    2.56041   2.58814   2.59323   2.61708   2.62229
 Alpha virt. eigenvalues --    2.64459   2.67264   2.68732   2.69886   2.72012
 Alpha virt. eigenvalues --    2.72950   2.74829   2.76833   2.78547   2.81988
 Alpha virt. eigenvalues --    2.83379   2.84451   2.89185   2.90399   2.93452
 Alpha virt. eigenvalues --    3.00518   3.01483   3.05238   3.07032   3.09978
 Alpha virt. eigenvalues --    3.13463   3.14629   3.17823   3.20871   3.22502
 Alpha virt. eigenvalues --    3.24090   3.25904   3.27753   3.32273   3.34138
 Alpha virt. eigenvalues --    3.35175   3.36858   3.39156   3.40289   3.42744
 Alpha virt. eigenvalues --    3.44361   3.46519   3.50497   3.52660   3.54094
 Alpha virt. eigenvalues --    3.57325   3.59404   3.62013   3.62733   3.64775
 Alpha virt. eigenvalues --    3.78062   3.80603   3.81986   3.86645   3.89108
 Alpha virt. eigenvalues --    3.93839   3.97001   4.00668   4.05553   4.07151
 Alpha virt. eigenvalues --    4.10903   4.13090   4.13814   4.20109   4.24448
 Alpha virt. eigenvalues --    4.32417   4.38088   4.42861   4.44845   4.49132
 Alpha virt. eigenvalues --    4.52665   4.57771   4.62847   4.65613   4.75063
 Alpha virt. eigenvalues --    4.76800   4.81343   4.86245   4.89183   4.96423
 Alpha virt. eigenvalues --    4.97390   5.01896   5.02294   5.18909   5.23930
 Alpha virt. eigenvalues --    5.29143   5.36922   5.40789   5.47194   5.59306
 Alpha virt. eigenvalues --    5.62675   5.81086   5.87629   5.97281   6.09629
 Alpha virt. eigenvalues --    6.41238   6.57837   6.80241   6.93926   7.09297
 Alpha virt. eigenvalues --    7.27240  22.42664  22.56975  22.58061  22.69263
 Alpha virt. eigenvalues --   32.10433  44.02208
          Condensed to atoms (all electrons):
               1          2          3          4          5          6
     1  O    8.151381   0.239436  -0.072425  -0.060418  -0.010872   0.011122
     2  C    0.239436   4.811762   0.234468   0.353948  -0.044557   0.019261
     3  N   -0.072425   0.234468   6.758002  -0.074741   0.005199  -0.000932
     4  C   -0.060418   0.353948  -0.074741   5.115318   0.298494  -0.057448
     5  C   -0.010872  -0.044557   0.005199   0.298494   5.031993   0.250490
     6  C    0.011122   0.019261  -0.000932  -0.057448   0.250490   5.070282
     7  H    0.308989  -0.019297  -0.003061  -0.009268  -0.000345   0.004244
     8  H   -0.032951   0.426207  -0.033773  -0.064183   0.009319   0.000276
     9  H    0.001314  -0.041431   0.378480  -0.016019   0.012261  -0.002965
    10  H    0.005530  -0.037658   0.368966   0.008664  -0.002718  -0.000056
    11  H    0.006610  -0.063384   0.011898   0.413728  -0.030811  -0.003784
    12  H    0.005407  -0.026411   0.004746   0.403718  -0.047271   0.011444
    13  H   -0.000419   0.010333   0.000825  -0.044386   0.419859  -0.028814
    14  H    0.000893  -0.026438   0.012342  -0.027297   0.421889  -0.045842
    15  H   -0.007002   0.025397  -0.004706  -0.019817  -0.029345   0.406004
    16  H    0.000820  -0.002276   0.000400   0.008744  -0.034457   0.405002
    17  H   -0.000672  -0.009022   0.000524   0.013783  -0.046780   0.409689
               7          8          9         10         11         12
     1  O    0.308989  -0.032951   0.001314   0.005530   0.006610   0.005407
     2  C   -0.019297   0.426207  -0.041431  -0.037658  -0.063384  -0.026411
     3  N   -0.003061  -0.033773   0.378480   0.368966   0.011898   0.004746
     4  C   -0.009268  -0.064183  -0.016019   0.008664   0.413728   0.403718
     5  C   -0.000345   0.009319   0.012261  -0.002718  -0.030811  -0.047271
     6  C    0.004244   0.000276  -0.002965  -0.000056  -0.003784   0.011444
     7  H    0.349026   0.007484   0.002682  -0.000302  -0.000072  -0.000556
     8  H    0.007484   0.581019   0.006650  -0.005634  -0.003457  -0.004811
     9  H    0.002682   0.006650   0.425855  -0.025242  -0.000269   0.000032
    10  H   -0.000302  -0.005634  -0.025242   0.422616   0.000155  -0.000840
    11  H   -0.000072  -0.003457  -0.000269   0.000155   0.568643  -0.017582
    12  H   -0.000556  -0.004811   0.000032  -0.000840  -0.017582   0.559382
    13  H   -0.000194  -0.000236   0.000199   0.000001  -0.002692  -0.005857
    14  H    0.000299  -0.000384  -0.001092   0.002016   0.006612  -0.003794
    15  H    0.001265   0.000243   0.001948   0.000035   0.000501  -0.000595
    16  H    0.000706   0.000050   0.000222  -0.000007  -0.000046  -0.000135
    17  H   -0.000436  -0.000270  -0.000102  -0.000011   0.001420  -0.000035
              13         14         15         16         17
     1  O   -0.000419   0.000893  -0.007002   0.000820  -0.000672
     2  C    0.010333  -0.026438   0.025397  -0.002276  -0.009022
     3  N    0.000825   0.012342  -0.004706   0.000400   0.000524
     4  C   -0.044386  -0.027297  -0.019817   0.008744   0.013783
     5  C    0.419859   0.421889  -0.029345  -0.034457  -0.046780
     6  C   -0.028814  -0.045842   0.406004   0.405002   0.409689
     7  H   -0.000194   0.000299   0.001265   0.000706  -0.000436
     8  H   -0.000236  -0.000384   0.000243   0.000050  -0.000270
     9  H    0.000199  -0.001092   0.001948   0.000222  -0.000102
    10  H    0.000001   0.002016   0.000035  -0.000007  -0.000011
    11  H   -0.002692   0.006612   0.000501  -0.000046   0.001420
    12  H   -0.005857  -0.003794  -0.000595  -0.000135  -0.000035
    13  H    0.556634  -0.021215   0.004995  -0.007128  -0.001986
    14  H   -0.021215   0.571311  -0.004311  -0.002667   0.006340
    15  H    0.004995  -0.004311   0.544365  -0.021003  -0.030067
    16  H   -0.007128  -0.002667  -0.021003   0.529421  -0.019597
    17  H   -0.001986   0.006340  -0.030067  -0.019597   0.537192
 Mulliken charges:
               1
     1  O   -0.546743
     2  C    0.149663
     3  N   -0.586211
     4  C   -0.242821
     5  C   -0.202346
     6  C   -0.447973
     7  H    0.358835
     8  H    0.114451
     9  H    0.257480
    10  H    0.264486
    11  H    0.112531
    12  H    0.123158
    13  H    0.120080
    14  H    0.111336
    15  H    0.132093
    16  H    0.141951
    17  H    0.140031
 Sum of Mulliken charges =  -0.00000
 Mulliken charges with hydrogens summed into heavy atoms:
               1
     1  O   -0.187908
     2  C    0.264113
     3  N   -0.064245
     4  C   -0.007132
     5  C    0.029070
     6  C   -0.033898
 Electronic spatial extent (au):  <R**2>=            668.4078
 Charge=             -0.0000 electrons
 Dipole moment (field-independent basis, Debye):
    X=              3.2283    Y=             -2.7055    Z=              0.3793  Tot=              4.2292
 Quadrupole moment (field-independent basis, Debye-Ang):
   XX=            -44.6155   YY=            -38.0771   ZZ=            -39.3504
   XY=              5.9093   XZ=              2.6255   YZ=              0.9630
 Traceless Quadrupole moment (field-independent basis, Debye-Ang):
   XX=             -3.9345   YY=              2.6039   ZZ=              1.3306
   XY=              5.9093   XZ=              2.6255   YZ=              0.9630
 Octapole moment (field-independent basis, Debye-Ang**2):
  XXX=              8.1663  YYY=             -3.9283  ZZZ=              0.9006  XYY=             -0.7921
  XXY=             -9.0434  XXZ=             -7.9498  XZZ=              3.0125  YZZ=             -1.5387
  YYZ=              5.4194  XYZ=             -0.6806
 Hexadecapole moment (field-independent basis, Debye-Ang**3):
 XXXX=           -507.7662 YYYY=           -207.4314 ZZZZ=           -169.7424 XXXY=             10.0565
 XXXZ=             20.9883 YYYX=             16.1686 YYYZ=             -0.6391 ZZZX=              6.1910
 ZZZY=             -5.2512 XXYY=           -121.4361 XXZZ=           -119.9403 YYZZ=            -62.7306
 XXYZ=             -0.5595 YYXZ=             -7.8875 ZZXY=              1.9869
 N-N= 2.652186746001D+02 E-N=-1.204305726681D+03  KE= 2.874744902330D+02
 No NMR shielding tensors so no spin-rotation constants.
 Leave Link  601 at Wed Oct 22 13:45:13 2025, MaxMem=  4294967296 cpu:               1.3 elap:               0.2
 (Enter /lrz/sys/applications/gaussian/g16.C.01/x86_64_legacy/exe/l9999.exe)
 Unable to Open any file for archive entry.
 1\1\GINC-CM4R13C05S08\SP\RwB97XD\def2TZVP\C4H11N1O1\GO29TIZ2\22-Oct-20
 25\0\\#p wb97xd scrf=(smd,solvent=water) def2tzvp\\g16_g16_C17-a_58\\0
 ,1\O,0,-1.103108,1.348025,-0.315053\C,0,-1.127801,-0.066582,-0.31173\N
 ,0,-1.471234,-0.568433,1.007246\C,0,0.145589,-0.663962,-0.929627\C,0,1
 .402114,-0.700097,-0.055982\C,0,1.905709,0.651112,0.445614\H,0,-0.3453
 06,1.642005,0.203067\H,0,-1.963881,-0.328529,-0.978121\H,0,-0.644552,-
 0.53749,1.606493\H,0,-1.705586,-1.557865,0.92558\H,0,0.353326,-0.11176
 9,-1.861852\H,0,-0.093109,-1.698226,-1.228376\H,0,2.199496,-1.18129,-0
 .644939\H,0,1.230639,-1.366709,0.806652\H,0,1.244035,1.082269,1.215484
 \H,0,2.897272,0.550415,0.91252\H,0,1.997501,1.379195,-0.376455\\Versio
 n=EM64L-G16RevC.01\State=1-A\HF=-289.0622995\RMSD=6.675e-09\Dipole=1.2
 7013,-1.064431,0.1492227\Quadrupole=-2.9251888,1.9359186,0.9892702,4.3
 934544,1.9519781,0.715972\PG=C01 [X(C4H11N1O1)]\\@
 The archive entry for this job was punched.


 KEEP CLOSE TO NATURES HEART, YOURSELF;
 AND BREAK CLEAR AWAY, ONCE IN A WHILE, AND
 CLIMB A MOUNTAIN OR SPEND A WEEK IN THE
 WOODS.  WASH YOUR SPIRIT CLEAN...
                                         -- JOHN MUIR
 Job cpu time:       0 days  0 hours 14 minutes 17.2 seconds.
 Elapsed time:       0 days  0 hours  1 minutes 47.6 seconds.
 File lengths (MBytes):  RWF=    288 Int=      0 D2E=      0 Chk=     12 Scr=     32
 Normal termination of Gaussian 16 at Wed Oct 22 13:45:13 2025.
