 Entering Gaussian System, Link 0=g16
 Input=../../g16_g16_C17-w_26.com
 Output=../../g16_g16_C17-w_26.log
 Initial command:
 /lrz/sys/applications/gaussian/g16.C.01/x86_64_legacy/exe/l1.exe "/dss/lxclscratch/0D/go29tiz2/Gau-225007.inp" -scrdir="/dss/lxclscratch/0D/go29tiz2/"
 Entering Link 1 = /lrz/sys/applications/gaussian/g16.C.01/x86_64_legacy/exe/l1.exe PID=    225008.
  
 Copyright (c) 1988-2019, Gaussian, Inc.  All Rights Reserved.
  
 This is part of the Gaussian(R) 16 program.  It is based on
 the Gaussian(R) 09 system (copyright 2009, Gaussian, Inc.),
 the Gaussian(R) 03 system (copyright 2003, Gaussian, Inc.),
 the Gaussian(R) 98 system (copyright 1998, Gaussian, Inc.),
 the Gaussian(R) 94 system (copyright 1995, Gaussian, Inc.),
 the Gaussian 92(TM) system (copyright 1992, Gaussian, Inc.),
 the Gaussian 90(TM) system (copyright 1990, Gaussian, Inc.),
 the Gaussian 88(TM) system (copyright 1988, Gaussian, Inc.),
 the Gaussian 86(TM) system (copyright 1986, Carnegie Mellon
 University), and the Gaussian 82(TM) system (copyright 1983,
 Carnegie Mellon University). Gaussian is a federally registered
 trademark of Gaussian, Inc.
  
 This software contains proprietary and confidential information,
 including trade secrets, belonging to Gaussian, Inc.
  
 This software is provided under written license and may be
 used, copied, transmitted, or stored only in accord with that
 written license.
  
 The following legend is applicable only to US Government
 contracts under FAR:
  
                    RESTRICTED RIGHTS LEGEND
  
 Use, reproduction and disclosure by the US Government is
 subject to restrictions as set forth in subparagraphs (a)
 and (c) of the Commercial Computer Software - Restricted
 Rights clause in FAR 52.227-19.
  
 Gaussian, Inc.
 340 Quinnipiac St., Bldg. 40, Wallingford CT 06492
  
  
 ---------------------------------------------------------------
 Warning -- This program may not be used in any manner that
 competes with the business of Gaussian, Inc. or will provide
 assistance to any competitor of Gaussian, Inc.  The licensee
 of this program is prohibited from giving any competitor of
 Gaussian, Inc. access to this program.  By using this program,
 the user acknowledges that Gaussian, Inc. is engaged in the
 business of creating and licensing software in the field of
 computational chemistry and represents and warrants to the
 licensee that it is not a competitor of Gaussian, Inc. and that
 it will not use this program in any manner prohibited above.
 ---------------------------------------------------------------
  

 Cite this work as:
 Gaussian 16, Revision C.01,
 M. J. Frisch, G. W. Trucks, H. B. Schlegel, G. E. Scuseria, 
 M. A. Robb, J. R. Cheeseman, G. Scalmani, V. Barone, 
 G. A. Petersson, H. Nakatsuji, X. Li, M. Caricato, A. V. Marenich, 
 J. Bloino, B. G. Janesko, R. Gomperts, B. Mennucci, H. P. Hratchian, 
 J. V. Ortiz, A. F. Izmaylov, J. L. Sonnenberg, D. Williams-Young, 
 F. Ding, F. Lipparini, F. Egidi, J. Goings, B. Peng, A. Petrone, 
 T. Henderson, D. Ranasinghe, V. G. Zakrzewski, J. Gao, N. Rega, 
 G. Zheng, W. Liang, M. Hada, M. Ehara, K. Toyota, R. Fukuda, 
 J. Hasegawa, M. Ishida, T. Nakajima, Y. Honda, O. Kitao, H. Nakai, 
 T. Vreven, K. Throssell, J. A. Montgomery, Jr., J. E. Peralta, 
 F. Ogliaro, M. J. Bearpark, J. J. Heyd, E. N. Brothers, K. N. Kudin, 
 V. N. Staroverov, T. A. Keith, R. Kobayashi, J. Normand, 
 K. Raghavachari, A. P. Rendell, J. C. Burant, S. S. Iyengar, 
 J. Tomasi, M. Cossi, J. M. Millam, M. Klene, C. Adamo, R. Cammi, 
 J. W. Ochterski, R. L. Martin, K. Morokuma, O. Farkas, 
 J. B. Foresman, and D. J. Fox, Gaussian, Inc., Wallingford CT, 2019.
 
 ******************************************
 Gaussian 16:  EM64L-G16RevC.01  3-Jul-2019
                22-Oct-2025 
 ******************************************
 %chk=g16_g16_C17-w_26.chk
 %nprocshared=8
 Will use up to    8 processors via shared memory.
 %mem=32GB
 -------------------------------------------
 #p wb97xd scrf=(smd,solvent=water) def2tzvp
 -------------------------------------------
 1/38=1,172=1/1;
 2/12=2,17=6,18=5,40=1/2;
 3/5=44,7=101,11=2,25=1,30=1,70=32201,72=1,74=-58/1,2,3;
 4//1;
 5/5=2,38=5,53=1/2;
 6/7=2,8=2,9=2,10=2,28=1/1;
 99/5=1,9=1/99;
 Leave Link    1 at Wed Oct 22 09:24:11 2025, MaxMem=  4294967296 cpu:               6.7 elap:               0.9
 (Enter /lrz/sys/applications/gaussian/g16.C.01/x86_64_legacy/exe/l101.exe)
 ----------------
 g16_g16_C17-w_26
 ----------------
 Symbolic Z-matrix:
 Charge =  0 Multiplicity = 1
 O                     2.07231  -0.66905  -0.3051 
 C                     0.86249   0.04838  -0.26525 
 O                     0.99531   1.24588   0.46023 
 C                    -0.16431  -0.82614   0.42803 
 C                    -1.53833  -0.18562   0.61072 
 C                    -2.2228    0.21744  -0.69115 
 H                     2.66895  -0.21621  -0.91356 
 H                     0.54904   0.28375  -1.29925 
 H                     1.45278   1.88715  -0.09694 
 H                    -0.25375  -1.75566  -0.15698 
 H                     0.25541  -1.10404   1.40951 
 H                    -2.17817  -0.9002    1.15306 
 H                    -1.44216   0.69621   1.26446 
 H                    -1.67741   1.02356  -1.20644 
 H                    -3.24417   0.58191  -0.50338 
 H                    -2.29379  -0.63544  -1.38561 
 
 ITRead=  0  0  0  0  0  0  0  0  0  0  0  0  0  0  0  0
 MicOpt= -1 -1 -1 -1 -1 -1 -1 -1 -1 -1 -1 -1 -1 -1 -1 -1
 NAtoms=     16 NQM=       16 NQMF=       0 NMMI=      0 NMMIF=      0
                NMic=       0 NMicF=      0.
                    Isotopes and Nuclear Properties:
 (Nuclear quadrupole moments (NQMom) in fm**2, nuclear magnetic moments (NMagM)
  in nuclear magnetons)

  Atom         1           2           3           4           5           6           7           8           9          10
 IAtWgt=          16          12          16          12          12          12           1           1           1           1
 AtmWgt=  15.9949146  12.0000000  15.9949146  12.0000000  12.0000000  12.0000000   1.0078250   1.0078250   1.0078250   1.0078250
 NucSpn=           0           0           0           0           0           0           1           1           1           1
 AtZEff=  -0.0000000  -0.0000000  -0.0000000  -0.0000000  -0.0000000  -0.0000000  -0.0000000  -0.0000000  -0.0000000  -0.0000000
 NQMom=    0.0000000   0.0000000   0.0000000   0.0000000   0.0000000   0.0000000   0.0000000   0.0000000   0.0000000   0.0000000
 NMagM=    0.0000000   0.0000000   0.0000000   0.0000000   0.0000000   0.0000000   2.7928460   2.7928460   2.7928460   2.7928460
 AtZNuc=   8.0000000   6.0000000   8.0000000   6.0000000   6.0000000   6.0000000   1.0000000   1.0000000   1.0000000   1.0000000

  Atom        11          12          13          14          15          16
 IAtWgt=           1           1           1           1           1           1
 AtmWgt=   1.0078250   1.0078250   1.0078250   1.0078250   1.0078250   1.0078250
 NucSpn=           1           1           1           1           1           1
 AtZEff=  -0.0000000  -0.0000000  -0.0000000  -0.0000000  -0.0000000  -0.0000000
 NQMom=    0.0000000   0.0000000   0.0000000   0.0000000   0.0000000   0.0000000
 NMagM=    2.7928460   2.7928460   2.7928460   2.7928460   2.7928460   2.7928460
 AtZNuc=   1.0000000   1.0000000   1.0000000   1.0000000   1.0000000   1.0000000
 Leave Link  101 at Wed Oct 22 09:24:11 2025, MaxMem=  4294967296 cpu:               1.8 elap:               0.3
 (Enter /lrz/sys/applications/gaussian/g16.C.01/x86_64_legacy/exe/l202.exe)
                          Input orientation:                          
 ---------------------------------------------------------------------
 Center     Atomic      Atomic             Coordinates (Angstroms)
 Number     Number       Type             X           Y           Z
 ---------------------------------------------------------------------
      1          8           0        2.072310   -0.669053   -0.305099
      2          6           0        0.862491    0.048375   -0.265248
      3          8           0        0.995308    1.245884    0.460228
      4          6           0       -0.164312   -0.826140    0.428029
      5          6           0       -1.538326   -0.185622    0.610722
      6          6           0       -2.222800    0.217437   -0.691154
      7          1           0        2.668954   -0.216209   -0.913562
      8          1           0        0.549041    0.283751   -1.299250
      9          1           0        1.452780    1.887154   -0.096939
     10          1           0       -0.253746   -1.755659   -0.156978
     11          1           0        0.255414   -1.104037    1.409507
     12          1           0       -2.178172   -0.900197    1.153056
     13          1           0       -1.442164    0.696205    1.264458
     14          1           0       -1.677408    1.023562   -1.206440
     15          1           0       -3.244170    0.581914   -0.503376
     16          1           0       -2.293785   -0.635436   -1.385607
 ---------------------------------------------------------------------
                    Distance matrix (angstroms):
                    1          2          3          4          5
     1  O    0.000000
     2  C    1.407108   0.000000
     3  O    2.326509   1.406408   0.000000
     4  C    2.358947   1.516487   2.374666   0.000000
     5  C    3.756212   2.566320   2.913959   1.526943   0.000000
     6  C    4.402598   3.119134   3.569258   2.564955   1.525071
     7  H    0.965028   1.937427   2.612682   3.193631   4.474995
     8  H    2.053417   1.105809   2.054414   2.173528   2.867997
     9  H    2.638436   1.938524   0.964854   3.201959   3.707277
    10  H    2.571612   2.124205   3.309130   1.101924   2.168992
    11  H    2.535783   2.121650   2.640209   1.103039   2.167728
    12  H    4.499582   3.486690   3.893154   2.141677   1.101883
    13  H    4.083989   2.840971   2.624920   2.156398   1.101924
    14  H    4.211620   2.878875   3.157629   2.895228   2.187132
    15  H    5.465271   4.148016   4.398018   3.512215   2.177207
    16  H    4.497934   3.418315   4.214808   2.803622   2.181371
                    6          7          8          9         10
     6  C    0.000000
     7  H    4.915971   0.000000
     8  H    2.838535   2.211955   0.000000
     9  H    4.080556   2.563218   2.198453   0.000000
    10  H    2.838243   3.388879   2.471527   4.023173   0.000000
    11  H    3.507223   3.465554   3.057701   3.556724   1.771364
    12  H    2.156898   5.313509   3.853989   4.745063   2.480206
    13  H    2.159405   4.741051   3.272249   3.413570   3.073183
    14  H    1.101276   4.529202   2.347980   3.431452   3.294276
    15  H    1.100591   5.980827   3.887257   4.891849   3.811414
    16  H    1.102133   5.002735   2.988983   4.696901   2.631765
                   11         12         13         14         15
    11  H    0.000000
    12  H    2.455536   0.000000
    13  H    2.478645   1.761425   0.000000
    14  H    3.886600   3.085261   2.503565   0.000000
    15  H    4.329970   2.465111   2.526960   1.773160   0.000000
    16  H    3.811911   2.555049   3.085672   1.778847   1.778624
                   16
    16  H    0.000000
 Stoichiometry    C4H10O2
 Framework group  C1[X(C4H10O2)]
 Deg. of freedom    42
 Full point group                 C1      NOp   1
 Largest Abelian subgroup         C1      NOp   1
 Largest concise Abelian subgroup C1      NOp   1
                         Standard orientation:                         
 ---------------------------------------------------------------------
 Center     Atomic      Atomic             Coordinates (Angstroms)
 Number     Number       Type             X           Y           Z
 ---------------------------------------------------------------------
      1          8           0       -2.072310   -0.669053    0.305099
      2          6           0       -0.862491    0.048375    0.265248
      3          8           0       -0.995308    1.245884   -0.460228
      4          6           0        0.164312   -0.826140   -0.428029
      5          6           0        1.538326   -0.185622   -0.610722
      6          6           0        2.222800    0.217437    0.691154
      7          1           0       -2.668954   -0.216209    0.913562
      8          1           0       -0.549041    0.283751    1.299250
      9          1           0       -1.452780    1.887154    0.096939
     10          1           0        0.253746   -1.755659    0.156978
     11          1           0       -0.255414   -1.104037   -1.409507
     12          1           0        2.178172   -0.900197   -1.153056
     13          1           0        1.442164    0.696205   -1.264458
     14          1           0        1.677408    1.023562    1.206440
     15          1           0        3.244170    0.581914    0.503376
     16          1           0        2.293785   -0.635436    1.385607
 ---------------------------------------------------------------------
 Rotational constants (GHZ):           6.1918746           2.0588605           1.8785768
 Leave Link  202 at Wed Oct 22 09:24:11 2025, MaxMem=  4294967296 cpu:               0.0 elap:               0.0
 (Enter /lrz/sys/applications/gaussian/g16.C.01/x86_64_legacy/exe/l301.exe)
 Standard basis: def2TZVP (5D, 7F)
 Ernie: Thresh=  0.10000D-02 Tol=  0.10000D-05 Strict=F.
 There are   276 symmetry adapted cartesian basis functions of A   symmetry.
 There are   246 symmetry adapted basis functions of A   symmetry.
   246 basis functions,   386 primitive gaussians,   276 cartesian basis functions
    25 alpha electrons       25 beta electrons
       nuclear repulsion energy       261.2138828038 Hartrees.
 IExCor= 4639 DFT=T Ex+Corr=wB97XD ExCW=0 ScaHFX=  1.000000
 ScaDFX=  1.000000  1.000000  1.000000  1.000000 ScalE2=  1.000000  1.000000
 IRadAn=      5 IRanWt=     -1 IRanGd=            0 ICorTp=0 IEmpDi=121
 HFx  wShort=  0.000000 wLong=  0.200000 cFull=  0.222036 cShort=  0.000000 cLong=  0.777964
 DFx  wShort=  0.000000 wLong=  0.200000 cFull=  0.000000 cShort=  0.000000 cLong=  1.000000
 NAtoms=   16 NActive=   16 NUniq=   16 SFac= 1.00D+00 NAtFMM=   60 NAOKFM=F Big=F
 Integral buffers will be    131072 words long.
 Raffenetti 2 integral format.
 Two-electron integral symmetry is turned on.
 R6Disp:  Grimme-D2 Dispersion energy=       -0.0082903620 Hartrees.
 Nuclear repulsion after empirical dispersion term =      261.2055924418 Hartrees.
 ------------------------------------------------------------------------------
 Polarizable Continuum Model (PCM)
 =================================
 Model                : PCM.
 Atomic radii         : SMD-Coulomb.
 Polarization charges : Total charges.
 Charge compensation  : None.
 Solution method      : On-the-fly selection.
 Cavity type          : VdW (van der Waals Surface) (Alpha=1.000).
 Cavity algorithm     : GePol (No added spheres)
                        Default sphere list used, NSphG=   16.
                        Lebedev-Laikov grids with approx.  5.0 points / Ang**2.
                        Smoothing algorithm: York/Karplus (Gamma=1.0000).
                        Polarization charges: spherical gaussians, with
                                              point-specific exponents (IZeta= 3).
                        Self-potential: point-specific (ISelfS= 7).
                        Self-field    : sphere-specific E.n sum rule (ISelfD= 2).
 Solvent              : Water, Eps=  78.355300 Eps(inf)=   1.777849
 ------------------------------------------------------------------------------
 Spheres list:
 ISph  on   Nord     Re0    Alpha      Xe            Ye            Ze
    1   O      1    1.5200  1.000     -2.072310     -0.669053      0.305099
    2   C      2    1.8500  1.000     -0.862491      0.048375      0.265248
    3   O      3    1.5200  1.000     -0.995308      1.245884     -0.460228
    4   C      4    1.8500  1.000      0.164312     -0.826140     -0.428029
    5   C      5    1.8500  1.000      1.538326     -0.185622     -0.610722
    6   C      6    1.8500  1.000      2.222800      0.217437      0.691154
    7   H      7    1.2000  1.000     -2.668954     -0.216209      0.913562
    8   H      8    1.2000  1.000     -0.549041      0.283751      1.299250
    9   H      9    1.2000  1.000     -1.452780      1.887154      0.096939
   10   H     10    1.2000  1.000      0.253746     -1.755659      0.156978
   11   H     11    1.2000  1.000     -0.255414     -1.104037     -1.409507
   12   H     12    1.2000  1.000      2.178172     -0.900197     -1.153056
   13   H     13    1.2000  1.000      1.442164      0.696205     -1.264458
   14   H     14    1.2000  1.000      1.677408      1.023562      1.206440
   15   H     15    1.2000  1.000      3.244170      0.581914      0.503376
   16   H     16    1.2000  1.000      2.293785     -0.635436      1.385607
 ------------------------------------------------------------------------------
 GePol: Number of generator spheres                  =      16
 GePol: Total number of spheres                      =      16
 GePol: Number of exposed spheres                    =      16 (100.00%)
 GePol: Number of points                             =    1101
 GePol: Average weight of points                     =       0.12
 GePol: Minimum weight of points                     =   0.65D-07
 GePol: Maximum weight of points                     =    0.21991
 GePol: Number of points with low weight             =      71
 GePol: Fraction of low-weight points (<1% of avg)   =       6.45%
 GePol: Cavity surface area                          =    131.375 Ang**2
 GePol: Cavity volume                                =    100.369 Ang**3
 ------------------------------------------------------------------------------
 Atomic radii for non-electrostatic terms: SMD-CDS.
 ------------------------------------------------------------------------------
 PCM non-electrostatic energy =         0.0051407819 Hartrees.
 Nuclear repulsion after PCM non-electrostatic terms =      261.2107332237 Hartrees.
 Leave Link  301 at Wed Oct 22 09:24:11 2025, MaxMem=  4294967296 cpu:               0.5 elap:               0.1
 (Enter /lrz/sys/applications/gaussian/g16.C.01/x86_64_legacy/exe/l302.exe)
 NPDir=0 NMtPBC=     1 NCelOv=     1 NCel=       1 NClECP=     1 NCelD=      1
         NCelK=      1 NCelE2=     1 NClLst=     1 CellRange=     0.0.
 One-electron integrals computed using PRISM.
 One-electron integral symmetry used in STVInt
   1 Symmetry operations used in ECPInt.
 ECPInt:  NShTT=    5671 NPrTT=   16452 LenC2=    5593 LenP2D=   13386.
 LDataN:  DoStor=T MaxTD1= 6 Len=  172
 NBasis=   246 RedAO= T EigKep=  2.41D-04  NBF=   246
 NBsUse=   246 1.00D-06 EigRej= -1.00D+00 NBFU=   246
 Precomputing XC quadrature grid using
 IXCGrd= 4 IRadAn=           5 IRanWt=          -1 IRanGd=           0 AccXCQ= 0.00D+00.
 Generated NRdTot=       0 NPtTot=           0 NUsed=           0 NTot=          32
 NSgBfM=   276   276   276   276   276 MxSgAt=    16 MxSgA2=    16.
 Leave Link  302 at Wed Oct 22 09:24:11 2025, MaxMem=  4294967296 cpu:               2.1 elap:               0.3
 (Enter /lrz/sys/applications/gaussian/g16.C.01/x86_64_legacy/exe/l303.exe)
 DipDrv:  MaxL=1.
 Leave Link  303 at Wed Oct 22 09:24:11 2025, MaxMem=  4294967296 cpu:               0.3 elap:               0.1
 (Enter /lrz/sys/applications/gaussian/g16.C.01/x86_64_legacy/exe/l401.exe)
 ExpMin= 9.52D-02 ExpMax= 2.70D+04 ExpMxC= 9.22D+02 IAcc=3 IRadAn=         5 AccDes= 0.00D+00
 Harris functional with IExCor= 4639 and IRadAn=       5 diagonalized for initial guess.
 HarFok:  IExCor= 4639 AccDes= 0.00D+00 IRadAn=         5 IDoV= 1 UseB2=F ITyADJ=14
 ICtDFT=  3500011 ScaDFX=  1.000000  1.000000  1.000000  1.000000
 FoFCou: FMM=F IPFlag=           0 FMFlag=      100000 FMFlg1=           0
         NFxFlg=           0 DoJE=T BraDBF=F KetDBF=T FulRan=T
         wScrn=  0.000000 ICntrl=       500 IOpCl=  0 I1Cent=   200000004 NGrid=           0
         NMat0=    1 NMatS0=      1 NMatT0=    0 NMatD0=    1 NMtDS0=    0 NMtDT0=    0
 Petite list used in FoFCou.
 Harris En= -295.781270276295    
 JPrj=0 DoOrth=F DoCkMO=F.
 Leave Link  401 at Wed Oct 22 09:24:13 2025, MaxMem=  4294967296 cpu:              15.1 elap:               1.9
 (Enter /lrz/sys/applications/gaussian/g16.C.01/x86_64_legacy/exe/l502.exe)
 Integral symmetry usage will be decided dynamically.
 Closed shell SCF:
 Using DIIS extrapolation, IDIIS=  1040.
 NGot=  4294967296 LenX=  4294809698 LenY=  4294733081
 Requested convergence on RMS density matrix=1.00D-08 within 128 cycles.
 Requested convergence on MAX density matrix=1.00D-06.
 Requested convergence on             energy=1.00D-06.
 No special actions if energy rises.
 Fock matrices will be formed incrementally for  20 cycles.

 Cycle   1  Pass 1  IDiag  1:
 FoFJK:  IHMeth= 1 ICntrl=       0 DoSepK=T KAlg= 0 I1Cent=           0 FoldK=F
 IRaf=         1 NMat=       1 IRICut=       1 DoRegI=T DoRafI=F ISym2E= 0 IDoP0=0 IntGTp=1.
 FoFCou: FMM=F IPFlag=           0 FMFlag=      100000 FMFlg1=           0
         NFxFlg=           0 DoJE=T BraDBF=F KetDBF=F FulRan=T
         wScrn=  0.000000 ICntrl=       500 IOpCl=  0 I1Cent=           0 NGrid=           0
         NMat0=    1 NMatS0=      1 NMatT0=    0 NMatD0=    1 NMtDS0=    0 NMtDT0=    0
 Symmetry not used in FoFCou.
 Inv3:  Mode=1 IEnd=     3636603.
 Iteration    1 A*A^-1 deviation from unit magnitude is 5.77D-15 for    289.
 Iteration    1 A*A^-1 deviation from orthogonality  is 3.55D-15 for   1046    547.
 Iteration    1 A^-1*A deviation from unit magnitude is 4.88D-15 for    289.
 Iteration    1 A^-1*A deviation from orthogonality  is 2.99D-14 for   1091   1073.
 E= -308.854760800498    
 DIIS: error= 5.41D-02 at cycle   1 NSaved=   1.
 NSaved= 1 IEnMin= 1 EnMin= -308.854760800498     IErMin= 1 ErrMin= 5.41D-02
 ErrMax= 5.41D-02  0.00D+00 EMaxC= 1.00D-01 BMatC= 6.49D-01 BMatP= 6.49D-01
 IDIUse=3 WtCom= 4.59D-01 WtEn= 5.41D-01
 Coeff-Com:  0.100D+01
 Coeff-En:   0.100D+01
 Coeff:      0.100D+01
 Gap=     0.554 Goal=   None    Shift=    0.000
 GapD=    0.554 DampG=2.000 DampE=0.500 DampFc=1.0000 IDamp=-1.
 RMSDP=2.02D-03 MaxDP=9.74D-02              OVMax= 6.16D-02

 Cycle   2  Pass 1  IDiag  1:
 RMSU=  1.94D-03    CP:  9.45D-01
 E= -308.910618771414     Delta-E=       -0.055857970916 Rises=F Damp=F
 DIIS: error= 8.66D-03 at cycle   2 NSaved=   2.
 NSaved= 2 IEnMin= 2 EnMin= -308.910618771414     IErMin= 2 ErrMin= 8.66D-03
 ErrMax= 8.66D-03  0.00D+00 EMaxC= 1.00D-01 BMatC= 4.67D-02 BMatP= 6.49D-01
 IDIUse=3 WtCom= 9.13D-01 WtEn= 8.66D-02
 Coeff-Com:  0.147D+00 0.853D+00
 Coeff-En:   0.691D-01 0.931D+00
 Coeff:      0.140D+00 0.860D+00
 Gap=     0.555 Goal=   None    Shift=    0.000
 RMSDP=7.96D-04 MaxDP=2.69D-02 DE=-5.59D-02 OVMax= 4.56D-02

 Cycle   3  Pass 1  IDiag  1:
 RMSU=  6.17D-04    CP:  9.55D-01  7.46D-01
 E= -308.926586050315     Delta-E=       -0.015967278900 Rises=F Damp=F
 DIIS: error= 6.67D-03 at cycle   3 NSaved=   3.
 NSaved= 3 IEnMin= 3 EnMin= -308.926586050315     IErMin= 3 ErrMin= 6.67D-03
 ErrMax= 6.67D-03  0.00D+00 EMaxC= 1.00D-01 BMatC= 2.32D-02 BMatP= 4.67D-02
 IDIUse=3 WtCom= 9.33D-01 WtEn= 6.67D-02
 Coeff-Com:  0.235D-01 0.421D+00 0.555D+00
 Coeff-En:   0.000D+00 0.321D+00 0.679D+00
 Coeff:      0.219D-01 0.415D+00 0.563D+00
 Gap=     0.500 Goal=   None    Shift=    0.000
 RMSDP=4.16D-04 MaxDP=1.86D-02 DE=-1.60D-02 OVMax= 2.14D-02

 Cycle   4  Pass 1  IDiag  1:
 RMSU=  1.40D-04    CP:  9.47D-01  9.16D-01  6.87D-01
 E= -308.942155485789     Delta-E=       -0.015569435474 Rises=F Damp=F
 DIIS: error= 7.86D-04 at cycle   4 NSaved=   4.
 NSaved= 4 IEnMin= 4 EnMin= -308.942155485789     IErMin= 4 ErrMin= 7.86D-04
 ErrMax= 7.86D-04  0.00D+00 EMaxC= 1.00D-01 BMatC= 2.27D-04 BMatP= 2.32D-02
 IDIUse=3 WtCom= 9.92D-01 WtEn= 7.86D-03
 Coeff-Com:  0.800D-02 0.150D+00 0.226D+00 0.615D+00
 Coeff-En:   0.000D+00 0.000D+00 0.000D+00 0.100D+01
 Coeff:      0.794D-02 0.149D+00 0.225D+00 0.618D+00
 Gap=     0.493 Goal=   None    Shift=    0.000
 RMSDP=4.14D-05 MaxDP=1.49D-03 DE=-1.56D-02 OVMax= 2.15D-03

 Cycle   5  Pass 1  IDiag  1:
 RMSU=  3.57D-05    CP:  9.46D-01  9.23D-01  7.12D-01  9.84D-01
 E= -308.942313682263     Delta-E=       -0.000158196474 Rises=F Damp=F
 DIIS: error= 1.33D-04 at cycle   5 NSaved=   5.
 NSaved= 5 IEnMin= 5 EnMin= -308.942313682263     IErMin= 5 ErrMin= 1.33D-04
 ErrMax= 1.33D-04  0.00D+00 EMaxC= 1.00D-01 BMatC= 8.36D-06 BMatP= 2.27D-04
 IDIUse=3 WtCom= 9.99D-01 WtEn= 1.33D-03
 Coeff-Com: -0.193D-02-0.309D-01-0.318D-01 0.105D+00 0.960D+00
 Coeff-En:   0.000D+00 0.000D+00 0.000D+00 0.000D+00 0.100D+01
 Coeff:     -0.193D-02-0.309D-01-0.318D-01 0.105D+00 0.960D+00
 Gap=     0.493 Goal=   None    Shift=    0.000
 RMSDP=3.48D-05 MaxDP=1.05D-03 DE=-1.58D-04 OVMax= 8.55D-04

 Cycle   6  Pass 1  IDiag  1:
 RMSU=  1.04D-05    CP:  9.46D-01  9.32D-01  7.37D-01  1.13D+00  1.25D+00
 E= -308.942325094659     Delta-E=       -0.000011412396 Rises=F Damp=F
 DIIS: error= 2.15D-05 at cycle   6 NSaved=   6.
 NSaved= 6 IEnMin= 6 EnMin= -308.942325094659     IErMin= 6 ErrMin= 2.15D-05
 ErrMax= 2.15D-05  0.00D+00 EMaxC= 1.00D-01 BMatC= 1.89D-07 BMatP= 8.36D-06
 IDIUse=1 WtCom= 1.00D+00 WtEn= 0.00D+00
 Coeff-Com: -0.396D-03-0.743D-02-0.101D-01-0.117D-01 0.485D-01 0.981D+00
 Coeff:     -0.396D-03-0.743D-02-0.101D-01-0.117D-01 0.485D-01 0.981D+00
 Gap=     0.493 Goal=   None    Shift=    0.000
 RMSDP=8.65D-06 MaxDP=3.05D-04 DE=-1.14D-05 OVMax= 2.18D-04

 Cycle   7  Pass 1  IDiag  1:
 RMSU=  2.62D-06    CP:  9.46D-01  9.34D-01  7.41D-01  1.16D+00  1.36D+00
                    CP:  1.35D+00
 E= -308.942325472006     Delta-E=       -0.000000377347 Rises=F Damp=F
 DIIS: error= 9.80D-06 at cycle   7 NSaved=   7.
 NSaved= 7 IEnMin= 7 EnMin= -308.942325472006     IErMin= 7 ErrMin= 9.80D-06
 ErrMax= 9.80D-06  0.00D+00 EMaxC= 1.00D-01 BMatC= 3.27D-08 BMatP= 1.89D-07
 IDIUse=1 WtCom= 1.00D+00 WtEn= 0.00D+00
 Coeff-Com:  0.184D-04 0.423D-04-0.560D-03-0.896D-02-0.520D-01 0.265D+00
 Coeff-Com:  0.797D+00
 Coeff:      0.184D-04 0.423D-04-0.560D-03-0.896D-02-0.520D-01 0.265D+00
 Coeff:      0.797D+00
 Gap=     0.493 Goal=   None    Shift=    0.000
 RMSDP=2.21D-06 MaxDP=1.09D-04 DE=-3.77D-07 OVMax= 5.26D-05

 Cycle   8  Pass 1  IDiag  1:
 RMSU=  6.88D-07    CP:  9.46D-01  9.34D-01  7.42D-01  1.17D+00  1.38D+00
                    CP:  1.48D+00  1.24D+00
 E= -308.942325513510     Delta-E=       -0.000000041504 Rises=F Damp=F
 DIIS: error= 3.16D-06 at cycle   8 NSaved=   8.
 NSaved= 8 IEnMin= 8 EnMin= -308.942325513510     IErMin= 8 ErrMin= 3.16D-06
 ErrMax= 3.16D-06  0.00D+00 EMaxC= 1.00D-01 BMatC= 2.99D-09 BMatP= 3.27D-08
 IDIUse=1 WtCom= 1.00D+00 WtEn= 0.00D+00
 Coeff-Com:  0.383D-04 0.673D-03 0.817D-03-0.860D-03-0.172D-01-0.309D-01
 Coeff-Com:  0.204D+00 0.843D+00
 Coeff:      0.383D-04 0.673D-03 0.817D-03-0.860D-03-0.172D-01-0.309D-01
 Coeff:      0.204D+00 0.843D+00
 Gap=     0.493 Goal=   None    Shift=    0.000
 RMSDP=8.36D-07 MaxDP=4.85D-05 DE=-4.15D-08 OVMax= 2.23D-05

 Cycle   9  Pass 1  IDiag  1:
 RMSU=  1.72D-07    CP:  9.46D-01  9.34D-01  7.43D-01  1.17D+00  1.39D+00
                    CP:  1.53D+00  1.41D+00  1.16D+00
 E= -308.942325517773     Delta-E=       -0.000000004263 Rises=F Damp=F
 DIIS: error= 4.36D-07 at cycle   9 NSaved=   9.
 NSaved= 9 IEnMin= 9 EnMin= -308.942325517773     IErMin= 9 ErrMin= 4.36D-07
 ErrMax= 4.36D-07  0.00D+00 EMaxC= 1.00D-01 BMatC= 1.38D-10 BMatP= 2.99D-09
 IDIUse=1 WtCom= 1.00D+00 WtEn= 0.00D+00
 Coeff-Com:  0.636D-06 0.412D-04 0.116D-03 0.725D-03 0.323D-02-0.248D-01
 Coeff-Com: -0.506D-01 0.578D-01 0.101D+01
 Coeff:      0.636D-06 0.412D-04 0.116D-03 0.725D-03 0.323D-02-0.248D-01
 Coeff:     -0.506D-01 0.578D-01 0.101D+01
 Gap=     0.493 Goal=   None    Shift=    0.000
 RMSDP=3.17D-07 MaxDP=2.04D-05 DE=-4.26D-09 OVMax= 8.53D-06

 Cycle  10  Pass 1  IDiag  1:
 RMSU=  6.17D-08    CP:  9.46D-01  9.34D-01  7.43D-01  1.17D+00  1.39D+00
                    CP:  1.55D+00  1.47D+00  1.30D+00  1.34D+00
 E= -308.942325518020     Delta-E=       -0.000000000247 Rises=F Damp=F
 DIIS: error= 3.11D-07 at cycle  10 NSaved=  10.
 NSaved=10 IEnMin=10 EnMin= -308.942325518020     IErMin=10 ErrMin= 3.11D-07
 ErrMax= 3.11D-07  0.00D+00 EMaxC= 1.00D-01 BMatC= 4.54D-11 BMatP= 1.38D-10
 IDIUse=1 WtCom= 1.00D+00 WtEn= 0.00D+00
 Coeff-Com: -0.171D-05-0.162D-04 0.123D-04 0.417D-03 0.255D-02-0.106D-01
 Coeff-Com: -0.370D-01-0.194D-01 0.497D+00 0.567D+00
 Coeff:     -0.171D-05-0.162D-04 0.123D-04 0.417D-03 0.255D-02-0.106D-01
 Coeff:     -0.370D-01-0.194D-01 0.497D+00 0.567D+00
 Gap=     0.493 Goal=   None    Shift=    0.000
 RMSDP=4.56D-08 MaxDP=3.03D-06 DE=-2.47D-10 OVMax= 1.54D-06

 Cycle  11  Pass 1  IDiag  1:
 RMSU=  1.97D-08    CP:  9.46D-01  9.34D-01  7.43D-01  1.17D+00  1.39D+00
                    CP:  1.55D+00  1.48D+00  1.32D+00  1.44D+00  1.06D+00
 E= -308.942325518050     Delta-E=       -0.000000000030 Rises=F Damp=F
 DIIS: error= 5.31D-08 at cycle  11 NSaved=  11.
 NSaved=11 IEnMin=11 EnMin= -308.942325518050     IErMin=11 ErrMin= 5.31D-08
 ErrMax= 5.31D-08  0.00D+00 EMaxC= 1.00D-01 BMatC= 1.50D-12 BMatP= 4.54D-11
 IDIUse=1 WtCom= 1.00D+00 WtEn= 0.00D+00
 Coeff-Com:  0.443D-07-0.388D-05-0.136D-04-0.705D-04-0.379D-03 0.296D-02
 Coeff-Com:  0.521D-02-0.861D-02-0.120D+00 0.529D-01 0.107D+01
 Coeff:      0.443D-07-0.388D-05-0.136D-04-0.705D-04-0.379D-03 0.296D-02
 Coeff:      0.521D-02-0.861D-02-0.120D+00 0.529D-01 0.107D+01
 Gap=     0.493 Goal=   None    Shift=    0.000
 RMSDP=2.80D-08 MaxDP=1.97D-06 DE=-3.02D-11 OVMax= 9.48D-07

 Cycle  12  Pass 1  IDiag  1:
 RMSU=  5.75D-09    CP:  9.46D-01  9.34D-01  7.43D-01  1.17D+00  1.39D+00
                    CP:  1.55D+00  1.49D+00  1.33D+00  1.51D+00  1.27D+00
                    CP:  1.26D+00
 E= -308.942325518056     Delta-E=       -0.000000000006 Rises=F Damp=F
 DIIS: error= 5.98D-09 at cycle  12 NSaved=  12.
 NSaved=12 IEnMin=12 EnMin= -308.942325518056     IErMin=12 ErrMin= 5.98D-09
 ErrMax= 5.98D-09  0.00D+00 EMaxC= 1.00D-01 BMatC= 2.25D-14 BMatP= 1.50D-12
 IDIUse=1 WtCom= 1.00D+00 WtEn= 0.00D+00
 Coeff-Com:  0.353D-07 0.624D-06 0.419D-06-0.721D-05-0.566D-04 0.152D-03
 Coeff-Com:  0.827D-03 0.129D-02-0.880D-02-0.218D-01-0.638D-01 0.109D+01
 Coeff:      0.353D-07 0.624D-06 0.419D-06-0.721D-05-0.566D-04 0.152D-03
 Coeff:      0.827D-03 0.129D-02-0.880D-02-0.218D-01-0.638D-01 0.109D+01
 Gap=     0.493 Goal=   None    Shift=    0.000
 RMSDP=4.39D-09 MaxDP=2.94D-07 DE=-5.80D-12 OVMax= 1.56D-07

 Error on total polarization charges =  0.04631
 SCF Done:  E(RwB97XD) =  -308.942325518     A.U. after   12 cycles
            NFock= 12  Conv=0.44D-08     -V/T= 2.0052
 KE= 3.073401675510D+02 PE=-1.245432021976D+03 EE= 3.679387956830D+02
 SMD-CDS (non-electrostatic) energy       (kcal/mol) =       3.23
 (included in total energy above)
 Leave Link  502 at Wed Oct 22 09:25:41 2025, MaxMem=  4294967296 cpu:             698.2 elap:              87.4
 (Enter /lrz/sys/applications/gaussian/g16.C.01/x86_64_legacy/exe/l601.exe)
 Copying SCF densities to generalized density rwf, IOpCl= 0 IROHF=0.

 **********************************************************************

            Population analysis using the SCF Density.

 **********************************************************************

 Orbital symmetries:
       Occupied  (A) (A) (A) (A) (A) (A) (A) (A) (A) (A) (A) (A)
                 (A) (A) (A) (A) (A) (A) (A) (A) (A) (A) (A) (A)
                 (A)
       Virtual   (A) (A) (A) (A) (A) (A) (A) (A) (A) (A) (A) (A)
                 (A) (A) (A) (A) (A) (A) (A) (A) (A) (A) (A) (A)
                 (A) (A) (A) (A) (A) (A) (A) (A) (A) (A) (A) (A)
                 (A) (A) (A) (A) (A) (A) (A) (A) (A) (A) (A) (A)
                 (A) (A) (A) (A) (A) (A) (A) (A) (A) (A) (A) (A)
                 (A) (A) (A) (A) (A) (A) (A) (A) (A) (A) (A) (A)
                 (A) (A) (A) (A) (A) (A) (A) (A) (A) (A) (A) (A)
                 (A) (A) (A) (A) (A) (A) (A) (A) (A) (A) (A) (A)
                 (A) (A) (A) (A) (A) (A) (A) (A) (A) (A) (A) (A)
                 (A) (A) (A) (A) (A) (A) (A) (A) (A) (A) (A) (A)
                 (A) (A) (A) (A) (A) (A) (A) (A) (A) (A) (A) (A)
                 (A) (A) (A) (A) (A) (A) (A) (A) (A) (A) (A) (A)
                 (A) (A) (A) (A) (A) (A) (A) (A) (A) (A) (A) (A)
                 (A) (A) (A) (A) (A) (A) (A) (A) (A) (A) (A) (A)
                 (A) (A) (A) (A) (A) (A) (A) (A) (A) (A) (A) (A)
                 (A) (A) (A) (A) (A) (A) (A) (A) (A) (A) (A) (A)
                 (A) (A) (A) (A) (A) (A) (A) (A) (A) (A) (A) (A)
                 (A) (A) (A) (A) (A) (A) (A) (A) (A) (A) (A) (A)
                 (A) (A) (A) (A) (A)
 The electronic state is 1-A.
 Alpha  occ. eigenvalues --  -19.25473 -19.25457 -10.37583 -10.27287 -10.27203
 Alpha  occ. eigenvalues --  -10.26388  -1.16625  -1.09917  -0.88807  -0.80702
 Alpha  occ. eigenvalues --   -0.72569  -0.65722  -0.62278  -0.61706  -0.54673
 Alpha  occ. eigenvalues --   -0.51657  -0.50013  -0.47312  -0.46797  -0.44694
 Alpha  occ. eigenvalues --   -0.41439  -0.40661  -0.40310  -0.38279  -0.37945
 Alpha virt. eigenvalues --    0.11353   0.13383   0.15392   0.16233   0.17757
 Alpha virt. eigenvalues --    0.19328   0.20168   0.20382   0.21636   0.22717
 Alpha virt. eigenvalues --    0.26028   0.27269   0.28670   0.28991   0.30590
 Alpha virt. eigenvalues --    0.31873   0.32682   0.33839   0.34132   0.37956
 Alpha virt. eigenvalues --    0.39168   0.43022   0.43260   0.44491   0.46446
 Alpha virt. eigenvalues --    0.46780   0.49277   0.50055   0.50865   0.52235
 Alpha virt. eigenvalues --    0.52521   0.52707   0.53900   0.54095   0.57146
 Alpha virt. eigenvalues --    0.58151   0.59632   0.60215   0.61568   0.62870
 Alpha virt. eigenvalues --    0.64983   0.65759   0.69466   0.70574   0.72931
 Alpha virt. eigenvalues --    0.73826   0.80101   0.83671   0.86802   0.89624
 Alpha virt. eigenvalues --    0.91797   0.93584   0.95600   0.97355   0.98189
 Alpha virt. eigenvalues --    1.01509   1.04421   1.08033   1.11889   1.12774
 Alpha virt. eigenvalues --    1.16818   1.18505   1.21347   1.22460   1.24728
 Alpha virt. eigenvalues --    1.28145   1.30157   1.33335   1.37126   1.38896
 Alpha virt. eigenvalues --    1.48588   1.55634   1.59647   1.61099   1.62305
 Alpha virt. eigenvalues --    1.62964   1.65592   1.66714   1.67346   1.68574
 Alpha virt. eigenvalues --    1.69433   1.71570   1.73251   1.76683   1.77778
 Alpha virt. eigenvalues --    1.79659   1.86125   1.87203   1.88801   1.89787
 Alpha virt. eigenvalues --    1.95057   1.95960   1.96917   1.99737   2.03304
 Alpha virt. eigenvalues --    2.04771   2.05013   2.10095   2.12055   2.16084
 Alpha virt. eigenvalues --    2.20827   2.22083   2.25302   2.27805   2.29376
 Alpha virt. eigenvalues --    2.31472   2.33894   2.37512   2.39512   2.39720
 Alpha virt. eigenvalues --    2.42557   2.44103   2.47809   2.50213   2.50976
 Alpha virt. eigenvalues --    2.54609   2.57590   2.58937   2.62487   2.65446
 Alpha virt. eigenvalues --    2.65483   2.67006   2.68900   2.72766   2.74005
 Alpha virt. eigenvalues --    2.74937   2.77710   2.79272   2.80675   2.81430
 Alpha virt. eigenvalues --    2.84218   2.87485   2.89081   2.91732   2.97529
 Alpha virt. eigenvalues --    3.00398   3.04434   3.06042   3.07189   3.13934
 Alpha virt. eigenvalues --    3.16827   3.18004   3.18935   3.23344   3.27031
 Alpha virt. eigenvalues --    3.27604   3.30829   3.34621   3.35104   3.35696
 Alpha virt. eigenvalues --    3.38102   3.40934   3.43719   3.43945   3.46467
 Alpha virt. eigenvalues --    3.49438   3.53797   3.55479   3.56079   3.59693
 Alpha virt. eigenvalues --    3.61778   3.64237   3.65994   3.75650   3.79783
 Alpha virt. eigenvalues --    3.81454   3.85171   3.86271   3.92433   3.99261
 Alpha virt. eigenvalues --    4.00370   4.03422   4.07912   4.08804   4.15011
 Alpha virt. eigenvalues --    4.16420   4.20145   4.29103   4.35972   4.39239
 Alpha virt. eigenvalues --    4.47995   4.50781   4.56999   4.65259   4.67803
 Alpha virt. eigenvalues --    4.72755   4.75958   4.84613   4.87392   4.97211
 Alpha virt. eigenvalues --    5.04038   5.28149   5.38255   5.42636   5.44188
 Alpha virt. eigenvalues --    5.52310   5.52630   5.68237   5.78723   5.93466
 Alpha virt. eigenvalues --    5.95566   6.00186   6.21279   6.36033   6.38007
 Alpha virt. eigenvalues --    6.51746   6.60859   6.75467   6.76200   6.84662
 Alpha virt. eigenvalues --    6.99266   7.06385   7.08601   7.28637   7.29398
 Alpha virt. eigenvalues --   22.40618  22.56650  22.58253  22.73077  43.92512
 Alpha virt. eigenvalues --   43.98815
          Condensed to atoms (all electrons):
               1          2          3          4          5          6
     1  O    8.113946   0.324889  -0.075256  -0.083110   0.007188  -0.000837
     2  C    0.324889   4.673136   0.288800   0.213132  -0.032718   0.020613
     3  O   -0.075256   0.288800   8.143874  -0.075709   0.004293  -0.004601
     4  C   -0.083110   0.213132  -0.075709   5.222270   0.258868  -0.045716
     5  C    0.007188  -0.032718   0.004293   0.258868   4.990484   0.290832
     6  C   -0.000837   0.020613  -0.004601  -0.045716   0.290832   4.999934
     7  H    0.307127  -0.037460   0.002640   0.014481  -0.001152   0.000126
     8  H   -0.058863   0.503199  -0.063968  -0.081750  -0.003815   0.004218
     9  H    0.002513  -0.035247   0.307272   0.014240  -0.001074  -0.000045
    10  H    0.006929  -0.044074   0.005093   0.411566  -0.019405  -0.005611
    11  H    0.002862  -0.001678   0.000318   0.375733  -0.030267   0.008059
    12  H   -0.000125   0.009464   0.000247  -0.038191   0.414702  -0.030437
    13  H    0.000255  -0.015534   0.010744  -0.030060   0.416699  -0.039024
    14  H    0.000291   0.008834   0.003910  -0.013599  -0.032504   0.411192
    15  H   -0.000007  -0.000253  -0.000153   0.008436  -0.036900   0.411825
    16  H    0.000027  -0.007076   0.000492   0.007948  -0.044079   0.407566
               7          8          9         10         11         12
     1  O    0.307127  -0.058863   0.002513   0.006929   0.002862  -0.000125
     2  C   -0.037460   0.503199  -0.035247  -0.044074  -0.001678   0.009464
     3  O    0.002640  -0.063968   0.307272   0.005093   0.000318   0.000247
     4  C    0.014481  -0.081750   0.014240   0.411566   0.375733  -0.038191
     5  C   -0.001152  -0.003815  -0.001074  -0.019405  -0.030267   0.414702
     6  C    0.000126   0.004218  -0.000045  -0.005611   0.008059  -0.030437
     7  H    0.344067  -0.008393   0.002642  -0.000544  -0.000624   0.000029
     8  H   -0.008393   0.597893  -0.009988  -0.002326   0.007906  -0.000514
     9  H    0.002642  -0.009988   0.340781  -0.000514  -0.000665   0.000040
    10  H   -0.000544  -0.002326  -0.000514   0.543611  -0.019563  -0.004929
    11  H   -0.000624   0.007906  -0.000665  -0.019563   0.551092  -0.006343
    12  H    0.000029  -0.000514   0.000040  -0.004929  -0.006343   0.568918
    13  H   -0.000028   0.001391  -0.000529   0.005508  -0.001641  -0.025603
    14  H    0.000018  -0.006882   0.000089   0.000718  -0.000550   0.005698
    15  H   -0.000004   0.000427  -0.000015  -0.000094  -0.000145  -0.006044
    16  H   -0.000001   0.000159   0.000026   0.001968   0.000016  -0.003195
              13         14         15         16
     1  O    0.000255   0.000291  -0.000007   0.000027
     2  C   -0.015534   0.008834  -0.000253  -0.007076
     3  O    0.010744   0.003910  -0.000153   0.000492
     4  C   -0.030060  -0.013599   0.008436   0.007948
     5  C    0.416699  -0.032504  -0.036900  -0.044079
     6  C   -0.039024   0.411192   0.411825   0.407566
     7  H   -0.000028   0.000018  -0.000004  -0.000001
     8  H    0.001391  -0.006882   0.000427   0.000159
     9  H   -0.000529   0.000089  -0.000015   0.000026
    10  H    0.005508   0.000718  -0.000094   0.001968
    11  H   -0.001641  -0.000550  -0.000145   0.000016
    12  H   -0.025603   0.005698  -0.006044  -0.003195
    13  H    0.572596  -0.004011  -0.003403   0.006491
    14  H   -0.004011   0.545223  -0.022455  -0.026774
    15  H   -0.003403  -0.022455   0.534843  -0.022366
    16  H    0.006491  -0.026774  -0.022366   0.552715
 Mulliken charges:
               1
     1  O   -0.547829
     2  C    0.131974
     3  O   -0.547996
     4  C   -0.158539
     5  C   -0.181153
     6  C   -0.428093
     7  H    0.377077
     8  H    0.121305
     9  H    0.380473
    10  H    0.121669
    11  H    0.115489
    12  H    0.116282
    13  H    0.106148
    14  H    0.130802
    15  H    0.136308
    16  H    0.126082
 Sum of Mulliken charges =  -0.00000
 Mulliken charges with hydrogens summed into heavy atoms:
               1
     1  O   -0.170751
     2  C    0.253278
     3  O   -0.167523
     4  C    0.078620
     5  C    0.041277
     6  C   -0.034901
 Electronic spatial extent (au):  <R**2>=            716.8001
 Charge=             -0.0000 electrons
 Dipole moment (field-independent basis, Debye):
    X=             -0.2715    Y=              1.5906    Z=              3.1720  Tot=              3.5588
 Quadrupole moment (field-independent basis, Debye-Ang):
   XX=            -35.3334   YY=            -37.6661   ZZ=            -37.7002
   XY=             -6.0525   XZ=             -6.1778   YZ=              3.1688
 Traceless Quadrupole moment (field-independent basis, Debye-Ang):
   XX=              1.5665   YY=             -0.7662   ZZ=             -0.8003
   XY=             -6.0525   XZ=             -6.1778   YZ=              3.1688
 Octapole moment (field-independent basis, Debye-Ang**2):
  XXX=            -25.8682  YYY=             12.0722  ZZZ=              3.4874  XYY=             -6.3174
  XXY=             12.7029  XXZ=             12.7342  XZZ=             -8.3488  YZZ=             -0.3934
  YYZ=              3.8096  XYZ=             -3.8903
 Hexadecapole moment (field-independent basis, Debye-Ang**3):
 XXXX=           -558.5436 YYYY=           -156.5678 ZZZZ=           -131.8957 XXXY=            -24.1912
 XXXZ=            -45.0086 YYYX=            -24.5763 YYYZ=              3.2266 ZZZX=            -11.3658
 ZZZY=              0.3429 XXYY=           -127.3820 XXZZ=           -117.3192 YYZZ=            -51.5085
 XXYZ=              3.2072 YYXZ=             -4.7347 ZZXY=             -1.1248
 N-N= 2.612107332237D+02 E-N=-1.245432022776D+03  KE= 3.073401675510D+02
 No NMR shielding tensors so no spin-rotation constants.
 Leave Link  601 at Wed Oct 22 09:25:41 2025, MaxMem=  4294967296 cpu:               1.2 elap:               0.2
 (Enter /lrz/sys/applications/gaussian/g16.C.01/x86_64_legacy/exe/l9999.exe)
 Unable to Open any file for archive entry.
 1\1\GINC-CM4R15C05S03\SP\RwB97XD\def2TZVP\C4H10O2\GO29TIZ2\22-Oct-2025
 \0\\#p wb97xd scrf=(smd,solvent=water) def2tzvp\\g16_g16_C17-w_26\\0,1
 \O,0,2.07231,-0.669053,-0.305099\C,0,0.862491,0.048375,-0.265248\O,0,0
 .995308,1.245884,0.460228\C,0,-0.164312,-0.82614,0.428029\C,0,-1.53832
 6,-0.185622,0.610722\C,0,-2.2228,0.217437,-0.691154\H,0,2.668954,-0.21
 6209,-0.913562\H,0,0.549041,0.283751,-1.29925\H,0,1.45278,1.887154,-0.
 096939\H,0,-0.253746,-1.755659,-0.156978\H,0,0.255414,-1.104037,1.4095
 07\H,0,-2.178172,-0.900197,1.153056\H,0,-1.442164,0.696205,1.264458\H,
 0,-1.677408,1.023562,-1.20644\H,0,-3.24417,0.581914,-0.503376\H,0,-2.2
 93785,-0.635436,-1.385607\\Version=EM64L-G16RevC.01\State=1-A\HF=-308.
 9423255\RMSD=4.388e-09\Dipole=0.1068148,0.6258077,-1.2479478\Quadrupol
 e=1.164665,-0.5696613,-0.5950037,4.499903,-4.5930478,-2.3559511\PG=C01
  [X(C4H10O2)]\\@
 The archive entry for this job was punched.


 THERE'S SMALL CHOICE IN A BOWL OF ROTTEN APPLES.
                     SHAKESPEARE
 Job cpu time:       0 days  0 hours 12 minutes  6.3 seconds.
 Elapsed time:       0 days  0 hours  1 minutes 31.2 seconds.
 File lengths (MBytes):  RWF=    288 Int=      0 D2E=      0 Chk=     12 Scr=     32
 Normal termination of Gaussian 16 at Wed Oct 22 09:25:41 2025.
