 Entering Gaussian System, Link 0=g16
 Input=../../g16_g16_C3_1.com
 Output=../../g16_g16_C3_1.log
 Initial command:
 /lrz/sys/applications/gaussian/g16.C.01/x86_64_legacy/exe/l1.exe "/dss/lxclscratch/0D/go29tiz2/Gau-17066.inp" -scrdir="/dss/lxclscratch/0D/go29tiz2/"
 Entering Link 1 = /lrz/sys/applications/gaussian/g16.C.01/x86_64_legacy/exe/l1.exe PID=     17068.
  
 Copyright (c) 1988-2019, Gaussian, Inc.  All Rights Reserved.
  
 This is part of the Gaussian(R) 16 program.  It is based on
 the Gaussian(R) 09 system (copyright 2009, Gaussian, Inc.),
 the Gaussian(R) 03 system (copyright 2003, Gaussian, Inc.),
 the Gaussian(R) 98 system (copyright 1998, Gaussian, Inc.),
 the Gaussian(R) 94 system (copyright 1995, Gaussian, Inc.),
 the Gaussian 92(TM) system (copyright 1992, Gaussian, Inc.),
 the Gaussian 90(TM) system (copyright 1990, Gaussian, Inc.),
 the Gaussian 88(TM) system (copyright 1988, Gaussian, Inc.),
 the Gaussian 86(TM) system (copyright 1986, Carnegie Mellon
 University), and the Gaussian 82(TM) system (copyright 1983,
 Carnegie Mellon University). Gaussian is a federally registered
 trademark of Gaussian, Inc.
  
 This software contains proprietary and confidential information,
 including trade secrets, belonging to Gaussian, Inc.
  
 This software is provided under written license and may be
 used, copied, transmitted, or stored only in accord with that
 written license.
  
 The following legend is applicable only to US Government
 contracts under FAR:
  
                    RESTRICTED RIGHTS LEGEND
  
 Use, reproduction and disclosure by the US Government is
 subject to restrictions as set forth in subparagraphs (a)
 and (c) of the Commercial Computer Software - Restricted
 Rights clause in FAR 52.227-19.
  
 Gaussian, Inc.
 340 Quinnipiac St., Bldg. 40, Wallingford CT 06492
  
  
 ---------------------------------------------------------------
 Warning -- This program may not be used in any manner that
 competes with the business of Gaussian, Inc. or will provide
 assistance to any competitor of Gaussian, Inc.  The licensee
 of this program is prohibited from giving any competitor of
 Gaussian, Inc. access to this program.  By using this program,
 the user acknowledges that Gaussian, Inc. is engaged in the
 business of creating and licensing software in the field of
 computational chemistry and represents and warrants to the
 licensee that it is not a competitor of Gaussian, Inc. and that
 it will not use this program in any manner prohibited above.
 ---------------------------------------------------------------
  

 Cite this work as:
 Gaussian 16, Revision C.01,
 M. J. Frisch, G. W. Trucks, H. B. Schlegel, G. E. Scuseria, 
 M. A. Robb, J. R. Cheeseman, G. Scalmani, V. Barone, 
 G. A. Petersson, H. Nakatsuji, X. Li, M. Caricato, A. V. Marenich, 
 J. Bloino, B. G. Janesko, R. Gomperts, B. Mennucci, H. P. Hratchian, 
 J. V. Ortiz, A. F. Izmaylov, J. L. Sonnenberg, D. Williams-Young, 
 F. Ding, F. Lipparini, F. Egidi, J. Goings, B. Peng, A. Petrone, 
 T. Henderson, D. Ranasinghe, V. G. Zakrzewski, J. Gao, N. Rega, 
 G. Zheng, W. Liang, M. Hada, M. Ehara, K. Toyota, R. Fukuda, 
 J. Hasegawa, M. Ishida, T. Nakajima, Y. Honda, O. Kitao, H. Nakai, 
 T. Vreven, K. Throssell, J. A. Montgomery, Jr., J. E. Peralta, 
 F. Ogliaro, M. J. Bearpark, J. J. Heyd, E. N. Brothers, K. N. Kudin, 
 V. N. Staroverov, T. A. Keith, R. Kobayashi, J. Normand, 
 K. Raghavachari, A. P. Rendell, J. C. Burant, S. S. Iyengar, 
 J. Tomasi, M. Cossi, J. M. Millam, M. Klene, C. Adamo, R. Cammi, 
 J. W. Ochterski, R. L. Martin, K. Morokuma, O. Farkas, 
 J. B. Foresman, and D. J. Fox, Gaussian, Inc., Wallingford CT, 2019.
 
 ******************************************
 Gaussian 16:  EM64L-G16RevC.01  3-Jul-2019
                22-Oct-2025 
 ******************************************
 %chk=g16_g16_C3_1.chk
 %nprocshared=8
 Will use up to    8 processors via shared memory.
 %mem=32GB
 -------------------------------------------
 #p wb97xd scrf=(smd,solvent=water) def2tzvp
 -------------------------------------------
 1/38=1,172=1/1;
 2/12=2,17=6,18=5,40=1/2;
 3/5=44,7=101,11=2,25=1,30=1,70=32201,72=1,74=-58/1,2,3;
 4//1;
 5/5=2,38=5,53=1/2;
 6/7=2,8=2,9=2,10=2,28=1/1;
 99/5=1,9=1/99;
 Leave Link    1 at Wed Oct 22 10:09:55 2025, MaxMem=  4294967296 cpu:               4.4 elap:               0.6
 (Enter /lrz/sys/applications/gaussian/g16.C.01/x86_64_legacy/exe/l101.exe)
 ------------
 g16_g16_C3_1
 ------------
 Symbolic Z-matrix:
 Charge =  0 Multiplicity = 1
 O                     2.06774   0.0001   -0.18936 
 C                     0.9882    0.00029   0.36075 
 C                    -0.34104   0.00001  -0.34123 
 C                    -1.1113    1.26687   0.04213 
 C                    -1.1107   -1.2672    0.04222 
 H                     0.92701   0.0006    1.47786 
 H                    -0.13435  0.        -1.42297 
 H                    -2.091     1.27692  -0.45839 
 H                    -0.56606   2.17608  -0.25272 
 H                    -1.28684   1.30752   1.12933 
 H                    -1.28619  -1.30787   1.12943 
 H                    -2.09041  -1.27772  -0.45827 
 H                    -0.56504  -2.17616  -0.2526 
 
 ITRead=  0  0  0  0  0  0  0  0  0  0  0  0  0
 MicOpt= -1 -1 -1 -1 -1 -1 -1 -1 -1 -1 -1 -1 -1
 NAtoms=     13 NQM=       13 NQMF=       0 NMMI=      0 NMMIF=      0
                NMic=       0 NMicF=      0.
                    Isotopes and Nuclear Properties:
 (Nuclear quadrupole moments (NQMom) in fm**2, nuclear magnetic moments (NMagM)
  in nuclear magnetons)

  Atom         1           2           3           4           5           6           7           8           9          10
 IAtWgt=          16          12          12          12          12           1           1           1           1           1
 AtmWgt=  15.9949146  12.0000000  12.0000000  12.0000000  12.0000000   1.0078250   1.0078250   1.0078250   1.0078250   1.0078250
 NucSpn=           0           0           0           0           0           1           1           1           1           1
 AtZEff=  -0.0000000  -0.0000000  -0.0000000  -0.0000000  -0.0000000  -0.0000000  -0.0000000  -0.0000000  -0.0000000  -0.0000000
 NQMom=    0.0000000   0.0000000   0.0000000   0.0000000   0.0000000   0.0000000   0.0000000   0.0000000   0.0000000   0.0000000
 NMagM=    0.0000000   0.0000000   0.0000000   0.0000000   0.0000000   2.7928460   2.7928460   2.7928460   2.7928460   2.7928460
 AtZNuc=   8.0000000   6.0000000   6.0000000   6.0000000   6.0000000   1.0000000   1.0000000   1.0000000   1.0000000   1.0000000

  Atom        11          12          13
 IAtWgt=           1           1           1
 AtmWgt=   1.0078250   1.0078250   1.0078250
 NucSpn=           1           1           1
 AtZEff=  -0.0000000  -0.0000000  -0.0000000
 NQMom=    0.0000000   0.0000000   0.0000000
 NMagM=    2.7928460   2.7928460   2.7928460
 AtZNuc=   1.0000000   1.0000000   1.0000000
 Leave Link  101 at Wed Oct 22 10:09:55 2025, MaxMem=  4294967296 cpu:               0.8 elap:               0.1
 (Enter /lrz/sys/applications/gaussian/g16.C.01/x86_64_legacy/exe/l202.exe)
                          Input orientation:                          
 ---------------------------------------------------------------------
 Center     Atomic      Atomic             Coordinates (Angstroms)
 Number     Number       Type             X           Y           Z
 ---------------------------------------------------------------------
      1          8           0        2.067745    0.000103   -0.189362
      2          6           0        0.988200    0.000294    0.360750
      3          6           0       -0.341040    0.000006   -0.341227
      4          6           0       -1.111302    1.266874    0.042127
      5          6           0       -1.110704   -1.267203    0.042221
      6          1           0        0.927010    0.000601    1.477858
      7          1           0       -0.134350   -0.000001   -1.422968
      8          1           0       -2.090998    1.276920   -0.458392
      9          1           0       -0.566060    2.176076   -0.252719
     10          1           0       -1.286839    1.307517    1.129332
     11          1           0       -1.286189   -1.307873    1.129433
     12          1           0       -2.090407   -1.277722   -0.458273
     13          1           0       -0.565044   -2.176163   -0.252599
 ---------------------------------------------------------------------
                    Distance matrix (angstroms):
                    1          2          3          4          5
     1  O    0.000000
     2  C    1.211627   0.000000
     3  C    2.413568   1.503213   0.000000
     4  C    3.429961   2.472580   1.531411   0.000000
     5  C    3.429611   2.472531   1.531416   2.534077   0.000000
     6  H    2.020124   1.118783   2.217436   2.796334   2.796544
     7  H    2.524085   2.107550   1.101310   2.169311   2.169296
     8  H    4.358645   3.432525   2.169468   1.100193   2.772030
     9  H    3.416987   2.743373   2.189463   1.100396   3.498542
    10  H    3.834256   2.734109   2.183269   1.102034   2.800360
    11  H    3.833914   2.734048   2.183276   2.800382   1.102034
    12  H    4.358369   3.432484   2.169464   2.772006   1.100192
    13  H    3.416389   2.743306   2.189462   3.498538   1.100396
                    6          7          8          9         10
     6  H    0.000000
     7  H    3.088896   0.000000
     8  H    3.806104   2.527727   0.000000
     9  H    3.155447   2.508220   1.782195   0.000000
    10  H    2.594345   3.090642   1.780021   1.784372   0.000000
    11  H    2.594562   3.090633   3.138481   3.816652   2.615390
    12  H    3.806247   2.527720   2.554642   3.780821   3.138419
    13  H    3.155790   2.508175   3.780829   4.352239   3.816641
                   11         12         13
    11  H    0.000000
    12  H    1.780024   0.000000
    13  H    1.784374   1.782198   0.000000
 Stoichiometry    C4H8O
 Framework group  C1[X(C4H8O)]
 Deg. of freedom    33
 Full point group                 C1      NOp   1
 Largest Abelian subgroup         C1      NOp   1
 Largest concise Abelian subgroup C1      NOp   1
                         Standard orientation:                         
 ---------------------------------------------------------------------
 Center     Atomic      Atomic             Coordinates (Angstroms)
 Number     Number       Type             X           Y           Z
 ---------------------------------------------------------------------
      1          8           0       -2.067745   -0.000102   -0.189362
      2          6           0       -0.988200   -0.000294    0.360750
      3          6           0        0.341040   -0.000006   -0.341227
      4          6           0        1.111302   -1.266874    0.042127
      5          6           0        1.110704    1.267203    0.042221
      6          1           0       -0.927010   -0.000601    1.477858
      7          1           0        0.134350    0.000001   -1.422968
      8          1           0        2.090998   -1.276920   -0.458392
      9          1           0        0.566060   -2.176076   -0.252719
     10          1           0        1.286839   -1.307517    1.129332
     11          1           0        1.286189    1.307873    1.129433
     12          1           0        2.090407    1.277722   -0.458273
     13          1           0        0.565045    2.176163   -0.252599
 ---------------------------------------------------------------------
 Rotational constants (GHZ):           7.6882449           3.7423017           2.8244384
 Leave Link  202 at Wed Oct 22 10:09:55 2025, MaxMem=  4294967296 cpu:               0.0 elap:               0.0
 (Enter /lrz/sys/applications/gaussian/g16.C.01/x86_64_legacy/exe/l301.exe)
 Standard basis: def2TZVP (5D, 7F)
 Ernie: Thresh=  0.10000D-02 Tol=  0.10000D-05 Strict=F.
 There are   228 symmetry adapted cartesian basis functions of A   symmetry.
 There are   203 symmetry adapted basis functions of A   symmetry.
   203 basis functions,   319 primitive gaussians,   228 cartesian basis functions
    20 alpha electrons       20 beta electrons
       nuclear repulsion energy       175.5229848165 Hartrees.
 IExCor= 4639 DFT=T Ex+Corr=wB97XD ExCW=0 ScaHFX=  1.000000
 ScaDFX=  1.000000  1.000000  1.000000  1.000000 ScalE2=  1.000000  1.000000
 IRadAn=      5 IRanWt=     -1 IRanGd=            0 ICorTp=0 IEmpDi=121
 HFx  wShort=  0.000000 wLong=  0.200000 cFull=  0.222036 cShort=  0.000000 cLong=  0.777964
 DFx  wShort=  0.000000 wLong=  0.200000 cFull=  0.000000 cShort=  0.000000 cLong=  1.000000
 NAtoms=   13 NActive=   13 NUniq=   13 SFac= 1.00D+00 NAtFMM=   60 NAOKFM=F Big=F
 Integral buffers will be    131072 words long.
 Raffenetti 2 integral format.
 Two-electron integral symmetry is turned on.
 R6Disp:  Grimme-D2 Dispersion energy=       -0.0059450373 Hartrees.
 Nuclear repulsion after empirical dispersion term =      175.5170397792 Hartrees.
 ------------------------------------------------------------------------------
 Polarizable Continuum Model (PCM)
 =================================
 Model                : PCM.
 Atomic radii         : SMD-Coulomb.
 Polarization charges : Total charges.
 Charge compensation  : None.
 Solution method      : On-the-fly selection.
 Cavity type          : VdW (van der Waals Surface) (Alpha=1.000).
 Cavity algorithm     : GePol (No added spheres)
                        Default sphere list used, NSphG=   13.
                        Lebedev-Laikov grids with approx.  5.0 points / Ang**2.
                        Smoothing algorithm: York/Karplus (Gamma=1.0000).
                        Polarization charges: spherical gaussians, with
                                              point-specific exponents (IZeta= 3).
                        Self-potential: point-specific (ISelfS= 7).
                        Self-field    : sphere-specific E.n sum rule (ISelfD= 2).
 Solvent              : Water, Eps=  78.355300 Eps(inf)=   1.777849
 ------------------------------------------------------------------------------
 Spheres list:
 ISph  on   Nord     Re0    Alpha      Xe            Ye            Ze
    1   O      1    1.5200  1.000     -2.067745     -0.000102     -0.189362
    2   C      2    1.8500  1.000     -0.988200     -0.000294      0.360750
    3   C      3    1.8500  1.000      0.341040     -0.000006     -0.341227
    4   C      4    1.8500  1.000      1.111302     -1.266874      0.042127
    5   C      5    1.8500  1.000      1.110704      1.267203      0.042221
    6   H      6    1.2000  1.000     -0.927010     -0.000601      1.477858
    7   H      7    1.2000  1.000      0.134350      0.000001     -1.422968
    8   H      8    1.2000  1.000      2.090998     -1.276920     -0.458392
    9   H      9    1.2000  1.000      0.566060     -2.176076     -0.252719
   10   H     10    1.2000  1.000      1.286839     -1.307517      1.129332
   11   H     11    1.2000  1.000      1.286189      1.307873      1.129433
   12   H     12    1.2000  1.000      2.090407      1.277722     -0.458273
   13   H     13    1.2000  1.000      0.565045      2.176163     -0.252599
 ------------------------------------------------------------------------------
 GePol: Number of generator spheres                  =      13
 GePol: Total number of spheres                      =      13
 GePol: Number of exposed spheres                    =      13 (100.00%)
 GePol: Number of points                             =     963
 GePol: Average weight of points                     =       0.12
 GePol: Minimum weight of points                     =   0.12D-09
 GePol: Maximum weight of points                     =    0.21991
 GePol: Number of points with low weight             =      43
 GePol: Fraction of low-weight points (<1% of avg)   =       4.47%
 GePol: Cavity surface area                          =    114.166 Ang**2
 GePol: Cavity volume                                =     87.066 Ang**3
 ------------------------------------------------------------------------------
 Atomic radii for non-electrostatic terms: SMD-CDS.
 ------------------------------------------------------------------------------
 PCM non-electrostatic energy =         0.0064859633 Hartrees.
 Nuclear repulsion after PCM non-electrostatic terms =      175.5235257424 Hartrees.
 Leave Link  301 at Wed Oct 22 10:09:55 2025, MaxMem=  4294967296 cpu:               0.6 elap:               0.1
 (Enter /lrz/sys/applications/gaussian/g16.C.01/x86_64_legacy/exe/l302.exe)
 NPDir=0 NMtPBC=     1 NCelOv=     1 NCel=       1 NClECP=     1 NCelD=      1
         NCelK=      1 NCelE2=     1 NClLst=     1 CellRange=     0.0.
 One-electron integrals computed using PRISM.
 One-electron integral symmetry used in STVInt
   1 Symmetry operations used in ECPInt.
 ECPInt:  NShTT=    3828 NPrTT=   11160 LenC2=    3805 LenP2D=    9424.
 LDataN:  DoStor=T MaxTD1= 6 Len=  172
 NBasis=   203 RedAO= T EigKep=  2.63D-04  NBF=   203
 NBsUse=   203 1.00D-06 EigRej= -1.00D+00 NBFU=   203
 Precomputing XC quadrature grid using
 IXCGrd= 4 IRadAn=           5 IRanWt=          -1 IRanGd=           0 AccXCQ= 0.00D+00.
 Generated NRdTot=       0 NPtTot=           0 NUsed=           0 NTot=          32
 NSgBfM=   228   228   228   228   228 MxSgAt=    13 MxSgA2=    13.
 Leave Link  302 at Wed Oct 22 10:09:55 2025, MaxMem=  4294967296 cpu:               1.8 elap:               0.2
 (Enter /lrz/sys/applications/gaussian/g16.C.01/x86_64_legacy/exe/l303.exe)
 DipDrv:  MaxL=1.
 Leave Link  303 at Wed Oct 22 10:09:55 2025, MaxMem=  4294967296 cpu:               0.3 elap:               0.1
 (Enter /lrz/sys/applications/gaussian/g16.C.01/x86_64_legacy/exe/l401.exe)
 ExpMin= 9.52D-02 ExpMax= 2.70D+04 ExpMxC= 9.22D+02 IAcc=3 IRadAn=         5 AccDes= 0.00D+00
 Harris functional with IExCor= 4639 and IRadAn=       5 diagonalized for initial guess.
 HarFok:  IExCor= 4639 AccDes= 0.00D+00 IRadAn=         5 IDoV= 1 UseB2=F ITyADJ=14
 ICtDFT=  3500011 ScaDFX=  1.000000  1.000000  1.000000  1.000000
 FoFCou: FMM=F IPFlag=           0 FMFlag=      100000 FMFlg1=           0
         NFxFlg=           0 DoJE=T BraDBF=F KetDBF=T FulRan=T
         wScrn=  0.000000 ICntrl=       500 IOpCl=  0 I1Cent=   200000004 NGrid=           0
         NMat0=    1 NMatS0=      1 NMatT0=    0 NMatD0=    1 NMtDS0=    0 NMtDT0=    0
 Petite list used in FoFCou.
 Harris En= -222.155789797861    
 JPrj=0 DoOrth=F DoCkMO=F.
 Leave Link  401 at Wed Oct 22 10:09:56 2025, MaxMem=  4294967296 cpu:               9.5 elap:               1.2
 (Enter /lrz/sys/applications/gaussian/g16.C.01/x86_64_legacy/exe/l502.exe)
 Integral symmetry usage will be decided dynamically.
 Closed shell SCF:
 Using DIIS extrapolation, IDIIS=  1040.
 NGot=  4294967296 LenX=  4294858978 LenY=  4294806553
 Requested convergence on RMS density matrix=1.00D-08 within 128 cycles.
 Requested convergence on MAX density matrix=1.00D-06.
 Requested convergence on             energy=1.00D-06.
 No special actions if energy rises.
 Fock matrices will be formed incrementally for  20 cycles.

 Cycle   1  Pass 1  IDiag  1:
 FoFJK:  IHMeth= 1 ICntrl=       0 DoSepK=T KAlg= 0 I1Cent=           0 FoldK=F
 IRaf=         1 NMat=       1 IRICut=       1 DoRegI=T DoRafI=F ISym2E= 0 IDoP0=0 IntGTp=1.
 FoFCou: FMM=F IPFlag=           0 FMFlag=      100000 FMFlg1=           0
         NFxFlg=           0 DoJE=T BraDBF=F KetDBF=F FulRan=T
         wScrn=  0.000000 ICntrl=       500 IOpCl=  0 I1Cent=           0 NGrid=           0
         NMat0=    1 NMatS0=      1 NMatT0=    0 NMatD0=    1 NMtDS0=    0 NMtDT0=    0
 Symmetry not used in FoFCou.
 Inv3:  Mode=1 IEnd=     2782107.
 Iteration    1 A*A^-1 deviation from unit magnitude is 4.77D-15 for    287.
 Iteration    1 A*A^-1 deviation from orthogonality  is 3.48D-15 for    607    532.
 Iteration    1 A^-1*A deviation from unit magnitude is 4.55D-15 for    360.
 Iteration    1 A^-1*A deviation from orthogonality  is 2.87D-15 for    712    303.
 E= -232.407153563547    
 DIIS: error= 5.74D-02 at cycle   1 NSaved=   1.
 NSaved= 1 IEnMin= 1 EnMin= -232.407153563547     IErMin= 1 ErrMin= 5.74D-02
 ErrMax= 5.74D-02  0.00D+00 EMaxC= 1.00D-01 BMatC= 4.99D-01 BMatP= 4.99D-01
 IDIUse=3 WtCom= 4.26D-01 WtEn= 5.74D-01
 Coeff-Com:  0.100D+01
 Coeff-En:   0.100D+01
 Coeff:      0.100D+01
 Gap=     0.408 Goal=   None    Shift=    0.000
 GapD=    0.408 DampG=2.000 DampE=0.500 DampFc=1.0000 IDamp=-1.
 RMSDP=2.70D-03 MaxDP=1.76D-01              OVMax= 7.78D-02

 Cycle   2  Pass 1  IDiag  1:
 RMSU=  2.55D-03    CP:  9.21D-01
 E= -232.448230618289     Delta-E=       -0.041077054743 Rises=F Damp=F
 DIIS: error= 1.12D-02 at cycle   2 NSaved=   2.
 NSaved= 2 IEnMin= 2 EnMin= -232.448230618289     IErMin= 2 ErrMin= 1.12D-02
 ErrMax= 1.12D-02  0.00D+00 EMaxC= 1.00D-01 BMatC= 4.53D-02 BMatP= 4.99D-01
 IDIUse=3 WtCom= 8.88D-01 WtEn= 1.12D-01
 Coeff-Com:  0.161D+00 0.839D+00
 Coeff-En:   0.161D+00 0.839D+00
 Coeff:      0.161D+00 0.839D+00
 Gap=     0.415 Goal=   None    Shift=    0.000
 RMSDP=9.78D-04 MaxDP=4.08D-02 DE=-4.11D-02 OVMax= 9.39D-02

 Cycle   3  Pass 1  IDiag  1:
 RMSU=  7.23D-04    CP:  9.36D-01  7.51D-01
 E= -232.458035964795     Delta-E=       -0.009805346505 Rises=F Damp=F
 DIIS: error= 9.05D-03 at cycle   3 NSaved=   3.
 NSaved= 3 IEnMin= 3 EnMin= -232.458035964795     IErMin= 3 ErrMin= 9.05D-03
 ErrMax= 9.05D-03  0.00D+00 EMaxC= 1.00D-01 BMatC= 3.14D-02 BMatP= 4.53D-02
 IDIUse=3 WtCom= 9.10D-01 WtEn= 9.05D-02
 Coeff-Com:  0.306D-01 0.458D+00 0.512D+00
 Coeff-En:   0.000D+00 0.410D+00 0.590D+00
 Coeff:      0.278D-01 0.453D+00 0.519D+00
 Gap=     0.396 Goal=   None    Shift=    0.000
 RMSDP=6.21D-04 MaxDP=3.12D-02 DE=-9.81D-03 OVMax= 3.68D-02

 Cycle   4  Pass 1  IDiag  1:
 RMSU=  2.12D-04    CP:  9.22D-01  9.44D-01  6.27D-01
 E= -232.479053577130     Delta-E=       -0.021017612336 Rises=F Damp=F
 DIIS: error= 1.54D-03 at cycle   4 NSaved=   4.
 NSaved= 4 IEnMin= 4 EnMin= -232.479053577130     IErMin= 4 ErrMin= 1.54D-03
 ErrMax= 1.54D-03  0.00D+00 EMaxC= 1.00D-01 BMatC= 7.30D-04 BMatP= 3.14D-02
 IDIUse=3 WtCom= 9.85D-01 WtEn= 1.54D-02
 Coeff-Com:  0.107D-01 0.190D+00 0.253D+00 0.547D+00
 Coeff-En:   0.000D+00 0.000D+00 0.000D+00 0.100D+01
 Coeff:      0.105D-01 0.187D+00 0.249D+00 0.554D+00
 Gap=     0.388 Goal=   None    Shift=    0.000
 RMSDP=7.69D-05 MaxDP=2.88D-03 DE=-2.10D-02 OVMax= 5.46D-03

 Cycle   5  Pass 1  IDiag  1:
 RMSU=  6.01D-05    CP:  9.21D-01  9.56D-01  6.60D-01  8.91D-01
 E= -232.479597153259     Delta-E=       -0.000543576129 Rises=F Damp=F
 DIIS: error= 1.69D-04 at cycle   5 NSaved=   5.
 NSaved= 5 IEnMin= 5 EnMin= -232.479597153259     IErMin= 5 ErrMin= 1.69D-04
 ErrMax= 1.69D-04  0.00D+00 EMaxC= 1.00D-01 BMatC= 8.14D-06 BMatP= 7.30D-04
 IDIUse=3 WtCom= 9.98D-01 WtEn= 1.69D-03
 Coeff-Com: -0.206D-02-0.270D-01-0.220D-01 0.209D-01 0.103D+01
 Coeff-En:   0.000D+00 0.000D+00 0.000D+00 0.000D+00 0.100D+01
 Coeff:     -0.206D-02-0.269D-01-0.219D-01 0.208D-01 0.103D+01
 Gap=     0.389 Goal=   None    Shift=    0.000
 RMSDP=6.32D-05 MaxDP=2.67D-03 DE=-5.44D-04 OVMax= 1.86D-03

 Cycle   6  Pass 1  IDiag  1:
 RMSU=  1.33D-05    CP:  9.19D-01  9.73D-01  6.88D-01  1.03D+00  1.36D+00
 E= -232.479613162277     Delta-E=       -0.000016009018 Rises=F Damp=F
 DIIS: error= 5.57D-05 at cycle   6 NSaved=   6.
 NSaved= 6 IEnMin= 6 EnMin= -232.479613162277     IErMin= 6 ErrMin= 5.57D-05
 ErrMax= 5.57D-05  0.00D+00 EMaxC= 1.00D-01 BMatC= 6.78D-07 BMatP= 8.14D-06
 IDIUse=1 WtCom= 1.00D+00 WtEn= 0.00D+00
 Coeff-Com: -0.701D-03-0.136D-01-0.164D-01-0.256D-01 0.143D+00 0.914D+00
 Coeff:     -0.701D-03-0.136D-01-0.164D-01-0.256D-01 0.143D+00 0.914D+00
 Gap=     0.389 Goal=   None    Shift=    0.000
 RMSDP=1.44D-05 MaxDP=4.67D-04 DE=-1.60D-05 OVMax= 5.70D-04

 Cycle   7  Pass 1  IDiag  1:
 RMSU=  5.75D-06    CP:  9.19D-01  9.76D-01  6.92D-01  1.06D+00  1.46D+00
                    CP:  1.28D+00
 E= -232.479614489214     Delta-E=       -0.000001326937 Rises=F Damp=F
 DIIS: error= 2.05D-05 at cycle   7 NSaved=   7.
 NSaved= 7 IEnMin= 7 EnMin= -232.479614489214     IErMin= 7 ErrMin= 2.05D-05
 ErrMax= 2.05D-05  0.00D+00 EMaxC= 1.00D-01 BMatC= 1.01D-07 BMatP= 6.78D-07
 IDIUse=1 WtCom= 1.00D+00 WtEn= 0.00D+00
 Coeff-Com:  0.908D-04 0.118D-02 0.341D-03-0.706D-02-0.101D+00 0.206D+00
 Coeff-Com:  0.900D+00
 Coeff:      0.908D-04 0.118D-02 0.341D-03-0.706D-02-0.101D+00 0.206D+00
 Coeff:      0.900D+00
 Gap=     0.389 Goal=   None    Shift=    0.000
 RMSDP=5.47D-06 MaxDP=1.77D-04 DE=-1.33D-06 OVMax= 2.54D-04

 Cycle   8  Pass 1  IDiag  1:
 RMSU=  1.76D-06    CP:  9.19D-01  9.77D-01  6.94D-01  1.07D+00  1.50D+00
                    CP:  1.46D+00  1.20D+00
 E= -232.479614673298     Delta-E=       -0.000000184084 Rises=F Damp=F
 DIIS: error= 3.82D-06 at cycle   8 NSaved=   8.
 NSaved= 8 IEnMin= 8 EnMin= -232.479614673298     IErMin= 8 ErrMin= 3.82D-06
 ErrMax= 3.82D-06  0.00D+00 EMaxC= 1.00D-01 BMatC= 5.53D-09 BMatP= 1.01D-07
 IDIUse=1 WtCom= 1.00D+00 WtEn= 0.00D+00
 Coeff-Com:  0.550D-04 0.964D-03 0.115D-02 0.240D-03-0.202D-01-0.357D-01
 Coeff-Com:  0.113D+00 0.941D+00
 Coeff:      0.550D-04 0.964D-03 0.115D-02 0.240D-03-0.202D-01-0.357D-01
 Coeff:      0.113D+00 0.941D+00
 Gap=     0.389 Goal=   None    Shift=    0.000
 RMSDP=1.18D-06 MaxDP=3.59D-05 DE=-1.84D-07 OVMax= 6.23D-05

 Cycle   9  Pass 1  IDiag  1:
 RMSU=  3.79D-07    CP:  9.19D-01  9.77D-01  6.94D-01  1.07D+00  1.51D+00
                    CP:  1.50D+00  1.32D+00  1.26D+00
 E= -232.479614683878     Delta-E=       -0.000000010580 Rises=F Damp=F
 DIIS: error= 1.91D-06 at cycle   9 NSaved=   9.
 NSaved= 9 IEnMin= 9 EnMin= -232.479614683878     IErMin= 9 ErrMin= 1.91D-06
 ErrMax= 1.91D-06  0.00D+00 EMaxC= 1.00D-01 BMatC= 6.97D-10 BMatP= 5.53D-09
 IDIUse=1 WtCom= 1.00D+00 WtEn= 0.00D+00
 Coeff-Com:  0.917D-05 0.193D-03 0.357D-03 0.796D-03 0.438D-02-0.326D-01
 Coeff-Com: -0.550D-01 0.233D+00 0.849D+00
 Coeff:      0.917D-05 0.193D-03 0.357D-03 0.796D-03 0.438D-02-0.326D-01
 Coeff:     -0.550D-01 0.233D+00 0.849D+00
 Gap=     0.389 Goal=   None    Shift=    0.000
 RMSDP=4.40D-07 MaxDP=1.73D-05 DE=-1.06D-08 OVMax= 2.02D-05

 Cycle  10  Pass 1  IDiag  1:
 RMSU=  1.48D-07    CP:  9.19D-01  9.77D-01  6.94D-01  1.07D+00  1.51D+00
                    CP:  1.51D+00  1.36D+00  1.37D+00  1.33D+00
 E= -232.479614685058     Delta-E=       -0.000000001180 Rises=F Damp=F
 DIIS: error= 5.14D-07 at cycle  10 NSaved=  10.
 NSaved=10 IEnMin=10 EnMin= -232.479614685058     IErMin=10 ErrMin= 5.14D-07
 ErrMax= 5.14D-07  0.00D+00 EMaxC= 1.00D-01 BMatC= 5.70D-11 BMatP= 6.97D-10
 IDIUse=1 WtCom= 1.00D+00 WtEn= 0.00D+00
 Coeff-Com: -0.228D-05-0.298D-04-0.754D-05 0.193D-03 0.264D-02-0.451D-02
 Coeff-Com: -0.228D-01-0.428D-01 0.202D+00 0.865D+00
 Coeff:     -0.228D-05-0.298D-04-0.754D-05 0.193D-03 0.264D-02-0.451D-02
 Coeff:     -0.228D-01-0.428D-01 0.202D+00 0.865D+00
 Gap=     0.389 Goal=   None    Shift=    0.000
 RMSDP=1.57D-07 MaxDP=6.78D-06 DE=-1.18D-09 OVMax= 5.96D-06

 Cycle  11  Pass 1  IDiag  1:
 RMSU=  3.45D-08    CP:  9.19D-01  9.77D-01  6.94D-01  1.07D+00  1.51D+00
                    CP:  1.51D+00  1.37D+00  1.40D+00  1.54D+00  1.32D+00
 E= -232.479614685170     Delta-E=       -0.000000000112 Rises=F Damp=F
 DIIS: error= 8.93D-08 at cycle  11 NSaved=  11.
 NSaved=11 IEnMin=11 EnMin= -232.479614685170     IErMin=11 ErrMin= 8.93D-08
 ErrMax= 8.93D-08  0.00D+00 EMaxC= 1.00D-01 BMatC= 1.50D-12 BMatP= 5.70D-11
 IDIUse=1 WtCom= 1.00D+00 WtEn= 0.00D+00
 Coeff-Com:  0.894D-07-0.318D-05-0.148D-04-0.500D-04-0.549D-03 0.239D-02
 Coeff-Com:  0.500D-02-0.804D-02-0.650D-01-0.928D-01 0.116D+01
 Coeff:      0.894D-07-0.318D-05-0.148D-04-0.500D-04-0.549D-03 0.239D-02
 Coeff:      0.500D-02-0.804D-02-0.650D-01-0.928D-01 0.116D+01
 Gap=     0.389 Goal=   None    Shift=    0.000
 RMSDP=6.18D-08 MaxDP=2.77D-06 DE=-1.12D-10 OVMax= 1.67D-06

 Cycle  12  Pass 1  IDiag  1:
 RMSU=  8.69D-09    CP:  9.19D-01  9.77D-01  6.94D-01  1.07D+00  1.51D+00
                    CP:  1.51D+00  1.37D+00  1.41D+00  1.63D+00  1.50D+00
                    CP:  1.39D+00
 E= -232.479614685166     Delta-E=        0.000000000004 Rises=F Damp=F
 DIIS: error= 1.36D-08 at cycle  12 NSaved=  12.
 NSaved=12 IEnMin=11 EnMin= -232.479614685170     IErMin=12 ErrMin= 1.36D-08
 ErrMax= 1.36D-08  0.00D+00 EMaxC= 1.00D-01 BMatC= 6.79D-14 BMatP= 1.50D-12
 IDIUse=1 WtCom= 1.00D+00 WtEn= 0.00D+00
 Coeff-Com:  0.109D-07 0.374D-06 0.595D-06-0.813D-05-0.664D-04 0.824D-04
 Coeff-Com:  0.670D-03 0.149D-02-0.521D-02-0.265D-01-0.278D-01 0.106D+01
 Coeff:      0.109D-07 0.374D-06 0.595D-06-0.813D-05-0.664D-04 0.824D-04
 Coeff:      0.670D-03 0.149D-02-0.521D-02-0.265D-01-0.278D-01 0.106D+01
 Gap=     0.389 Goal=   None    Shift=    0.000
 RMSDP=9.91D-09 MaxDP=4.08D-07 DE= 3.75D-12 OVMax= 2.41D-07

 Error on total polarization charges =  0.04376
 SCF Done:  E(RwB97XD) =  -232.479614685     A.U. after   12 cycles
            NFock= 12  Conv=0.99D-08     -V/T= 2.0055
 KE= 2.312044828412D+02 PE=-8.926424883993D+02 EE= 2.534348651305D+02
 SMD-CDS (non-electrostatic) energy       (kcal/mol) =       4.07
 (included in total energy above)
 Leave Link  502 at Wed Oct 22 10:10:50 2025, MaxMem=  4294967296 cpu:             423.6 elap:              53.1
 (Enter /lrz/sys/applications/gaussian/g16.C.01/x86_64_legacy/exe/l601.exe)
 Copying SCF densities to generalized density rwf, IOpCl= 0 IROHF=0.

 **********************************************************************

            Population analysis using the SCF Density.

 **********************************************************************

 Orbital symmetries:
       Occupied  (A) (A) (A) (A) (A) (A) (A) (A) (A) (A) (A) (A)
                 (A) (A) (A) (A) (A) (A) (A) (A)
       Virtual   (A) (A) (A) (A) (A) (A) (A) (A) (A) (A) (A) (A)
                 (A) (A) (A) (A) (A) (A) (A) (A) (A) (A) (A) (A)
                 (A) (A) (A) (A) (A) (A) (A) (A) (A) (A) (A) (A)
                 (A) (A) (A) (A) (A) (A) (A) (A) (A) (A) (A) (A)
                 (A) (A) (A) (A) (A) (A) (A) (A) (A) (A) (A) (A)
                 (A) (A) (A) (A) (A) (A) (A) (A) (A) (A) (A) (A)
                 (A) (A) (A) (A) (A) (A) (A) (A) (A) (A) (A) (A)
                 (A) (A) (A) (A) (A) (A) (A) (A) (A) (A) (A) (A)
                 (A) (A) (A) (A) (A) (A) (A) (A) (A) (A) (A) (A)
                 (A) (A) (A) (A) (A) (A) (A) (A) (A) (A) (A) (A)
                 (A) (A) (A) (A) (A) (A) (A) (A) (A) (A) (A) (A)
                 (A) (A) (A) (A) (A) (A) (A) (A) (A) (A) (A) (A)
                 (A) (A) (A) (A) (A) (A) (A) (A) (A) (A) (A) (A)
                 (A) (A) (A) (A) (A) (A) (A) (A) (A) (A) (A) (A)
                 (A) (A) (A) (A) (A) (A) (A) (A) (A) (A) (A) (A)
                 (A) (A) (A)
 The electronic state is 1-A.
 Alpha  occ. eigenvalues --  -19.25667 -10.37710 -10.29306 -10.27450 -10.27449
 Alpha  occ. eigenvalues --   -1.15891  -0.90537  -0.78054  -0.73231  -0.65704
 Alpha  occ. eigenvalues --   -0.56398  -0.55064  -0.51724  -0.51716  -0.46920
 Alpha  occ. eigenvalues --   -0.45735  -0.45724  -0.42117  -0.41787  -0.34487
 Alpha virt. eigenvalues --    0.04389   0.12639   0.15339   0.17050   0.17500
 Alpha virt. eigenvalues --    0.18435   0.19211   0.21972   0.21982   0.24007
 Alpha virt. eigenvalues --    0.25099   0.25785   0.25997   0.29487   0.32723
 Alpha virt. eigenvalues --    0.34341   0.35595   0.38971   0.39245   0.40561
 Alpha virt. eigenvalues --    0.43104   0.44620   0.47269   0.48839   0.49472
 Alpha virt. eigenvalues --    0.50521   0.51462   0.52244   0.52546   0.53776
 Alpha virt. eigenvalues --    0.55417   0.55850   0.56800   0.59644   0.62350
 Alpha virt. eigenvalues --    0.62394   0.69125   0.72007   0.73004   0.73419
 Alpha virt. eigenvalues --    0.75691   0.83394   0.85766   0.89272   0.92000
 Alpha virt. eigenvalues --    0.94530   0.98038   1.00989   1.04781   1.07008
 Alpha virt. eigenvalues --    1.09172   1.11395   1.13310   1.15033   1.19538
 Alpha virt. eigenvalues --    1.23497   1.23911   1.29766   1.33520   1.37794
 Alpha virt. eigenvalues --    1.39129   1.50381   1.53131   1.55843   1.60727
 Alpha virt. eigenvalues --    1.61236   1.62061   1.62976   1.63783   1.65499
 Alpha virt. eigenvalues --    1.67759   1.71746   1.71876   1.72798   1.77877
 Alpha virt. eigenvalues --    1.79359   1.80347   1.85275   1.89725   1.98594
 Alpha virt. eigenvalues --    2.00617   2.01945   2.02798   2.06453   2.12953
 Alpha virt. eigenvalues --    2.16971   2.19083   2.23068   2.26112   2.28591
 Alpha virt. eigenvalues --    2.33312   2.34141   2.35652   2.40843   2.41763
 Alpha virt. eigenvalues --    2.42919   2.45330   2.46622   2.49867   2.50391
 Alpha virt. eigenvalues --    2.53218   2.59167   2.64051   2.65664   2.66724
 Alpha virt. eigenvalues --    2.67842   2.70829   2.75140   2.75805   2.79715
 Alpha virt. eigenvalues --    2.84708   2.87895   2.88157   2.90986   2.92296
 Alpha virt. eigenvalues --    3.01260   3.02062   3.06286   3.07424   3.12226
 Alpha virt. eigenvalues --    3.13281   3.14410   3.20495   3.24498   3.28488
 Alpha virt. eigenvalues --    3.28667   3.30270   3.33288   3.34608   3.38009
 Alpha virt. eigenvalues --    3.39527   3.42547   3.43508   3.43667   3.49977
 Alpha virt. eigenvalues --    3.51986   3.57247   3.60772   3.63416   3.65011
 Alpha virt. eigenvalues --    3.68773   3.70500   3.76264   3.79048   3.87569
 Alpha virt. eigenvalues --    3.91196   3.96572   3.96830   4.04377   4.09081
 Alpha virt. eigenvalues --    4.15287   4.19499   4.19527   4.23840   4.29434
 Alpha virt. eigenvalues --    4.41738   4.44576   4.44733   4.50545   4.60326
 Alpha virt. eigenvalues --    4.62832   4.74620   4.75579   4.89926   4.92750
 Alpha virt. eigenvalues --    4.98470   5.26168   5.26309   5.63221   5.72990
 Alpha virt. eigenvalues --    6.18402   6.38862   6.42039   6.46564   6.52879
 Alpha virt. eigenvalues --    6.86719   6.99904   7.12304  22.42248  22.42857
 Alpha virt. eigenvalues --   22.67026  22.88707  43.86440
          Condensed to atoms (all electrons):
               1          2          3          4          5          6
     1  O    8.006637   0.573182  -0.113747   0.003337   0.003328  -0.058580
     2  C    0.573182   4.615052   0.279972  -0.017433  -0.017439   0.417106
     3  C   -0.113747   0.279972   5.144368   0.286879   0.286909  -0.104501
     4  C    0.003337  -0.017433   0.286879   5.009710  -0.045942   0.001811
     5  C    0.003328  -0.017439   0.286909  -0.045942   5.009710   0.001794
     6  H   -0.058580   0.417106  -0.104501   0.001811   0.001794   0.607862
     7  H    0.014686  -0.040714   0.397294  -0.034960  -0.034970   0.010638
     8  H   -0.000334   0.007551  -0.034653   0.409477  -0.003391  -0.000700
     9  H    0.001542  -0.000561  -0.042302   0.408313   0.009769   0.001009
    10  H    0.000105  -0.010140  -0.018583   0.400832  -0.008685   0.003927
    11  H    0.000106  -0.010136  -0.018586  -0.008687   0.400830   0.003927
    12  H   -0.000334   0.007551  -0.034656  -0.003389   0.409478  -0.000700
    13  H    0.001545  -0.000559  -0.042306   0.009770   0.408309   0.001011
               7          8          9         10         11         12
     1  O    0.014686  -0.000334   0.001542   0.000105   0.000106  -0.000334
     2  C   -0.040714   0.007551  -0.000561  -0.010140  -0.010136   0.007551
     3  C    0.397294  -0.034653  -0.042302  -0.018583  -0.018586  -0.034656
     4  C   -0.034960   0.409477   0.408313   0.400832  -0.008687  -0.003389
     5  C   -0.034970  -0.003391   0.009769  -0.008685   0.400830   0.409478
     6  H    0.010638  -0.000700   0.001009   0.003927   0.003927  -0.000700
     7  H    0.602870  -0.005882  -0.003625   0.006962   0.006963  -0.005883
     8  H   -0.005882   0.520162  -0.018780  -0.022563  -0.000351   0.002932
     9  H   -0.003625  -0.018780   0.522367  -0.021748  -0.000087  -0.000143
    10  H    0.006962  -0.022563  -0.021748   0.529853   0.004311  -0.000352
    11  H    0.006963  -0.000351  -0.000087   0.004311   0.529851  -0.022564
    12  H   -0.005883   0.002932  -0.000143  -0.000352  -0.022564   0.520160
    13  H   -0.003624  -0.000143  -0.000295  -0.000087  -0.021746  -0.018779
              13
     1  O    0.001545
     2  C   -0.000559
     3  C   -0.042306
     4  C    0.009770
     5  C    0.408309
     6  H    0.001011
     7  H   -0.003624
     8  H   -0.000143
     9  H   -0.000295
    10  H   -0.000087
    11  H   -0.021746
    12  H   -0.018779
    13  H    0.522361
 Mulliken charges:
               1
     1  O   -0.431472
     2  C    0.196568
     3  C    0.013912
     4  C   -0.419719
     5  C   -0.419700
     6  H    0.115393
     7  H    0.090244
     8  H    0.146674
     9  H    0.144541
    10  H    0.136168
    11  H    0.136169
    12  H    0.146678
    13  H    0.144543
 Sum of Mulliken charges =  -0.00000
 Mulliken charges with hydrogens summed into heavy atoms:
               1
     1  O   -0.431472
     2  C    0.311961
     3  C    0.104156
     4  C    0.007665
     5  C    0.007690
 Electronic spatial extent (au):  <R**2>=            481.2186
 Charge=             -0.0000 electrons
 Dipole moment (field-independent basis, Debye):
    X=              3.9394    Y=             -0.0002    Z=              1.2211  Tot=              4.1243
 Quadrupole moment (field-independent basis, Debye-Ang):
   XX=            -40.2503   YY=            -30.7515   ZZ=            -30.3348
   XY=              0.0003   XZ=             -2.2692   YZ=             -0.0004
 Traceless Quadrupole moment (field-independent basis, Debye-Ang):
   XX=             -6.4715   YY=              3.0274   ZZ=              3.4441
   XY=              0.0003   XZ=             -2.2692   YZ=             -0.0004
 Octapole moment (field-independent basis, Debye-Ang**2):
  XXX=             19.6545  YYY=             -0.0009  ZZZ=              1.9083  XYY=             -2.9289
  XXY=              0.0015  XXZ=              1.6431  XZZ=             -1.2586  YZZ=             -0.0006
  YYZ=             -0.9146  XYZ=              0.0002
 Hexadecapole moment (field-independent basis, Debye-Ang**3):
 XXXX=           -396.4407 YYYY=           -202.7342 ZZZZ=            -68.4572 XXXY=              0.0014
 XXXZ=             -8.8536 YYYX=              0.0001 YYYZ=              0.0003 ZZZX=             -0.1127
 ZZZY=             -0.0008 XXYY=            -93.4832 XXZZ=            -70.1739 YYZZ=            -47.2300
 XXYZ=             -0.0012 YYXZ=              0.0365 ZZXY=              0.0013
 N-N= 1.755235257424D+02 E-N=-8.926424886640D+02  KE= 2.312044828412D+02
 No NMR shielding tensors so no spin-rotation constants.
 Leave Link  601 at Wed Oct 22 10:10:50 2025, MaxMem=  4294967296 cpu:               1.1 elap:               0.2
 (Enter /lrz/sys/applications/gaussian/g16.C.01/x86_64_legacy/exe/l9999.exe)
 Unable to Open any file for archive entry.
 1\1\GINC-CM4R15C05S03\SP\RwB97XD\def2TZVP\C4H8O1\GO29TIZ2\22-Oct-2025\
 0\\#p wb97xd scrf=(smd,solvent=water) def2tzvp\\g16_g16_C3_1\\0,1\O,0,
 2.067745,0.000103,-0.189362\C,0,0.9882,0.000294,0.36075\C,0,-0.34104,0
 .000006,-0.341227\C,0,-1.111302,1.266874,0.042127\C,0,-1.110704,-1.267
 203,0.042221\H,0,0.92701,0.000601,1.477858\H,0,-0.13435,-0.000001,-1.4
 22968\H,0,-2.090998,1.27692,-0.458392\H,0,-0.56606,2.176076,-0.252719\
 H,0,-1.286839,1.307517,1.129332\H,0,-1.286189,-1.307873,1.129433\H,0,-
 2.090407,-1.277722,-0.458273\H,0,-0.565044,-2.176163,-0.252599\\Versio
 n=EM64L-G16RevC.01\State=1-A\HF=-232.4796147\RMSD=9.906e-09\Dipole=-1.
 5498647,0.0000785,0.4804259\Quadrupole=-4.8113697,2.2507661,2.5606036,
 0.0002138,1.6871207,0.0002673\PG=C01 [X(C4H8O1)]\\@
 The archive entry for this job was punched.


 LORD, MAN... WERE YE BUT WHYLES WHERE I AM, 
 THE GENTILES YE WAD NE'ER ENVY 'EM.        
 IT'S TRUE, THEY NEEDNA STARVE OR SWEAT,     
 THRO' WINTER'S CAULD OR SIMMER'S HEAT...  
 THEY'VE NAE SAIR WARK TO CRAZE THEIR BANES, 
 AND FILL AULD AGE WITH GRIPS AN' GRANES...  
                                             
 BUT HUMAN BODIES ARE SIC FOOLS              
 FOR A' THEIR COLLEGES AND SCHOOLS,           
 THAT WHEN NAE REAL ILLS PERPLEX THEM,       
 THEY MAK ENOW THEMSELVES TO VEX THEM,       
 AN' AYE THE LESS THEY HAE TO STURT THEM,    
 IN LIKE PROPORTION LESS WILL HURT THEM....  
                                             
                (ROBERT BURNS 'THE TWA DOGS')
 Job cpu time:       0 days  0 hours  7 minutes 22.4 seconds.
 Elapsed time:       0 days  0 hours  0 minutes 55.7 seconds.
 File lengths (MBytes):  RWF=    272 Int=      0 D2E=      0 Chk=      8 Scr=     32
 Normal termination of Gaussian 16 at Wed Oct 22 10:10:50 2025.
