 Entering Gaussian System, Link 0=g16
 Input=../../g16_g16_C4-ma_1.com
 Output=../../g16_g16_C4-ma_1.log
 Initial command:
 /lrz/sys/applications/gaussian/g16.C.01/x86_64_legacy/exe/l1.exe "/dss/lxclscratch/0D/go29tiz2/Gau-22823.inp" -scrdir="/dss/lxclscratch/0D/go29tiz2/"
 Entering Link 1 = /lrz/sys/applications/gaussian/g16.C.01/x86_64_legacy/exe/l1.exe PID=     22824.
  
 Copyright (c) 1988-2019, Gaussian, Inc.  All Rights Reserved.
  
 This is part of the Gaussian(R) 16 program.  It is based on
 the Gaussian(R) 09 system (copyright 2009, Gaussian, Inc.),
 the Gaussian(R) 03 system (copyright 2003, Gaussian, Inc.),
 the Gaussian(R) 98 system (copyright 1998, Gaussian, Inc.),
 the Gaussian(R) 94 system (copyright 1995, Gaussian, Inc.),
 the Gaussian 92(TM) system (copyright 1992, Gaussian, Inc.),
 the Gaussian 90(TM) system (copyright 1990, Gaussian, Inc.),
 the Gaussian 88(TM) system (copyright 1988, Gaussian, Inc.),
 the Gaussian 86(TM) system (copyright 1986, Carnegie Mellon
 University), and the Gaussian 82(TM) system (copyright 1983,
 Carnegie Mellon University). Gaussian is a federally registered
 trademark of Gaussian, Inc.
  
 This software contains proprietary and confidential information,
 including trade secrets, belonging to Gaussian, Inc.
  
 This software is provided under written license and may be
 used, copied, transmitted, or stored only in accord with that
 written license.
  
 The following legend is applicable only to US Government
 contracts under FAR:
  
                    RESTRICTED RIGHTS LEGEND
  
 Use, reproduction and disclosure by the US Government is
 subject to restrictions as set forth in subparagraphs (a)
 and (c) of the Commercial Computer Software - Restricted
 Rights clause in FAR 52.227-19.
  
 Gaussian, Inc.
 340 Quinnipiac St., Bldg. 40, Wallingford CT 06492
  
  
 ---------------------------------------------------------------
 Warning -- This program may not be used in any manner that
 competes with the business of Gaussian, Inc. or will provide
 assistance to any competitor of Gaussian, Inc.  The licensee
 of this program is prohibited from giving any competitor of
 Gaussian, Inc. access to this program.  By using this program,
 the user acknowledges that Gaussian, Inc. is engaged in the
 business of creating and licensing software in the field of
 computational chemistry and represents and warrants to the
 licensee that it is not a competitor of Gaussian, Inc. and that
 it will not use this program in any manner prohibited above.
 ---------------------------------------------------------------
  

 Cite this work as:
 Gaussian 16, Revision C.01,
 M. J. Frisch, G. W. Trucks, H. B. Schlegel, G. E. Scuseria, 
 M. A. Robb, J. R. Cheeseman, G. Scalmani, V. Barone, 
 G. A. Petersson, H. Nakatsuji, X. Li, M. Caricato, A. V. Marenich, 
 J. Bloino, B. G. Janesko, R. Gomperts, B. Mennucci, H. P. Hratchian, 
 J. V. Ortiz, A. F. Izmaylov, J. L. Sonnenberg, D. Williams-Young, 
 F. Ding, F. Lipparini, F. Egidi, J. Goings, B. Peng, A. Petrone, 
 T. Henderson, D. Ranasinghe, V. G. Zakrzewski, J. Gao, N. Rega, 
 G. Zheng, W. Liang, M. Hada, M. Ehara, K. Toyota, R. Fukuda, 
 J. Hasegawa, M. Ishida, T. Nakajima, Y. Honda, O. Kitao, H. Nakai, 
 T. Vreven, K. Throssell, J. A. Montgomery, Jr., J. E. Peralta, 
 F. Ogliaro, M. J. Bearpark, J. J. Heyd, E. N. Brothers, K. N. Kudin, 
 V. N. Staroverov, T. A. Keith, R. Kobayashi, J. Normand, 
 K. Raghavachari, A. P. Rendell, J. C. Burant, S. S. Iyengar, 
 J. Tomasi, M. Cossi, J. M. Millam, M. Klene, C. Adamo, R. Cammi, 
 J. W. Ochterski, R. L. Martin, K. Morokuma, O. Farkas, 
 J. B. Foresman, and D. J. Fox, Gaussian, Inc., Wallingford CT, 2019.
 
 ******************************************
 Gaussian 16:  EM64L-G16RevC.01  3-Jul-2019
                22-Oct-2025 
 ******************************************
 %chk=g16_g16_C4-ma_1.chk
 %nprocshared=8
 Will use up to    8 processors via shared memory.
 %mem=32GB
 -------------------------------------------
 #p wb97xd scrf=(smd,solvent=water) def2tzvp
 -------------------------------------------
 1/38=1,172=1/1;
 2/12=2,17=6,18=5,40=1/2;
 3/5=44,7=101,11=2,25=1,30=1,70=32201,72=1,74=-58/1,2,3;
 4//1;
 5/5=2,38=5,53=1/2;
 6/7=2,8=2,9=2,10=2,28=1/1;
 99/5=1,9=1/99;
 Leave Link    1 at Wed Oct 22 10:14:20 2025, MaxMem=  4294967296 cpu:               4.6 elap:               0.7
 (Enter /lrz/sys/applications/gaussian/g16.C.01/x86_64_legacy/exe/l101.exe)
 ---------------
 g16_g16_C4-ma_1
 ---------------
 Symbolic Z-matrix:
 Charge = -1 Multiplicity = 1
 O                    -1.36284   1.42847  -0.01412 
 C                    -0.8908    0.2229   -0.43461 
 C                    -1.83451  -0.92839  -0.01716 
 C                     0.6018   -0.05655   0.00404 
 C                     0.71596   0.00234   1.5302 
 C                     1.10216  -1.4111   -0.50676 
 C                     1.47439   1.04845  -0.60199 
 H                    -0.83266   0.14168  -1.56672 
 H                    -1.5675   -1.91289  -0.43502 
 H                    -1.87943  -1.01822   1.08198 
 H                    -2.85206  -0.68072  -0.36128 
 H                     1.76777  -0.02596   1.86082 
 H                     0.25989   0.93416   1.89827 
 H                     0.1956   -0.84057   2.01346 
 H                     0.92085  -1.51842  -1.59048 
 H                     2.18758  -1.52147  -0.34242 
 H                     0.60892  -2.25497   0.00036 
 H                     1.45455   1.00513  -1.70476 
 H                     1.0989    2.03733  -0.30141 
 H                     2.52626   0.96118  -0.28214 
 
 ITRead=  0  0  0  0  0  0  0  0  0  0  0  0  0  0  0  0  0  0  0  0
 MicOpt= -1 -1 -1 -1 -1 -1 -1 -1 -1 -1 -1 -1 -1 -1 -1 -1 -1 -1 -1 -1
 NAtoms=     20 NQM=       20 NQMF=       0 NMMI=      0 NMMIF=      0
                NMic=       0 NMicF=      0.
                    Isotopes and Nuclear Properties:
 (Nuclear quadrupole moments (NQMom) in fm**2, nuclear magnetic moments (NMagM)
  in nuclear magnetons)

  Atom         1           2           3           4           5           6           7           8           9          10
 IAtWgt=          16          12          12          12          12          12          12           1           1           1
 AtmWgt=  15.9949146  12.0000000  12.0000000  12.0000000  12.0000000  12.0000000  12.0000000   1.0078250   1.0078250   1.0078250
 NucSpn=           0           0           0           0           0           0           0           1           1           1
 AtZEff=  -0.0000000  -0.0000000  -0.0000000  -0.0000000  -0.0000000  -0.0000000  -0.0000000  -0.0000000  -0.0000000  -0.0000000
 NQMom=    0.0000000   0.0000000   0.0000000   0.0000000   0.0000000   0.0000000   0.0000000   0.0000000   0.0000000   0.0000000
 NMagM=    0.0000000   0.0000000   0.0000000   0.0000000   0.0000000   0.0000000   0.0000000   2.7928460   2.7928460   2.7928460
 AtZNuc=   8.0000000   6.0000000   6.0000000   6.0000000   6.0000000   6.0000000   6.0000000   1.0000000   1.0000000   1.0000000

  Atom        11          12          13          14          15          16          17          18          19          20
 IAtWgt=           1           1           1           1           1           1           1           1           1           1
 AtmWgt=   1.0078250   1.0078250   1.0078250   1.0078250   1.0078250   1.0078250   1.0078250   1.0078250   1.0078250   1.0078250
 NucSpn=           1           1           1           1           1           1           1           1           1           1
 AtZEff=  -0.0000000  -0.0000000  -0.0000000  -0.0000000  -0.0000000  -0.0000000  -0.0000000  -0.0000000  -0.0000000  -0.0000000
 NQMom=    0.0000000   0.0000000   0.0000000   0.0000000   0.0000000   0.0000000   0.0000000   0.0000000   0.0000000   0.0000000
 NMagM=    2.7928460   2.7928460   2.7928460   2.7928460   2.7928460   2.7928460   2.7928460   2.7928460   2.7928460   2.7928460
 AtZNuc=   1.0000000   1.0000000   1.0000000   1.0000000   1.0000000   1.0000000   1.0000000   1.0000000   1.0000000   1.0000000
 Leave Link  101 at Wed Oct 22 10:14:20 2025, MaxMem=  4294967296 cpu:               1.3 elap:               0.2
 (Enter /lrz/sys/applications/gaussian/g16.C.01/x86_64_legacy/exe/l202.exe)
                          Input orientation:                          
 ---------------------------------------------------------------------
 Center     Atomic      Atomic             Coordinates (Angstroms)
 Number     Number       Type             X           Y           Z
 ---------------------------------------------------------------------
      1          8           0       -1.362839    1.428474   -0.014124
      2          6           0       -0.890796    0.222899   -0.434607
      3          6           0       -1.834509   -0.928387   -0.017156
      4          6           0        0.601801   -0.056551    0.004037
      5          6           0        0.715964    0.002341    1.530199
      6          6           0        1.102156   -1.411096   -0.506760
      7          6           0        1.474388    1.048450   -0.601988
      8          1           0       -0.832655    0.141675   -1.566722
      9          1           0       -1.567495   -1.912893   -0.435015
     10          1           0       -1.879429   -1.018218    1.081977
     11          1           0       -2.852059   -0.680724   -0.361279
     12          1           0        1.767770   -0.025960    1.860816
     13          1           0        0.259885    0.934163    1.898271
     14          1           0        0.195603   -0.840571    2.013460
     15          1           0        0.920853   -1.518422   -1.590483
     16          1           0        2.187580   -1.521468   -0.342422
     17          1           0        0.608915   -2.254966    0.000360
     18          1           0        1.454554    1.005134   -1.704764
     19          1           0        1.098901    2.037334   -0.301406
     20          1           0        2.526257    0.961183   -0.282143
 ---------------------------------------------------------------------
                    Distance matrix (angstroms):
                    1          2          3          4          5
     1  O    0.000000
     2  C    1.361265   0.000000
     3  C    2.403596   1.546066   0.000000
     4  C    2.462811   1.580616   2.587693   0.000000
     5  C    2.956385   2.547702   3.124976   1.531559   0.000000
     6  C    3.792367   2.578178   3.016077   1.531686   2.509213
     7  C    2.922304   2.510706   3.898553   1.532874   2.493145
     8  H    2.085068   1.136513   2.133049   2.136409   3.465336
     9  H    3.373984   2.240431   1.102341   2.888705   3.569926
    10  H    2.730312   2.194947   1.103712   2.871108   2.824625
    11  H    2.605189   2.160663   1.102346   3.528767   4.095736
    12  H    3.928294   3.521203   4.161438   2.192726   1.102907
    13  H    2.556332   2.696717   3.394766   2.164843   1.100808
    14  H    3.418831   2.881712   2.872711   2.194872   1.102188
    15  H    4.047759   2.765921   3.227308   2.186631   3.477550
    16  H    4.627679   3.539451   4.078571   2.186484   2.827429
    17  H    4.178008   2.928847   2.780367   2.198430   2.728974
    18  H    3.312881   2.779543   4.171865   2.185032   3.466424
    19  H    2.552137   2.696073   4.181052   2.173651   2.764528
    20  H    3.926228   3.499223   4.759934   2.195726   2.735164
                    6          7          8          9         10
     6  C    0.000000
     7  C    2.489376   0.000000
     8  H    2.697797   2.659962   0.000000
     9  H    2.717349   4.248586   2.458048   0.000000
    10  H    3.401219   4.284267   3.075174   1.788578   0.000000
    11  H    4.023733   4.665418   2.491471   1.781511   1.772822
    12  H    2.822598   2.702931   4.305616   4.467141   3.859174
    13  H    3.463212   2.781973   3.718583   4.109656   3.009118
    14  H    2.738402   3.470484   3.852249   3.202096   2.281442
    15  H    1.104013   2.805772   2.414804   2.771748   3.903053
    16  H    1.103329   2.679645   3.658794   3.776556   4.338518
    17  H    1.101169   3.467625   3.205894   2.245735   2.981828
    18  H    2.719847   1.103805   2.448661   4.388613   4.793258
    19  H    3.454541   1.099651   2.987550   4.767789   4.485599
    20  H    2.776009   1.102880   3.688364   5.004247   5.018857
                   11         12         13         14         15
    11  H    0.000000
    12  H    5.168098   0.000000
    13  H    4.171046   1.788003   0.000000
    14  H    3.866934   1.777245   1.779630   0.000000
    15  H    4.055557   3.854371   4.315490   3.738165   0.000000
    16  H    5.109322   2.695745   3.842764   3.159394   1.778275
    17  H    3.819340   3.126133   3.727524   2.494777   1.780613
    18  H    4.816013   3.724865   3.796595   4.337831   2.581905
    19  H    4.795989   3.062641   2.599906   3.802222   3.786400
    20  H    5.623914   2.478311   3.145056   3.734710   3.230715
                   16         17         18         19         20
    16  H    0.000000
    17  H    1.774176   0.000000
    18  H    2.962604   3.775024   0.000000
    19  H    3.721824   4.330703   1.778016   0.000000
    20  H    2.506370   3.754946   1.781665   1.787685   0.000000
 Stoichiometry    C6H13O(1-)
 Framework group  C1[X(C6H13O)]
 Deg. of freedom    54
 Full point group                 C1      NOp   1
 Largest Abelian subgroup         C1      NOp   1
 Largest concise Abelian subgroup C1      NOp   1
                         Standard orientation:                         
 ---------------------------------------------------------------------
 Center     Atomic      Atomic             Coordinates (Angstroms)
 Number     Number       Type             X           Y           Z
 ---------------------------------------------------------------------
      1          8           0        1.362839   -1.428474   -0.014124
      2          6           0        0.890796   -0.222899   -0.434607
      3          6           0        1.834509    0.928387   -0.017156
      4          6           0       -0.601801    0.056551    0.004037
      5          6           0       -0.715964   -0.002341    1.530199
      6          6           0       -1.102156    1.411096   -0.506760
      7          6           0       -1.474388   -1.048450   -0.601988
      8          1           0        0.832655   -0.141675   -1.566722
      9          1           0        1.567495    1.912893   -0.435015
     10          1           0        1.879429    1.018218    1.081977
     11          1           0        2.852059    0.680724   -0.361279
     12          1           0       -1.767770    0.025960    1.860816
     13          1           0       -0.259885   -0.934163    1.898271
     14          1           0       -0.195603    0.840571    2.013460
     15          1           0       -0.920853    1.518422   -1.590483
     16          1           0       -2.187580    1.521468   -0.342422
     17          1           0       -0.608915    2.254966    0.000360
     18          1           0       -1.454554   -1.005134   -1.704764
     19          1           0       -1.098901   -2.037334   -0.301406
     20          1           0       -2.526257   -0.961183   -0.282143
 ---------------------------------------------------------------------
 Rotational constants (GHZ):           3.1337331           2.2552055           1.8866859
 Leave Link  202 at Wed Oct 22 10:14:20 2025, MaxMem=  4294967296 cpu:               0.0 elap:               0.0
 (Enter /lrz/sys/applications/gaussian/g16.C.01/x86_64_legacy/exe/l301.exe)
 Standard basis: def2TZVP (5D, 7F)
 Ernie: Thresh=  0.10000D-02 Tol=  0.10000D-05 Strict=F.
 There are   330 symmetry adapted cartesian basis functions of A   symmetry.
 There are   295 symmetry adapted basis functions of A   symmetry.
   295 basis functions,   461 primitive gaussians,   330 cartesian basis functions
    29 alpha electrons       29 beta electrons
       nuclear repulsion energy       334.9763950912 Hartrees.
 IExCor= 4639 DFT=T Ex+Corr=wB97XD ExCW=0 ScaHFX=  1.000000
 ScaDFX=  1.000000  1.000000  1.000000  1.000000 ScalE2=  1.000000  1.000000
 IRadAn=      5 IRanWt=     -1 IRanGd=            0 ICorTp=0 IEmpDi=121
 HFx  wShort=  0.000000 wLong=  0.200000 cFull=  0.222036 cShort=  0.000000 cLong=  0.777964
 DFx  wShort=  0.000000 wLong=  0.200000 cFull=  0.000000 cShort=  0.000000 cLong=  1.000000
 NAtoms=   20 NActive=   20 NUniq=   20 SFac= 1.00D+00 NAtFMM=   60 NAOKFM=F Big=F
 Integral buffers will be    131072 words long.
 Raffenetti 2 integral format.
 Two-electron integral symmetry is turned on.
 R6Disp:  Grimme-D2 Dispersion energy=       -0.0138988506 Hartrees.
 Nuclear repulsion after empirical dispersion term =      334.9624962406 Hartrees.
 ------------------------------------------------------------------------------
 Polarizable Continuum Model (PCM)
 =================================
 Model                : PCM.
 Atomic radii         : SMD-Coulomb.
 Polarization charges : Total charges.
 Charge compensation  : None.
 Solution method      : On-the-fly selection.
 Cavity type          : VdW (van der Waals Surface) (Alpha=1.000).
 Cavity algorithm     : GePol (No added spheres)
                        Default sphere list used, NSphG=   20.
                        Lebedev-Laikov grids with approx.  5.0 points / Ang**2.
                        Smoothing algorithm: York/Karplus (Gamma=1.0000).
                        Polarization charges: spherical gaussians, with
                                              point-specific exponents (IZeta= 3).
                        Self-potential: point-specific (ISelfS= 7).
                        Self-field    : sphere-specific E.n sum rule (ISelfD= 2).
 Solvent              : Water, Eps=  78.355300 Eps(inf)=   1.777849
 ------------------------------------------------------------------------------
 Spheres list:
 ISph  on   Nord     Re0    Alpha      Xe            Ye            Ze
    1   O      1    1.5200  1.000      1.362839     -1.428474     -0.014124
    2   C      2    1.8500  1.000      0.890796     -0.222899     -0.434607
    3   C      3    1.8500  1.000      1.834509      0.928387     -0.017156
    4   C      4    1.8500  1.000     -0.601801      0.056551      0.004037
    5   C      5    1.8500  1.000     -0.715964     -0.002341      1.530199
    6   C      6    1.8500  1.000     -1.102156      1.411096     -0.506760
    7   C      7    1.8500  1.000     -1.474388     -1.048450     -0.601988
    8   H      8    1.2000  1.000      0.832655     -0.141675     -1.566722
    9   H      9    1.2000  1.000      1.567495      1.912893     -0.435015
   10   H     10    1.2000  1.000      1.879429      1.018218      1.081977
   11   H     11    1.2000  1.000      2.852059      0.680724     -0.361279
   12   H     12    1.2000  1.000     -1.767770      0.025960      1.860816
   13   H     13    1.2000  1.000     -0.259885     -0.934163      1.898271
   14   H     14    1.2000  1.000     -0.195603      0.840571      2.013460
   15   H     15    1.2000  1.000     -0.920853      1.518422     -1.590483
   16   H     16    1.2000  1.000     -2.187580      1.521468     -0.342422
   17   H     17    1.2000  1.000     -0.608915      2.254966      0.000360
   18   H     18    1.2000  1.000     -1.454554     -1.005134     -1.704764
   19   H     19    1.2000  1.000     -1.098901     -2.037334     -0.301406
   20   H     20    1.2000  1.000     -2.526257     -0.961183     -0.282143
 ------------------------------------------------------------------------------
 GePol: Number of generator spheres                  =      20
 GePol: Total number of spheres                      =      20
 GePol: Number of exposed spheres                    =      20 (100.00%)
 GePol: Number of points                             =    1326
 GePol: Average weight of points                     =       0.12
 GePol: Minimum weight of points                     =   0.21D-11
 GePol: Maximum weight of points                     =    0.21991
 GePol: Number of points with low weight             =      80
 GePol: Fraction of low-weight points (<1% of avg)   =       6.03%
 GePol: Cavity surface area                          =    153.096 Ang**2
 GePol: Cavity volume                                =    124.903 Ang**3
 ------------------------------------------------------------------------------
 Atomic radii for non-electrostatic terms: SMD-CDS.
 ------------------------------------------------------------------------------
 PCM non-electrostatic energy =         0.0061216139 Hartrees.
 Nuclear repulsion after PCM non-electrostatic terms =      334.9686178544 Hartrees.
 Leave Link  301 at Wed Oct 22 10:14:20 2025, MaxMem=  4294967296 cpu:               0.6 elap:               0.1
 (Enter /lrz/sys/applications/gaussian/g16.C.01/x86_64_legacy/exe/l302.exe)
 NPDir=0 NMtPBC=     1 NCelOv=     1 NCel=       1 NClECP=     1 NCelD=      1
         NCelK=      1 NCelE2=     1 NClLst=     1 CellRange=     0.0.
 One-electron integrals computed using PRISM.
 One-electron integral symmetry used in STVInt
   1 Symmetry operations used in ECPInt.
 ECPInt:  NShTT=    8385 NPrTT=   24064 LenC2=    8320 LenP2D=   19757.
 LDataN:  DoStor=T MaxTD1= 6 Len=  172
 NBasis=   295 RedAO= T EigKep=  1.66D-04  NBF=   295
 NBsUse=   295 1.00D-06 EigRej= -1.00D+00 NBFU=   295
 Precomputing XC quadrature grid using
 IXCGrd= 4 IRadAn=           5 IRanWt=          -1 IRanGd=           0 AccXCQ= 0.00D+00.
 Generated NRdTot=       0 NPtTot=           0 NUsed=           0 NTot=          32
 NSgBfM=   329   329   329   329   329 MxSgAt=    20 MxSgA2=    20.
 Leave Link  302 at Wed Oct 22 10:14:20 2025, MaxMem=  4294967296 cpu:               3.0 elap:               0.4
 (Enter /lrz/sys/applications/gaussian/g16.C.01/x86_64_legacy/exe/l303.exe)
 DipDrv:  MaxL=1.
 Leave Link  303 at Wed Oct 22 10:14:21 2025, MaxMem=  4294967296 cpu:               0.3 elap:               0.1
 (Enter /lrz/sys/applications/gaussian/g16.C.01/x86_64_legacy/exe/l401.exe)
 ExpMin= 9.52D-02 ExpMax= 2.70D+04 ExpMxC= 9.22D+02 IAcc=3 IRadAn=         5 AccDes= 0.00D+00
 Harris functional with IExCor= 4639 and IRadAn=       5 diagonalized for initial guess.
 HarFok:  IExCor= 4639 AccDes= 0.00D+00 IRadAn=         5 IDoV= 1 UseB2=F ITyADJ=14
 ICtDFT=  3500011 ScaDFX=  1.000000  1.000000  1.000000  1.000000
 FoFCou: FMM=F IPFlag=           0 FMFlag=      100000 FMFlg1=           0
         NFxFlg=           0 DoJE=T BraDBF=F KetDBF=T FulRan=T
         wScrn=  0.000000 ICntrl=       500 IOpCl=  0 I1Cent=   200000004 NGrid=           0
         NMat0=    1 NMatS0=      1 NMatT0=    0 NMatD0=    1 NMtDS0=    0 NMtDT0=    0
 Petite list used in FoFCou.
 Harris En= -297.369639348508    
 JPrj=0 DoOrth=F DoCkMO=F.
 Leave Link  401 at Wed Oct 22 10:14:24 2025, MaxMem=  4294967296 cpu:              23.4 elap:               2.9
 (Enter /lrz/sys/applications/gaussian/g16.C.01/x86_64_legacy/exe/l502.exe)
 Integral symmetry usage will be decided dynamically.
 Closed shell SCF:
 Using DIIS extrapolation, IDIIS=  1040.
 NGot=  4294967296 LenX=  4294743206 LenY=  4294633865
 Requested convergence on RMS density matrix=1.00D-08 within 128 cycles.
 Requested convergence on MAX density matrix=1.00D-06.
 Requested convergence on             energy=1.00D-06.
 No special actions if energy rises.
 Fock matrices will be formed incrementally for  20 cycles.

 Cycle   1  Pass 1  IDiag  1:
 FoFJK:  IHMeth= 1 ICntrl=       0 DoSepK=T KAlg= 0 I1Cent=           0 FoldK=F
 IRaf=         1 NMat=       1 IRICut=       1 DoRegI=T DoRafI=F ISym2E= 0 IDoP0=0 IntGTp=1.
 FoFCou: FMM=F IPFlag=           0 FMFlag=      100000 FMFlg1=           0
         NFxFlg=           0 DoJE=T BraDBF=F KetDBF=F FulRan=T
         wScrn=  0.000000 ICntrl=       500 IOpCl=  0 I1Cent=           0 NGrid=           0
         NMat0=    1 NMatS0=      1 NMatT0=    0 NMatD0=    1 NMtDS0=    0 NMtDT0=    0
 Symmetry not used in FoFCou.
 Inv3:  Mode=1 IEnd=     5274828.
 Iteration    1 A*A^-1 deviation from unit magnitude is 5.88D-15 for    534.
 Iteration    1 A*A^-1 deviation from orthogonality  is 3.68D-15 for   1206    771.
 Iteration    1 A^-1*A deviation from unit magnitude is 5.44D-15 for    171.
 Iteration    1 A^-1*A deviation from orthogonality  is 2.42D-14 for   1182   1113.
 E= -311.716517005674    
 DIIS: error= 5.83D-02 at cycle   1 NSaved=   1.
 NSaved= 1 IEnMin= 1 EnMin= -311.716517005674     IErMin= 1 ErrMin= 5.83D-02
 ErrMax= 5.83D-02  0.00D+00 EMaxC= 1.00D-01 BMatC= 6.53D-01 BMatP= 6.53D-01
 IDIUse=3 WtCom= 4.17D-01 WtEn= 5.83D-01
 Coeff-Com:  0.100D+01
 Coeff-En:   0.100D+01
 Coeff:      0.100D+01
 Gap=     0.372 Goal=   None    Shift=    0.000
 GapD=    0.372 DampG=1.000 DampE=0.500 DampFc=0.5000 IDamp=-1.
 Damping current iteration by 5.00D-01
 RMSDP=1.73D-03 MaxDP=7.58D-02              OVMax= 6.50D-02

 Cycle   2  Pass 1  IDiag  1:
 RMSU=  8.56D-04    CP:  9.85D-01
 E= -311.771125437367     Delta-E=       -0.054608431692 Rises=F Damp=T
 DIIS: error= 2.95D-02 at cycle   2 NSaved=   2.
 NSaved= 2 IEnMin= 2 EnMin= -311.771125437367     IErMin= 2 ErrMin= 2.95D-02
 ErrMax= 2.95D-02  0.00D+00 EMaxC= 1.00D-01 BMatC= 1.47D-01 BMatP= 6.53D-01
 IDIUse=3 WtCom= 7.05D-01 WtEn= 2.95D-01
 Coeff-Com: -0.807D+00 0.181D+01
 Coeff-En:   0.000D+00 0.100D+01
 Coeff:     -0.569D+00 0.157D+01
 Gap=     0.395 Goal=   None    Shift=    0.000
 RMSDP=8.75D-04 MaxDP=3.03D-02 DE=-5.46D-02 OVMax= 3.35D-02

 Cycle   3  Pass 1  IDiag  1:
 RMSU=  6.77D-04    CP:  9.64D-01  1.61D+00
 E= -311.818357802846     Delta-E=       -0.047232365479 Rises=F Damp=F
 DIIS: error= 3.12D-03 at cycle   3 NSaved=   3.
 NSaved= 3 IEnMin= 3 EnMin= -311.818357802846     IErMin= 3 ErrMin= 3.12D-03
 ErrMax= 3.12D-03  0.00D+00 EMaxC= 1.00D-01 BMatC= 4.68D-03 BMatP= 1.47D-01
 IDIUse=3 WtCom= 9.69D-01 WtEn= 3.12D-02
 Coeff-Com: -0.271D+00 0.590D+00 0.682D+00
 Coeff-En:   0.000D+00 0.000D+00 0.100D+01
 Coeff:     -0.263D+00 0.571D+00 0.692D+00
 Gap=     0.387 Goal=   None    Shift=    0.000
 RMSDP=2.00D-04 MaxDP=8.96D-03 DE=-4.72D-02 OVMax= 1.07D-02

 Cycle   4  Pass 1  IDiag  1:
 RMSU=  1.33D-04    CP:  9.61D-01  1.76D+00  9.09D-01
 E= -311.822602140338     Delta-E=       -0.004244337492 Rises=F Damp=F
 DIIS: error= 4.18D-04 at cycle   4 NSaved=   4.
 NSaved= 4 IEnMin= 4 EnMin= -311.822602140338     IErMin= 4 ErrMin= 4.18D-04
 ErrMax= 4.18D-04  0.00D+00 EMaxC= 1.00D-01 BMatC= 3.52D-05 BMatP= 4.68D-03
 IDIUse=3 WtCom= 9.96D-01 WtEn= 4.18D-03
 Coeff-Com: -0.102D-01 0.225D-01 0.729D-01 0.915D+00
 Coeff-En:   0.000D+00 0.000D+00 0.000D+00 0.100D+01
 Coeff:     -0.102D-01 0.225D-01 0.726D-01 0.915D+00
 Gap=     0.387 Goal=   None    Shift=    0.000
 RMSDP=6.31D-05 MaxDP=1.85D-03 DE=-4.24D-03 OVMax= 2.18D-03

 Cycle   5  Pass 1  IDiag  1:
 RMSU=  2.83D-05    CP:  9.61D-01  1.77D+00  9.71D-01  1.27D+00
 E= -311.822640977232     Delta-E=       -0.000038836894 Rises=F Damp=F
 DIIS: error= 1.52D-04 at cycle   5 NSaved=   5.
 NSaved= 5 IEnMin= 5 EnMin= -311.822640977232     IErMin= 5 ErrMin= 1.52D-04
 ErrMax= 1.52D-04  0.00D+00 EMaxC= 1.00D-01 BMatC= 1.40D-05 BMatP= 3.52D-05
 IDIUse=3 WtCom= 9.98D-01 WtEn= 1.52D-03
 Coeff-Com:  0.329D-01-0.714D-01-0.584D-01 0.435D+00 0.662D+00
 Coeff-En:   0.000D+00 0.000D+00 0.000D+00 0.000D+00 0.100D+01
 Coeff:      0.328D-01-0.713D-01-0.583D-01 0.434D+00 0.662D+00
 Gap=     0.387 Goal=   None    Shift=    0.000
 RMSDP=3.00D-05 MaxDP=9.02D-04 DE=-3.88D-05 OVMax= 1.30D-03

 Cycle   6  Pass 1  IDiag  1:
 RMSU=  1.21D-05    CP:  9.60D-01  1.78D+00  9.95D-01  1.43D+00  1.07D+00
 E= -311.822654175242     Delta-E=       -0.000013198010 Rises=F Damp=F
 DIIS: error= 4.21D-05 at cycle   6 NSaved=   6.
 NSaved= 6 IEnMin= 6 EnMin= -311.822654175242     IErMin= 6 ErrMin= 4.21D-05
 ErrMax= 4.21D-05  0.00D+00 EMaxC= 1.00D-01 BMatC= 7.24D-07 BMatP= 1.40D-05
 IDIUse=1 WtCom= 1.00D+00 WtEn= 0.00D+00
 Coeff-Com:  0.118D-01-0.255D-01-0.253D-01 0.850D-01 0.232D+00 0.722D+00
 Coeff:      0.118D-01-0.255D-01-0.253D-01 0.850D-01 0.232D+00 0.722D+00
 Gap=     0.387 Goal=   None    Shift=    0.000
 RMSDP=9.42D-06 MaxDP=4.11D-04 DE=-1.32D-05 OVMax= 3.90D-04

 Cycle   7  Pass 1  IDiag  1:
 RMSU=  3.95D-06    CP:  9.60D-01  1.78D+00  9.98D-01  1.47D+00  1.24D+00
                    CP:  1.14D+00
 E= -311.822654957105     Delta-E=       -0.000000781864 Rises=F Damp=F
 DIIS: error= 1.40D-05 at cycle   7 NSaved=   7.
 NSaved= 7 IEnMin= 7 EnMin= -311.822654957105     IErMin= 7 ErrMin= 1.40D-05
 ErrMax= 1.40D-05  0.00D+00 EMaxC= 1.00D-01 BMatC= 1.52D-07 BMatP= 7.24D-07
 IDIUse=1 WtCom= 1.00D+00 WtEn= 0.00D+00
 Coeff-Com: -0.218D-02 0.471D-02 0.165D-02-0.613D-01-0.446D-01 0.319D+00
 Coeff-Com:  0.783D+00
 Coeff:     -0.218D-02 0.471D-02 0.165D-02-0.613D-01-0.446D-01 0.319D+00
 Coeff:      0.783D+00
 Gap=     0.387 Goal=   None    Shift=    0.000
 RMSDP=6.17D-06 MaxDP=2.96D-04 DE=-7.82D-07 OVMax= 2.92D-04

 Cycle   8  Pass 1  IDiag  1:
 RMSU=  1.63D-06    CP:  9.60D-01  1.78D+00  1.00D+00  1.50D+00  1.34D+00
                    CP:  1.36D+00  1.23D+00
 E= -311.822655175304     Delta-E=       -0.000000218199 Rises=F Damp=F
 DIIS: error= 2.65D-06 at cycle   8 NSaved=   8.
 NSaved= 8 IEnMin= 8 EnMin= -311.822655175304     IErMin= 8 ErrMin= 2.65D-06
 ErrMax= 2.65D-06  0.00D+00 EMaxC= 1.00D-01 BMatC= 4.30D-09 BMatP= 1.52D-07
 IDIUse=1 WtCom= 1.00D+00 WtEn= 0.00D+00
 Coeff-Com: -0.104D-02 0.224D-02 0.198D-02-0.982D-02-0.229D-01-0.299D-01
 Coeff-Com:  0.210D-01 0.104D+01
 Coeff:     -0.104D-02 0.224D-02 0.198D-02-0.982D-02-0.229D-01-0.299D-01
 Coeff:      0.210D-01 0.104D+01
 Gap=     0.387 Goal=   None    Shift=    0.000
 RMSDP=2.23D-06 MaxDP=1.25D-04 DE=-2.18D-07 OVMax= 1.09D-04

 Cycle   9  Pass 1  IDiag  1:
 RMSU=  5.51D-07    CP:  9.60D-01  1.78D+00  1.00D+00  1.51D+00  1.37D+00
                    CP:  1.43D+00  1.49D+00  1.41D+00
 E= -311.822655191753     Delta-E=       -0.000000016449 Rises=F Damp=F
 DIIS: error= 8.94D-07 at cycle   9 NSaved=   9.
 NSaved= 9 IEnMin= 9 EnMin= -311.822655191753     IErMin= 9 ErrMin= 8.94D-07
 ErrMax= 8.94D-07  0.00D+00 EMaxC= 1.00D-01 BMatC= 5.79D-10 BMatP= 4.30D-09
 IDIUse=1 WtCom= 1.00D+00 WtEn= 0.00D+00
 Coeff-Com:  0.373D-04-0.811D-04 0.160D-03 0.430D-02 0.361D-03-0.323D-01
 Coeff-Com: -0.704D-01 0.175D+00 0.923D+00
 Coeff:      0.373D-04-0.811D-04 0.160D-03 0.430D-02 0.361D-03-0.323D-01
 Coeff:     -0.704D-01 0.175D+00 0.923D+00
 Gap=     0.387 Goal=   None    Shift=    0.000
 RMSDP=6.48D-07 MaxDP=4.34D-05 DE=-1.64D-08 OVMax= 3.49D-05

 Cycle  10  Pass 1  IDiag  1:
 RMSU=  1.26D-07    CP:  9.60D-01  1.78D+00  1.00D+00  1.51D+00  1.38D+00
                    CP:  1.45D+00  1.58D+00  1.62D+00  1.35D+00
 E= -311.822655193452     Delta-E=       -0.000000001700 Rises=F Damp=F
 DIIS: error= 4.52D-07 at cycle  10 NSaved=  10.
 NSaved=10 IEnMin=10 EnMin= -311.822655193452     IErMin=10 ErrMin= 4.52D-07
 ErrMax= 4.52D-07  0.00D+00 EMaxC= 1.00D-01 BMatC= 1.05D-10 BMatP= 5.79D-10
 IDIUse=1 WtCom= 1.00D+00 WtEn= 0.00D+00
 Coeff-Com:  0.122D-03-0.265D-03-0.163D-03 0.240D-02 0.264D-02-0.769D-02
 Coeff-Com: -0.237D-01-0.641D-01 0.287D+00 0.803D+00
 Coeff:      0.122D-03-0.265D-03-0.163D-03 0.240D-02 0.264D-02-0.769D-02
 Coeff:     -0.237D-01-0.641D-01 0.287D+00 0.803D+00
 Gap=     0.387 Goal=   None    Shift=    0.000
 RMSDP=2.30D-07 MaxDP=1.46D-05 DE=-1.70D-09 OVMax= 1.13D-05

 Cycle  11  Pass 1  IDiag  1:
 RMSU=  4.10D-08    CP:  9.60D-01  1.78D+00  1.00D+00  1.51D+00  1.38D+00
                    CP:  1.45D+00  1.61D+00  1.68D+00  1.55D+00  1.32D+00
 E= -311.822655193666     Delta-E=       -0.000000000214 Rises=F Damp=F
 DIIS: error= 7.86D-08 at cycle  11 NSaved=  11.
 NSaved=11 IEnMin=11 EnMin= -311.822655193666     IErMin=11 ErrMin= 7.86D-08
 ErrMax= 7.86D-08  0.00D+00 EMaxC= 1.00D-01 BMatC= 6.23D-12 BMatP= 1.05D-10
 IDIUse=1 WtCom= 1.00D+00 WtEn= 0.00D+00
 Coeff-Com: -0.526D-05 0.114D-04-0.171D-04-0.512D-03 0.957D-06 0.359D-02
 Coeff-Com:  0.899D-02-0.255D-01-0.107D+00 0.278D-01 0.109D+01
 Coeff:     -0.526D-05 0.114D-04-0.171D-04-0.512D-03 0.957D-06 0.359D-02
 Coeff:      0.899D-02-0.255D-01-0.107D+00 0.278D-01 0.109D+01
 Gap=     0.387 Goal=   None    Shift=    0.000
 RMSDP=9.96D-08 MaxDP=6.49D-06 DE=-2.14D-10 OVMax= 4.74D-06

 Cycle  12  Pass 1  IDiag  1:
 RMSU=  1.42D-08    CP:  9.60D-01  1.78D+00  1.00D+00  1.51D+00  1.38D+00
                    CP:  1.45D+00  1.62D+00  1.71D+00  1.65D+00  1.57D+00
                    CP:  1.49D+00
 E= -311.822655193693     Delta-E=       -0.000000000026 Rises=F Damp=F
 DIIS: error= 2.49D-08 at cycle  12 NSaved=  12.
 NSaved=12 IEnMin=12 EnMin= -311.822655193693     IErMin=12 ErrMin= 2.49D-08
 ErrMax= 2.49D-08  0.00D+00 EMaxC= 1.00D-01 BMatC= 3.07D-13 BMatP= 6.23D-12
 IDIUse=1 WtCom= 1.00D+00 WtEn= 0.00D+00
 Coeff-Com: -0.521D-05 0.113D-04 0.717D-05-0.115D-03-0.155D-03 0.516D-03
 Coeff-Com:  0.106D-02 0.384D-02-0.150D-01-0.465D-01-0.638D-02 0.106D+01
 Coeff:     -0.521D-05 0.113D-04 0.717D-05-0.115D-03-0.155D-03 0.516D-03
 Coeff:      0.106D-02 0.384D-02-0.150D-01-0.465D-01-0.638D-02 0.106D+01
 Gap=     0.387 Goal=   None    Shift=    0.000
 RMSDP=1.85D-08 MaxDP=1.14D-06 DE=-2.63D-11 OVMax= 7.30D-07

 Cycle  13  Pass 1  IDiag  1:
 RMSU=  3.33D-09    CP:  9.60D-01  1.78D+00  1.00D+00  1.51D+00  1.38D+00
                    CP:  1.45D+00  1.62D+00  1.72D+00  1.67D+00  1.62D+00
                    CP:  1.67D+00  1.39D+00
 E= -311.822655193692     Delta-E=        0.000000000000 Rises=F Damp=F
 DIIS: error= 8.67D-09 at cycle  13 NSaved=  13.
 NSaved=13 IEnMin=12 EnMin= -311.822655193693     IErMin=13 ErrMin= 8.67D-09
 ErrMax= 8.67D-09  0.00D+00 EMaxC= 1.00D-01 BMatC= 5.42D-14 BMatP= 3.07D-13
 IDIUse=1 WtCom= 1.00D+00 WtEn= 0.00D+00
 Coeff-Com: -0.115D-05 0.252D-05 0.322D-05-0.201D-05-0.494D-04-0.612D-04
 Coeff-Com: -0.243D-03 0.298D-02 0.231D-02-0.179D-01-0.744D-01 0.358D+00
 Coeff-Com:  0.729D+00
 Coeff:     -0.115D-05 0.252D-05 0.322D-05-0.201D-05-0.494D-04-0.612D-04
 Coeff:     -0.243D-03 0.298D-02 0.231D-02-0.179D-01-0.744D-01 0.358D+00
 Coeff:      0.729D+00
 Gap=     0.387 Goal=   None    Shift=    0.000
 RMSDP=3.10D-09 MaxDP=1.80D-07 DE= 3.41D-13 OVMax= 1.07D-07

 Error on total polarization charges =  0.06503
 SCF Done:  E(RwB97XD) =  -311.822655194     A.U. after   13 cycles
            NFock= 13  Conv=0.31D-08     -V/T= 2.0060
 KE= 3.099724335954D+02 PE=-1.407111598892D+03 EE= 4.503478922487D+02
 SMD-CDS (non-electrostatic) energy       (kcal/mol) =       3.84
 (included in total energy above)
 Leave Link  502 at Wed Oct 22 10:17:08 2025, MaxMem=  4294967296 cpu:            1312.6 elap:             164.3
 (Enter /lrz/sys/applications/gaussian/g16.C.01/x86_64_legacy/exe/l601.exe)
 Copying SCF densities to generalized density rwf, IOpCl= 0 IROHF=0.

 **********************************************************************

            Population analysis using the SCF Density.

 **********************************************************************

 Orbital symmetries:
       Occupied  (A) (A) (A) (A) (A) (A) (A) (A) (A) (A) (A) (A)
                 (A) (A) (A) (A) (A) (A) (A) (A) (A) (A) (A) (A)
                 (A) (A) (A) (A) (A)
       Virtual   (A) (A) (A) (A) (A) (A) (A) (A) (A) (A) (A) (A)
                 (A) (A) (A) (A) (A) (A) (A) (A) (A) (A) (A) (A)
                 (A) (A) (A) (A) (A) (A) (A) (A) (A) (A) (A) (A)
                 (A) (A) (A) (A) (A) (A) (A) (A) (A) (A) (A) (A)
                 (A) (A) (A) (A) (A) (A) (A) (A) (A) (A) (A) (A)
                 (A) (A) (A) (A) (A) (A) (A) (A) (A) (A) (A) (A)
                 (A) (A) (A) (A) (A) (A) (A) (A) (A) (A) (A) (A)
                 (A) (A) (A) (A) (A) (A) (A) (A) (A) (A) (A) (A)
                 (A) (A) (A) (A) (A) (A) (A) (A) (A) (A) (A) (A)
                 (A) (A) (A) (A) (A) (A) (A) (A) (A) (A) (A) (A)
                 (A) (A) (A) (A) (A) (A) (A) (A) (A) (A) (A) (A)
                 (A) (A) (A) (A) (A) (A) (A) (A) (A) (A) (A) (A)
                 (A) (A) (A) (A) (A) (A) (A) (A) (A) (A) (A) (A)
                 (A) (A) (A) (A) (A) (A) (A) (A) (A) (A) (A) (A)
                 (A) (A) (A) (A) (A) (A) (A) (A) (A) (A) (A) (A)
                 (A) (A) (A) (A) (A) (A) (A) (A) (A) (A) (A) (A)
                 (A) (A) (A) (A) (A) (A) (A) (A) (A) (A) (A) (A)
                 (A) (A) (A) (A) (A) (A) (A) (A) (A) (A) (A) (A)
                 (A) (A) (A) (A) (A) (A) (A) (A) (A) (A) (A) (A)
                 (A) (A) (A) (A) (A) (A) (A) (A) (A) (A) (A) (A)
                 (A) (A) (A) (A) (A) (A) (A) (A) (A) (A) (A) (A)
                 (A) (A) (A) (A) (A) (A) (A) (A) (A) (A) (A) (A)
                 (A) (A)
 The electronic state is 1-A.
 Alpha  occ. eigenvalues --  -19.12680 -10.28980 -10.26606 -10.25425 -10.25078
 Alpha  occ. eigenvalues --  -10.25077 -10.24438  -1.00384  -0.88619  -0.79007
 Alpha  occ. eigenvalues --   -0.76244  -0.75731  -0.67026  -0.58442  -0.53292
 Alpha  occ. eigenvalues --   -0.51059  -0.50468  -0.49235  -0.46462  -0.44895
 Alpha  occ. eigenvalues --   -0.44298  -0.42790  -0.42479  -0.41090  -0.38226
 Alpha  occ. eigenvalues --   -0.38076  -0.37868  -0.27058  -0.26902
 Alpha virt. eigenvalues --    0.11810   0.15181   0.15999   0.17051   0.17477
 Alpha virt. eigenvalues --    0.18277   0.19027   0.20352   0.21442   0.22953
 Alpha virt. eigenvalues --    0.23036   0.23887   0.24242   0.25391   0.25905
 Alpha virt. eigenvalues --    0.26463   0.26703   0.27470   0.29170   0.32469
 Alpha virt. eigenvalues --    0.33802   0.35649   0.36892   0.37763   0.39314
 Alpha virt. eigenvalues --    0.40605   0.41803   0.43819   0.44885   0.45308
 Alpha virt. eigenvalues --    0.45631   0.48928   0.49106   0.49997   0.51326
 Alpha virt. eigenvalues --    0.51991   0.52996   0.53141   0.53427   0.54174
 Alpha virt. eigenvalues --    0.55474   0.55848   0.56824   0.57306   0.57471
 Alpha virt. eigenvalues --    0.59138   0.59805   0.60883   0.61299   0.62580
 Alpha virt. eigenvalues --    0.62976   0.64085   0.68604   0.72784   0.73417
 Alpha virt. eigenvalues --    0.75861   0.77939   0.79807   0.80549   0.83609
 Alpha virt. eigenvalues --    0.87923   0.91061   0.92203   0.93935   0.95391
 Alpha virt. eigenvalues --    0.96616   0.99644   1.00862   1.02328   1.04696
 Alpha virt. eigenvalues --    1.07880   1.09956   1.10948   1.12205   1.14417
 Alpha virt. eigenvalues --    1.15695   1.17930   1.21748   1.23220   1.25554
 Alpha virt. eigenvalues --    1.27550   1.28662   1.30310   1.32843   1.34685
 Alpha virt. eigenvalues --    1.39318   1.40485   1.41609   1.45625   1.50882
 Alpha virt. eigenvalues --    1.54413   1.61823   1.63580   1.64046   1.64647
 Alpha virt. eigenvalues --    1.65621   1.66588   1.67569   1.68149   1.69272
 Alpha virt. eigenvalues --    1.69803   1.70989   1.72280   1.73014   1.73682
 Alpha virt. eigenvalues --    1.75037   1.76284   1.77942   1.79434   1.82897
 Alpha virt. eigenvalues --    1.85455   1.89353   1.90806   1.93715   1.94434
 Alpha virt. eigenvalues --    1.97257   2.01996   2.03269   2.04870   2.07030
 Alpha virt. eigenvalues --    2.08215   2.11088   2.13805   2.15857   2.19183
 Alpha virt. eigenvalues --    2.20011   2.23060   2.27564   2.28935   2.31455
 Alpha virt. eigenvalues --    2.33623   2.36043   2.37778   2.39387   2.40806
 Alpha virt. eigenvalues --    2.40963   2.43201   2.45205   2.46686   2.47777
 Alpha virt. eigenvalues --    2.48267   2.49349   2.50242   2.52327   2.55198
 Alpha virt. eigenvalues --    2.55729   2.57473   2.59887   2.61777   2.63137
 Alpha virt. eigenvalues --    2.65476   2.66336   2.67517   2.69747   2.70807
 Alpha virt. eigenvalues --    2.71847   2.72834   2.74231   2.75157   2.77463
 Alpha virt. eigenvalues --    2.81388   2.82414   2.84891   2.86519   2.90349
 Alpha virt. eigenvalues --    2.90977   2.93924   2.94635   2.95358   2.98375
 Alpha virt. eigenvalues --    2.98931   3.05183   3.07939   3.11756   3.13261
 Alpha virt. eigenvalues --    3.16980   3.19585   3.22199   3.23823   3.25789
 Alpha virt. eigenvalues --    3.27931   3.29201   3.30880   3.32371   3.35283
 Alpha virt. eigenvalues --    3.36577   3.38016   3.40466   3.41621   3.43612
 Alpha virt. eigenvalues --    3.44265   3.45838   3.47006   3.47197   3.49562
 Alpha virt. eigenvalues --    3.49848   3.51384   3.52485   3.53602   3.54406
 Alpha virt. eigenvalues --    3.58336   3.63214   3.64079   3.67261   3.70068
 Alpha virt. eigenvalues --    3.72281   3.76827   3.78954   3.82048   3.85770
 Alpha virt. eigenvalues --    3.86501   3.88026   3.89603   3.92349   3.93768
 Alpha virt. eigenvalues --    4.02065   4.07823   4.12347   4.16377   4.19346
 Alpha virt. eigenvalues --    4.19572   4.22995   4.23854   4.26175   4.28423
 Alpha virt. eigenvalues --    4.29014   4.32814   4.42209   4.44695   4.46865
 Alpha virt. eigenvalues --    4.50089   4.51153   4.51739   4.53697   4.55891
 Alpha virt. eigenvalues --    4.56899   4.57270   4.63695   4.77716   4.80343
 Alpha virt. eigenvalues --    4.85141   4.85503   4.97931   5.04109   5.04938
 Alpha virt. eigenvalues --    5.10654   5.19756   5.36564   5.38149   5.60506
 Alpha virt. eigenvalues --    5.62132   6.05693   6.11926   6.18583   6.59107
 Alpha virt. eigenvalues --    6.62697   7.01421   7.11354   7.14606  22.42512
 Alpha virt. eigenvalues --   22.50675  22.53843  22.54384  22.80003  22.82404
 Alpha virt. eigenvalues --   44.15215
          Condensed to atoms (all electrons):
               1          2          3          4          5          6
     1  O    8.794999   0.453103  -0.109795  -0.175555  -0.020039   0.004760
     2  C    0.453103   4.709540   0.326368   0.168939  -0.042393  -0.025101
     3  C   -0.109795   0.326368   5.241309  -0.099613  -0.010717   0.016984
     4  C   -0.175555   0.168939  -0.099613   5.583326   0.287625   0.249305
     5  C   -0.020039  -0.042393  -0.010717   0.287625   5.167726  -0.063613
     6  C    0.004760  -0.025101   0.016984   0.249305  -0.063613   5.127216
     7  C   -0.006110  -0.077762   0.018610   0.282344  -0.064554  -0.055676
     8  H   -0.075393   0.424599  -0.088005  -0.104287   0.012553  -0.010799
     9  H    0.010680  -0.043952   0.359590   0.007930   0.003170  -0.006665
    10  H    0.009153  -0.036646   0.395252  -0.015079   0.002992  -0.002509
    11  H    0.010259  -0.046695   0.399848   0.023154  -0.000741  -0.000861
    12  H    0.000590   0.010845  -0.001071  -0.034298   0.411373  -0.006524
    13  H    0.044246   0.002282  -0.002389  -0.081694   0.388919   0.014771
    14  H   -0.000155  -0.006068   0.001708  -0.038772   0.409226  -0.008550
    15  H    0.000003   0.000656  -0.004167  -0.048408   0.012809   0.408940
    16  H   -0.000514   0.008007  -0.000675  -0.023767  -0.008235   0.409509
    17  H    0.000318  -0.012007  -0.000099  -0.039983  -0.005694   0.417176
    18  H   -0.000804  -0.005816   0.000099  -0.039599   0.012519  -0.008135
    19  H    0.038809  -0.000891   0.003175  -0.072241  -0.010137   0.014617
    20  H    0.000800   0.012471  -0.000108  -0.036197  -0.008888  -0.010143
               7          8          9         10         11         12
     1  O   -0.006110  -0.075393   0.010680   0.009153   0.010259   0.000590
     2  C   -0.077762   0.424599  -0.043952  -0.036646  -0.046695   0.010845
     3  C    0.018610  -0.088005   0.359590   0.395252   0.399848  -0.001071
     4  C    0.282344  -0.104287   0.007930  -0.015079   0.023154  -0.034298
     5  C   -0.064554   0.012553   0.003170   0.002992  -0.000741   0.411373
     6  C   -0.055676  -0.010799  -0.006665  -0.002509  -0.000861  -0.006524
     7  C    5.165352  -0.029975  -0.001884  -0.000838  -0.000730  -0.010704
     8  H   -0.029975   0.855248   0.007374   0.013016  -0.011994   0.000020
     9  H   -0.001884   0.007374   0.592637  -0.020739  -0.016651   0.000085
    10  H   -0.000838   0.013016  -0.020739   0.576129  -0.028643   0.000364
    11  H   -0.000730  -0.011994  -0.016651  -0.028643   0.562811   0.000032
    12  H   -0.010704   0.000020   0.000085   0.000364   0.000032   0.544342
    13  H   -0.008413   0.004640   0.000048   0.002820  -0.000722  -0.021085
    14  H    0.011838  -0.000292  -0.001156  -0.002558  -0.000045  -0.024989
    15  H   -0.008143   0.010828   0.000175   0.000557  -0.000228  -0.000154
    16  H   -0.013877  -0.000771   0.000936  -0.000131   0.000078   0.003072
    17  H    0.011704   0.001252  -0.004802   0.000540   0.000063   0.000008
    18  H    0.400995   0.010768   0.000038   0.000059  -0.000068   0.000133
    19  H    0.399268  -0.000521  -0.000434  -0.000066  -0.000236  -0.001358
    20  H    0.410097  -0.001449  -0.000099  -0.000040   0.000018   0.002658
              13         14         15         16         17         18
     1  O    0.044246  -0.000155   0.000003  -0.000514   0.000318  -0.000804
     2  C    0.002282  -0.006068   0.000656   0.008007  -0.012007  -0.005816
     3  C   -0.002389   0.001708  -0.004167  -0.000675  -0.000099   0.000099
     4  C   -0.081694  -0.038772  -0.048408  -0.023767  -0.039983  -0.039599
     5  C    0.388919   0.409226   0.012809  -0.008235  -0.005694   0.012519
     6  C    0.014771  -0.008550   0.408940   0.409509   0.417176  -0.008135
     7  C   -0.008413   0.011838  -0.008143  -0.013877   0.011704   0.400995
     8  H    0.004640  -0.000292   0.010828  -0.000771   0.001252   0.010768
     9  H    0.000048  -0.001156   0.000175   0.000936  -0.004802   0.000038
    10  H    0.002820  -0.002558   0.000557  -0.000131   0.000540   0.000059
    11  H   -0.000722  -0.000045  -0.000228   0.000078   0.000063  -0.000068
    12  H   -0.021085  -0.024989  -0.000154   0.003072   0.000008   0.000133
    13  H    0.575115  -0.022085  -0.000164  -0.000512   0.000191   0.000467
    14  H   -0.022085   0.550905  -0.000001  -0.000294   0.002854  -0.000381
    15  H   -0.000164  -0.000001   0.545298  -0.023063  -0.023789   0.003709
    16  H   -0.000512  -0.000294  -0.023063   0.544292  -0.025141  -0.000711
    17  H    0.000191   0.002854  -0.023789  -0.025141   0.544587  -0.000015
    18  H    0.000467  -0.000381   0.003709  -0.000711  -0.000015   0.555387
    19  H    0.006638   0.000435  -0.000175  -0.000461  -0.000347  -0.022494
    20  H   -0.001388   0.000125  -0.000166   0.003592  -0.000100  -0.024760
              19         20
     1  O    0.038809   0.000800
     2  C   -0.000891   0.012471
     3  C    0.003175  -0.000108
     4  C   -0.072241  -0.036197
     5  C   -0.010137  -0.008888
     6  C    0.014617  -0.010143
     7  C    0.399268   0.410097
     8  H   -0.000521  -0.001449
     9  H   -0.000434  -0.000099
    10  H   -0.000066  -0.000040
    11  H   -0.000236   0.000018
    12  H   -0.001358   0.002658
    13  H    0.006638  -0.001388
    14  H    0.000435   0.000125
    15  H   -0.000175  -0.000166
    16  H   -0.000461   0.003592
    17  H   -0.000347  -0.000100
    18  H   -0.022494  -0.024760
    19  H    0.566176  -0.020127
    20  H   -0.020127   0.549548
 Mulliken charges:
               1
     1  O   -0.979353
     2  C    0.180520
     3  C   -0.446305
     4  C    0.206869
     5  C   -0.473901
     6  C   -0.464701
     7  C   -0.421543
     8  H   -0.016815
     9  H    0.113721
    10  H    0.106367
    11  H    0.111350
    12  H    0.126660
    13  H    0.098313
    14  H    0.128255
    15  H    0.125483
    16  H    0.128665
    17  H    0.133284
    18  H    0.118609
    19  H    0.100369
    20  H    0.124154
 Sum of Mulliken charges =  -1.00000
 Mulliken charges with hydrogens summed into heavy atoms:
               1
     1  O   -0.979353
     2  C    0.163705
     3  C   -0.114867
     4  C    0.206869
     5  C   -0.120673
     6  C   -0.077269
     7  C   -0.078411
 Electronic spatial extent (au):  <R**2>=            849.6738
 Charge=             -1.0000 electrons
 Dipole moment (field-independent basis, Debye):
    X=             -6.2559    Y=              6.8212    Z=             -0.0666  Tot=              9.2557
 Quadrupole moment (field-independent basis, Debye-Ang):
   XX=            -60.6541   YY=            -61.9749   ZZ=            -51.1918
   XY=              9.1201   XZ=             -0.3095   YZ=              0.1165
 Traceless Quadrupole moment (field-independent basis, Debye-Ang):
   XX=             -2.7138   YY=             -4.0346   ZZ=              6.7485
   XY=              9.1201   XZ=             -0.3095   YZ=              0.1165
 Octapole moment (field-independent basis, Debye-Ang**2):
  XXX=            -20.1427  YYY=             17.8520  ZZZ=             -1.9538  XYY=            -14.8024
  XXY=             13.6777  XXZ=              0.7984  XZZ=             -0.1918  YZZ=              1.4957
  YYZ=              1.8636  XYZ=              0.1439
 Hexadecapole moment (field-independent basis, Debye-Ang**3):
 XXXX=           -593.2319 YYYY=           -413.0396 ZZZZ=           -268.1037 XXXY=             13.6978
 XXXZ=             -8.4599 YYYX=             22.7254 YYYZ=             -1.5355 ZZZX=              4.9004
 ZZZY=              1.0285 XXYY=           -191.4818 XXZZ=           -142.7658 YYZZ=           -109.4496
 XXYZ=             -0.7602 YYXZ=             -0.7175 ZZXY=              0.9429
 N-N= 3.349686178544D+02 E-N=-1.407111599705D+03  KE= 3.099724335954D+02
 No NMR shielding tensors so no spin-rotation constants.
 Leave Link  601 at Wed Oct 22 10:17:08 2025, MaxMem=  4294967296 cpu:               1.2 elap:               0.2
 (Enter /lrz/sys/applications/gaussian/g16.C.01/x86_64_legacy/exe/l9999.exe)
 Unable to Open any file for archive entry.
 1\1\GINC-CM4R15C05S03\SP\RwB97XD\def2TZVP\C6H13O1(1-)\GO29TIZ2\22-Oct-
 2025\0\\#p wb97xd scrf=(smd,solvent=water) def2tzvp\\g16_g16_C4-ma_1\\
 -1,1\O,0,-1.362839,1.428474,-0.014124\C,0,-0.890796,0.222899,-0.434607
 \C,0,-1.834509,-0.928387,-0.017156\C,0,0.601801,-0.056551,0.004037\C,0
 ,0.715964,0.002341,1.530199\C,0,1.102156,-1.411096,-0.50676\C,0,1.4743
 88,1.04845,-0.601988\H,0,-0.832655,0.141675,-1.566722\H,0,-1.567495,-1
 .912893,-0.435015\H,0,-1.879429,-1.018218,1.081977\H,0,-2.852059,-0.68
 0724,-0.361279\H,0,1.76777,-0.02596,1.860816\H,0,0.259885,0.934163,1.8
 98271\H,0,0.195603,-0.840571,2.01346\H,0,0.920853,-1.518422,-1.590483\
 H,0,2.18758,-1.521468,-0.342422\H,0,0.608915,-2.254966,0.00036\H,0,1.4
 54554,1.005134,-1.704764\H,0,1.098901,2.037334,-0.301406\H,0,2.526257,
 0.961183,-0.282143\\Version=EM64L-G16RevC.01\State=1-A\HF=-311.8226552
 \RMSD=3.095e-09\Dipole=2.461245,-2.6836607,-0.0262133\Quadrupole=-2.01
 76699,-2.9996611,5.017331,6.7805742,0.2300805,-0.0866433\PG=C01 [X(C6H
 13O1)]\\@
 The archive entry for this job was punched.


 ... IT CAN BE VERY DIFFICULT, IN THESE COMPLEX TIMES,
 TO UNDERSTAND JUST HOW SCIENTISTS DO WHAT THEY DO.

                     DON MOSER IN THE FEBRUARY 1979 SMITHSONIAN
 Job cpu time:       0 days  0 hours 22 minutes 27.8 seconds.
 Elapsed time:       0 days  0 hours  2 minutes 49.0 seconds.
 File lengths (MBytes):  RWF=    320 Int=      0 D2E=      0 Chk=     12 Scr=     32
 Normal termination of Gaussian 16 at Wed Oct 22 10:17:08 2025.
