 Entering Gaussian System, Link 0=g16
 Input=../../g16_g16_C17-a_54.com
 Output=../../g16_g16_C17-a_54.log
 Initial command:
 /lrz/sys/applications/gaussian/g16.C.01/x86_64_legacy/exe/l1.exe "/dss/lxclscratch/0D/go29tiz2/Gau-6530.inp" -scrdir="/dss/lxclscratch/0D/go29tiz2/"
 Entering Link 1 = /lrz/sys/applications/gaussian/g16.C.01/x86_64_legacy/exe/l1.exe PID=      6531.
  
 Copyright (c) 1988-2019, Gaussian, Inc.  All Rights Reserved.
  
 This is part of the Gaussian(R) 16 program.  It is based on
 the Gaussian(R) 09 system (copyright 2009, Gaussian, Inc.),
 the Gaussian(R) 03 system (copyright 2003, Gaussian, Inc.),
 the Gaussian(R) 98 system (copyright 1998, Gaussian, Inc.),
 the Gaussian(R) 94 system (copyright 1995, Gaussian, Inc.),
 the Gaussian 92(TM) system (copyright 1992, Gaussian, Inc.),
 the Gaussian 90(TM) system (copyright 1990, Gaussian, Inc.),
 the Gaussian 88(TM) system (copyright 1988, Gaussian, Inc.),
 the Gaussian 86(TM) system (copyright 1986, Carnegie Mellon
 University), and the Gaussian 82(TM) system (copyright 1983,
 Carnegie Mellon University). Gaussian is a federally registered
 trademark of Gaussian, Inc.
  
 This software contains proprietary and confidential information,
 including trade secrets, belonging to Gaussian, Inc.
  
 This software is provided under written license and may be
 used, copied, transmitted, or stored only in accord with that
 written license.
  
 The following legend is applicable only to US Government
 contracts under FAR:
  
                    RESTRICTED RIGHTS LEGEND
  
 Use, reproduction and disclosure by the US Government is
 subject to restrictions as set forth in subparagraphs (a)
 and (c) of the Commercial Computer Software - Restricted
 Rights clause in FAR 52.227-19.
  
 Gaussian, Inc.
 340 Quinnipiac St., Bldg. 40, Wallingford CT 06492
  
  
 ---------------------------------------------------------------
 Warning -- This program may not be used in any manner that
 competes with the business of Gaussian, Inc. or will provide
 assistance to any competitor of Gaussian, Inc.  The licensee
 of this program is prohibited from giving any competitor of
 Gaussian, Inc. access to this program.  By using this program,
 the user acknowledges that Gaussian, Inc. is engaged in the
 business of creating and licensing software in the field of
 computational chemistry and represents and warrants to the
 licensee that it is not a competitor of Gaussian, Inc. and that
 it will not use this program in any manner prohibited above.
 ---------------------------------------------------------------
  

 Cite this work as:
 Gaussian 16, Revision C.01,
 M. J. Frisch, G. W. Trucks, H. B. Schlegel, G. E. Scuseria, 
 M. A. Robb, J. R. Cheeseman, G. Scalmani, V. Barone, 
 G. A. Petersson, H. Nakatsuji, X. Li, M. Caricato, A. V. Marenich, 
 J. Bloino, B. G. Janesko, R. Gomperts, B. Mennucci, H. P. Hratchian, 
 J. V. Ortiz, A. F. Izmaylov, J. L. Sonnenberg, D. Williams-Young, 
 F. Ding, F. Lipparini, F. Egidi, J. Goings, B. Peng, A. Petrone, 
 T. Henderson, D. Ranasinghe, V. G. Zakrzewski, J. Gao, N. Rega, 
 G. Zheng, W. Liang, M. Hada, M. Ehara, K. Toyota, R. Fukuda, 
 J. Hasegawa, M. Ishida, T. Nakajima, Y. Honda, O. Kitao, H. Nakai, 
 T. Vreven, K. Throssell, J. A. Montgomery, Jr., J. E. Peralta, 
 F. Ogliaro, M. J. Bearpark, J. J. Heyd, E. N. Brothers, K. N. Kudin, 
 V. N. Staroverov, T. A. Keith, R. Kobayashi, J. Normand, 
 K. Raghavachari, A. P. Rendell, J. C. Burant, S. S. Iyengar, 
 J. Tomasi, M. Cossi, J. M. Millam, M. Klene, C. Adamo, R. Cammi, 
 J. W. Ochterski, R. L. Martin, K. Morokuma, O. Farkas, 
 J. B. Foresman, and D. J. Fox, Gaussian, Inc., Wallingford CT, 2019.
 
 ******************************************
 Gaussian 16:  EM64L-G16RevC.01  3-Jul-2019
                22-Oct-2025 
 ******************************************
 %chk=g16_g16_C17-a_54.chk
 %nprocshared=8
 Will use up to    8 processors via shared memory.
 %mem=32GB
 -------------------------------------------
 #p wb97xd scrf=(smd,solvent=water) def2tzvp
 -------------------------------------------
 1/38=1,172=1/1;
 2/12=2,17=6,18=5,40=1/2;
 3/5=44,7=101,11=2,25=1,30=1,70=32201,72=1,74=-58/1,2,3;
 4//1;
 5/5=2,38=5,53=1/2;
 6/7=2,8=2,9=2,10=2,28=1/1;
 99/5=1,9=1/99;
 Leave Link    1 at Wed Oct 22 13:42:04 2025, MaxMem=  4294967296 cpu:               5.0 elap:               0.7
 (Enter /lrz/sys/applications/gaussian/g16.C.01/x86_64_legacy/exe/l101.exe)
 ----------------
 g16_g16_C17-a_54
 ----------------
 Symbolic Z-matrix:
 Charge =  0 Multiplicity = 1
 O                     1.30034  -0.59158   1.04152 
 C                     1.11707  -0.15288  -0.30332 
 N                     1.20404   1.27777  -0.3705 
 C                    -0.18625  -0.70511  -0.89076 
 C                    -1.43676  -0.63547  -0.01004 
 C                    -1.91898   0.7588    0.38007 
 H                     1.24166  -1.55537   1.05327 
 H                     1.94952  -0.54836  -0.91345 
 H                     2.09289   1.57225   0.0328 
 H                     0.47799   1.69802   0.2072 
 H                    -0.01029  -1.76574  -1.13571 
 H                    -0.36503  -0.19408  -1.85086 
 H                    -1.26502  -1.22747   0.90386 
 H                    -2.24546  -1.15113  -0.55343 
 H                    -1.98841   1.42371  -0.49597 
 H                    -2.91727   0.71045   0.84135 
 H                    -1.25213   1.23395   1.11655 
 
 ITRead=  0  0  0  0  0  0  0  0  0  0  0  0  0  0  0  0  0
 MicOpt= -1 -1 -1 -1 -1 -1 -1 -1 -1 -1 -1 -1 -1 -1 -1 -1 -1
 NAtoms=     17 NQM=       17 NQMF=       0 NMMI=      0 NMMIF=      0
                NMic=       0 NMicF=      0.
                    Isotopes and Nuclear Properties:
 (Nuclear quadrupole moments (NQMom) in fm**2, nuclear magnetic moments (NMagM)
  in nuclear magnetons)

  Atom         1           2           3           4           5           6           7           8           9          10
 IAtWgt=          16          12          14          12          12          12           1           1           1           1
 AtmWgt=  15.9949146  12.0000000  14.0030740  12.0000000  12.0000000  12.0000000   1.0078250   1.0078250   1.0078250   1.0078250
 NucSpn=           0           0           2           0           0           0           1           1           1           1
 AtZEff=  -0.0000000  -0.0000000  -0.0000000  -0.0000000  -0.0000000  -0.0000000  -0.0000000  -0.0000000  -0.0000000  -0.0000000
 NQMom=    0.0000000   0.0000000   2.0440000   0.0000000   0.0000000   0.0000000   0.0000000   0.0000000   0.0000000   0.0000000
 NMagM=    0.0000000   0.0000000   0.4037610   0.0000000   0.0000000   0.0000000   2.7928460   2.7928460   2.7928460   2.7928460
 AtZNuc=   8.0000000   6.0000000   7.0000000   6.0000000   6.0000000   6.0000000   1.0000000   1.0000000   1.0000000   1.0000000

  Atom        11          12          13          14          15          16          17
 IAtWgt=           1           1           1           1           1           1           1
 AtmWgt=   1.0078250   1.0078250   1.0078250   1.0078250   1.0078250   1.0078250   1.0078250
 NucSpn=           1           1           1           1           1           1           1
 AtZEff=  -0.0000000  -0.0000000  -0.0000000  -0.0000000  -0.0000000  -0.0000000  -0.0000000
 NQMom=    0.0000000   0.0000000   0.0000000   0.0000000   0.0000000   0.0000000   0.0000000
 NMagM=    2.7928460   2.7928460   2.7928460   2.7928460   2.7928460   2.7928460   2.7928460
 AtZNuc=   1.0000000   1.0000000   1.0000000   1.0000000   1.0000000   1.0000000   1.0000000
 Leave Link  101 at Wed Oct 22 13:42:04 2025, MaxMem=  4294967296 cpu:               0.7 elap:               0.1
 (Enter /lrz/sys/applications/gaussian/g16.C.01/x86_64_legacy/exe/l202.exe)
                          Input orientation:                          
 ---------------------------------------------------------------------
 Center     Atomic      Atomic             Coordinates (Angstroms)
 Number     Number       Type             X           Y           Z
 ---------------------------------------------------------------------
      1          8           0        1.300343   -0.591583    1.041519
      2          6           0        1.117068   -0.152882   -0.303321
      3          7           0        1.204044    1.277773   -0.370495
      4          6           0       -0.186254   -0.705108   -0.890757
      5          6           0       -1.436755   -0.635473   -0.010041
      6          6           0       -1.918976    0.758802    0.380068
      7          1           0        1.241660   -1.555369    1.053275
      8          1           0        1.949522   -0.548360   -0.913448
      9          1           0        2.092889    1.572252    0.032797
     10          1           0        0.477990    1.698015    0.207202
     11          1           0       -0.010294   -1.765743   -1.135706
     12          1           0       -0.365029   -0.194076   -1.850860
     13          1           0       -1.265020   -1.227466    0.903855
     14          1           0       -2.245462   -1.151132   -0.553434
     15          1           0       -1.988411    1.423706   -0.495965
     16          1           0       -2.917269    0.710449    0.841350
     17          1           0       -1.252130    1.233951    1.116548
 ---------------------------------------------------------------------
                    Distance matrix (angstroms):
                    1          2          3          4          5
     1  O    0.000000
     2  C    1.426409   0.000000
     3  N    2.344685   1.434870   0.000000
     4  C    2.440604   1.532541   2.476978   0.000000
     5  C    2.932475   2.615515   3.280893   1.531098   0.000000
     6  C    3.553178   3.242800   3.253603   2.600068   1.526016
     7  H    0.965642   1.955210   3.170998   2.557566   3.025022
     8  H    2.060388   1.105277   2.045800   2.141640   3.505796
     9  H    2.515518   2.010296   1.019513   3.351688   4.163445
    10  H    2.571888   2.023580   1.018573   2.724286   3.026319
    11  H    2.799416   2.136617   3.364989   1.102682   2.139959
    12  H    3.361150   2.143172   2.611477   1.102230   2.175326
    13  H    2.646580   2.878602   3.741185   2.158061   1.102340
    14  H    3.928066   3.516485   4.222812   2.133790   1.102355
    15  H    4.152246   3.488086   3.198251   2.816998   2.186473
    16  H    4.418552   4.281529   4.333087   3.530218   2.174464
    17  H    3.139000   3.090701   2.871586   2.987527   2.190442
                    6          7          8          9         10
     6  C    0.000000
     7  H    3.974697   0.000000
     8  H    4.283355   2.320158   0.000000
     9  H    4.108206   3.398232   2.326570   0.000000
    10  H    2.580203   3.447251   2.909891   1.629151   0.000000
    11  H    3.509126   2.530471   2.317822   4.114728   3.746924
    12  H    2.880932   3.587279   2.522183   3.565030   2.919984
    13  H    2.155753   2.532448   3.754605   4.457882   3.475895
    14  H    2.150783   3.860692   4.253332   5.155752   4.014150
    15  H    1.101977   4.659226   4.423873   4.118090   2.579307
    16  H    1.100776   4.740837   5.324431   5.147635   3.592383
    17  H    1.101296   3.742098   4.189044   3.532438   2.008875
                   11         12         13         14         15
    11  H    0.000000
    12  H    1.762787   0.000000
    13  H    2.454361   3.076741   0.000000
    14  H    2.390139   2.476954   1.758063   0.000000
    15  H    3.807204   2.662391   3.084073   2.588275   0.000000
    16  H    4.300091   3.818388   2.547420   2.421204   1.777618
    17  H    3.951325   3.410531   2.470623   3.076389   1.782783
                   16         17
    16  H    0.000000
    17  H    1.767053   0.000000
 Stoichiometry    C4H11NO
 Framework group  C1[X(C4H11NO)]
 Deg. of freedom    45
 Full point group                 C1      NOp   1
 Largest Abelian subgroup         C1      NOp   1
 Largest concise Abelian subgroup C1      NOp   1
                         Standard orientation:                         
 ---------------------------------------------------------------------
 Center     Atomic      Atomic             Coordinates (Angstroms)
 Number     Number       Type             X           Y           Z
 ---------------------------------------------------------------------
      1          8           0       -1.300343   -0.591584   -1.041519
      2          6           0       -1.117068   -0.152883    0.303321
      3          7           0       -1.204044    1.277772    0.370495
      4          6           0        0.186254   -0.705108    0.890757
      5          6           0        1.436755   -0.635473    0.010041
      6          6           0        1.918976    0.758802   -0.380068
      7          1           0       -1.241660   -1.555370   -1.053275
      8          1           0       -1.949522   -0.548361    0.913448
      9          1           0       -2.092890    1.572251   -0.032797
     10          1           0       -0.477991    1.698015   -0.207202
     11          1           0        0.010294   -1.765743    1.135706
     12          1           0        0.365029   -0.194076    1.850860
     13          1           0        1.265020   -1.227466   -0.903855
     14          1           0        2.245462   -1.151131    0.553434
     15          1           0        1.988410    1.423706    0.495965
     16          1           0        2.917269    0.710450   -0.841350
     17          1           0        1.252130    1.233951   -1.116548
 ---------------------------------------------------------------------
 Rotational constants (GHZ):           4.7500012           2.4775279           2.2213218
 Leave Link  202 at Wed Oct 22 13:42:04 2025, MaxMem=  4294967296 cpu:               0.0 elap:               0.0
 (Enter /lrz/sys/applications/gaussian/g16.C.01/x86_64_legacy/exe/l301.exe)
 Standard basis: def2TZVP (5D, 7F)
 Ernie: Thresh=  0.10000D-02 Tol=  0.10000D-05 Strict=F.
 There are   282 symmetry adapted cartesian basis functions of A   symmetry.
 There are   252 symmetry adapted basis functions of A   symmetry.
   252 basis functions,   394 primitive gaussians,   282 cartesian basis functions
    25 alpha electrons       25 beta electrons
       nuclear repulsion energy       264.8646168009 Hartrees.
 IExCor= 4639 DFT=T Ex+Corr=wB97XD ExCW=0 ScaHFX=  1.000000
 ScaDFX=  1.000000  1.000000  1.000000  1.000000 ScalE2=  1.000000  1.000000
 IRadAn=      5 IRanWt=     -1 IRanGd=            0 ICorTp=0 IEmpDi=121
 HFx  wShort=  0.000000 wLong=  0.200000 cFull=  0.222036 cShort=  0.000000 cLong=  0.777964
 DFx  wShort=  0.000000 wLong=  0.200000 cFull=  0.000000 cShort=  0.000000 cLong=  1.000000
 NAtoms=   17 NActive=   17 NUniq=   17 SFac= 1.00D+00 NAtFMM=   60 NAOKFM=F Big=F
 Integral buffers will be    131072 words long.
 Raffenetti 2 integral format.
 Two-electron integral symmetry is turned on.
 R6Disp:  Grimme-D2 Dispersion energy=       -0.0099630224 Hartrees.
 Nuclear repulsion after empirical dispersion term =      264.8546537785 Hartrees.
 ------------------------------------------------------------------------------
 Polarizable Continuum Model (PCM)
 =================================
 Model                : PCM.
 Atomic radii         : SMD-Coulomb.
 Polarization charges : Total charges.
 Charge compensation  : None.
 Solution method      : On-the-fly selection.
 Cavity type          : VdW (van der Waals Surface) (Alpha=1.000).
 Cavity algorithm     : GePol (No added spheres)
                        Default sphere list used, NSphG=   17.
                        Lebedev-Laikov grids with approx.  5.0 points / Ang**2.
                        Smoothing algorithm: York/Karplus (Gamma=1.0000).
                        Polarization charges: spherical gaussians, with
                                              point-specific exponents (IZeta= 3).
                        Self-potential: point-specific (ISelfS= 7).
                        Self-field    : sphere-specific E.n sum rule (ISelfD= 2).
 Solvent              : Water, Eps=  78.355300 Eps(inf)=   1.777849
 ------------------------------------------------------------------------------
 Spheres list:
 ISph  on   Nord     Re0    Alpha      Xe            Ye            Ze
    1   O      1    1.5200  1.000     -1.300343     -0.591584     -1.041519
    2   C      2    1.8500  1.000     -1.117068     -0.152883      0.303321
    3   N      3    1.8900  1.000     -1.204044      1.277772      0.370495
    4   C      4    1.8500  1.000      0.186254     -0.705108      0.890757
    5   C      5    1.8500  1.000      1.436755     -0.635473      0.010041
    6   C      6    1.8500  1.000      1.918976      0.758802     -0.380068
    7   H      7    1.2000  1.000     -1.241660     -1.555370     -1.053275
    8   H      8    1.2000  1.000     -1.949522     -0.548361      0.913448
    9   H      9    1.2000  1.000     -2.092890      1.572251     -0.032797
   10   H     10    1.2000  1.000     -0.477991      1.698015     -0.207202
   11   H     11    1.2000  1.000      0.010294     -1.765743      1.135706
   12   H     12    1.2000  1.000      0.365029     -0.194076      1.850860
   13   H     13    1.2000  1.000      1.265020     -1.227466     -0.903855
   14   H     14    1.2000  1.000      2.245462     -1.151131      0.553434
   15   H     15    1.2000  1.000      1.988410      1.423706      0.495965
   16   H     16    1.2000  1.000      2.917269      0.710450     -0.841350
   17   H     17    1.2000  1.000      1.252130      1.233951     -1.116548
 ------------------------------------------------------------------------------
 GePol: Number of generator spheres                  =      17
 GePol: Total number of spheres                      =      17
 GePol: Number of exposed spheres                    =      17 (100.00%)
 GePol: Number of points                             =    1189
 GePol: Average weight of points                     =       0.11
 GePol: Minimum weight of points                     =   0.43D-08
 GePol: Maximum weight of points                     =    0.21991
 GePol: Number of points with low weight             =      83
 GePol: Fraction of low-weight points (<1% of avg)   =       6.98%
 GePol: Cavity surface area                          =    134.962 Ang**2
 GePol: Cavity volume                                =    108.043 Ang**3
 ------------------------------------------------------------------------------
 Atomic radii for non-electrostatic terms: SMD-CDS.
 ------------------------------------------------------------------------------
 PCM non-electrostatic energy =         0.0027963827 Hartrees.
 Nuclear repulsion after PCM non-electrostatic terms =      264.8574501613 Hartrees.
 Leave Link  301 at Wed Oct 22 13:42:05 2025, MaxMem=  4294967296 cpu:               1.1 elap:               0.2
 (Enter /lrz/sys/applications/gaussian/g16.C.01/x86_64_legacy/exe/l302.exe)
 NPDir=0 NMtPBC=     1 NCelOv=     1 NCel=       1 NClECP=     1 NCelD=      1
         NCelK=      1 NCelE2=     1 NClLst=     1 CellRange=     0.0.
 One-electron integrals computed using PRISM.
 One-electron integral symmetry used in STVInt
   1 Symmetry operations used in ECPInt.
 ECPInt:  NShTT=    6105 NPrTT=   17556 LenC2=    6058 LenP2D=   14519.
 LDataN:  DoStor=T MaxTD1= 6 Len=  172
 NBasis=   252 RedAO= T EigKep=  2.30D-04  NBF=   252
 NBsUse=   252 1.00D-06 EigRej= -1.00D+00 NBFU=   252
 Precomputing XC quadrature grid using
 IXCGrd= 4 IRadAn=           5 IRanWt=          -1 IRanGd=           0 AccXCQ= 0.00D+00.
 Generated NRdTot=       0 NPtTot=           0 NUsed=           0 NTot=          32
 NSgBfM=   281   281   281   281   281 MxSgAt=    17 MxSgA2=    17.
 Leave Link  302 at Wed Oct 22 13:42:05 2025, MaxMem=  4294967296 cpu:               2.4 elap:               0.3
 (Enter /lrz/sys/applications/gaussian/g16.C.01/x86_64_legacy/exe/l303.exe)
 DipDrv:  MaxL=1.
 Leave Link  303 at Wed Oct 22 13:42:05 2025, MaxMem=  4294967296 cpu:               0.3 elap:               0.1
 (Enter /lrz/sys/applications/gaussian/g16.C.01/x86_64_legacy/exe/l401.exe)
 ExpMin= 9.52D-02 ExpMax= 2.70D+04 ExpMxC= 9.22D+02 IAcc=3 IRadAn=         5 AccDes= 0.00D+00
 Harris functional with IExCor= 4639 and IRadAn=       5 diagonalized for initial guess.
 HarFok:  IExCor= 4639 AccDes= 0.00D+00 IRadAn=         5 IDoV= 1 UseB2=F ITyADJ=14
 ICtDFT=  3500011 ScaDFX=  1.000000  1.000000  1.000000  1.000000
 FoFCou: FMM=F IPFlag=           0 FMFlag=      100000 FMFlg1=           0
         NFxFlg=           0 DoJE=T BraDBF=F KetDBF=T FulRan=T
         wScrn=  0.000000 ICntrl=       500 IOpCl=  0 I1Cent=   200000004 NGrid=           0
         NMat0=    1 NMatS0=      1 NMatT0=    0 NMatD0=    1 NMtDS0=    0 NMtDT0=    0
 Petite list used in FoFCou.
 Harris En= -276.197861972722    
 JPrj=0 DoOrth=F DoCkMO=F.
 Leave Link  401 at Wed Oct 22 13:42:07 2025, MaxMem=  4294967296 cpu:              18.2 elap:               2.3
 (Enter /lrz/sys/applications/gaussian/g16.C.01/x86_64_legacy/exe/l502.exe)
 Integral symmetry usage will be decided dynamically.
 Closed shell SCF:
 Using DIIS extrapolation, IDIIS=  1040.
 NGot=  4294967296 LenX=  4294802854 LenY=  4294722889
 Requested convergence on RMS density matrix=1.00D-08 within 128 cycles.
 Requested convergence on MAX density matrix=1.00D-06.
 Requested convergence on             energy=1.00D-06.
 No special actions if energy rises.
 Fock matrices will be formed incrementally for  20 cycles.

 Cycle   1  Pass 1  IDiag  1:
 FoFJK:  IHMeth= 1 ICntrl=       0 DoSepK=T KAlg= 0 I1Cent=           0 FoldK=F
 IRaf=         1 NMat=       1 IRICut=       1 DoRegI=T DoRafI=F ISym2E= 0 IDoP0=0 IntGTp=1.
 FoFCou: FMM=F IPFlag=           0 FMFlag=      100000 FMFlg1=           0
         NFxFlg=           0 DoJE=T BraDBF=F KetDBF=F FulRan=T
         wScrn=  0.000000 ICntrl=       500 IOpCl=  0 I1Cent=           0 NGrid=           0
         NMat0=    1 NMatS0=      1 NMatT0=    0 NMatD0=    1 NMtDS0=    0 NMtDT0=    0
 Symmetry not used in FoFCou.
 Inv3:  Mode=1 IEnd=     4241163.
 Iteration    1 A*A^-1 deviation from unit magnitude is 5.55D-15 for    255.
 Iteration    1 A*A^-1 deviation from orthogonality  is 3.14D-15 for    756    210.
 Iteration    1 A^-1*A deviation from unit magnitude is 6.22D-15 for    255.
 Iteration    1 A^-1*A deviation from orthogonality  is 3.65D-15 for    419    101.
 E= -288.985550951477    
 DIIS: error= 3.42D-02 at cycle   1 NSaved=   1.
 NSaved= 1 IEnMin= 1 EnMin= -288.985550951477     IErMin= 1 ErrMin= 3.42D-02
 ErrMax= 3.42D-02  0.00D+00 EMaxC= 1.00D-01 BMatC= 6.11D-01 BMatP= 6.11D-01
 IDIUse=3 WtCom= 6.58D-01 WtEn= 3.42D-01
 Coeff-Com:  0.100D+01
 Coeff-En:   0.100D+01
 Coeff:      0.100D+01
 Gap=     0.516 Goal=   None    Shift=    0.000
 GapD=    0.516 DampG=2.000 DampE=0.500 DampFc=1.0000 IDamp=-1.
 RMSDP=1.73D-03 MaxDP=4.63D-02              OVMax= 5.88D-02

 Cycle   2  Pass 1  IDiag  1:
 RMSU=  1.69D-03    CP:  9.59D-01
 E= -289.039582386375     Delta-E=       -0.054031434898 Rises=F Damp=F
 DIIS: error= 8.06D-03 at cycle   2 NSaved=   2.
 NSaved= 2 IEnMin= 2 EnMin= -289.039582386375     IErMin= 2 ErrMin= 8.06D-03
 ErrMax= 8.06D-03  0.00D+00 EMaxC= 1.00D-01 BMatC= 3.43D-02 BMatP= 6.11D-01
 IDIUse=3 WtCom= 9.19D-01 WtEn= 8.06D-02
 Coeff-Com:  0.123D+00 0.877D+00
 Coeff-En:   0.000D+00 0.100D+01
 Coeff:      0.113D+00 0.887D+00
 Gap=     0.475 Goal=   None    Shift=    0.000
 RMSDP=7.38D-04 MaxDP=3.32D-02 DE=-5.40D-02 OVMax= 5.55D-02

 Cycle   3  Pass 1  IDiag  1:
 RMSU=  6.11D-04    CP:  9.66D-01  7.58D-01
 E= -289.048721664997     Delta-E=       -0.009139278622 Rises=F Damp=F
 DIIS: error= 7.42D-03 at cycle   3 NSaved=   3.
 NSaved= 3 IEnMin= 3 EnMin= -289.048721664997     IErMin= 3 ErrMin= 7.42D-03
 ErrMax= 7.42D-03  0.00D+00 EMaxC= 1.00D-01 BMatC= 2.18D-02 BMatP= 3.43D-02
 IDIUse=3 WtCom= 9.26D-01 WtEn= 7.42D-02
 Coeff-Com:  0.245D-01 0.450D+00 0.525D+00
 Coeff-En:   0.000D+00 0.380D+00 0.620D+00
 Coeff:      0.227D-01 0.445D+00 0.532D+00
 Gap=     0.475 Goal=   None    Shift=    0.000
 RMSDP=3.86D-04 MaxDP=1.71D-02 DE=-9.14D-03 OVMax= 2.53D-02

 Cycle   4  Pass 1  IDiag  1:
 RMSU=  1.44D-04    CP:  9.60D-01  9.20D-01  6.34D-01
 E= -289.063674911232     Delta-E=       -0.014953246235 Rises=F Damp=F
 DIIS: error= 7.64D-04 at cycle   4 NSaved=   4.
 NSaved= 4 IEnMin= 4 EnMin= -289.063674911232     IErMin= 4 ErrMin= 7.64D-04
 ErrMax= 7.64D-04  0.00D+00 EMaxC= 1.00D-01 BMatC= 2.40D-04 BMatP= 2.18D-02
 IDIUse=3 WtCom= 9.92D-01 WtEn= 7.64D-03
 Coeff-Com:  0.887D-02 0.168D+00 0.222D+00 0.601D+00
 Coeff-En:   0.000D+00 0.000D+00 0.000D+00 0.100D+01
 Coeff:      0.880D-02 0.166D+00 0.221D+00 0.604D+00
 Gap=     0.459 Goal=   None    Shift=    0.000
 RMSDP=4.24D-05 MaxDP=1.57D-03 DE=-1.50D-02 OVMax= 2.41D-03

 Cycle   5  Pass 1  IDiag  1:
 RMSU=  3.75D-05    CP:  9.59D-01  9.27D-01  6.58D-01  9.74D-01
 E= -289.063846169499     Delta-E=       -0.000171258267 Rises=F Damp=F
 DIIS: error= 1.62D-04 at cycle   5 NSaved=   5.
 NSaved= 5 IEnMin= 5 EnMin= -289.063846169499     IErMin= 5 ErrMin= 1.62D-04
 ErrMax= 1.62D-04  0.00D+00 EMaxC= 1.00D-01 BMatC= 8.28D-06 BMatP= 2.40D-04
 IDIUse=3 WtCom= 9.98D-01 WtEn= 1.62D-03
 Coeff-Com: -0.200D-02-0.343D-01-0.321D-01 0.980D-01 0.970D+00
 Coeff-En:   0.000D+00 0.000D+00 0.000D+00 0.000D+00 0.100D+01
 Coeff:     -0.200D-02-0.342D-01-0.320D-01 0.978D-01 0.970D+00
 Gap=     0.459 Goal=   None    Shift=    0.000
 RMSDP=3.17D-05 MaxDP=7.89D-04 DE=-1.71D-04 OVMax= 8.23D-04

 Cycle   6  Pass 1  IDiag  1:
 RMSU=  1.02D-05    CP:  9.59D-01  9.36D-01  6.77D-01  1.12D+00  1.23D+00
 E= -289.063857364448     Delta-E=       -0.000011194950 Rises=F Damp=F
 DIIS: error= 1.86D-05 at cycle   6 NSaved=   6.
 NSaved= 6 IEnMin= 6 EnMin= -289.063857364448     IErMin= 6 ErrMin= 1.86D-05
 ErrMax= 1.86D-05  0.00D+00 EMaxC= 1.00D-01 BMatC= 2.49D-07 BMatP= 8.28D-06
 IDIUse=1 WtCom= 1.00D+00 WtEn= 0.00D+00
 Coeff-Com: -0.576D-03-0.982D-02-0.110D-01-0.442D-03 0.126D+00 0.896D+00
 Coeff:     -0.576D-03-0.982D-02-0.110D-01-0.442D-03 0.126D+00 0.896D+00
 Gap=     0.459 Goal=   None    Shift=    0.000
 RMSDP=7.03D-06 MaxDP=1.62D-04 DE=-1.12D-05 OVMax= 2.70D-04

 Cycle   7  Pass 1  IDiag  1:
 RMSU=  2.59D-06    CP:  9.59D-01  9.37D-01  6.80D-01  1.15D+00  1.33D+00
                    CP:  1.22D+00
 E= -289.063857733738     Delta-E=       -0.000000369290 Rises=F Damp=F
 DIIS: error= 1.10D-05 at cycle   7 NSaved=   7.
 NSaved= 7 IEnMin= 7 EnMin= -289.063857733738     IErMin= 7 ErrMin= 1.10D-05
 ErrMax= 1.10D-05  0.00D+00 EMaxC= 1.00D-01 BMatC= 7.19D-08 BMatP= 2.49D-07
 IDIUse=1 WtCom= 1.00D+00 WtEn= 0.00D+00
 Coeff-Com: -0.113D-04-0.499D-03-0.123D-02-0.996D-02-0.540D-01 0.339D+00
 Coeff-Com:  0.727D+00
 Coeff:     -0.113D-04-0.499D-03-0.123D-02-0.996D-02-0.540D-01 0.339D+00
 Coeff:      0.727D+00
 Gap=     0.459 Goal=   None    Shift=    0.000
 RMSDP=2.31D-06 MaxDP=6.13D-05 DE=-3.69D-07 OVMax= 9.28D-05

 Cycle   8  Pass 1  IDiag  1:
 RMSU=  9.15D-07    CP:  9.59D-01  9.37D-01  6.81D-01  1.16D+00  1.35D+00
                    CP:  1.34D+00  1.18D+00
 E= -289.063857813040     Delta-E=       -0.000000079302 Rises=F Damp=F
 DIIS: error= 2.02D-06 at cycle   8 NSaved=   8.
 NSaved= 8 IEnMin= 8 EnMin= -289.063857813040     IErMin= 8 ErrMin= 2.02D-06
 ErrMax= 2.02D-06  0.00D+00 EMaxC= 1.00D-01 BMatC= 3.45D-09 BMatP= 7.19D-08
 IDIUse=1 WtCom= 1.00D+00 WtEn= 0.00D+00
 Coeff-Com:  0.426D-04 0.726D-03 0.754D-03-0.148D-02-0.197D-01-0.160D-01
 Coeff-Com:  0.142D+00 0.894D+00
 Coeff:      0.426D-04 0.726D-03 0.754D-03-0.148D-02-0.197D-01-0.160D-01
 Coeff:      0.142D+00 0.894D+00
 Gap=     0.459 Goal=   None    Shift=    0.000
 RMSDP=8.00D-07 MaxDP=2.04D-05 DE=-7.93D-08 OVMax= 3.78D-05

 Cycle   9  Pass 1  IDiag  1:
 RMSU=  2.13D-07    CP:  9.59D-01  9.37D-01  6.81D-01  1.16D+00  1.36D+00
                    CP:  1.39D+00  1.34D+00  1.20D+00
 E= -289.063857818768     Delta-E=       -0.000000005728 Rises=F Damp=F
 DIIS: error= 8.21D-07 at cycle   9 NSaved=   9.
 NSaved= 9 IEnMin= 9 EnMin= -289.063857818768     IErMin= 9 ErrMin= 8.21D-07
 ErrMax= 8.21D-07  0.00D+00 EMaxC= 1.00D-01 BMatC= 4.45D-10 BMatP= 3.45D-09
 IDIUse=1 WtCom= 1.00D+00 WtEn= 0.00D+00
 Coeff-Com:  0.110D-04 0.220D-03 0.306D-03 0.413D-03-0.232D-03-0.349D-01
 Coeff-Com: -0.288D-01 0.239D+00 0.823D+00
 Coeff:      0.110D-04 0.220D-03 0.306D-03 0.413D-03-0.232D-03-0.349D-01
 Coeff:     -0.288D-01 0.239D+00 0.823D+00
 Gap=     0.459 Goal=   None    Shift=    0.000
 RMSDP=2.41D-07 MaxDP=6.10D-06 DE=-5.73D-09 OVMax= 1.24D-05

 Cycle  10  Pass 1  IDiag  1:
 RMSU=  8.38D-08    CP:  9.59D-01  9.37D-01  6.81D-01  1.16D+00  1.36D+00
                    CP:  1.40D+00  1.39D+00  1.32D+00  1.24D+00
 E= -289.063857819461     Delta-E=       -0.000000000693 Rises=F Damp=F
 DIIS: error= 3.08D-07 at cycle  10 NSaved=  10.
 NSaved=10 IEnMin=10 EnMin= -289.063857819461     IErMin=10 ErrMin= 3.08D-07
 ErrMax= 3.08D-07  0.00D+00 EMaxC= 1.00D-01 BMatC= 5.95D-11 BMatP= 4.45D-10
 IDIUse=1 WtCom= 1.00D+00 WtEn= 0.00D+00
 Coeff-Com: -0.241D-05-0.280D-04 0.607D-06 0.387D-03 0.296D-02-0.101D-01
 Coeff-Com: -0.319D-01-0.497D-01 0.258D+00 0.830D+00
 Coeff:     -0.241D-05-0.280D-04 0.607D-06 0.387D-03 0.296D-02-0.101D-01
 Coeff:     -0.319D-01-0.497D-01 0.258D+00 0.830D+00
 Gap=     0.459 Goal=   None    Shift=    0.000
 RMSDP=9.12D-08 MaxDP=2.46D-06 DE=-6.93D-10 OVMax= 5.18D-06

 Cycle  11  Pass 1  IDiag  1:
 RMSU=  2.85D-08    CP:  9.59D-01  9.37D-01  6.81D-01  1.16D+00  1.36D+00
                    CP:  1.40D+00  1.41D+00  1.36D+00  1.45D+00  1.28D+00
 E= -289.063857819556     Delta-E=       -0.000000000096 Rises=F Damp=F
 DIIS: error= 5.39D-08 at cycle  11 NSaved=  11.
 NSaved=11 IEnMin=11 EnMin= -289.063857819556     IErMin=11 ErrMin= 5.39D-08
 ErrMax= 5.39D-08  0.00D+00 EMaxC= 1.00D-01 BMatC= 1.32D-12 BMatP= 5.95D-11
 IDIUse=1 WtCom= 1.00D+00 WtEn= 0.00D+00
 Coeff-Com: -0.199D-06-0.743D-05-0.164D-04-0.389D-04-0.272D-03 0.266D-02
 Coeff-Com:  0.425D-02-0.878D-02-0.680D-01-0.654D-01 0.114D+01
 Coeff:     -0.199D-06-0.743D-05-0.164D-04-0.389D-04-0.272D-03 0.266D-02
 Coeff:      0.425D-02-0.878D-02-0.680D-01-0.654D-01 0.114D+01
 Gap=     0.459 Goal=   None    Shift=    0.000
 RMSDP=2.69D-08 MaxDP=7.84D-07 DE=-9.56D-11 OVMax= 1.41D-06

 Cycle  12  Pass 1  IDiag  1:
 RMSU=  6.76D-09    CP:  9.59D-01  9.37D-01  6.81D-01  1.16D+00  1.36D+00
                    CP:  1.40D+00  1.41D+00  1.37D+00  1.52D+00  1.48D+00
                    CP:  1.37D+00
 E= -289.063857819561     Delta-E=       -0.000000000005 Rises=F Damp=F
 DIIS: error= 1.23D-08 at cycle  12 NSaved=  12.
 NSaved=12 IEnMin=12 EnMin= -289.063857819561     IErMin=12 ErrMin= 1.23D-08
 ErrMax= 1.23D-08  0.00D+00 EMaxC= 1.00D-01 BMatC= 6.26D-14 BMatP= 1.32D-12
 IDIUse=1 WtCom= 1.00D+00 WtEn= 0.00D+00
 Coeff-Com:  0.717D-07 0.521D-06-0.116D-05-0.209D-04-0.145D-03 0.614D-03
 Coeff-Com:  0.175D-02 0.188D-02-0.146D-01-0.443D-01 0.593D-01 0.996D+00
 Coeff:      0.717D-07 0.521D-06-0.116D-05-0.209D-04-0.145D-03 0.614D-03
 Coeff:      0.175D-02 0.188D-02-0.146D-01-0.443D-01 0.593D-01 0.996D+00
 Gap=     0.459 Goal=   None    Shift=    0.000
 RMSDP=5.96D-09 MaxDP=1.80D-07 DE=-4.55D-12 OVMax= 2.35D-07

 Error on total polarization charges =  0.04299
 SCF Done:  E(RwB97XD) =  -289.063857820     A.U. after   12 cycles
            NFock= 12  Conv=0.60D-08     -V/T= 2.0055
 KE= 2.874860579677D+02 PE=-1.203958393656D+03 EE= 3.625510277070D+02
 SMD-CDS (non-electrostatic) energy       (kcal/mol) =       1.75
 (included in total energy above)
 Leave Link  502 at Wed Oct 22 13:43:50 2025, MaxMem=  4294967296 cpu:             816.4 elap:             102.3
 (Enter /lrz/sys/applications/gaussian/g16.C.01/x86_64_legacy/exe/l601.exe)
 Copying SCF densities to generalized density rwf, IOpCl= 0 IROHF=0.

 **********************************************************************

            Population analysis using the SCF Density.

 **********************************************************************

 Orbital symmetries:
       Occupied  (A) (A) (A) (A) (A) (A) (A) (A) (A) (A) (A) (A)
                 (A) (A) (A) (A) (A) (A) (A) (A) (A) (A) (A) (A)
                 (A)
       Virtual   (A) (A) (A) (A) (A) (A) (A) (A) (A) (A) (A) (A)
                 (A) (A) (A) (A) (A) (A) (A) (A) (A) (A) (A) (A)
                 (A) (A) (A) (A) (A) (A) (A) (A) (A) (A) (A) (A)
                 (A) (A) (A) (A) (A) (A) (A) (A) (A) (A) (A) (A)
                 (A) (A) (A) (A) (A) (A) (A) (A) (A) (A) (A) (A)
                 (A) (A) (A) (A) (A) (A) (A) (A) (A) (A) (A) (A)
                 (A) (A) (A) (A) (A) (A) (A) (A) (A) (A) (A) (A)
                 (A) (A) (A) (A) (A) (A) (A) (A) (A) (A) (A) (A)
                 (A) (A) (A) (A) (A) (A) (A) (A) (A) (A) (A) (A)
                 (A) (A) (A) (A) (A) (A) (A) (A) (A) (A) (A) (A)
                 (A) (A) (A) (A) (A) (A) (A) (A) (A) (A) (A) (A)
                 (A) (A) (A) (A) (A) (A) (A) (A) (A) (A) (A) (A)
                 (A) (A) (A) (A) (A) (A) (A) (A) (A) (A) (A) (A)
                 (A) (A) (A) (A) (A) (A) (A) (A) (A) (A) (A) (A)
                 (A) (A) (A) (A) (A) (A) (A) (A) (A) (A) (A) (A)
                 (A) (A) (A) (A) (A) (A) (A) (A) (A) (A) (A) (A)
                 (A) (A) (A) (A) (A) (A) (A) (A) (A) (A) (A) (A)
                 (A) (A) (A) (A) (A) (A) (A) (A) (A) (A) (A) (A)
                 (A) (A) (A) (A) (A) (A) (A) (A) (A) (A) (A)
 The electronic state is 1-A.
 Alpha  occ. eigenvalues --  -19.24591 -14.41015 -10.35075 -10.27205 -10.27001
 Alpha  occ. eigenvalues --  -10.26456  -1.12818  -0.97556  -0.87657  -0.79852
 Alpha  occ. eigenvalues --   -0.71562  -0.65940  -0.60460  -0.57534  -0.55623
 Alpha  occ. eigenvalues --   -0.51532  -0.50372  -0.48046  -0.47175  -0.43803
 Alpha  occ. eigenvalues --   -0.41103  -0.40617  -0.39882  -0.35650  -0.34819
 Alpha virt. eigenvalues --    0.11062   0.14164   0.15134   0.15827   0.17457
 Alpha virt. eigenvalues --    0.18525   0.19939   0.20659   0.21571   0.21915
 Alpha virt. eigenvalues --    0.23099   0.25620   0.27512   0.27982   0.30378
 Alpha virt. eigenvalues --    0.31470   0.32052   0.32675   0.34622   0.35429
 Alpha virt. eigenvalues --    0.38539   0.39654   0.40388   0.43181   0.45413
 Alpha virt. eigenvalues --    0.46371   0.46885   0.48780   0.49743   0.50539
 Alpha virt. eigenvalues --    0.51747   0.52018   0.52518   0.52934   0.54176
 Alpha virt. eigenvalues --    0.54953   0.55956   0.56439   0.58335   0.59929
 Alpha virt. eigenvalues --    0.61516   0.63058   0.64769   0.68208   0.68761
 Alpha virt. eigenvalues --    0.70254   0.73030   0.74903   0.77027   0.81167
 Alpha virt. eigenvalues --    0.83663   0.86297   0.91296   0.91695   0.94583
 Alpha virt. eigenvalues --    0.98258   0.99401   1.03367   1.03521   1.09948
 Alpha virt. eigenvalues --    1.10070   1.13344   1.14765   1.18584   1.20939
 Alpha virt. eigenvalues --    1.22012   1.25656   1.27209   1.30467   1.31737
 Alpha virt. eigenvalues --    1.36108   1.37561   1.40803   1.46375   1.48248
 Alpha virt. eigenvalues --    1.50740   1.57796   1.58681   1.61600   1.63812
 Alpha virt. eigenvalues --    1.65302   1.65395   1.65924   1.69309   1.71258
 Alpha virt. eigenvalues --    1.71595   1.73434   1.74391   1.78761   1.81054
 Alpha virt. eigenvalues --    1.83434   1.86665   1.87465   1.90362   1.93083
 Alpha virt. eigenvalues --    1.95458   1.96636   1.98692   2.01592   2.03751
 Alpha virt. eigenvalues --    2.05541   2.07458   2.09425   2.12157   2.15057
 Alpha virt. eigenvalues --    2.18220   2.20305   2.20578   2.24443   2.28515
 Alpha virt. eigenvalues --    2.31318   2.34047   2.36110   2.39272   2.42399
 Alpha virt. eigenvalues --    2.44877   2.46744   2.47629   2.49697   2.50598
 Alpha virt. eigenvalues --    2.52301   2.58039   2.59508   2.60214   2.62435
 Alpha virt. eigenvalues --    2.65202   2.66391   2.69285   2.69784   2.74119
 Alpha virt. eigenvalues --    2.75957   2.76246   2.77608   2.79953   2.81562
 Alpha virt. eigenvalues --    2.82571   2.85559   2.88648   2.90628   2.93671
 Alpha virt. eigenvalues --    3.00162   3.02380   3.02978   3.06339   3.08616
 Alpha virt. eigenvalues --    3.13497   3.15538   3.16633   3.19970   3.20605
 Alpha virt. eigenvalues --    3.24650   3.27110   3.29199   3.31049   3.32441
 Alpha virt. eigenvalues --    3.36146   3.38682   3.39276   3.40401   3.43084
 Alpha virt. eigenvalues --    3.47371   3.48117   3.49372   3.53057   3.54948
 Alpha virt. eigenvalues --    3.56514   3.61008   3.63889   3.64275   3.66342
 Alpha virt. eigenvalues --    3.77148   3.78752   3.80724   3.84150   3.89674
 Alpha virt. eigenvalues --    3.93466   3.98943   3.99959   4.03677   4.05804
 Alpha virt. eigenvalues --    4.10455   4.12193   4.14866   4.19947   4.24510
 Alpha virt. eigenvalues --    4.33962   4.37785   4.43105   4.45224   4.47751
 Alpha virt. eigenvalues --    4.52926   4.59857   4.63557   4.68840   4.74881
 Alpha virt. eigenvalues --    4.77043   4.82434   4.85822   4.94646   4.97444
 Alpha virt. eigenvalues --    4.97872   5.01770   5.05517   5.18613   5.21414
 Alpha virt. eigenvalues --    5.28690   5.37300   5.38101   5.55609   5.59129
 Alpha virt. eigenvalues --    5.65401   5.81984   5.88349   5.94116   6.03622
 Alpha virt. eigenvalues --    6.43751   6.56813   6.80426   6.87931   7.08198
 Alpha virt. eigenvalues --    7.28571  22.42536  22.56764  22.59946  22.69353
 Alpha virt. eigenvalues --   32.11315  44.01151
          Condensed to atoms (all electrons):
               1          2          3          4          5          6
     1  O    8.203464   0.236032  -0.090548  -0.047893  -0.003628  -0.006411
     2  C    0.236032   4.707736   0.314561   0.298122  -0.019630   0.015248
     3  N   -0.090548   0.314561   6.700879  -0.044118  -0.004463  -0.002112
     4  C   -0.047893   0.298122  -0.044118   5.069735   0.292510  -0.037930
     5  C   -0.003628  -0.019630  -0.004463   0.292510   4.991067   0.264186
     6  C   -0.006411   0.015248  -0.002112  -0.037930   0.264186   5.054454
     7  H    0.303511  -0.031212   0.009452   0.007534  -0.003385   0.000040
     8  H   -0.051624   0.460853  -0.041054  -0.068344   0.009784  -0.001105
     9  H    0.000848  -0.033256   0.365019   0.011449  -0.000048  -0.000818
    10  H   -0.000366  -0.015301   0.364618  -0.016813   0.003077  -0.005580
    11  H   -0.000382  -0.033353   0.004734   0.423343  -0.046015   0.009415
    12  H    0.007696  -0.056085   0.010034   0.418120  -0.032335  -0.003508
    13  H    0.015166  -0.024574   0.001050  -0.025383   0.414482  -0.040520
    14  H    0.000833   0.011582  -0.000764  -0.047324   0.420571  -0.031878
    15  H    0.000507  -0.008169   0.001448   0.008174  -0.045122   0.408392
    16  H    0.000208  -0.001193   0.000449   0.008427  -0.033026   0.404266
    17  H    0.003436   0.017650  -0.007640  -0.017699  -0.032541   0.405933
               7          8          9         10         11         12
     1  O    0.303511  -0.051624   0.000848  -0.000366  -0.000382   0.007696
     2  C   -0.031212   0.460853  -0.033256  -0.015301  -0.033353  -0.056085
     3  N    0.009452  -0.041054   0.365019   0.364618   0.004734   0.010034
     4  C    0.007534  -0.068344   0.011449  -0.016813   0.423343   0.418120
     5  C   -0.003385   0.009784  -0.000048   0.003077  -0.046015  -0.032335
     6  C    0.000040  -0.001105  -0.000818  -0.005580   0.009415  -0.003508
     7  H    0.342590  -0.002599  -0.000183  -0.000267  -0.000128   0.000132
     8  H   -0.002599   0.599987  -0.009396   0.007681  -0.008576  -0.000106
     9  H   -0.000183  -0.009396   0.434169  -0.025490  -0.000363  -0.000639
    10  H   -0.000267   0.007681  -0.025490   0.438366  -0.000394   0.000523
    11  H   -0.000128  -0.008576  -0.000363  -0.000394   0.552415  -0.019980
    12  H    0.000132  -0.000106  -0.000639   0.000523  -0.019980   0.559833
    13  H    0.001424   0.000533  -0.000090   0.000522  -0.004386   0.006513
    14  H   -0.000136  -0.000101   0.000034  -0.000095  -0.006068  -0.003796
    15  H   -0.000021  -0.000119   0.000109  -0.000853  -0.000011   0.001974
    16  H   -0.000003   0.000039  -0.000040   0.000710  -0.000263  -0.000024
    17  H   -0.000090   0.000454   0.000727   0.004389  -0.000586   0.000326
              13         14         15         16         17
     1  O    0.015166   0.000833   0.000507   0.000208   0.003436
     2  C   -0.024574   0.011582  -0.008169  -0.001193   0.017650
     3  N    0.001050  -0.000764   0.001448   0.000449  -0.007640
     4  C   -0.025383  -0.047324   0.008174   0.008427  -0.017699
     5  C    0.414482   0.420571  -0.045122  -0.033026  -0.032541
     6  C   -0.040520  -0.031878   0.408392   0.404266   0.405933
     7  H    0.001424  -0.000136  -0.000021  -0.000003  -0.000090
     8  H    0.000533  -0.000101  -0.000119   0.000039   0.000454
     9  H   -0.000090   0.000034   0.000109  -0.000040   0.000727
    10  H    0.000522  -0.000095  -0.000853   0.000710   0.004389
    11  H   -0.004386  -0.006068  -0.000011  -0.000263  -0.000586
    12  H    0.006513  -0.003796   0.001974  -0.000024   0.000326
    13  H    0.580981  -0.025845   0.006498  -0.002146  -0.004033
    14  H   -0.025845   0.572010  -0.002137  -0.007130   0.005819
    15  H    0.006498  -0.002137   0.545730  -0.019342  -0.028980
    16  H   -0.002146  -0.007130  -0.019342   0.533111  -0.021264
    17  H   -0.004033   0.005819  -0.028980  -0.021264   0.548800
 Mulliken charges:
               1
     1  O   -0.570849
     2  C    0.160989
     3  N   -0.581545
     4  C   -0.231910
     5  C   -0.175482
     6  C   -0.432071
     7  H    0.373342
     8  H    0.103694
     9  H    0.257969
    10  H    0.245273
    11  H    0.130599
    12  H    0.111321
    13  H    0.099807
    14  H    0.114423
    15  H    0.131921
    16  H    0.137221
    17  H    0.125298
 Sum of Mulliken charges =  -0.00000
 Mulliken charges with hydrogens summed into heavy atoms:
               1
     1  O   -0.197508
     2  C    0.264683
     3  N   -0.078302
     4  C    0.010009
     5  C    0.038748
     6  C   -0.037631
 Electronic spatial extent (au):  <R**2>=            671.0837
 Charge=             -0.0000 electrons
 Dipole moment (field-independent basis, Debye):
    X=              0.3905    Y=             -1.8493    Z=              0.0381  Tot=              1.8904
 Quadrupole moment (field-independent basis, Debye-Ang):
   XX=            -38.0106   YY=            -34.9768   ZZ=            -42.8688
   XY=              1.3975   XZ=             -0.2946   YZ=             -2.0999
 Traceless Quadrupole moment (field-independent basis, Debye-Ang):
   XX=              0.6082   YY=              3.6419   ZZ=             -4.2501
   XY=              1.3975   XZ=             -0.2946   YZ=             -2.0999
 Octapole moment (field-independent basis, Debye-Ang**2):
  XXX=            -11.4113  YYY=             -9.3322  ZZZ=             -2.3021  XYY=             -9.1827
  XXY=              0.2297  XXZ=              0.7247  XZZ=              2.6994  YZZ=             -4.6750
  YYZ=            -10.2893  XYZ=              2.6317
 Hexadecapole moment (field-independent basis, Debye-Ang**3):
 XXXX=           -474.9223 YYYY=           -212.1663 ZZZZ=           -166.3018 XXXY=            -11.4646
 XXXZ=             -1.3992 YYYX=              7.7178 YYYZ=              0.4559 ZZZX=              4.5514
 ZZZY=              2.0681 XXYY=           -111.2900 XXZZ=           -115.8798 YYZZ=            -63.9604
 XXYZ=             -3.6601 YYXZ=             14.0865 ZZXY=              5.9264
 N-N= 2.648574501613D+02 E-N=-1.203958393080D+03  KE= 2.874860579677D+02
 No NMR shielding tensors so no spin-rotation constants.
 Leave Link  601 at Wed Oct 22 13:43:50 2025, MaxMem=  4294967296 cpu:               1.3 elap:               0.2
 (Enter /lrz/sys/applications/gaussian/g16.C.01/x86_64_legacy/exe/l9999.exe)
 Unable to Open any file for archive entry.
 1\1\GINC-CM4R13C05S08\SP\RwB97XD\def2TZVP\C4H11N1O1\GO29TIZ2\22-Oct-20
 25\0\\#p wb97xd scrf=(smd,solvent=water) def2tzvp\\g16_g16_C17-a_54\\0
 ,1\O,0,1.300343,-0.591583,1.041519\C,0,1.117068,-0.152882,-0.303321\N,
 0,1.204044,1.277773,-0.370495\C,0,-0.186254,-0.705108,-0.890757\C,0,-1
 .436755,-0.635473,-0.010041\C,0,-1.918976,0.758802,0.380068\H,0,1.2416
 6,-1.555369,1.053275\H,0,1.949522,-0.54836,-0.913448\H,0,2.092889,1.57
 2252,0.032797\H,0,0.47799,1.698015,0.207202\H,0,-0.010294,-1.765743,-1
 .135706\H,0,-0.365029,-0.194076,-1.85086\H,0,-1.26502,-1.227466,0.9038
 55\H,0,-2.245462,-1.151132,-0.553434\H,0,-1.988411,1.423706,-0.495965\
 H,0,-2.917269,0.710449,0.84135\H,0,-1.25213,1.233951,1.116548\\Version
 =EM64L-G16RevC.01\State=1-A\HF=-289.0638578\RMSD=5.959e-09\Dipole=-0.1
 536496,-0.7275597,-0.0150021\Quadrupole=0.452152,2.707694,-3.159846,-1
 .0390364,-0.2190583,1.561241\PG=C01 [X(C4H11N1O1)]\\@
 The archive entry for this job was punched.


 The best way to pay for a lovely moment is to enjoy it.
 -- Richard Bach
 Job cpu time:       0 days  0 hours 14 minutes  6.0 seconds.
 Elapsed time:       0 days  0 hours  1 minutes 46.2 seconds.
 File lengths (MBytes):  RWF=    288 Int=      0 D2E=      0 Chk=     12 Scr=     32
 Normal termination of Gaussian 16 at Wed Oct 22 13:43:50 2025.
