 Entering Gaussian System, Link 0=g16
 Input=../../g16_g16_C3-w_11.com
 Output=../../g16_g16_C3-w_11.log
 Initial command:
 /lrz/sys/applications/gaussian/g16.C.01/x86_64_legacy/exe/l1.exe "/dss/lxclscratch/0D/go29tiz2/Gau-20819.inp" -scrdir="/dss/lxclscratch/0D/go29tiz2/"
 Entering Link 1 = /lrz/sys/applications/gaussian/g16.C.01/x86_64_legacy/exe/l1.exe PID=     20820.
  
 Copyright (c) 1988-2019, Gaussian, Inc.  All Rights Reserved.
  
 This is part of the Gaussian(R) 16 program.  It is based on
 the Gaussian(R) 09 system (copyright 2009, Gaussian, Inc.),
 the Gaussian(R) 03 system (copyright 2003, Gaussian, Inc.),
 the Gaussian(R) 98 system (copyright 1998, Gaussian, Inc.),
 the Gaussian(R) 94 system (copyright 1995, Gaussian, Inc.),
 the Gaussian 92(TM) system (copyright 1992, Gaussian, Inc.),
 the Gaussian 90(TM) system (copyright 1990, Gaussian, Inc.),
 the Gaussian 88(TM) system (copyright 1988, Gaussian, Inc.),
 the Gaussian 86(TM) system (copyright 1986, Carnegie Mellon
 University), and the Gaussian 82(TM) system (copyright 1983,
 Carnegie Mellon University). Gaussian is a federally registered
 trademark of Gaussian, Inc.
  
 This software contains proprietary and confidential information,
 including trade secrets, belonging to Gaussian, Inc.
  
 This software is provided under written license and may be
 used, copied, transmitted, or stored only in accord with that
 written license.
  
 The following legend is applicable only to US Government
 contracts under FAR:
  
                    RESTRICTED RIGHTS LEGEND
  
 Use, reproduction and disclosure by the US Government is
 subject to restrictions as set forth in subparagraphs (a)
 and (c) of the Commercial Computer Software - Restricted
 Rights clause in FAR 52.227-19.
  
 Gaussian, Inc.
 340 Quinnipiac St., Bldg. 40, Wallingford CT 06492
  
  
 ---------------------------------------------------------------
 Warning -- This program may not be used in any manner that
 competes with the business of Gaussian, Inc. or will provide
 assistance to any competitor of Gaussian, Inc.  The licensee
 of this program is prohibited from giving any competitor of
 Gaussian, Inc. access to this program.  By using this program,
 the user acknowledges that Gaussian, Inc. is engaged in the
 business of creating and licensing software in the field of
 computational chemistry and represents and warrants to the
 licensee that it is not a competitor of Gaussian, Inc. and that
 it will not use this program in any manner prohibited above.
 ---------------------------------------------------------------
  

 Cite this work as:
 Gaussian 16, Revision C.01,
 M. J. Frisch, G. W. Trucks, H. B. Schlegel, G. E. Scuseria, 
 M. A. Robb, J. R. Cheeseman, G. Scalmani, V. Barone, 
 G. A. Petersson, H. Nakatsuji, X. Li, M. Caricato, A. V. Marenich, 
 J. Bloino, B. G. Janesko, R. Gomperts, B. Mennucci, H. P. Hratchian, 
 J. V. Ortiz, A. F. Izmaylov, J. L. Sonnenberg, D. Williams-Young, 
 F. Ding, F. Lipparini, F. Egidi, J. Goings, B. Peng, A. Petrone, 
 T. Henderson, D. Ranasinghe, V. G. Zakrzewski, J. Gao, N. Rega, 
 G. Zheng, W. Liang, M. Hada, M. Ehara, K. Toyota, R. Fukuda, 
 J. Hasegawa, M. Ishida, T. Nakajima, Y. Honda, O. Kitao, H. Nakai, 
 T. Vreven, K. Throssell, J. A. Montgomery, Jr., J. E. Peralta, 
 F. Ogliaro, M. J. Bearpark, J. J. Heyd, E. N. Brothers, K. N. Kudin, 
 V. N. Staroverov, T. A. Keith, R. Kobayashi, J. Normand, 
 K. Raghavachari, A. P. Rendell, J. C. Burant, S. S. Iyengar, 
 J. Tomasi, M. Cossi, J. M. Millam, M. Klene, C. Adamo, R. Cammi, 
 J. W. Ochterski, R. L. Martin, K. Morokuma, O. Farkas, 
 J. B. Foresman, and D. J. Fox, Gaussian, Inc., Wallingford CT, 2019.
 
 ******************************************
 Gaussian 16:  EM64L-G16RevC.01  3-Jul-2019
                22-Oct-2025 
 ******************************************
 %chk=g16_g16_C3-w_11.chk
 %nprocshared=8
 Will use up to    8 processors via shared memory.
 %mem=32GB
 -------------------------------------------
 #p wb97xd scrf=(smd,solvent=water) def2tzvp
 -------------------------------------------
 1/38=1,172=1/1;
 2/12=2,17=6,18=5,40=1/2;
 3/5=44,7=101,11=2,25=1,30=1,70=32201,72=1,74=-58/1,2,3;
 4//1;
 5/5=2,38=5,53=1/2;
 6/7=2,8=2,9=2,10=2,28=1/1;
 99/5=1,9=1/99;
 Leave Link    1 at Wed Oct 22 10:13:17 2025, MaxMem=  4294967296 cpu:               4.8 elap:               0.7
 (Enter /lrz/sys/applications/gaussian/g16.C.01/x86_64_legacy/exe/l101.exe)
 ---------------
 g16_g16_C3-w_11
 ---------------
 Symbolic Z-matrix:
 Charge =  0 Multiplicity = 1
 O                    -0.93521   1.16331  -0.30686 
 C                    -0.62899  0.         0.42291 
 O                    -0.93522  -1.16332  -0.30687 
 C                     0.85619  -0.00002   0.73556 
 C                     1.752     0.00001  -0.49726 
 H                    -1.89579   1.24765  -0.34692 
 H                    -1.20957  0.         1.36469 
 H                    -1.89581  -1.24756  -0.34706 
 H                     1.06425   0.88371   1.35851 
 H                     1.06424  -0.88377   1.35847 
 H                     2.81245  -0.00001  -0.20561 
 H                     1.57421   0.88936  -1.11971 
 H                     1.5742   -0.8893   -1.11975 
 
 ITRead=  0  0  0  0  0  0  0  0  0  0  0  0  0
 MicOpt= -1 -1 -1 -1 -1 -1 -1 -1 -1 -1 -1 -1 -1
 NAtoms=     13 NQM=       13 NQMF=       0 NMMI=      0 NMMIF=      0
                NMic=       0 NMicF=      0.
                    Isotopes and Nuclear Properties:
 (Nuclear quadrupole moments (NQMom) in fm**2, nuclear magnetic moments (NMagM)
  in nuclear magnetons)

  Atom         1           2           3           4           5           6           7           8           9          10
 IAtWgt=          16          12          16          12          12           1           1           1           1           1
 AtmWgt=  15.9949146  12.0000000  15.9949146  12.0000000  12.0000000   1.0078250   1.0078250   1.0078250   1.0078250   1.0078250
 NucSpn=           0           0           0           0           0           1           1           1           1           1
 AtZEff=  -0.0000000  -0.0000000  -0.0000000  -0.0000000  -0.0000000  -0.0000000  -0.0000000  -0.0000000  -0.0000000  -0.0000000
 NQMom=    0.0000000   0.0000000   0.0000000   0.0000000   0.0000000   0.0000000   0.0000000   0.0000000   0.0000000   0.0000000
 NMagM=    0.0000000   0.0000000   0.0000000   0.0000000   0.0000000   2.7928460   2.7928460   2.7928460   2.7928460   2.7928460
 AtZNuc=   8.0000000   6.0000000   8.0000000   6.0000000   6.0000000   1.0000000   1.0000000   1.0000000   1.0000000   1.0000000

  Atom        11          12          13
 IAtWgt=           1           1           1
 AtmWgt=   1.0078250   1.0078250   1.0078250
 NucSpn=           1           1           1
 AtZEff=  -0.0000000  -0.0000000  -0.0000000
 NQMom=    0.0000000   0.0000000   0.0000000
 NMagM=    2.7928460   2.7928460   2.7928460
 AtZNuc=   1.0000000   1.0000000   1.0000000
 Leave Link  101 at Wed Oct 22 10:13:17 2025, MaxMem=  4294967296 cpu:               0.9 elap:               0.1
 (Enter /lrz/sys/applications/gaussian/g16.C.01/x86_64_legacy/exe/l202.exe)
                          Input orientation:                          
 ---------------------------------------------------------------------
 Center     Atomic      Atomic             Coordinates (Angstroms)
 Number     Number       Type             X           Y           Z
 ---------------------------------------------------------------------
      1          8           0       -0.935208    1.163314   -0.306862
      2          6           0       -0.628986   -0.000003    0.422909
      3          8           0       -0.935220   -1.163315   -0.306867
      4          6           0        0.856191   -0.000017    0.735558
      5          6           0        1.752002    0.000009   -0.497264
      6          1           0       -1.895793    1.247649   -0.346924
      7          1           0       -1.209567   -0.000001    1.364688
      8          1           0       -1.895808   -1.247556   -0.347055
      9          1           0        1.064250    0.883707    1.358510
     10          1           0        1.064244   -0.883771    1.358469
     11          1           0        2.812454   -0.000006   -0.205613
     12          1           0        1.574208    0.889356   -1.119706
     13          1           0        1.574195   -0.889301   -1.119753
 ---------------------------------------------------------------------
                    Distance matrix (angstroms):
                    1          2          3          4          5
     1  O    0.000000
     2  C    1.406998   0.000000
     3  O    2.326629   1.406999   0.000000
     4  C    2.376781   1.517729   2.376776   0.000000
     5  C    2.934387   2.552611   2.934406   1.523918   0.000000
     6  H    0.965112   1.937544   2.595583   3.209650   3.858188
     7  H    2.054910   1.106355   2.054912   2.159435   3.498250
     8  H    2.595508   1.937543   0.965112   3.209658   3.858173
     9  H    2.617150   2.126815   3.310840   1.101057   2.167446
    10  H    3.310845   2.126816   2.617125   1.101056   2.167446
    11  H    3.925371   3.498364   3.925379   2.170891   1.099827
    12  H    2.651969   2.832787   3.342364   2.179114   1.099992
    13  H    3.342323   2.832784   2.651986   2.179113   1.099991
                    6          7          8          9         10
     6  H    0.000000
     7  H    2.226466   0.000000
     8  H    2.495205   2.226518   0.000000
     9  H    3.435522   2.439513   4.026559   0.000000
    10  H    4.026554   2.439530   3.435558   1.767478   0.000000
    11  H    4.872802   4.317696   4.872794   2.506720   2.506717
    12  H    3.573020   3.835697   4.147818   2.530147   3.089562
    13  H    4.147847   3.835705   3.573000   3.089561   2.530151
                   11         12         13
    11  H    0.000000
    12  H    1.777578   0.000000
    13  H    1.777578   1.778657   0.000000
 Stoichiometry    C3H8O2
 Framework group  C1[X(C3H8O2)]
 Deg. of freedom    33
 Full point group                 C1      NOp   1
 Largest Abelian subgroup         C1      NOp   1
 Largest concise Abelian subgroup C1      NOp   1
                         Standard orientation:                         
 ---------------------------------------------------------------------
 Center     Atomic      Atomic             Coordinates (Angstroms)
 Number     Number       Type             X           Y           Z
 ---------------------------------------------------------------------
      1          8           0       -0.935208    1.163314   -0.306862
      2          6           0       -0.628986   -0.000003    0.422909
      3          8           0       -0.935220   -1.163315   -0.306867
      4          6           0        0.856191   -0.000017    0.735558
      5          6           0        1.752002    0.000009   -0.497264
      6          1           0       -1.895793    1.247649   -0.346924
      7          1           0       -1.209567   -0.000001    1.364688
      8          1           0       -1.895808   -1.247556   -0.347055
      9          1           0        1.064250    0.883707    1.358510
     10          1           0        1.064244   -0.883771    1.358469
     11          1           0        2.812454   -0.000006   -0.205613
     12          1           0        1.574208    0.889356   -1.119706
     13          1           0        1.574195   -0.889301   -1.119753
 ---------------------------------------------------------------------
 Rotational constants (GHZ):           6.9625137           4.0359382           3.3286005
 Leave Link  202 at Wed Oct 22 10:13:17 2025, MaxMem=  4294967296 cpu:               0.0 elap:               0.0
 (Enter /lrz/sys/applications/gaussian/g16.C.01/x86_64_legacy/exe/l301.exe)
 Standard basis: def2TZVP (5D, 7F)
 Ernie: Thresh=  0.10000D-02 Tol=  0.10000D-05 Strict=F.
 There are   228 symmetry adapted cartesian basis functions of A   symmetry.
 There are   203 symmetry adapted basis functions of A   symmetry.
   203 basis functions,   319 primitive gaussians,   228 cartesian basis functions
    21 alpha electrons       21 beta electrons
       nuclear repulsion energy       196.9474876209 Hartrees.
 IExCor= 4639 DFT=T Ex+Corr=wB97XD ExCW=0 ScaHFX=  1.000000
 ScaDFX=  1.000000  1.000000  1.000000  1.000000 ScalE2=  1.000000  1.000000
 IRadAn=      5 IRanWt=     -1 IRanGd=            0 ICorTp=0 IEmpDi=121
 HFx  wShort=  0.000000 wLong=  0.200000 cFull=  0.222036 cShort=  0.000000 cLong=  0.777964
 DFx  wShort=  0.000000 wLong=  0.200000 cFull=  0.000000 cShort=  0.000000 cLong=  1.000000
 NAtoms=   13 NActive=   13 NUniq=   13 SFac= 1.00D+00 NAtFMM=   60 NAOKFM=F Big=F
 Integral buffers will be    131072 words long.
 Raffenetti 2 integral format.
 Two-electron integral symmetry is turned on.
 R6Disp:  Grimme-D2 Dispersion energy=       -0.0054397340 Hartrees.
 Nuclear repulsion after empirical dispersion term =      196.9420478869 Hartrees.
 ------------------------------------------------------------------------------
 Polarizable Continuum Model (PCM)
 =================================
 Model                : PCM.
 Atomic radii         : SMD-Coulomb.
 Polarization charges : Total charges.
 Charge compensation  : None.
 Solution method      : On-the-fly selection.
 Cavity type          : VdW (van der Waals Surface) (Alpha=1.000).
 Cavity algorithm     : GePol (No added spheres)
                        Default sphere list used, NSphG=   13.
                        Lebedev-Laikov grids with approx.  5.0 points / Ang**2.
                        Smoothing algorithm: York/Karplus (Gamma=1.0000).
                        Polarization charges: spherical gaussians, with
                                              point-specific exponents (IZeta= 3).
                        Self-potential: point-specific (ISelfS= 7).
                        Self-field    : sphere-specific E.n sum rule (ISelfD= 2).
 Solvent              : Water, Eps=  78.355300 Eps(inf)=   1.777849
 ------------------------------------------------------------------------------
 Spheres list:
 ISph  on   Nord     Re0    Alpha      Xe            Ye            Ze
    1   O      1    1.5200  1.000     -0.935208      1.163314     -0.306862
    2   C      2    1.8500  1.000     -0.628986     -0.000003      0.422909
    3   O      3    1.5200  1.000     -0.935220     -1.163315     -0.306867
    4   C      4    1.8500  1.000      0.856191     -0.000017      0.735558
    5   C      5    1.8500  1.000      1.752002      0.000009     -0.497264
    6   H      6    1.2000  1.000     -1.895793      1.247649     -0.346924
    7   H      7    1.2000  1.000     -1.209567     -0.000001      1.364688
    8   H      8    1.2000  1.000     -1.895808     -1.247556     -0.347055
    9   H      9    1.2000  1.000      1.064250      0.883707      1.358510
   10   H     10    1.2000  1.000      1.064244     -0.883771      1.358469
   11   H     11    1.2000  1.000      2.812454     -0.000006     -0.205613
   12   H     12    1.2000  1.000      1.574208      0.889356     -1.119706
   13   H     13    1.2000  1.000      1.574195     -0.889301     -1.119753
 ------------------------------------------------------------------------------
 GePol: Number of generator spheres                  =      13
 GePol: Total number of spheres                      =      13
 GePol: Number of exposed spheres                    =      13 (100.00%)
 GePol: Number of points                             =     927
 GePol: Average weight of points                     =       0.12
 GePol: Minimum weight of points                     =   0.14D-07
 GePol: Maximum weight of points                     =    0.21991
 GePol: Number of points with low weight             =      60
 GePol: Fraction of low-weight points (<1% of avg)   =       6.47%
 GePol: Cavity surface area                          =    110.665 Ang**2
 GePol: Cavity volume                                =     82.229 Ang**3
 ------------------------------------------------------------------------------
 Atomic radii for non-electrostatic terms: SMD-CDS.
 ------------------------------------------------------------------------------
 PCM non-electrostatic energy =         0.0047887562 Hartrees.
 Nuclear repulsion after PCM non-electrostatic terms =      196.9468366431 Hartrees.
 Leave Link  301 at Wed Oct 22 10:13:17 2025, MaxMem=  4294967296 cpu:               0.9 elap:               0.1
 (Enter /lrz/sys/applications/gaussian/g16.C.01/x86_64_legacy/exe/l302.exe)
 NPDir=0 NMtPBC=     1 NCelOv=     1 NCel=       1 NClECP=     1 NCelD=      1
         NCelK=      1 NCelE2=     1 NClLst=     1 CellRange=     0.0.
 One-electron integrals computed using PRISM.
 One-electron integral symmetry used in STVInt
   1 Symmetry operations used in ECPInt.
 ECPInt:  NShTT=    3828 NPrTT=   11160 LenC2=    3807 LenP2D=    9390.
 LDataN:  DoStor=T MaxTD1= 6 Len=  172
 NBasis=   203 RedAO= T EigKep=  3.20D-04  NBF=   203
 NBsUse=   203 1.00D-06 EigRej= -1.00D+00 NBFU=   203
 Precomputing XC quadrature grid using
 IXCGrd= 4 IRadAn=           5 IRanWt=          -1 IRanGd=           0 AccXCQ= 0.00D+00.
 Generated NRdTot=       0 NPtTot=           0 NUsed=           0 NTot=          32
 NSgBfM=   227   227   227   227   227 MxSgAt=    13 MxSgA2=    13.
 Leave Link  302 at Wed Oct 22 10:13:17 2025, MaxMem=  4294967296 cpu:               1.8 elap:               0.2
 (Enter /lrz/sys/applications/gaussian/g16.C.01/x86_64_legacy/exe/l303.exe)
 DipDrv:  MaxL=1.
 Leave Link  303 at Wed Oct 22 10:13:17 2025, MaxMem=  4294967296 cpu:               0.3 elap:               0.1
 (Enter /lrz/sys/applications/gaussian/g16.C.01/x86_64_legacy/exe/l401.exe)
 ExpMin= 9.52D-02 ExpMax= 2.70D+04 ExpMxC= 9.22D+02 IAcc=3 IRadAn=         5 AccDes= 0.00D+00
 Harris functional with IExCor= 4639 and IRadAn=       5 diagonalized for initial guess.
 HarFok:  IExCor= 4639 AccDes= 0.00D+00 IRadAn=         5 IDoV= 1 UseB2=F ITyADJ=14
 ICtDFT=  3500011 ScaDFX=  1.000000  1.000000  1.000000  1.000000
 FoFCou: FMM=F IPFlag=           0 FMFlag=      100000 FMFlg1=           0
         NFxFlg=           0 DoJE=T BraDBF=F KetDBF=T FulRan=T
         wScrn=  0.000000 ICntrl=       500 IOpCl=  0 I1Cent=   200000004 NGrid=           0
         NMat0=    1 NMatS0=      1 NMatT0=    0 NMatD0=    1 NMtDS0=    0 NMtDT0=    0
 Petite list used in FoFCou.
 Harris En= -258.422503641126    
 JPrj=0 DoOrth=F DoCkMO=F.
 Leave Link  401 at Wed Oct 22 10:13:19 2025, MaxMem=  4294967296 cpu:               9.9 elap:               1.3
 (Enter /lrz/sys/applications/gaussian/g16.C.01/x86_64_legacy/exe/l502.exe)
 Integral symmetry usage will be decided dynamically.
 Closed shell SCF:
 Using DIIS extrapolation, IDIIS=  1040.
 NGot=  4294967296 LenX=  4294858978 LenY=  4294806553
 Requested convergence on RMS density matrix=1.00D-08 within 128 cycles.
 Requested convergence on MAX density matrix=1.00D-06.
 Requested convergence on             energy=1.00D-06.
 No special actions if energy rises.
 Fock matrices will be formed incrementally for  20 cycles.

 Cycle   1  Pass 1  IDiag  1:
 FoFJK:  IHMeth= 1 ICntrl=       0 DoSepK=T KAlg= 0 I1Cent=           0 FoldK=F
 IRaf=         1 NMat=       1 IRICut=       1 DoRegI=T DoRafI=F ISym2E= 0 IDoP0=0 IntGTp=1.
 FoFCou: FMM=F IPFlag=           0 FMFlag=      100000 FMFlg1=           0
         NFxFlg=           0 DoJE=T BraDBF=F KetDBF=F FulRan=T
         wScrn=  0.000000 ICntrl=       500 IOpCl=  0 I1Cent=           0 NGrid=           0
         NMat0=    1 NMatS0=      1 NMatT0=    0 NMatD0=    1 NMtDS0=    0 NMtDT0=    0
 Symmetry not used in FoFCou.
 Inv3:  Mode=1 IEnd=     2577987.
 Iteration    1 A*A^-1 deviation from unit magnitude is 5.33D-15 for    750.
 Iteration    1 A*A^-1 deviation from orthogonality  is 3.36D-15 for    750    402.
 Iteration    1 A^-1*A deviation from unit magnitude is 4.44D-15 for    582.
 Iteration    1 A^-1*A deviation from orthogonality  is 3.23D-15 for    785    750.
 E= -269.551026323213    
 DIIS: error= 5.77D-02 at cycle   1 NSaved=   1.
 NSaved= 1 IEnMin= 1 EnMin= -269.551026323213     IErMin= 1 ErrMin= 5.77D-02
 ErrMax= 5.77D-02  0.00D+00 EMaxC= 1.00D-01 BMatC= 5.65D-01 BMatP= 5.65D-01
 IDIUse=3 WtCom= 4.23D-01 WtEn= 5.77D-01
 Coeff-Com:  0.100D+01
 Coeff-En:   0.100D+01
 Coeff:      0.100D+01
 Gap=     0.548 Goal=   None    Shift=    0.000
 GapD=    0.548 DampG=2.000 DampE=0.500 DampFc=1.0000 IDamp=-1.
 RMSDP=1.97D-03 MaxDP=4.31D-02              OVMax= 6.42D-02

 Cycle   2  Pass 1  IDiag  1:
 RMSU=  1.92D-03    CP:  9.62D-01
 E= -269.597629253565     Delta-E=       -0.046602930352 Rises=F Damp=F
 DIIS: error= 1.18D-02 at cycle   2 NSaved=   2.
 NSaved= 2 IEnMin= 2 EnMin= -269.597629253565     IErMin= 2 ErrMin= 1.18D-02
 ErrMax= 1.18D-02  0.00D+00 EMaxC= 1.00D-01 BMatC= 4.26D-02 BMatP= 5.65D-01
 IDIUse=3 WtCom= 8.82D-01 WtEn= 1.18D-01
 Coeff-Com:  0.153D+00 0.847D+00
 Coeff-En:   0.975D-01 0.902D+00
 Coeff:      0.146D+00 0.854D+00
 Gap=     0.549 Goal=   None    Shift=    0.000
 RMSDP=8.41D-04 MaxDP=2.50D-02 DE=-4.66D-02 OVMax= 4.45D-02

 Cycle   3  Pass 1  IDiag  1:
 RMSU=  6.44D-04    CP:  9.68D-01  7.21D-01
 E= -269.612477978196     Delta-E=       -0.014848724632 Rises=F Damp=F
 DIIS: error= 8.96D-03 at cycle   3 NSaved=   3.
 NSaved= 3 IEnMin= 3 EnMin= -269.612477978196     IErMin= 3 ErrMin= 8.96D-03
 ErrMax= 8.96D-03  0.00D+00 EMaxC= 1.00D-01 BMatC= 2.01D-02 BMatP= 4.26D-02
 IDIUse=3 WtCom= 9.10D-01 WtEn= 8.96D-02
 Coeff-Com:  0.230D-01 0.416D+00 0.561D+00
 Coeff-En:   0.000D+00 0.309D+00 0.691D+00
 Coeff:      0.210D-01 0.406D+00 0.573D+00
 Gap=     0.497 Goal=   None    Shift=    0.000
 RMSDP=4.22D-04 MaxDP=1.17D-02 DE=-1.48D-02 OVMax= 1.96D-02

 Cycle   4  Pass 1  IDiag  1:
 RMSU=  1.39D-04    CP:  9.63D-01  8.95D-01  6.78D-01
 E= -269.625731591583     Delta-E=       -0.013253613386 Rises=F Damp=F
 DIIS: error= 8.47D-04 at cycle   4 NSaved=   4.
 NSaved= 4 IEnMin= 4 EnMin= -269.625731591583     IErMin= 4 ErrMin= 8.47D-04
 ErrMax= 8.47D-04  0.00D+00 EMaxC= 1.00D-01 BMatC= 2.14D-04 BMatP= 2.01D-02
 IDIUse=3 WtCom= 9.92D-01 WtEn= 8.47D-03
 Coeff-Com:  0.781D-02 0.150D+00 0.235D+00 0.607D+00
 Coeff-En:   0.000D+00 0.000D+00 0.000D+00 0.100D+01
 Coeff:      0.775D-02 0.149D+00 0.233D+00 0.610D+00
 Gap=     0.490 Goal=   None    Shift=    0.000
 RMSDP=4.31D-05 MaxDP=1.40D-03 DE=-1.33D-02 OVMax= 2.28D-03

 Cycle   5  Pass 1  IDiag  1:
 RMSU=  3.69D-05    CP:  9.62D-01  9.01D-01  7.05D-01  9.61D-01
 E= -269.625876397217     Delta-E=       -0.000144805634 Rises=F Damp=F
 DIIS: error= 1.50D-04 at cycle   5 NSaved=   5.
 NSaved= 5 IEnMin= 5 EnMin= -269.625876397217     IErMin= 5 ErrMin= 1.50D-04
 ErrMax= 1.50D-04  0.00D+00 EMaxC= 1.00D-01 BMatC= 6.90D-06 BMatP= 2.14D-04
 IDIUse=3 WtCom= 9.99D-01 WtEn= 1.50D-03
 Coeff-Com: -0.184D-02-0.295D-01-0.302D-01 0.103D+00 0.959D+00
 Coeff-En:   0.000D+00 0.000D+00 0.000D+00 0.000D+00 0.100D+01
 Coeff:     -0.184D-02-0.295D-01-0.302D-01 0.103D+00 0.959D+00
 Gap=     0.490 Goal=   None    Shift=    0.000
 RMSDP=3.26D-05 MaxDP=6.52D-04 DE=-1.45D-04 OVMax= 7.21D-04

 Cycle   6  Pass 1  IDiag  1:
 RMSU=  9.51D-06    CP:  9.62D-01  9.10D-01  7.27D-01  1.10D+00  1.20D+00
 E= -269.625885722188     Delta-E=       -0.000009324971 Rises=F Damp=F
 DIIS: error= 1.81D-05 at cycle   6 NSaved=   6.
 NSaved= 6 IEnMin= 6 EnMin= -269.625885722188     IErMin= 6 ErrMin= 1.81D-05
 ErrMax= 1.81D-05  0.00D+00 EMaxC= 1.00D-01 BMatC= 1.16D-07 BMatP= 6.90D-06
 IDIUse=1 WtCom= 1.00D+00 WtEn= 0.00D+00
 Coeff-Com: -0.276D-03-0.555D-02-0.840D-02-0.172D-01-0.409D-02 0.104D+01
 Coeff:     -0.276D-03-0.555D-02-0.840D-02-0.172D-01-0.409D-02 0.104D+01
 Gap=     0.490 Goal=   None    Shift=    0.000
 RMSDP=8.11D-06 MaxDP=1.86D-04 DE=-9.32D-06 OVMax= 2.26D-04

 Cycle   7  Pass 1  IDiag  1:
 RMSU=  2.48D-06    CP:  9.62D-01  9.11D-01  7.31D-01  1.14D+00  1.29D+00
                    CP:  1.33D+00
 E= -269.625886023379     Delta-E=       -0.000000301191 Rises=F Damp=F
 DIIS: error= 5.80D-06 at cycle   7 NSaved=   7.
 NSaved= 7 IEnMin= 7 EnMin= -269.625886023379     IErMin= 7 ErrMin= 5.80D-06
 ErrMax= 5.80D-06  0.00D+00 EMaxC= 1.00D-01 BMatC= 6.65D-09 BMatP= 1.16D-07
 IDIUse=1 WtCom= 1.00D+00 WtEn= 0.00D+00
 Coeff-Com:  0.724D-04 0.118D-02 0.122D-02-0.373D-02-0.471D-01 0.244D-01
 Coeff-Com:  0.102D+01
 Coeff:      0.724D-04 0.118D-02 0.122D-02-0.373D-02-0.471D-01 0.244D-01
 Coeff:      0.102D+01
 Gap=     0.490 Goal=   None    Shift=    0.000
 RMSDP=1.96D-06 MaxDP=6.85D-05 DE=-3.01D-07 OVMax= 6.45D-05

 Cycle   8  Pass 1  IDiag  1:
 RMSU=  4.65D-07    CP:  9.62D-01  9.12D-01  7.32D-01  1.14D+00  1.31D+00
                    CP:  1.45D+00  1.38D+00
 E= -269.625886040078     Delta-E=       -0.000000016698 Rises=F Damp=F
 DIIS: error= 1.04D-06 at cycle   8 NSaved=   8.
 NSaved= 8 IEnMin= 8 EnMin= -269.625886040078     IErMin= 8 ErrMin= 1.04D-06
 ErrMax= 1.04D-06  0.00D+00 EMaxC= 1.00D-01 BMatC= 3.66D-10 BMatP= 6.65D-09
 IDIUse=1 WtCom= 1.00D+00 WtEn= 0.00D+00
 Coeff-Com:  0.545D-05 0.159D-03 0.329D-03 0.121D-02 0.342D-02-0.504D-01
 Coeff-Com: -0.510D-01 0.110D+01
 Coeff:      0.545D-05 0.159D-03 0.329D-03 0.121D-02 0.342D-02-0.504D-01
 Coeff:     -0.510D-01 0.110D+01
 Gap=     0.490 Goal=   None    Shift=    0.000
 RMSDP=5.40D-07 MaxDP=2.67D-05 DE=-1.67D-08 OVMax= 1.92D-05

 Cycle   9  Pass 1  IDiag  1:
 RMSU=  1.39D-07    CP:  9.62D-01  9.11D-01  7.32D-01  1.14D+00  1.31D+00
                    CP:  1.49D+00  1.52D+00  1.38D+00
 E= -269.625886040993     Delta-E=       -0.000000000916 Rises=F Damp=F
 DIIS: error= 6.08D-07 at cycle   9 NSaved=   9.
 NSaved= 9 IEnMin= 9 EnMin= -269.625886040993     IErMin= 9 ErrMin= 6.08D-07
 ErrMax= 6.08D-07  0.00D+00 EMaxC= 1.00D-01 BMatC= 6.75D-11 BMatP= 3.66D-10
 IDIUse=1 WtCom= 1.00D+00 WtEn= 0.00D+00
 Coeff-Com: -0.206D-05-0.132D-04 0.463D-04 0.684D-03 0.407D-02-0.197D-01
 Coeff-Com: -0.806D-01 0.376D+00 0.720D+00
 Coeff:     -0.206D-05-0.132D-04 0.463D-04 0.684D-03 0.407D-02-0.197D-01
 Coeff:     -0.806D-01 0.376D+00 0.720D+00
 Gap=     0.490 Goal=   None    Shift=    0.000
 RMSDP=1.04D-07 MaxDP=5.77D-06 DE=-9.16D-10 OVMax= 3.64D-06

 Cycle  10  Pass 1  IDiag  1:
 RMSU=  3.42D-08    CP:  9.62D-01  9.11D-01  7.32D-01  1.14D+00  1.31D+00
                    CP:  1.49D+00  1.54D+00  1.48D+00  1.22D+00
 E= -269.625886041075     Delta-E=       -0.000000000082 Rises=F Damp=F
 DIIS: error= 1.04D-07 at cycle  10 NSaved=  10.
 NSaved=10 IEnMin=10 EnMin= -269.625886041075     IErMin=10 ErrMin= 1.04D-07
 ErrMax= 1.04D-07  0.00D+00 EMaxC= 1.00D-01 BMatC= 2.89D-12 BMatP= 6.75D-11
 IDIUse=1 WtCom= 1.00D+00 WtEn= 0.00D+00
 Coeff-Com: -0.222D-06-0.983D-05-0.242D-04-0.766D-04-0.312D-03 0.397D-02
 Coeff-Com:  0.282D-02-0.944D-01 0.457D-01 0.104D+01
 Coeff:     -0.222D-06-0.983D-05-0.242D-04-0.766D-04-0.312D-03 0.397D-02
 Coeff:      0.282D-02-0.944D-01 0.457D-01 0.104D+01
 Gap=     0.490 Goal=   None    Shift=    0.000
 RMSDP=4.69D-08 MaxDP=2.64D-06 DE=-8.21D-11 OVMax= 1.73D-06

 Cycle  11  Pass 1  IDiag  1:
 RMSU=  1.01D-08    CP:  9.62D-01  9.11D-01  7.32D-01  1.14D+00  1.31D+00
                    CP:  1.49D+00  1.55D+00  1.53D+00  1.42D+00  1.30D+00
 E= -269.625886041082     Delta-E=       -0.000000000006 Rises=F Damp=F
 DIIS: error= 1.79D-08 at cycle  11 NSaved=  11.
 NSaved=11 IEnMin=11 EnMin= -269.625886041082     IErMin=11 ErrMin= 1.79D-08
 ErrMax= 1.79D-08  0.00D+00 EMaxC= 1.00D-01 BMatC= 9.23D-14 BMatP= 2.89D-12
 IDIUse=1 WtCom= 1.00D+00 WtEn= 0.00D+00
 Coeff-Com:  0.103D-06 0.533D-06-0.269D-05-0.316D-04-0.209D-03 0.107D-02
 Coeff-Com:  0.429D-02-0.209D-01-0.349D-01 0.267D-01 0.102D+01
 Coeff:      0.103D-06 0.533D-06-0.269D-05-0.316D-04-0.209D-03 0.107D-02
 Coeff:      0.429D-02-0.209D-01-0.349D-01 0.267D-01 0.102D+01
 Gap=     0.490 Goal=   None    Shift=    0.000
 RMSDP=9.48D-09 MaxDP=4.62D-07 DE=-6.48D-12 OVMax= 3.28D-07

 Error on total polarization charges =  0.04141
 SCF Done:  E(RwB97XD) =  -269.625886041     A.U. after   11 cycles
            NFock= 11  Conv=0.95D-08     -V/T= 2.0050
 KE= 2.682761858960D+02 PE=-1.026061222985D+03 EE= 2.912123144046D+02
 SMD-CDS (non-electrostatic) energy       (kcal/mol) =       3.00
 (included in total energy above)
 Leave Link  502 at Wed Oct 22 10:14:08 2025, MaxMem=  4294967296 cpu:             394.3 elap:              49.4
 (Enter /lrz/sys/applications/gaussian/g16.C.01/x86_64_legacy/exe/l601.exe)
 Copying SCF densities to generalized density rwf, IOpCl= 0 IROHF=0.

 **********************************************************************

            Population analysis using the SCF Density.

 **********************************************************************

 Orbital symmetries:
       Occupied  (A) (A) (A) (A) (A) (A) (A) (A) (A) (A) (A) (A)
                 (A) (A) (A) (A) (A) (A) (A) (A) (A)
       Virtual   (A) (A) (A) (A) (A) (A) (A) (A) (A) (A) (A) (A)
                 (A) (A) (A) (A) (A) (A) (A) (A) (A) (A) (A) (A)
                 (A) (A) (A) (A) (A) (A) (A) (A) (A) (A) (A) (A)
                 (A) (A) (A) (A) (A) (A) (A) (A) (A) (A) (A) (A)
                 (A) (A) (A) (A) (A) (A) (A) (A) (A) (A) (A) (A)
                 (A) (A) (A) (A) (A) (A) (A) (A) (A) (A) (A) (A)
                 (A) (A) (A) (A) (A) (A) (A) (A) (A) (A) (A) (A)
                 (A) (A) (A) (A) (A) (A) (A) (A) (A) (A) (A) (A)
                 (A) (A) (A) (A) (A) (A) (A) (A) (A) (A) (A) (A)
                 (A) (A) (A) (A) (A) (A) (A) (A) (A) (A) (A) (A)
                 (A) (A) (A) (A) (A) (A) (A) (A) (A) (A) (A) (A)
                 (A) (A) (A) (A) (A) (A) (A) (A) (A) (A) (A) (A)
                 (A) (A) (A) (A) (A) (A) (A) (A) (A) (A) (A) (A)
                 (A) (A) (A) (A) (A) (A) (A) (A) (A) (A) (A) (A)
                 (A) (A) (A) (A) (A) (A) (A) (A) (A) (A) (A) (A)
                 (A) (A)
 The electronic state is 1-A.
 Alpha  occ. eigenvalues --  -19.25439 -19.25438 -10.37669 -10.27452 -10.26545
 Alpha  occ. eigenvalues --   -1.16652  -1.09863  -0.87196  -0.76637  -0.67305
 Alpha  occ. eigenvalues --   -0.62653  -0.61430  -0.53302  -0.51077  -0.48402
 Alpha  occ. eigenvalues --   -0.47174  -0.44259  -0.41922  -0.41374  -0.38186
 Alpha  occ. eigenvalues --   -0.37878
 Alpha virt. eigenvalues --    0.11159   0.15154   0.16111   0.17178   0.18628
 Alpha virt. eigenvalues --    0.19968   0.20781   0.22662   0.24905   0.27536
 Alpha virt. eigenvalues --    0.27576   0.29491   0.30198   0.33099   0.35572
 Alpha virt. eigenvalues --    0.36208   0.40747   0.41534   0.43500   0.45397
 Alpha virt. eigenvalues --    0.46921   0.46922   0.49623   0.50488   0.51307
 Alpha virt. eigenvalues --    0.52070   0.54773   0.56272   0.57700   0.59515
 Alpha virt. eigenvalues --    0.60461   0.61757   0.64082   0.65657   0.66665
 Alpha virt. eigenvalues --    0.69342   0.77407   0.77607   0.78500   0.87933
 Alpha virt. eigenvalues --    0.90844   0.92623   0.93205   0.94304   1.00962
 Alpha virt. eigenvalues --    1.05252   1.06102   1.11044   1.11624   1.14409
 Alpha virt. eigenvalues --    1.18207   1.21948   1.24435   1.29160   1.30712
 Alpha virt. eigenvalues --    1.38808   1.50712   1.52660   1.57998   1.61437
 Alpha virt. eigenvalues --    1.61486   1.63358   1.65765   1.66544   1.67497
 Alpha virt. eigenvalues --    1.68836   1.72454   1.73459   1.75816   1.81756
 Alpha virt. eigenvalues --    1.82665   1.86623   1.91058   1.92931   1.95071
 Alpha virt. eigenvalues --    1.99579   2.00817   2.03769   2.07668   2.12966
 Alpha virt. eigenvalues --    2.15872   2.20752   2.21988   2.23243   2.27553
 Alpha virt. eigenvalues --    2.29507   2.34232   2.37913   2.39782   2.39807
 Alpha virt. eigenvalues --    2.42339   2.42687   2.46346   2.54105   2.55678
 Alpha virt. eigenvalues --    2.60048   2.61899   2.64217   2.65060   2.69360
 Alpha virt. eigenvalues --    2.69606   2.73775   2.73933   2.79339   2.82773
 Alpha virt. eigenvalues --    2.84463   2.86056   2.90445   2.91404   3.02301
 Alpha virt. eigenvalues --    3.02431   3.07591   3.10874   3.12137   3.15628
 Alpha virt. eigenvalues --    3.17721   3.18114   3.25272   3.26355   3.26587
 Alpha virt. eigenvalues --    3.31365   3.34515   3.37726   3.40646   3.46149
 Alpha virt. eigenvalues --    3.48382   3.50859   3.53077   3.58730   3.63533
 Alpha virt. eigenvalues --    3.64461   3.71177   3.74601   3.76244   3.86918
 Alpha virt. eigenvalues --    3.91144   3.92211   4.01383   4.01615   4.02159
 Alpha virt. eigenvalues --    4.16056   4.20292   4.20579   4.36413   4.39148
 Alpha virt. eigenvalues --    4.47078   4.58925   4.59236   4.67533   4.71183
 Alpha virt. eigenvalues --    4.78893   4.88559   4.92141   5.27792   5.36452
 Alpha virt. eigenvalues --    5.43368   5.43372   5.51866   5.52533   5.68452
 Alpha virt. eigenvalues --    5.77536   5.93331   5.94190   6.00208   6.20597
 Alpha virt. eigenvalues --    6.35091   6.36360   6.52843   6.60411   6.75664
 Alpha virt. eigenvalues --    6.76787   6.83780   6.99171   7.05783   7.08123
 Alpha virt. eigenvalues --    7.28317   7.28763  22.40657  22.55375  22.69868
 Alpha virt. eigenvalues --   43.90381  43.97149
          Condensed to atoms (all electrons):
               1          2          3          4          5          6
     1  O    8.121492   0.314002  -0.079764  -0.063889  -0.010255   0.306804
     2  C    0.314002   4.609430   0.314007   0.248311  -0.023341  -0.034122
     3  O   -0.079764   0.314007   8.121493  -0.063896  -0.010254   0.002567
     4  C   -0.063889   0.248311  -0.063896   5.077875   0.292331   0.012400
     5  C   -0.010255  -0.023341  -0.010254   0.292331   4.997017   0.000195
     6  H    0.306804  -0.034122   0.002567   0.012400   0.000195   0.342644
     7  H   -0.058466   0.492931  -0.058465  -0.079148   0.006218  -0.009227
     8  H    0.002568  -0.034122   0.306802   0.012400   0.000195   0.003225
     9  H    0.004354  -0.031667   0.004662   0.409099  -0.031770  -0.000469
    10  H    0.004662  -0.031668   0.004354   0.409101  -0.031770  -0.000514
    11  H   -0.000184   0.009018  -0.000184  -0.036472   0.414071   0.000029
    12  H    0.010724  -0.003175   0.000596  -0.041464   0.409195  -0.000619
    13  H    0.000596  -0.003174   0.010724  -0.041465   0.409196  -0.000163
               7          8          9         10         11         12
     1  O   -0.058466   0.002568   0.004354   0.004662  -0.000184   0.010724
     2  C    0.492931  -0.034122  -0.031667  -0.031668   0.009018  -0.003175
     3  O   -0.058465   0.306802   0.004662   0.004354  -0.000184   0.000596
     4  C   -0.079148   0.012400   0.409099   0.409101  -0.036472  -0.041464
     5  C    0.006218   0.000195  -0.031770  -0.031770   0.414071   0.409195
     6  H   -0.009227   0.003225  -0.000469  -0.000514   0.000029  -0.000619
     7  H    0.613196  -0.009225  -0.003497  -0.003497  -0.000086   0.000613
     8  H   -0.009225   0.342648  -0.000514  -0.000469   0.000029  -0.000163
     9  H   -0.003497  -0.000514   0.553856  -0.019509  -0.005275  -0.003043
    10  H   -0.003497  -0.000469  -0.019509   0.553856  -0.005275   0.005951
    11  H   -0.000086   0.000029  -0.005275  -0.005275   0.528450  -0.022420
    12  H    0.000613  -0.000163  -0.003043   0.005951  -0.022420   0.543721
    13  H    0.000613  -0.000619   0.005951  -0.003043  -0.022420  -0.024426
              13
     1  O    0.000596
     2  C   -0.003174
     3  O    0.010724
     4  C   -0.041465
     5  C    0.409196
     6  H   -0.000163
     7  H    0.000613
     8  H   -0.000619
     9  H    0.005951
    10  H   -0.003043
    11  H   -0.022420
    12  H   -0.024426
    13  H    0.543720
 Mulliken charges:
               1
     1  O   -0.552643
     2  C    0.173571
     3  O   -0.552641
     4  C   -0.135184
     5  C   -0.421028
     6  H    0.377251
     7  H    0.108039
     8  H    0.377246
     9  H    0.117823
    10  H    0.117823
    11  H    0.140721
    12  H    0.124510
    13  H    0.124511
 Sum of Mulliken charges =  -0.00000
 Mulliken charges with hydrogens summed into heavy atoms:
               1
     1  O   -0.175392
     2  C    0.281610
     3  O   -0.175395
     4  C    0.100463
     5  C   -0.031286
 Electronic spatial extent (au):  <R**2>=            445.7917
 Charge=              0.0000 electrons
 Dipole moment (field-independent basis, Debye):
    X=             -3.0329    Y=              0.0002    Z=              1.7918  Tot=              3.5227
 Quadrupole moment (field-independent basis, Debye-Ang):
   XX=            -20.6276   YY=            -35.0904   ZZ=            -32.2063
   XY=             -0.0005   XZ=              0.5826   YZ=              0.0003
 Traceless Quadrupole moment (field-independent basis, Debye-Ang):
   XX=              8.6805   YY=             -5.7823   ZZ=             -2.8982
   XY=             -0.0005   XZ=              0.5826   YZ=              0.0003
 Octapole moment (field-independent basis, Debye-Ang**2):
  XXX=            -35.1900  YYY=              0.0012  ZZZ=              1.1136  XYY=             -6.6162
  XXY=              0.0008  XXZ=             -2.0603  XZZ=             -4.0030  YZZ=             -0.0002
  YYZ=              0.1235  XYZ=             -0.0006
 Hexadecapole moment (field-independent basis, Debye-Ang**3):
 XXXX=           -252.9030 YYYY=           -155.7944 ZZZZ=           -106.6237 XXXY=             -0.0017
 XXXZ=             14.6290 YYYX=             -0.0024 YYYZ=              0.0002 ZZZX=              2.2977
 ZZZY=              0.0005 XXYY=            -60.8403 XXZZ=            -69.2384 YYZZ=            -40.8366
 XXYZ=              0.0013 YYXZ=              4.0956 ZZXY=              0.0004
 N-N= 1.969468366431D+02 E-N=-1.026061224709D+03  KE= 2.682761858960D+02
 No NMR shielding tensors so no spin-rotation constants.
 Leave Link  601 at Wed Oct 22 10:14:08 2025, MaxMem=  4294967296 cpu:               1.0 elap:               0.2
 (Enter /lrz/sys/applications/gaussian/g16.C.01/x86_64_legacy/exe/l9999.exe)
 Unable to Open any file for archive entry.
 1\1\GINC-CM4R15C05S03\SP\RwB97XD\def2TZVP\C3H8O2\GO29TIZ2\22-Oct-2025\
 0\\#p wb97xd scrf=(smd,solvent=water) def2tzvp\\g16_g16_C3-w_11\\0,1\O
 ,0,-0.935208,1.163314,-0.306862\C,0,-0.628986,-0.000003,0.422909\O,0,-
 0.93522,-1.163315,-0.306867\C,0,0.856191,-0.000017,0.735558\C,0,1.7520
 02,0.000009,-0.497264\H,0,-1.895793,1.247649,-0.346924\H,0,-1.209567,-
 0.000001,1.364688\H,0,-1.895808,-1.247556,-0.347055\H,0,1.06425,0.8837
 07,1.35851\H,0,1.064244,-0.883771,1.358469\H,0,2.812454,-0.000006,-0.2
 05613\H,0,1.574208,0.889356,-1.119706\H,0,1.574195,-0.889301,-1.119753
 \\Version=EM64L-G16RevC.01\State=1-A\HF=-269.625886\RMSD=9.482e-09\Dip
 ole=-1.1932475,0.0000796,0.7049415\Quadrupole=6.4537162,-4.2989868,-2.
 1547295,-0.0003511,0.4331474,0.000193\PG=C01 [X(C3H8O2)]\\@
 The archive entry for this job was punched.


 VIRTUE IS LEARNED AT YOUR MOTHER'S KNEE,
 VICES ARE PICKED UP AT SOME OTHER JOINT.
 Job cpu time:       0 days  0 hours  6 minutes 54.2 seconds.
 Elapsed time:       0 days  0 hours  0 minutes 52.1 seconds.
 File lengths (MBytes):  RWF=    272 Int=      0 D2E=      0 Chk=      8 Scr=     32
 Normal termination of Gaussian 16 at Wed Oct 22 10:14:08 2025.
