 Entering Gaussian System, Link 0=g16
 Input=../../g16_g16_C19_1.com
 Output=../../g16_g16_C19_1.log
 Initial command:
 /lrz/sys/applications/gaussian/g16.C.01/x86_64_legacy/exe/l1.exe "/dss/lxclscratch/0D/go29tiz2/Gau-2106.inp" -scrdir="/dss/lxclscratch/0D/go29tiz2/"
 Entering Link 1 = /lrz/sys/applications/gaussian/g16.C.01/x86_64_legacy/exe/l1.exe PID=      2107.
  
 Copyright (c) 1988-2019, Gaussian, Inc.  All Rights Reserved.
  
 This is part of the Gaussian(R) 16 program.  It is based on
 the Gaussian(R) 09 system (copyright 2009, Gaussian, Inc.),
 the Gaussian(R) 03 system (copyright 2003, Gaussian, Inc.),
 the Gaussian(R) 98 system (copyright 1998, Gaussian, Inc.),
 the Gaussian(R) 94 system (copyright 1995, Gaussian, Inc.),
 the Gaussian 92(TM) system (copyright 1992, Gaussian, Inc.),
 the Gaussian 90(TM) system (copyright 1990, Gaussian, Inc.),
 the Gaussian 88(TM) system (copyright 1988, Gaussian, Inc.),
 the Gaussian 86(TM) system (copyright 1986, Carnegie Mellon
 University), and the Gaussian 82(TM) system (copyright 1983,
 Carnegie Mellon University). Gaussian is a federally registered
 trademark of Gaussian, Inc.
  
 This software contains proprietary and confidential information,
 including trade secrets, belonging to Gaussian, Inc.
  
 This software is provided under written license and may be
 used, copied, transmitted, or stored only in accord with that
 written license.
  
 The following legend is applicable only to US Government
 contracts under FAR:
  
                    RESTRICTED RIGHTS LEGEND
  
 Use, reproduction and disclosure by the US Government is
 subject to restrictions as set forth in subparagraphs (a)
 and (c) of the Commercial Computer Software - Restricted
 Rights clause in FAR 52.227-19.
  
 Gaussian, Inc.
 340 Quinnipiac St., Bldg. 40, Wallingford CT 06492
  
  
 ---------------------------------------------------------------
 Warning -- This program may not be used in any manner that
 competes with the business of Gaussian, Inc. or will provide
 assistance to any competitor of Gaussian, Inc.  The licensee
 of this program is prohibited from giving any competitor of
 Gaussian, Inc. access to this program.  By using this program,
 the user acknowledges that Gaussian, Inc. is engaged in the
 business of creating and licensing software in the field of
 computational chemistry and represents and warrants to the
 licensee that it is not a competitor of Gaussian, Inc. and that
 it will not use this program in any manner prohibited above.
 ---------------------------------------------------------------
  

 Cite this work as:
 Gaussian 16, Revision C.01,
 M. J. Frisch, G. W. Trucks, H. B. Schlegel, G. E. Scuseria, 
 M. A. Robb, J. R. Cheeseman, G. Scalmani, V. Barone, 
 G. A. Petersson, H. Nakatsuji, X. Li, M. Caricato, A. V. Marenich, 
 J. Bloino, B. G. Janesko, R. Gomperts, B. Mennucci, H. P. Hratchian, 
 J. V. Ortiz, A. F. Izmaylov, J. L. Sonnenberg, D. Williams-Young, 
 F. Ding, F. Lipparini, F. Egidi, J. Goings, B. Peng, A. Petrone, 
 T. Henderson, D. Ranasinghe, V. G. Zakrzewski, J. Gao, N. Rega, 
 G. Zheng, W. Liang, M. Hada, M. Ehara, K. Toyota, R. Fukuda, 
 J. Hasegawa, M. Ishida, T. Nakajima, Y. Honda, O. Kitao, H. Nakai, 
 T. Vreven, K. Throssell, J. A. Montgomery, Jr., J. E. Peralta, 
 F. Ogliaro, M. J. Bearpark, J. J. Heyd, E. N. Brothers, K. N. Kudin, 
 V. N. Staroverov, T. A. Keith, R. Kobayashi, J. Normand, 
 K. Raghavachari, A. P. Rendell, J. C. Burant, S. S. Iyengar, 
 J. Tomasi, M. Cossi, J. M. Millam, M. Klene, C. Adamo, R. Cammi, 
 J. W. Ochterski, R. L. Martin, K. Morokuma, O. Farkas, 
 J. B. Foresman, and D. J. Fox, Gaussian, Inc., Wallingford CT, 2019.
 
 ******************************************
 Gaussian 16:  EM64L-G16RevC.01  3-Jul-2019
                22-Oct-2025 
 ******************************************
 %chk=g16_g16_C19_1.chk
 %nprocshared=8
 Will use up to    8 processors via shared memory.
 %mem=32GB
 -------------------------------------------
 #p wb97xd scrf=(smd,solvent=water) def2tzvp
 -------------------------------------------
 1/38=1,172=1/1;
 2/12=2,17=6,18=5,40=1/2;
 3/5=44,7=101,11=2,25=1,30=1,70=32201,72=1,74=-58/1,2,3;
 4//1;
 5/5=2,38=5,53=1/2;
 6/7=2,8=2,9=2,10=2,28=1/1;
 99/5=1,9=1/99;
 Leave Link    1 at Wed Oct 22 09:33:41 2025, MaxMem=  4294967296 cpu:               6.1 elap:               0.9
 (Enter /lrz/sys/applications/gaussian/g16.C.01/x86_64_legacy/exe/l101.exe)
 -------------
 g16_g16_C19_1
 -------------
 Symbolic Z-matrix:
 Charge =  0 Multiplicity = 1
 O                     3.86345   0.89796   0.07429 
 C                     3.35851  -0.20297   0.05064 
 C                     1.89489  -0.43743   0.02159 
 C                     1.39343  -1.74117  -0.00006 
 C                     0.02245  -1.96974  -0.0306 
 C                    -0.86591  -0.89546  -0.02056 
 Cl                   -2.55894  -1.23791  -0.10701 
 C                    -0.3536    0.41211   0.00596 
 N                    -1.22208   1.59315   0.03153 
 O                    -2.22554   1.55359   0.70785 
 O                    -0.86433   2.5575   -0.61251 
 C                     1.01354   0.64351   0.01225 
 H                     3.9828   -1.12369   0.04969 
 H                     2.08198  -2.58939   0.00072 
 H                    -0.3708   -2.98591  -0.06714 
 H                     1.39407   1.6659    0.02271 
 
 ITRead=  0  0  0  0  0  0  0  0  0  0  0  0  0  0  0  0
 MicOpt= -1 -1 -1 -1 -1 -1 -1 -1 -1 -1 -1 -1 -1 -1 -1 -1
 NAtoms=     16 NQM=       16 NQMF=       0 NMMI=      0 NMMIF=      0
                NMic=       0 NMicF=      0.
                    Isotopes and Nuclear Properties:
 (Nuclear quadrupole moments (NQMom) in fm**2, nuclear magnetic moments (NMagM)
  in nuclear magnetons)

  Atom         1           2           3           4           5           6           7           8           9          10
 IAtWgt=          16          12          12          12          12          12          35          12          14          16
 AtmWgt=  15.9949146  12.0000000  12.0000000  12.0000000  12.0000000  12.0000000  34.9688527  12.0000000  14.0030740  15.9949146
 NucSpn=           0           0           0           0           0           0           3           0           2           0
 AtZEff=  -0.0000000  -0.0000000  -0.0000000  -0.0000000  -0.0000000  -0.0000000  -0.0000000  -0.0000000  -0.0000000  -0.0000000
 NQMom=    0.0000000   0.0000000   0.0000000   0.0000000   0.0000000   0.0000000  -8.1650000   0.0000000   2.0440000   0.0000000
 NMagM=    0.0000000   0.0000000   0.0000000   0.0000000   0.0000000   0.0000000   0.8218740   0.0000000   0.4037610   0.0000000
 AtZNuc=   8.0000000   6.0000000   6.0000000   6.0000000   6.0000000   6.0000000  17.0000000   6.0000000   7.0000000   8.0000000

  Atom        11          12          13          14          15          16
 IAtWgt=          16          12           1           1           1           1
 AtmWgt=  15.9949146  12.0000000   1.0078250   1.0078250   1.0078250   1.0078250
 NucSpn=           0           0           1           1           1           1
 AtZEff=  -0.0000000  -0.0000000  -0.0000000  -0.0000000  -0.0000000  -0.0000000
 NQMom=    0.0000000   0.0000000   0.0000000   0.0000000   0.0000000   0.0000000
 NMagM=    0.0000000   0.0000000   2.7928460   2.7928460   2.7928460   2.7928460
 AtZNuc=   8.0000000   6.0000000   1.0000000   1.0000000   1.0000000   1.0000000
 Leave Link  101 at Wed Oct 22 09:33:41 2025, MaxMem=  4294967296 cpu:               0.8 elap:               0.1
 (Enter /lrz/sys/applications/gaussian/g16.C.01/x86_64_legacy/exe/l202.exe)
                          Input orientation:                          
 ---------------------------------------------------------------------
 Center     Atomic      Atomic             Coordinates (Angstroms)
 Number     Number       Type             X           Y           Z
 ---------------------------------------------------------------------
      1          8           0        3.863445    0.897956    0.074291
      2          6           0        3.358505   -0.202970    0.050642
      3          6           0        1.894887   -0.437431    0.021592
      4          6           0        1.393425   -1.741173   -0.000055
      5          6           0        0.022451   -1.969741   -0.030603
      6          6           0       -0.865912   -0.895462   -0.020562
      7         17           0       -2.558936   -1.237907   -0.107006
      8          6           0       -0.353601    0.412113    0.005958
      9          7           0       -1.222077    1.593153    0.031530
     10          8           0       -2.225539    1.553591    0.707846
     11          8           0       -0.864330    2.557500   -0.612505
     12          6           0        1.013544    0.643509    0.012252
     13          1           0        3.982800   -1.123689    0.049687
     14          1           0        2.081985   -2.589391    0.000723
     15          1           0       -0.370802   -2.985912   -0.067143
     16          1           0        1.394065    1.665898    0.022713
 ---------------------------------------------------------------------
                    Distance matrix (angstroms):
                    1          2          3          4          5
     1  O    0.000000
     2  C    1.211430   0.000000
     3  C    2.379339   1.482563   0.000000
     4  C    3.615457   2.496032   1.397024   0.000000
     5  C    4.794572   3.775889   2.420065   1.390232   0.000000
     6  C    5.058870   4.281392   2.798853   2.412520   1.394046
     7  Cl   6.770654   6.009331   4.527012   3.985709   2.684209
     8  C    4.245491   3.762985   2.403678   2.772864   2.411634
     9  N    5.132997   4.920178   3.720058   4.237874   3.774510
    10  O    6.156864   5.890583   4.627421   4.945047   4.244129
    11  O    5.057433   5.088447   4.121282   4.893990   4.649828
    12  C    2.861910   2.493360   1.394734   2.414781   2.795206
    13  H    2.025315   1.112416   2.197981   2.662447   4.050508
    14  H    3.916708   2.706843   2.160179   1.092515   2.150960
    15  H    5.747459   4.654715   3.411155   2.160179   1.090223
    16  H    2.586548   2.711544   2.162132   3.407147   3.886134
                    6          7          8          9         10
     6  C    0.000000
     7  Cl   1.729471   0.000000
     8  C    1.404606   2.756597   0.000000
     9  N    2.514512   3.133893   1.466206   0.000000
    10  O    2.894309   2.927046   2.302123   1.210745   0.000000
    11  O    3.503333   4.187163   2.290420   1.213561   2.145705
    12  C    2.429375   4.039376   1.386603   2.429032   3.435660
    13  H    4.854589   6.544609   4.600541   5.871312   6.792972
    14  H    3.399992   4.834900   3.865376   5.330239   6.018229
    15  H    2.148787   2.800900   3.398855   4.658566   4.964650
    16  H    3.416128   4.906641   2.150952   2.617168   3.685587
                   11         12         13         14         15
    11  O    0.000000
    12  C    2.753197   0.000000
    13  H    6.122444   3.455557   0.000000
    14  H    5.962156   3.404900   2.400787   0.000000
    15  H    5.591995   3.885282   4.736599   2.485558   0.000000
    16  H    2.509742   1.090956   3.805795   4.310592   4.976160
                   16
    16  H    0.000000
 Stoichiometry    C7H4ClNO3
 Framework group  C1[X(C7H4ClNO3)]
 Deg. of freedom    42
 Full point group                 C1      NOp   1
 Largest Abelian subgroup         C1      NOp   1
 Largest concise Abelian subgroup C1      NOp   1
                         Standard orientation:                         
 ---------------------------------------------------------------------
 Center     Atomic      Atomic             Coordinates (Angstroms)
 Number     Number       Type             X           Y           Z
 ---------------------------------------------------------------------
      1          8           0        3.863445    0.897956    0.074291
      2          6           0        3.358505   -0.202970    0.050642
      3          6           0        1.894887   -0.437431    0.021592
      4          6           0        1.393425   -1.741173   -0.000055
      5          6           0        0.022451   -1.969741   -0.030603
      6          6           0       -0.865912   -0.895462   -0.020562
      7         17           0       -2.558936   -1.237907   -0.107006
      8          6           0       -0.353601    0.412113    0.005958
      9          7           0       -1.222077    1.593153    0.031530
     10          8           0       -2.225539    1.553591    0.707846
     11          8           0       -0.864330    2.557500   -0.612505
     12          6           0        1.013544    0.643509    0.012252
     13          1           0        3.982800   -1.123689    0.049687
     14          1           0        2.081985   -2.589391    0.000723
     15          1           0       -0.370802   -2.985912   -0.067143
     16          1           0        1.394065    1.665898    0.022713
 ---------------------------------------------------------------------
 Rotational constants (GHZ):           1.3239443           0.6008342           0.4233749
 Leave Link  202 at Wed Oct 22 09:33:41 2025, MaxMem=  4294967296 cpu:               0.1 elap:               0.0
 (Enter /lrz/sys/applications/gaussian/g16.C.01/x86_64_legacy/exe/l301.exe)
 Standard basis: def2TZVP (5D, 7F)
 Ernie: Thresh=  0.10000D-02 Tol=  0.10000D-05 Strict=F.
 There are   462 symmetry adapted cartesian basis functions of A   symmetry.
 There are   402 symmetry adapted basis functions of A   symmetry.
   402 basis functions,   662 primitive gaussians,   462 cartesian basis functions
    47 alpha electrons       47 beta electrons
       nuclear repulsion energy       745.0611673556 Hartrees.
 IExCor= 4639 DFT=T Ex+Corr=wB97XD ExCW=0 ScaHFX=  1.000000
 ScaDFX=  1.000000  1.000000  1.000000  1.000000 ScalE2=  1.000000  1.000000
 IRadAn=      5 IRanWt=     -1 IRanGd=            0 ICorTp=0 IEmpDi=121
 HFx  wShort=  0.000000 wLong=  0.200000 cFull=  0.222036 cShort=  0.000000 cLong=  0.777964
 DFx  wShort=  0.000000 wLong=  0.200000 cFull=  0.000000 cShort=  0.000000 cLong=  1.000000
 NAtoms=   16 NActive=   16 NUniq=   16 SFac= 1.00D+00 NAtFMM=   60 NAOKFM=F Big=F
 Integral buffers will be    131072 words long.
 Raffenetti 2 integral format.
 Two-electron integral symmetry is turned on.
 R6Disp:  Grimme-D2 Dispersion energy=       -0.0079515918 Hartrees.
 Nuclear repulsion after empirical dispersion term =      745.0532157638 Hartrees.
 ------------------------------------------------------------------------------
 Polarizable Continuum Model (PCM)
 =================================
 Model                : PCM.
 Atomic radii         : SMD-Coulomb.
 Polarization charges : Total charges.
 Charge compensation  : None.
 Solution method      : On-the-fly selection.
 Cavity type          : VdW (van der Waals Surface) (Alpha=1.000).
 Cavity algorithm     : GePol (No added spheres)
                        Default sphere list used, NSphG=   16.
                        Lebedev-Laikov grids with approx.  5.0 points / Ang**2.
                        Smoothing algorithm: York/Karplus (Gamma=1.0000).
                        Polarization charges: spherical gaussians, with
                                              point-specific exponents (IZeta= 3).
                        Self-potential: point-specific (ISelfS= 7).
                        Self-field    : sphere-specific E.n sum rule (ISelfD= 2).
 Solvent              : Water, Eps=  78.355300 Eps(inf)=   1.777849
 ------------------------------------------------------------------------------
 Spheres list:
 ISph  on   Nord     Re0    Alpha      Xe            Ye            Ze
    1   O      1    1.5200  1.000      3.863445      0.897956      0.074291
    2   C      2    1.8500  1.000      3.358505     -0.202970      0.050642
    3   C      3    1.8500  1.000      1.894887     -0.437431      0.021592
    4   C      4    1.8500  1.000      1.393425     -1.741173     -0.000055
    5   C      5    1.8500  1.000      0.022451     -1.969741     -0.030603
    6   C      6    1.8500  1.000     -0.865912     -0.895462     -0.020562
    7  Cl      7    2.3800  1.000     -2.558936     -1.237907     -0.107006
    8   C      8    1.8500  1.000     -0.353601      0.412113      0.005958
    9   N      9    1.8900  1.000     -1.222077      1.593153      0.031530
   10   O     10    1.5200  1.000     -2.225539      1.553591      0.707846
   11   O     11    1.5200  1.000     -0.864330      2.557500     -0.612505
   12   C     12    1.8500  1.000      1.013544      0.643509      0.012252
   13   H     13    1.2000  1.000      3.982800     -1.123689      0.049687
   14   H     14    1.2000  1.000      2.081985     -2.589391      0.000723
   15   H     15    1.2000  1.000     -0.370802     -2.985912     -0.067143
   16   H     16    1.2000  1.000      1.394065      1.665898      0.022713
 ------------------------------------------------------------------------------
 GePol: Number of generator spheres                  =      16
 GePol: Total number of spheres                      =      16
 GePol: Number of exposed spheres                    =      16 (100.00%)
 GePol: Number of points                             =    1510
 GePol: Average weight of points                     =       0.13
 GePol: Minimum weight of points                     =   0.95D-08
 GePol: Maximum weight of points                     =    0.21991
 GePol: Number of points with low weight             =      54
 GePol: Fraction of low-weight points (<1% of avg)   =       3.58%
 GePol: Cavity surface area                          =    190.287 Ang**2
 GePol: Cavity volume                                =    174.646 Ang**3
 ------------------------------------------------------------------------------
 Atomic radii for non-electrostatic terms: SMD-CDS.
 ------------------------------------------------------------------------------
 PCM non-electrostatic energy =         0.0116343748 Hartrees.
 Nuclear repulsion after PCM non-electrostatic terms =      745.0648501387 Hartrees.
 Leave Link  301 at Wed Oct 22 09:33:41 2025, MaxMem=  4294967296 cpu:               0.7 elap:               0.1
 (Enter /lrz/sys/applications/gaussian/g16.C.01/x86_64_legacy/exe/l302.exe)
 NPDir=0 NMtPBC=     1 NCelOv=     1 NCel=       1 NClECP=     1 NCelD=      1
         NCelK=      1 NCelE2=     1 NClLst=     1 CellRange=     0.0.
 One-electron integrals computed using PRISM.
 One-electron integral symmetry used in STVInt
   1 Symmetry operations used in ECPInt.
 ECPInt:  NShTT=   11325 NPrTT=   37146 LenC2=   10581 LenP2D=   25828.
 LDataN:  DoStor=T MaxTD1= 6 Len=  172
 NBasis=   402 RedAO= T EigKep=  8.39D-06  NBF=   402
 NBsUse=   402 1.00D-06 EigRej= -1.00D+00 NBFU=   402
 Precomputing XC quadrature grid using
 IXCGrd= 4 IRadAn=           5 IRanWt=          -1 IRanGd=           0 AccXCQ= 0.00D+00.
 Generated NRdTot=       0 NPtTot=           0 NUsed=           0 NTot=          32
 NSgBfM=   457   457   457   457   457 MxSgAt=    16 MxSgA2=    16.
 Leave Link  302 at Wed Oct 22 09:33:41 2025, MaxMem=  4294967296 cpu:               3.8 elap:               0.5
 (Enter /lrz/sys/applications/gaussian/g16.C.01/x86_64_legacy/exe/l303.exe)
 DipDrv:  MaxL=1.
 Leave Link  303 at Wed Oct 22 09:33:41 2025, MaxMem=  4294967296 cpu:               0.5 elap:               0.1
 (Enter /lrz/sys/applications/gaussian/g16.C.01/x86_64_legacy/exe/l401.exe)
 ExpMin= 9.52D-02 ExpMax= 6.95D+04 ExpMxC= 2.37D+03 IAcc=3 IRadAn=         5 AccDes= 0.00D+00
 Harris functional with IExCor= 4639 and IRadAn=       5 diagonalized for initial guess.
 HarFok:  IExCor= 4639 AccDes= 0.00D+00 IRadAn=         5 IDoV= 1 UseB2=F ITyADJ=14
 ICtDFT=  3500011 ScaDFX=  1.000000  1.000000  1.000000  1.000000
 FoFCou: FMM=F IPFlag=           0 FMFlag=      100000 FMFlg1=           0
         NFxFlg=           0 DoJE=T BraDBF=F KetDBF=T FulRan=T
         wScrn=  0.000000 ICntrl=       500 IOpCl=  0 I1Cent=   200000004 NGrid=           0
         NMat0=    1 NMatS0=      1 NMatT0=    0 NMatD0=    1 NMtDS0=    0 NMtDT0=    0
 Petite list used in FoFCou.
 Harris En= -980.520998027005    
 JPrj=0 DoOrth=F DoCkMO=F.
 Leave Link  401 at Wed Oct 22 09:33:45 2025, MaxMem=  4294967296 cpu:              27.7 elap:               3.5
 (Enter /lrz/sys/applications/gaussian/g16.C.01/x86_64_legacy/exe/l502.exe)
 Integral symmetry usage will be decided dynamically.
 Closed shell SCF:
 Using DIIS extrapolation, IDIIS=  1040.
 NGot=  4294967296 LenX=  4294532390 LenY=  4294318484
 Requested convergence on RMS density matrix=1.00D-08 within 128 cycles.
 Requested convergence on MAX density matrix=1.00D-06.
 Requested convergence on             energy=1.00D-06.
 No special actions if energy rises.
 Fock matrices will be formed incrementally for  20 cycles.

 Cycle   1  Pass 1  IDiag  1:
 FoFJK:  IHMeth= 1 ICntrl=       0 DoSepK=T KAlg= 0 I1Cent=           0 FoldK=F
 IRaf=         1 NMat=       1 IRICut=       1 DoRegI=T DoRafI=F ISym2E= 0 IDoP0=0 IntGTp=1.
 FoFCou: FMM=F IPFlag=           0 FMFlag=      100000 FMFlg1=           0
         NFxFlg=           0 DoJE=T BraDBF=F KetDBF=F FulRan=T
         wScrn=  0.000000 ICntrl=       500 IOpCl=  0 I1Cent=           0 NGrid=           0
         NMat0=    1 NMatS0=      1 NMatT0=    0 NMatD0=    1 NMtDS0=    0 NMtDT0=    0
 Symmetry not used in FoFCou.
 Inv3:  Mode=1 IEnd=     6840300.
 Iteration    1 A*A^-1 deviation from unit magnitude is 6.66D-15 for    355.
 Iteration    1 A*A^-1 deviation from orthogonality  is 3.77D-15 for    999    422.
 Iteration    1 A^-1*A deviation from unit magnitude is 7.11D-15 for    355.
 Iteration    1 A^-1*A deviation from orthogonality  is 3.72D-15 for   1159    193.
 E= -1009.25216259562    
 DIIS: error= 6.35D-02 at cycle   1 NSaved=   1.
 NSaved= 1 IEnMin= 1 EnMin= -1009.25216259562     IErMin= 1 ErrMin= 6.35D-02
 ErrMax= 6.35D-02  0.00D+00 EMaxC= 1.00D-01 BMatC= 1.95D+00 BMatP= 1.95D+00
 IDIUse=3 WtCom= 3.65D-01 WtEn= 6.35D-01
 Coeff-Com:  0.100D+01
 Coeff-En:   0.100D+01
 Coeff:      0.100D+01
 Gap=     0.490 Goal=   None    Shift=    0.000
 GapD=    0.490 DampG=2.000 DampE=0.500 DampFc=1.0000 IDamp=-1.
 RMSDP=9.20D-03 MaxDP=6.11D-01              OVMax= 2.09D-01

 Cycle   2  Pass 1  IDiag  1:
 RMSU=  6.26D-03    CP:  5.65D-01
 E= -1009.42061930842     Delta-E=       -0.168456712795 Rises=F Damp=F
 DIIS: error= 2.17D-02 at cycle   2 NSaved=   2.
 NSaved= 2 IEnMin= 2 EnMin= -1009.42061930842     IErMin= 2 ErrMin= 2.17D-02
 ErrMax= 2.17D-02  0.00D+00 EMaxC= 1.00D-01 BMatC= 4.62D-01 BMatP= 1.95D+00
 IDIUse=3 WtCom= 7.83D-01 WtEn= 2.17D-01
 Coeff-Com:  0.294D+00 0.706D+00
 Coeff-En:   0.353D+00 0.647D+00
 Coeff:      0.307D+00 0.693D+00
 Gap=     0.396 Goal=   None    Shift=    0.000
 RMSDP=1.71D-03 MaxDP=1.58D-01 DE=-1.68D-01 OVMax= 1.34D-01

 Cycle   3  Pass 1  IDiag  1:
 RMSU=  1.53D-03    CP:  5.79D-01  8.81D-01
 E= -1009.64065051019     Delta-E=       -0.220031201771 Rises=F Damp=F
 DIIS: error= 1.07D-02 at cycle   3 NSaved=   3.
 NSaved= 3 IEnMin= 3 EnMin= -1009.64065051019     IErMin= 3 ErrMin= 1.07D-02
 ErrMax= 1.07D-02  0.00D+00 EMaxC= 1.00D-01 BMatC= 9.00D-02 BMatP= 4.62D-01
 IDIUse=3 WtCom= 8.93D-01 WtEn= 1.07D-01
 Coeff-Com:  0.659D-01 0.323D+00 0.611D+00
 Coeff-En:   0.000D+00 0.139D+00 0.861D+00
 Coeff:      0.588D-01 0.303D+00 0.638D+00
 Gap=     0.349 Goal=   None    Shift=    0.000
 RMSDP=7.26D-04 MaxDP=7.34D-02 DE=-2.20D-01 OVMax= 6.16D-02

 Cycle   4  Pass 1  IDiag  1:
 RMSU=  4.85D-04    CP:  5.56D-01  9.32D-01  8.29D-01
 E= -1009.69930816230     Delta-E=       -0.058657652113 Rises=F Damp=F
 DIIS: error= 3.53D-03 at cycle   4 NSaved=   4.
 NSaved= 4 IEnMin= 4 EnMin= -1009.69930816230     IErMin= 4 ErrMin= 3.53D-03
 ErrMax= 3.53D-03  0.00D+00 EMaxC= 1.00D-01 BMatC= 1.08D-02 BMatP= 9.00D-02
 IDIUse=3 WtCom= 9.65D-01 WtEn= 3.53D-02
 Coeff-Com:  0.871D-02 0.980D-01 0.324D+00 0.569D+00
 Coeff-En:   0.000D+00 0.000D+00 0.000D+00 0.100D+01
 Coeff:      0.840D-02 0.946D-01 0.313D+00 0.584D+00
 Gap=     0.310 Goal=   None    Shift=    0.000
 RMSDP=2.38D-04 MaxDP=1.05D-02 DE=-5.87D-02 OVMax= 1.47D-02

 Cycle   5  Pass 1  IDiag  1:
 RMSU=  1.52D-04    CP:  5.51D-01  9.47D-01  8.38D-01  7.27D-01
 E= -1009.70587171596     Delta-E=       -0.006563553661 Rises=F Damp=F
 DIIS: error= 5.53D-04 at cycle   5 NSaved=   5.
 NSaved= 5 IEnMin= 5 EnMin= -1009.70587171596     IErMin= 5 ErrMin= 5.53D-04
 ErrMax= 5.53D-04  0.00D+00 EMaxC= 1.00D-01 BMatC= 2.54D-04 BMatP= 1.08D-02
 IDIUse=3 WtCom= 9.94D-01 WtEn= 5.53D-03
 Coeff-Com: -0.881D-03 0.952D-02 0.632D-01 0.197D+00 0.731D+00
 Coeff-En:   0.000D+00 0.000D+00 0.000D+00 0.000D+00 0.100D+01
 Coeff:     -0.876D-03 0.946D-02 0.628D-01 0.196D+00 0.732D+00
 Gap=     0.313 Goal=   None    Shift=    0.000
 RMSDP=7.91D-05 MaxDP=8.15D-03 DE=-6.56D-03 OVMax= 4.96D-03

 Cycle   6  Pass 1  IDiag  1:
 RMSU=  5.10D-05    CP:  5.49D-01  9.51D-01  8.35D-01  7.98D-01  1.19D+00
 E= -1009.70611754030     Delta-E=       -0.000245824335 Rises=F Damp=F
 DIIS: error= 1.40D-04 at cycle   6 NSaved=   6.
 NSaved= 6 IEnMin= 6 EnMin= -1009.70611754030     IErMin= 6 ErrMin= 1.40D-04
 ErrMax= 1.40D-04  0.00D+00 EMaxC= 1.00D-01 BMatC= 2.40D-05 BMatP= 2.54D-04
 IDIUse=3 WtCom= 9.99D-01 WtEn= 1.40D-03
 Coeff-Com: -0.984D-03-0.813D-02-0.164D-01-0.489D-02 0.234D+00 0.796D+00
 Coeff-En:   0.000D+00 0.000D+00 0.000D+00 0.000D+00 0.000D+00 0.100D+01
 Coeff:     -0.983D-03-0.811D-02-0.163D-01-0.488D-02 0.234D+00 0.796D+00
 Gap=     0.314 Goal=   None    Shift=    0.000
 RMSDP=3.53D-05 MaxDP=3.18D-03 DE=-2.46D-04 OVMax= 2.21D-03

 Cycle   7  Pass 1  IDiag  1:
 RMSU=  1.45D-05    CP:  5.48D-01  9.53D-01  8.34D-01  8.18D-01  1.34D+00
                    CP:  1.17D+00
 E= -1009.70615008813     Delta-E=       -0.000032547835 Rises=F Damp=F
 DIIS: error= 9.84D-05 at cycle   7 NSaved=   7.
 NSaved= 7 IEnMin= 7 EnMin= -1009.70615008813     IErMin= 7 ErrMin= 9.84D-05
 ErrMax= 9.84D-05  0.00D+00 EMaxC= 1.00D-01 BMatC= 8.08D-06 BMatP= 2.40D-05
 IDIUse=1 WtCom= 1.00D+00 WtEn= 0.00D+00
 Coeff-Com: -0.466D-03-0.600D-02-0.180D-01-0.292D-01 0.398D-01 0.445D+00
 Coeff-Com:  0.568D+00
 Coeff:     -0.466D-03-0.600D-02-0.180D-01-0.292D-01 0.398D-01 0.445D+00
 Coeff:      0.568D+00
 Gap=     0.314 Goal=   None    Shift=    0.000
 RMSDP=1.33D-05 MaxDP=1.06D-03 DE=-3.25D-05 OVMax= 1.10D-03

 Cycle   8  Pass 1  IDiag  1:
 RMSU=  6.08D-06    CP:  5.48D-01  9.53D-01  8.33D-01  8.27D-01  1.40D+00
                    CP:  1.29D+00  1.10D+00
 E= -1009.70615882454     Delta-E=       -0.000008736411 Rises=F Damp=F
 DIIS: error= 3.29D-05 at cycle   8 NSaved=   8.
 NSaved= 8 IEnMin= 8 EnMin= -1009.70615882454     IErMin= 8 ErrMin= 3.29D-05
 ErrMax= 3.29D-05  0.00D+00 EMaxC= 1.00D-01 BMatC= 7.23D-07 BMatP= 8.08D-06
 IDIUse=1 WtCom= 1.00D+00 WtEn= 0.00D+00
 Coeff-Com:  0.759D-04 0.180D-03-0.156D-02-0.813D-02-0.478D-01-0.626D-01
 Coeff-Com:  0.189D+00 0.931D+00
 Coeff:      0.759D-04 0.180D-03-0.156D-02-0.813D-02-0.478D-01-0.626D-01
 Coeff:      0.189D+00 0.931D+00
 Gap=     0.314 Goal=   None    Shift=    0.000
 RMSDP=9.70D-06 MaxDP=5.29D-04 DE=-8.74D-06 OVMax= 1.02D-03

 Cycle   9  Pass 1  IDiag  1:
 RMSU=  2.28D-06    CP:  5.48D-01  9.53D-01  8.30D-01  8.30D-01  1.43D+00
                    CP:  1.39D+00  1.42D+00  1.25D+00
 E= -1009.70616085229     Delta-E=       -0.000002027753 Rises=F Damp=F
 DIIS: error= 1.18D-05 at cycle   9 NSaved=   9.
 NSaved= 9 IEnMin= 9 EnMin= -1009.70616085229     IErMin= 9 ErrMin= 1.18D-05
 ErrMax= 1.18D-05  0.00D+00 EMaxC= 1.00D-01 BMatC= 9.94D-08 BMatP= 7.23D-07
 IDIUse=1 WtCom= 1.00D+00 WtEn= 0.00D+00
 Coeff-Com:  0.724D-04 0.737D-03 0.157D-02 0.717D-03-0.201D-01-0.747D-01
 Coeff-Com: -0.669D-02 0.325D+00 0.773D+00
 Coeff:      0.724D-04 0.737D-03 0.157D-02 0.717D-03-0.201D-01-0.747D-01
 Coeff:     -0.669D-02 0.325D+00 0.773D+00
 Gap=     0.314 Goal=   None    Shift=    0.000
 RMSDP=3.06D-06 MaxDP=1.35D-04 DE=-2.03D-06 OVMax= 2.57D-04

 Cycle  10  Pass 1  IDiag  1:
 RMSU=  9.88D-07    CP:  5.48D-01  9.53D-01  8.30D-01  8.30D-01  1.43D+00
                    CP:  1.42D+00  1.51D+00  1.40D+00  1.19D+00
 E= -1009.70616108885     Delta-E=       -0.000000236559 Rises=F Damp=F
 DIIS: error= 6.01D-06 at cycle  10 NSaved=  10.
 NSaved=10 IEnMin=10 EnMin= -1009.70616108885     IErMin=10 ErrMin= 6.01D-06
 ErrMax= 6.01D-06  0.00D+00 EMaxC= 1.00D-01 BMatC= 2.11D-08 BMatP= 9.94D-08
 IDIUse=1 WtCom= 1.00D+00 WtEn= 0.00D+00
 Coeff-Com:  0.130D-04 0.247D-03 0.880D-03 0.179D-02 0.126D-02-0.172D-01
 Coeff-Com: -0.380D-01-0.312D-01 0.302D+00 0.780D+00
 Coeff:      0.130D-04 0.247D-03 0.880D-03 0.179D-02 0.126D-02-0.172D-01
 Coeff:     -0.380D-01-0.312D-01 0.302D+00 0.780D+00
 Gap=     0.314 Goal=   None    Shift=    0.000
 RMSDP=1.25D-06 MaxDP=6.30D-05 DE=-2.37D-07 OVMax= 1.25D-04

 Cycle  11  Pass 1  IDiag  1:
 RMSU=  4.88D-07    CP:  5.48D-01  9.53D-01  8.29D-01  8.30D-01  1.43D+00
                    CP:  1.43D+00  1.55D+00  1.44D+00  1.36D+00  1.40D+00
 E= -1009.70616113826     Delta-E=       -0.000000049405 Rises=F Damp=F
 DIIS: error= 2.78D-06 at cycle  11 NSaved=  11.
 NSaved=11 IEnMin=11 EnMin= -1009.70616113826     IErMin=11 ErrMin= 2.78D-06
 ErrMax= 2.78D-06  0.00D+00 EMaxC= 1.00D-01 BMatC= 4.48D-09 BMatP= 2.11D-08
 IDIUse=1 WtCom= 1.00D+00 WtEn= 0.00D+00
 Coeff-Com: -0.882D-05-0.754D-04-0.508D-04 0.507D-03 0.535D-02 0.113D-01
 Coeff-Com: -0.144D-01-0.868D-01-0.533D-01 0.318D+00 0.820D+00
 Coeff:     -0.882D-05-0.754D-04-0.508D-04 0.507D-03 0.535D-02 0.113D-01
 Coeff:     -0.144D-01-0.868D-01-0.533D-01 0.318D+00 0.820D+00
 Gap=     0.314 Goal=   None    Shift=    0.000
 RMSDP=5.60D-07 MaxDP=3.52D-05 DE=-4.94D-08 OVMax= 6.71D-05

 Cycle  12  Pass 1  IDiag  1:
 RMSU=  2.07D-07    CP:  5.48D-01  9.53D-01  8.29D-01  8.30D-01  1.43D+00
                    CP:  1.43D+00  1.56D+00  1.46D+00  1.45D+00  1.60D+00
                    CP:  1.15D+00
 E= -1009.70616115058     Delta-E=       -0.000000012321 Rises=F Damp=F
 DIIS: error= 1.01D-06 at cycle  12 NSaved=  12.
 NSaved=12 IEnMin=12 EnMin= -1009.70616115058     IErMin=12 ErrMin= 1.01D-06
 ErrMax= 1.01D-06  0.00D+00 EMaxC= 1.00D-01 BMatC= 6.22D-10 BMatP= 4.48D-09
 IDIUse=1 WtCom= 1.00D+00 WtEn= 0.00D+00
 Coeff-Com: -0.489D-05-0.590D-04-0.160D-03-0.148D-03 0.130D-02 0.625D-02
 Coeff-Com:  0.184D-02-0.217D-01-0.690D-01-0.469D-01 0.238D+00 0.891D+00
 Coeff:     -0.489D-05-0.590D-04-0.160D-03-0.148D-03 0.130D-02 0.625D-02
 Coeff:      0.184D-02-0.217D-01-0.690D-01-0.469D-01 0.238D+00 0.891D+00
 Gap=     0.314 Goal=   None    Shift=    0.000
 RMSDP=2.12D-07 MaxDP=1.57D-05 DE=-1.23D-08 OVMax= 3.44D-05

 Cycle  13  Pass 1  IDiag  1:
 RMSU=  9.69D-08    CP:  5.48D-01  9.53D-01  8.29D-01  8.30D-01  1.43D+00
                    CP:  1.43D+00  1.56D+00  1.46D+00  1.47D+00  1.72D+00
                    CP:  1.37D+00  1.16D+00
 E= -1009.70616115266     Delta-E=       -0.000000002085 Rises=F Damp=F
 DIIS: error= 3.77D-07 at cycle  13 NSaved=  13.
 NSaved=13 IEnMin=13 EnMin= -1009.70616115266     IErMin=13 ErrMin= 3.77D-07
 ErrMax= 3.77D-07  0.00D+00 EMaxC= 1.00D-01 BMatC= 9.63D-11 BMatP= 6.22D-10
 IDIUse=1 WtCom= 1.00D+00 WtEn= 0.00D+00
 Coeff-Com: -0.809D-06-0.119D-04-0.564D-04-0.135D-03-0.422D-03 0.361D-03
 Coeff-Com:  0.316D-02 0.702D-02-0.123D-01-0.635D-01-0.516D-01 0.284D+00
 Coeff-Com:  0.833D+00
 Coeff:     -0.809D-06-0.119D-04-0.564D-04-0.135D-03-0.422D-03 0.361D-03
 Coeff:      0.316D-02 0.702D-02-0.123D-01-0.635D-01-0.516D-01 0.284D+00
 Coeff:      0.833D+00
 Gap=     0.314 Goal=   None    Shift=    0.000
 RMSDP=1.11D-07 MaxDP=5.98D-06 DE=-2.08D-09 OVMax= 9.93D-06

 Cycle  14  Pass 1  IDiag  1:
 RMSU=  3.12D-08    CP:  5.48D-01  9.53D-01  8.29D-01  8.30D-01  1.43D+00
                    CP:  1.43D+00  1.56D+00  1.45D+00  1.47D+00  1.73D+00
                    CP:  1.42D+00  1.29D+00  1.37D+00
 E= -1009.70616115292     Delta-E=       -0.000000000252 Rises=F Damp=F
 DIIS: error= 1.38D-07 at cycle  14 NSaved=  14.
 NSaved=14 IEnMin=14 EnMin= -1009.70616115292     IErMin=14 ErrMin= 1.38D-07
 ErrMax= 1.38D-07  0.00D+00 EMaxC= 1.00D-01 BMatC= 1.09D-11 BMatP= 9.63D-11
 IDIUse=1 WtCom= 1.00D+00 WtEn= 0.00D+00
 Coeff-Com:  0.342D-06 0.439D-05 0.659D-05-0.124D-04-0.282D-03-0.767D-03
 Coeff-Com:  0.544D-03 0.449D-02 0.600D-02-0.115D-01-0.484D-01-0.451D-01
 Coeff-Com:  0.221D+00 0.874D+00
 Coeff:      0.342D-06 0.439D-05 0.659D-05-0.124D-04-0.282D-03-0.767D-03
 Coeff:      0.544D-03 0.449D-02 0.600D-02-0.115D-01-0.484D-01-0.451D-01
 Coeff:      0.221D+00 0.874D+00
 Gap=     0.314 Goal=   None    Shift=    0.000
 RMSDP=4.86D-08 MaxDP=3.26D-06 DE=-2.52D-10 OVMax= 4.25D-06

 Cycle  15  Pass 1  IDiag  1:
 RMSU=  1.15D-08    CP:  5.48D-01  9.53D-01  8.29D-01  8.30D-01  1.43D+00
                    CP:  1.43D+00  1.56D+00  1.45D+00  1.47D+00  1.73D+00
                    CP:  1.43D+00  1.33D+00  1.59D+00  1.29D+00
 E= -1009.70616115298     Delta-E=       -0.000000000064 Rises=F Damp=F
 DIIS: error= 4.74D-08 at cycle  15 NSaved=  15.
 NSaved=15 IEnMin=15 EnMin= -1009.70616115298     IErMin=15 ErrMin= 4.74D-08
 ErrMax= 4.74D-08  0.00D+00 EMaxC= 1.00D-01 BMatC= 1.93D-12 BMatP= 1.09D-11
 IDIUse=1 WtCom= 1.00D+00 WtEn= 0.00D+00
 Coeff-Com:  0.158D-06 0.203D-05 0.678D-05 0.886D-05-0.232D-04-0.214D-03
 Coeff-Com: -0.179D-03 0.360D-03 0.288D-02 0.406D-02-0.704D-02-0.409D-01
 Coeff-Com: -0.562D-01 0.225D+00 0.872D+00
 Coeff:      0.158D-06 0.203D-05 0.678D-05 0.886D-05-0.232D-04-0.214D-03
 Coeff:     -0.179D-03 0.360D-03 0.288D-02 0.406D-02-0.704D-02-0.409D-01
 Coeff:     -0.562D-01 0.225D+00 0.872D+00
 Gap=     0.314 Goal=   None    Shift=    0.000
 RMSDP=1.70D-08 MaxDP=1.06D-06 DE=-6.39D-11 OVMax= 1.54D-06

 Cycle  16  Pass 1  IDiag  1:
 RMSU=  4.95D-09    CP:  5.48D-01  9.53D-01  8.29D-01  8.30D-01  1.43D+00
                    CP:  1.43D+00  1.56D+00  1.45D+00  1.47D+00  1.73D+00
                    CP:  1.43D+00  1.34D+00  1.65D+00  1.47D+00  1.30D+00
 E= -1009.70616115303     Delta-E=       -0.000000000052 Rises=F Damp=F
 DIIS: error= 2.64D-08 at cycle  16 NSaved=  16.
 NSaved=16 IEnMin=16 EnMin= -1009.70616115303     IErMin=16 ErrMin= 2.64D-08
 ErrMax= 2.64D-08  0.00D+00 EMaxC= 1.00D-01 BMatC= 4.08D-13 BMatP= 1.93D-12
 IDIUse=1 WtCom= 1.00D+00 WtEn= 0.00D+00
 Coeff-Com:  0.145D-08-0.331D-07 0.140D-05 0.555D-05 0.497D-04 0.851D-04
 Coeff-Com: -0.172D-03-0.879D-03-0.245D-03 0.389D-02 0.750D-02-0.288D-02
 Coeff-Com: -0.681D-01-0.848D-01 0.320D+00 0.826D+00
 Coeff:      0.145D-08-0.331D-07 0.140D-05 0.555D-05 0.497D-04 0.851D-04
 Coeff:     -0.172D-03-0.879D-03-0.245D-03 0.389D-02 0.750D-02-0.288D-02
 Coeff:     -0.681D-01-0.848D-01 0.320D+00 0.826D+00
 Gap=     0.314 Goal=   None    Shift=    0.000
 RMSDP=5.66D-09 MaxDP=2.98D-07 DE=-5.23D-11 OVMax= 8.58D-07

 Error on total polarization charges =  0.03695
 SCF Done:  E(RwB97XD) =  -1009.70616115     A.U. after   16 cycles
            NFock= 16  Conv=0.57D-08     -V/T= 2.0031
 KE= 1.006586342001D+03 PE=-3.868934793965D+03 EE= 1.107577440673D+03
 SMD-CDS (non-electrostatic) energy       (kcal/mol) =       7.30
 (included in total energy above)
 Leave Link  502 at Wed Oct 22 09:40:17 2025, MaxMem=  4294967296 cpu:            3129.9 elap:             391.7
 (Enter /lrz/sys/applications/gaussian/g16.C.01/x86_64_legacy/exe/l601.exe)
 Copying SCF densities to generalized density rwf, IOpCl= 0 IROHF=0.

 **********************************************************************

            Population analysis using the SCF Density.

 **********************************************************************

 Orbital symmetries:
       Occupied  (A) (A) (A) (A) (A) (A) (A) (A) (A) (A) (A) (A)
                 (A) (A) (A) (A) (A) (A) (A) (A) (A) (A) (A) (A)
                 (A) (A) (A) (A) (A) (A) (A) (A) (A) (A) (A) (A)
                 (A) (A) (A) (A) (A) (A) (A) (A) (A) (A) (A)
       Virtual   (A) (A) (A) (A) (A) (A) (A) (A) (A) (A) (A) (A)
                 (A) (A) (A) (A) (A) (A) (A) (A) (A) (A) (A) (A)
                 (A) (A) (A) (A) (A) (A) (A) (A) (A) (A) (A) (A)
                 (A) (A) (A) (A) (A) (A) (A) (A) (A) (A) (A) (A)
                 (A) (A) (A) (A) (A) (A) (A) (A) (A) (A) (A) (A)
                 (A) (A) (A) (A) (A) (A) (A) (A) (A) (A) (A) (A)
                 (A) (A) (A) (A) (A) (A) (A) (A) (A) (A) (A) (A)
                 (A) (A) (A) (A) (A) (A) (A) (A) (A) (A) (A) (A)
                 (A) (A) (A) (A) (A) (A) (A) (A) (A) (A) (A) (A)
                 (A) (A) (A) (A) (A) (A) (A) (A) (A) (A) (A) (A)
                 (A) (A) (A) (A) (A) (A) (A) (A) (A) (A) (A) (A)
                 (A) (A) (A) (A) (A) (A) (A) (A) (A) (A) (A) (A)
                 (A) (A) (A) (A) (A) (A) (A) (A) (A) (A) (A) (A)
                 (A) (A) (A) (A) (A) (A) (A) (A) (A) (A) (A) (A)
                 (A) (A) (A) (A) (A) (A) (A) (A) (A) (A) (A) (A)
                 (A) (A) (A) (A) (A) (A) (A) (A) (A) (A) (A) (A)
                 (A) (A) (A) (A) (A) (A) (A) (A) (A) (A) (A) (A)
                 (A) (A) (A) (A) (A) (A) (A) (A) (A) (A) (A) (A)
                 (A) (A) (A) (A) (A) (A) (A) (A) (A) (A) (A) (A)
                 (A) (A) (A) (A) (A) (A) (A) (A) (A) (A) (A) (A)
                 (A) (A) (A) (A) (A) (A) (A) (A) (A) (A) (A) (A)
                 (A) (A) (A) (A) (A) (A) (A) (A) (A) (A) (A) (A)
                 (A) (A) (A) (A) (A) (A) (A) (A) (A) (A) (A) (A)
                 (A) (A) (A) (A) (A) (A) (A) (A) (A) (A) (A) (A)
                 (A) (A) (A) (A) (A) (A) (A) (A) (A) (A) (A) (A)
                 (A) (A) (A) (A) (A) (A) (A) (A) (A) (A) (A) (A)
                 (A) (A) (A) (A) (A) (A) (A) (A) (A) (A) (A) (A)
                 (A) (A) (A) (A) (A) (A) (A) (A) (A) (A) (A) (A)
                 (A) (A) (A) (A) (A) (A) (A) (A) (A) (A) (A) (A)
                 (A) (A) (A) (A) (A) (A) (A)
 The electronic state is 1-A.
 Alpha  occ. eigenvalues -- -101.72037 -19.30691 -19.30554 -19.26417 -14.70224
 Alpha  occ. eigenvalues --  -10.39310 -10.39108 -10.37474 -10.33305 -10.32628
 Alpha  occ. eigenvalues --  -10.32283 -10.32126  -9.60573  -7.35254  -7.34361
 Alpha  occ. eigenvalues --   -7.34285  -1.37010  -1.19007  -1.16800  -1.03081
 Alpha  occ. eigenvalues --   -0.97136  -0.93005  -0.87458  -0.81781  -0.76229
 Alpha  occ. eigenvalues --   -0.72268  -0.69474  -0.66455  -0.65001  -0.63411
 Alpha  occ. eigenvalues --   -0.60830  -0.59621  -0.56364  -0.54626  -0.54397
 Alpha  occ. eigenvalues --   -0.52655  -0.50024  -0.49378  -0.47402  -0.44263
 Alpha  occ. eigenvalues --   -0.43824  -0.42329  -0.41945  -0.40130  -0.36705
 Alpha  occ. eigenvalues --   -0.36470  -0.34886
 Alpha virt. eigenvalues --   -0.03529  -0.01783   0.04102   0.08273   0.08946
 Alpha virt. eigenvalues --    0.15104   0.15740   0.16952   0.17150   0.19498
 Alpha virt. eigenvalues --    0.19693   0.21695   0.23113   0.25014   0.25786
 Alpha virt. eigenvalues --    0.26362   0.26982   0.28613   0.29932   0.31015
 Alpha virt. eigenvalues --    0.31276   0.32349   0.32849   0.33519   0.34832
 Alpha virt. eigenvalues --    0.36068   0.37189   0.37925   0.38956   0.39073
 Alpha virt. eigenvalues --    0.39846   0.40557   0.41646   0.42661   0.42906
 Alpha virt. eigenvalues --    0.44072   0.45065   0.46172   0.46626   0.47597
 Alpha virt. eigenvalues --    0.48426   0.48869   0.49741   0.50589   0.52050
 Alpha virt. eigenvalues --    0.52700   0.54493   0.55312   0.55643   0.56536
 Alpha virt. eigenvalues --    0.57200   0.58474   0.58662   0.59903   0.62419
 Alpha virt. eigenvalues --    0.63076   0.63971   0.64462   0.64935   0.65946
 Alpha virt. eigenvalues --    0.66620   0.68928   0.69862   0.70429   0.72292
 Alpha virt. eigenvalues --    0.72989   0.73575   0.75492   0.76436   0.77669
 Alpha virt. eigenvalues --    0.78785   0.80317   0.81246   0.81690   0.83771
 Alpha virt. eigenvalues --    0.85944   0.86173   0.89519   0.90381   0.91112
 Alpha virt. eigenvalues --    0.91241   0.93378   0.96208   0.97131   0.99356
 Alpha virt. eigenvalues --    1.00173   1.03369   1.05405   1.05733   1.07559
 Alpha virt. eigenvalues --    1.08307   1.11663   1.14070   1.16834   1.20069
 Alpha virt. eigenvalues --    1.20954   1.21937   1.22787   1.26789   1.27483
 Alpha virt. eigenvalues --    1.30636   1.31319   1.32524   1.33782   1.35009
 Alpha virt. eigenvalues --    1.37860   1.39705   1.41712   1.42376   1.44680
 Alpha virt. eigenvalues --    1.45856   1.46924   1.49561   1.51582   1.54112
 Alpha virt. eigenvalues --    1.55968   1.57213   1.57680   1.59143   1.60532
 Alpha virt. eigenvalues --    1.63071   1.64496   1.66019   1.67447   1.69617
 Alpha virt. eigenvalues --    1.70808   1.71195   1.72111   1.75387   1.76524
 Alpha virt. eigenvalues --    1.77758   1.78862   1.80897   1.82136   1.84273
 Alpha virt. eigenvalues --    1.87050   1.88822   1.89479   1.90537   1.92819
 Alpha virt. eigenvalues --    1.93414   1.94620   1.96796   1.97915   1.99965
 Alpha virt. eigenvalues --    2.01423   2.02540   2.04810   2.05493   2.06657
 Alpha virt. eigenvalues --    2.07528   2.09782   2.12105   2.12327   2.13461
 Alpha virt. eigenvalues --    2.16658   2.17610   2.18385   2.20910   2.22617
 Alpha virt. eigenvalues --    2.24475   2.24796   2.26752   2.27631   2.28656
 Alpha virt. eigenvalues --    2.29732   2.30887   2.32649   2.33202   2.35722
 Alpha virt. eigenvalues --    2.38267   2.38667   2.41012   2.42947   2.47159
 Alpha virt. eigenvalues --    2.48612   2.49267   2.53695   2.55813   2.59311
 Alpha virt. eigenvalues --    2.61743   2.63350   2.65814   2.66181   2.67712
 Alpha virt. eigenvalues --    2.69895   2.71653   2.72897   2.74997   2.76028
 Alpha virt. eigenvalues --    2.76832   2.78567   2.81057   2.81582   2.82555
 Alpha virt. eigenvalues --    2.83180   2.86940   2.88590   2.89567   2.91751
 Alpha virt. eigenvalues --    2.93630   2.94996   2.95516   2.96301   2.96828
 Alpha virt. eigenvalues --    2.99059   3.01509   3.03298   3.03871   3.05146
 Alpha virt. eigenvalues --    3.06493   3.08072   3.09854   3.12506   3.13442
 Alpha virt. eigenvalues --    3.15926   3.18921   3.19395   3.20466   3.21595
 Alpha virt. eigenvalues --    3.22313   3.22734   3.24120   3.25897   3.27984
 Alpha virt. eigenvalues --    3.29513   3.31664   3.32672   3.34658   3.35944
 Alpha virt. eigenvalues --    3.36716   3.39114   3.39949   3.41174   3.43348
 Alpha virt. eigenvalues --    3.45843   3.46292   3.47053   3.48802   3.50928
 Alpha virt. eigenvalues --    3.51995   3.53262   3.56002   3.58441   3.61129
 Alpha virt. eigenvalues --    3.61713   3.67270   3.69408   3.70275   3.73463
 Alpha virt. eigenvalues --    3.77889   3.81328   3.84348   3.85645   3.86681
 Alpha virt. eigenvalues --    3.89023   3.91544   3.93893   3.96635   4.03342
 Alpha virt. eigenvalues --    4.06031   4.11336   4.12761   4.14069   4.17567
 Alpha virt. eigenvalues --    4.21699   4.22603   4.23631   4.24166   4.25807
 Alpha virt. eigenvalues --    4.25930   4.29410   4.31343   4.33677   4.36533
 Alpha virt. eigenvalues --    4.39793   4.42791   4.49734   4.54588   4.57809
 Alpha virt. eigenvalues --    4.60910   4.63830   4.68076   4.73287   4.75412
 Alpha virt. eigenvalues --    4.76498   4.77542   4.81102   4.85136   4.86242
 Alpha virt. eigenvalues --    4.87830   4.95713   5.03890   5.09535   5.11805
 Alpha virt. eigenvalues --    5.14801   5.17210   5.19404   5.21992   5.23283
 Alpha virt. eigenvalues --    5.25156   5.26222   5.28267   5.33985   5.36649
 Alpha virt. eigenvalues --    5.39013   5.43799   5.48497   5.51680   5.60511
 Alpha virt. eigenvalues --    5.62357   5.63504   5.70724   5.76592   5.84203
 Alpha virt. eigenvalues --    5.88086   6.04985   6.15429   6.33615   6.40155
 Alpha virt. eigenvalues --    6.41100   6.43705   6.44672   6.46165   6.47953
 Alpha virt. eigenvalues --    6.54461   6.55935   6.56985   6.77591   6.85889
 Alpha virt. eigenvalues --    6.94069   6.96819   7.01713   7.06589   7.12652
 Alpha virt. eigenvalues --    7.17914   7.36015   7.39824   7.44945   7.49744
 Alpha virt. eigenvalues --   10.82147  10.92164  11.46183  22.19348  22.69067
 Alpha virt. eigenvalues --   22.81875  22.86720  22.99000  23.03748  23.33606
 Alpha virt. eigenvalues --   26.14173  32.67057  43.92103  44.09391  44.11759
          Condensed to atoms (all electrons):
               1          2          3          4          5          6
     1  O    7.984549   0.591604  -0.184004   0.004820  -0.001659   0.001248
     2  C    0.591604   4.630577   0.162578  -0.041519  -0.001990   0.004858
     3  C   -0.184004   0.162578   5.757736   0.347074   0.108287  -0.185829
     4  C    0.004820  -0.041519   0.347074   5.082405   0.325185   0.151349
     5  C   -0.001659  -0.001990   0.108287   0.325185   5.146593   0.237991
     6  C    0.001248   0.004858  -0.185829   0.151349   0.237991   5.229830
     7  Cl  -0.000000   0.000008  -0.002146   0.008795  -0.044939   0.365842
     8  C   -0.000272  -0.001202   0.120200  -0.160311   0.133414   0.094842
     9  N   -0.000026  -0.000297   0.004475  -0.000556   0.006397  -0.029621
    10  O   -0.000000  -0.000007  -0.001585   0.000092   0.002809   0.010357
    11  O   -0.000002  -0.000193  -0.004597   0.001166  -0.001541   0.009063
    12  C    0.047161  -0.002020  -0.017319   0.083061  -0.179112   0.172090
    13  H   -0.048057   0.469486  -0.152089  -0.000014  -0.002917   0.000974
    14  H    0.000000  -0.002147  -0.065495   0.442493  -0.050383   0.013872
    15  H   -0.000000  -0.000195   0.013311  -0.050619   0.454131  -0.081099
    16  H    0.022805  -0.005349  -0.068034   0.009634  -0.003646   0.012437
               7          8          9         10         11         12
     1  O   -0.000000  -0.000272  -0.000026  -0.000000  -0.000002   0.047161
     2  C    0.000008  -0.001202  -0.000297  -0.000007  -0.000193  -0.002020
     3  C   -0.002146   0.120200   0.004475  -0.001585  -0.004597  -0.017319
     4  C    0.008795  -0.160311  -0.000556   0.000092   0.001166   0.083061
     5  C   -0.044939   0.133414   0.006397   0.002809  -0.001541  -0.179112
     6  C    0.365842   0.094842  -0.029621   0.010357   0.009063   0.172090
     7  Cl  16.794393  -0.081939   0.000723  -0.018489   0.000187   0.011324
     8  C   -0.081939   5.376547   0.281983  -0.070264  -0.110028   0.222982
     9  N    0.000723   0.281983   5.535609   0.353423   0.362704  -0.028430
    10  O   -0.018489  -0.070264   0.353423   8.191005  -0.111099   0.002263
    11  O    0.000187  -0.110028   0.362704  -0.111099   8.186838   0.029793
    12  C    0.011324   0.222982  -0.028430   0.002263   0.029793   5.475896
    13  H   -0.000000  -0.001727   0.000002  -0.000000   0.000001   0.032150
    14  H   -0.000237  -0.005631   0.000010  -0.000001   0.000003   0.019244
    15  H    0.002937   0.023194  -0.000015   0.000043   0.000001  -0.006463
    16  H   -0.000038  -0.032682  -0.002970   0.000435   0.011378   0.425769
              13         14         15         16
     1  O   -0.048057   0.000000  -0.000000   0.022805
     2  C    0.469486  -0.002147  -0.000195  -0.005349
     3  C   -0.152089  -0.065495   0.013311  -0.068034
     4  C   -0.000014   0.442493  -0.050619   0.009634
     5  C   -0.002917  -0.050383   0.454131  -0.003646
     6  C    0.000974   0.013872  -0.081099   0.012437
     7  Cl  -0.000000  -0.000237   0.002937  -0.000038
     8  C   -0.001727  -0.005631   0.023194  -0.032682
     9  N    0.000002   0.000010  -0.000015  -0.002970
    10  O   -0.000000  -0.000001   0.000043   0.000435
    11  O    0.000001   0.000003   0.000001   0.011378
    12  C    0.032150   0.019244  -0.006463   0.425769
    13  H    0.550769   0.004871  -0.000032   0.001660
    14  H    0.004871   0.458926  -0.006004   0.000143
    15  H   -0.000032  -0.006004   0.459454  -0.000018
    16  H    0.001660   0.000143  -0.000018   0.430322
 Mulliken charges:
               1
     1  O   -0.418167
     2  C    0.195807
     3  C    0.167438
     4  C   -0.203056
     5  C   -0.128621
     6  C   -0.008205
     7  Cl  -0.036422
     8  C    0.210894
     9  N    0.516589
    10  O   -0.358983
    11  O   -0.373675
    12  C   -0.288389
    13  H    0.144924
    14  H    0.190336
    15  H    0.191375
    16  H    0.198155
 Sum of Mulliken charges =  -0.00000
 Mulliken charges with hydrogens summed into heavy atoms:
               1
     1  O   -0.418167
     2  C    0.340731
     3  C    0.167438
     4  C   -0.012721
     5  C    0.062754
     6  C   -0.008205
     7  Cl  -0.036422
     8  C    0.210894
     9  N    0.516589
    10  O   -0.358983
    11  O   -0.373675
    12  C   -0.090233
 Electronic spatial extent (au):  <R**2>=           2394.2171
 Charge=             -0.0000 electrons
 Dipole moment (field-independent basis, Debye):
    X=              2.1696    Y=             -7.6200    Z=             -0.0831  Tot=              7.9233
 Quadrupole moment (field-independent basis, Debye-Ang):
   XX=            -86.7954   YY=            -73.6071   ZZ=            -75.2842
   XY=             -7.5332   XZ=              1.7674   YZ=              1.2495
 Traceless Quadrupole moment (field-independent basis, Debye-Ang):
   XX=             -8.2332   YY=              4.9551   ZZ=              3.2780
   XY=             -7.5332   XZ=              1.7674   YZ=              1.2495
 Octapole moment (field-independent basis, Debye-Ang**2):
  XXX=            -45.0982  YYY=            -38.4814  ZZZ=              0.2022  XYY=             13.8480
  XXY=            -57.0319  XXZ=             -7.5710  XZZ=             -2.0180  YZZ=              4.7800
  YYZ=              4.8896  XYZ=              1.2223
 Hexadecapole moment (field-independent basis, Debye-Ang**3):
 XXXX=          -2185.7674 YYYY=           -912.9940 ZZZZ=           -104.6994 XXXY=           -157.6715
 XXXZ=              7.9729 YYYX=              6.9382 YYYZ=             16.6878 ZZZX=             -0.1385
 ZZZY=             -0.0994 XXYY=           -499.9540 XXZZ=           -345.8211 YYZZ=           -181.1094
 XXYZ=            -11.2583 YYXZ=             -0.2241 ZZXY=              3.3772
 N-N= 7.450648501387D+02 E-N=-3.868934792550D+03  KE= 1.006586342001D+03
 No NMR shielding tensors so no spin-rotation constants.
 Leave Link  601 at Wed Oct 22 09:40:17 2025, MaxMem=  4294967296 cpu:               2.0 elap:               0.3
 (Enter /lrz/sys/applications/gaussian/g16.C.01/x86_64_legacy/exe/l9999.exe)
 Unable to Open any file for archive entry.
 1\1\GINC-CM4R15C05S03\SP\RwB97XD\def2TZVP\C7H4Cl1N1O3\GO29TIZ2\22-Oct-
 2025\0\\#p wb97xd scrf=(smd,solvent=water) def2tzvp\\g16_g16_C19_1\\0,
 1\O,0,3.863445,0.897956,0.074291\C,0,3.358505,-0.20297,0.050642\C,0,1.
 894887,-0.437431,0.021592\C,0,1.393425,-1.741173,-0.000055\C,0,0.02245
 1,-1.969741,-0.030603\C,0,-0.865912,-0.895462,-0.020562\Cl,0,-2.558936
 ,-1.237907,-0.107006\C,0,-0.353601,0.412113,0.005958\N,0,-1.222077,1.5
 93153,0.03153\O,0,-2.225539,1.553591,0.707846\O,0,-0.86433,2.5575,-0.6
 12505\C,0,1.013544,0.643509,0.012252\H,0,3.9828,-1.123689,0.049687\H,0
 ,2.081985,-2.589391,0.000723\H,0,-0.370802,-2.985912,-0.067143\H,0,1.3
 94065,1.665898,0.022713\\Version=EM64L-G16RevC.01\State=1-A\HF=-1009.7
 061612\RMSD=5.663e-09\Dipole=0.8535993,-2.9979231,-0.0326833\Quadrupol
 e=-6.1211482,3.6840086,2.4371397,-5.6007528,1.3140012,0.9289842\PG=C01
  [X(C7H4Cl1N1O3)]\\@
 The archive entry for this job was punched.


 THE POLHOLDE ROLLS WITHOUT SLIPPING ON THE HERPOLHOLDE LYING IN
 THE INVARIABLE PLANE.
 H.GOLDSTEIN, "CLASSICAL MECHANICS", PG 161
 Job cpu time:       0 days  0 hours 52 minutes 52.9 seconds.
 Elapsed time:       0 days  0 hours  6 minutes 37.4 seconds.
 File lengths (MBytes):  RWF=    368 Int=      0 D2E=      0 Chk=     16 Scr=     32
 Normal termination of Gaussian 16 at Wed Oct 22 09:40:17 2025.
