 Entering Gaussian System, Link 0=g16
 Input=../../g16_g16_C17-ma_12.com
 Output=../../g16_g16_C17-ma_12.log
 Initial command:
 /lrz/sys/applications/gaussian/g16.C.01/x86_64_legacy/exe/l1.exe "/dss/lxclscratch/0D/go29tiz2/Gau-220854.inp" -scrdir="/dss/lxclscratch/0D/go29tiz2/"
 Entering Link 1 = /lrz/sys/applications/gaussian/g16.C.01/x86_64_legacy/exe/l1.exe PID=    220855.
  
 Copyright (c) 1988-2019, Gaussian, Inc.  All Rights Reserved.
  
 This is part of the Gaussian(R) 16 program.  It is based on
 the Gaussian(R) 09 system (copyright 2009, Gaussian, Inc.),
 the Gaussian(R) 03 system (copyright 2003, Gaussian, Inc.),
 the Gaussian(R) 98 system (copyright 1998, Gaussian, Inc.),
 the Gaussian(R) 94 system (copyright 1995, Gaussian, Inc.),
 the Gaussian 92(TM) system (copyright 1992, Gaussian, Inc.),
 the Gaussian 90(TM) system (copyright 1990, Gaussian, Inc.),
 the Gaussian 88(TM) system (copyright 1988, Gaussian, Inc.),
 the Gaussian 86(TM) system (copyright 1986, Carnegie Mellon
 University), and the Gaussian 82(TM) system (copyright 1983,
 Carnegie Mellon University). Gaussian is a federally registered
 trademark of Gaussian, Inc.
  
 This software contains proprietary and confidential information,
 including trade secrets, belonging to Gaussian, Inc.
  
 This software is provided under written license and may be
 used, copied, transmitted, or stored only in accord with that
 written license.
  
 The following legend is applicable only to US Government
 contracts under FAR:
  
                    RESTRICTED RIGHTS LEGEND
  
 Use, reproduction and disclosure by the US Government is
 subject to restrictions as set forth in subparagraphs (a)
 and (c) of the Commercial Computer Software - Restricted
 Rights clause in FAR 52.227-19.
  
 Gaussian, Inc.
 340 Quinnipiac St., Bldg. 40, Wallingford CT 06492
  
  
 ---------------------------------------------------------------
 Warning -- This program may not be used in any manner that
 competes with the business of Gaussian, Inc. or will provide
 assistance to any competitor of Gaussian, Inc.  The licensee
 of this program is prohibited from giving any competitor of
 Gaussian, Inc. access to this program.  By using this program,
 the user acknowledges that Gaussian, Inc. is engaged in the
 business of creating and licensing software in the field of
 computational chemistry and represents and warrants to the
 licensee that it is not a competitor of Gaussian, Inc. and that
 it will not use this program in any manner prohibited above.
 ---------------------------------------------------------------
  

 Cite this work as:
 Gaussian 16, Revision C.01,
 M. J. Frisch, G. W. Trucks, H. B. Schlegel, G. E. Scuseria, 
 M. A. Robb, J. R. Cheeseman, G. Scalmani, V. Barone, 
 G. A. Petersson, H. Nakatsuji, X. Li, M. Caricato, A. V. Marenich, 
 J. Bloino, B. G. Janesko, R. Gomperts, B. Mennucci, H. P. Hratchian, 
 J. V. Ortiz, A. F. Izmaylov, J. L. Sonnenberg, D. Williams-Young, 
 F. Ding, F. Lipparini, F. Egidi, J. Goings, B. Peng, A. Petrone, 
 T. Henderson, D. Ranasinghe, V. G. Zakrzewski, J. Gao, N. Rega, 
 G. Zheng, W. Liang, M. Hada, M. Ehara, K. Toyota, R. Fukuda, 
 J. Hasegawa, M. Ishida, T. Nakajima, Y. Honda, O. Kitao, H. Nakai, 
 T. Vreven, K. Throssell, J. A. Montgomery, Jr., J. E. Peralta, 
 F. Ogliaro, M. J. Bearpark, J. J. Heyd, E. N. Brothers, K. N. Kudin, 
 V. N. Staroverov, T. A. Keith, R. Kobayashi, J. Normand, 
 K. Raghavachari, A. P. Rendell, J. C. Burant, S. S. Iyengar, 
 J. Tomasi, M. Cossi, J. M. Millam, M. Klene, C. Adamo, R. Cammi, 
 J. W. Ochterski, R. L. Martin, K. Morokuma, O. Farkas, 
 J. B. Foresman, and D. J. Fox, Gaussian, Inc., Wallingford CT, 2019.
 
 ******************************************
 Gaussian 16:  EM64L-G16RevC.01  3-Jul-2019
                22-Oct-2025 
 ******************************************
 %chk=g16_g16_C17-ma_12.chk
 %nprocshared=8
 Will use up to    8 processors via shared memory.
 %mem=32GB
 -------------------------------------------
 #p wb97xd scrf=(smd,solvent=water) def2tzvp
 -------------------------------------------
 1/38=1,172=1/1;
 2/12=2,17=6,18=5,40=1/2;
 3/5=44,7=101,11=2,25=1,30=1,70=32201,72=1,74=-58/1,2,3;
 4//1;
 5/5=2,38=5,53=1/2;
 6/7=2,8=2,9=2,10=2,28=1/1;
 99/5=1,9=1/99;
 Leave Link    1 at Wed Oct 22 09:16:12 2025, MaxMem=  4294967296 cpu:               5.1 elap:               0.7
 (Enter /lrz/sys/applications/gaussian/g16.C.01/x86_64_legacy/exe/l101.exe)
 -----------------
 g16_g16_C17-ma_12
 -----------------
 Symbolic Z-matrix:
 Charge = -1 Multiplicity = 1
 O                     1.03437  -0.69056   1.22898 
 C                     1.10032  -0.37742  -0.09608 
 C                     1.52521   1.09103  -0.34538 
 C                    -0.20527  -0.71349  -0.89328 
 C                    -1.51085  -0.51868  -0.12131 
 C                    -1.79077   0.89657   0.37324 
 H                     1.89811  -0.96871  -0.6445 
 H                     2.46512   1.28746   0.19805 
 H                     0.77364   1.80287   0.03311 
 H                     1.69556   1.31264  -1.41367 
 H                    -0.16498  -1.77656  -1.19244 
 H                    -0.23449  -0.13642  -1.83707 
 H                    -1.48428  -1.19235   0.75115 
 H                    -2.35143  -0.85898  -0.75105 
 H                    -1.73779   1.63494  -0.44383 
 H                    -2.79223   0.97036   0.82633 
 H                    -1.05407   1.18119   1.1389 
 
 ITRead=  0  0  0  0  0  0  0  0  0  0  0  0  0  0  0  0  0
 MicOpt= -1 -1 -1 -1 -1 -1 -1 -1 -1 -1 -1 -1 -1 -1 -1 -1 -1
 NAtoms=     17 NQM=       17 NQMF=       0 NMMI=      0 NMMIF=      0
                NMic=       0 NMicF=      0.
                    Isotopes and Nuclear Properties:
 (Nuclear quadrupole moments (NQMom) in fm**2, nuclear magnetic moments (NMagM)
  in nuclear magnetons)

  Atom         1           2           3           4           5           6           7           8           9          10
 IAtWgt=          16          12          12          12          12          12           1           1           1           1
 AtmWgt=  15.9949146  12.0000000  12.0000000  12.0000000  12.0000000  12.0000000   1.0078250   1.0078250   1.0078250   1.0078250
 NucSpn=           0           0           0           0           0           0           1           1           1           1
 AtZEff=  -0.0000000  -0.0000000  -0.0000000  -0.0000000  -0.0000000  -0.0000000  -0.0000000  -0.0000000  -0.0000000  -0.0000000
 NQMom=    0.0000000   0.0000000   0.0000000   0.0000000   0.0000000   0.0000000   0.0000000   0.0000000   0.0000000   0.0000000
 NMagM=    0.0000000   0.0000000   0.0000000   0.0000000   0.0000000   0.0000000   2.7928460   2.7928460   2.7928460   2.7928460
 AtZNuc=   8.0000000   6.0000000   6.0000000   6.0000000   6.0000000   6.0000000   1.0000000   1.0000000   1.0000000   1.0000000

  Atom        11          12          13          14          15          16          17
 IAtWgt=           1           1           1           1           1           1           1
 AtmWgt=   1.0078250   1.0078250   1.0078250   1.0078250   1.0078250   1.0078250   1.0078250
 NucSpn=           1           1           1           1           1           1           1
 AtZEff=  -0.0000000  -0.0000000  -0.0000000  -0.0000000  -0.0000000  -0.0000000  -0.0000000
 NQMom=    0.0000000   0.0000000   0.0000000   0.0000000   0.0000000   0.0000000   0.0000000
 NMagM=    2.7928460   2.7928460   2.7928460   2.7928460   2.7928460   2.7928460   2.7928460
 AtZNuc=   1.0000000   1.0000000   1.0000000   1.0000000   1.0000000   1.0000000   1.0000000
 Leave Link  101 at Wed Oct 22 09:16:12 2025, MaxMem=  4294967296 cpu:               1.4 elap:               0.2
 (Enter /lrz/sys/applications/gaussian/g16.C.01/x86_64_legacy/exe/l202.exe)
                          Input orientation:                          
 ---------------------------------------------------------------------
 Center     Atomic      Atomic             Coordinates (Angstroms)
 Number     Number       Type             X           Y           Z
 ---------------------------------------------------------------------
      1          8           0        1.034372   -0.690563    1.228975
      2          6           0        1.100319   -0.377417   -0.096077
      3          6           0        1.525211    1.091026   -0.345376
      4          6           0       -0.205273   -0.713488   -0.893280
      5          6           0       -1.510846   -0.518677   -0.121306
      6          6           0       -1.790767    0.896569    0.373240
      7          1           0        1.898111   -0.968709   -0.644503
      8          1           0        2.465122    1.287457    0.198052
      9          1           0        0.773644    1.802870    0.033112
     10          1           0        1.695560    1.312643   -1.413666
     11          1           0       -0.164982   -1.776562   -1.192439
     12          1           0       -0.234493   -0.136424   -1.837074
     13          1           0       -1.484276   -1.192348    0.751150
     14          1           0       -2.351432   -0.858977   -0.751046
     15          1           0       -1.737793    1.634935   -0.443827
     16          1           0       -2.792230    0.970355    0.826333
     17          1           0       -1.054074    1.181188    1.138899
 ---------------------------------------------------------------------
                    Distance matrix (angstroms):
                    1          2          3          4          5
     1  O    0.000000
     2  C    1.363148   0.000000
     3  C    2.427666   1.548873   0.000000
     4  C    2.457888   1.566221   2.559501   0.000000
     5  C    2.886336   2.615105   3.443689   1.529188   0.000000
     6  C    3.351519   3.194006   3.398519   2.590395   1.525075
     7  H    2.081665   1.134403   2.114483   2.133366   3.478110
     8  H    2.649983   2.172787   1.103328   3.510811   4.378633
     9  H    2.777638   2.208406   1.102192   2.854564   3.260724
    10  H    3.381354   2.224108   1.104254   2.826513   3.912156
    11  H    2.912231   2.181881   3.434724   1.105100   2.130951
    12  H    3.364186   2.207005   2.613112   1.106618   2.172338
    13  H    2.612220   2.839373   3.933596   2.137593   1.102596
    14  H    3.925878   3.546191   4.358376   2.155782   1.104066
    15  H    3.986365   3.496480   3.309490   2.840020   2.189422
    16  H    4.190901   4.221287   4.475239   3.533376   2.181096
    17  H    2.805917   2.931864   2.977232   2.905170   2.164786
                    6          7          8          9         10
     6  C    0.000000
     7  H    4.257098   0.000000
     8  H    4.277391   2.474204   0.000000
     9  H    2.741035   3.066796   1.775937   0.000000
    10  H    3.939623   2.416031   1.786196   1.784214   0.000000
    11  H    3.498594   2.282370   4.270729   3.898118   3.612997
    12  H    2.893882   2.581264   3.668391   2.876595   2.450342
    13  H    2.144837   3.665843   4.696072   3.819046   4.590508
    14  H    2.158774   4.252294   5.357906   4.179286   4.640382
    15  H    1.102538   4.476498   4.265823   2.561833   3.582230
    16  H    1.101665   5.284186   5.304247   3.746697   5.027426
    17  H    1.099981   4.064231   3.644342   2.224816   3.754112
                   11         12         13         14         15
    11  H    0.000000
    12  H    1.763644   0.000000
    13  H    2.420616   3.061999   0.000000
    14  H    2.411919   2.486558   1.766264   0.000000
    15  H    3.830466   2.709015   3.079898   2.586607   0.000000
    16  H    4.303885   3.854960   2.528573   2.455378   1.779553
    17  H    3.869613   3.356223   2.443173   3.068762   1.782801
                   16         17
    16  H    0.000000
    17  H    1.778576   0.000000
 Stoichiometry    C5H11O(1-)
 Framework group  C1[X(C5H11O)]
 Deg. of freedom    45
 Full point group                 C1      NOp   1
 Largest Abelian subgroup         C1      NOp   1
 Largest concise Abelian subgroup C1      NOp   1
                         Standard orientation:                         
 ---------------------------------------------------------------------
 Center     Atomic      Atomic             Coordinates (Angstroms)
 Number     Number       Type             X           Y           Z
 ---------------------------------------------------------------------
      1          8           0        1.034372   -0.690563    1.228975
      2          6           0        1.100319   -0.377417   -0.096077
      3          6           0        1.525211    1.091026   -0.345376
      4          6           0       -0.205273   -0.713488   -0.893280
      5          6           0       -1.510846   -0.518677   -0.121306
      6          6           0       -1.790767    0.896569    0.373240
      7          1           0        1.898111   -0.968709   -0.644503
      8          1           0        2.465122    1.287457    0.198052
      9          1           0        0.773644    1.802870    0.033112
     10          1           0        1.695560    1.312643   -1.413666
     11          1           0       -0.164982   -1.776562   -1.192439
     12          1           0       -0.234493   -0.136424   -1.837074
     13          1           0       -1.484276   -1.192348    0.751150
     14          1           0       -2.351432   -0.858977   -0.751046
     15          1           0       -1.737793    1.634935   -0.443827
     16          1           0       -2.792230    0.970355    0.826333
     17          1           0       -1.054074    1.181188    1.138899
 ---------------------------------------------------------------------
 Rotational constants (GHZ):           4.6815782           2.4502878           2.2958663
 Leave Link  202 at Wed Oct 22 09:16:12 2025, MaxMem=  4294967296 cpu:               0.0 elap:               0.0
 (Enter /lrz/sys/applications/gaussian/g16.C.01/x86_64_legacy/exe/l301.exe)
 Standard basis: def2TZVP (5D, 7F)
 Ernie: Thresh=  0.10000D-02 Tol=  0.10000D-05 Strict=F.
 There are   282 symmetry adapted cartesian basis functions of A   symmetry.
 There are   252 symmetry adapted basis functions of A   symmetry.
   252 basis functions,   394 primitive gaussians,   282 cartesian basis functions
    25 alpha electrons       25 beta electrons
       nuclear repulsion energy       251.0730515735 Hartrees.
 IExCor= 4639 DFT=T Ex+Corr=wB97XD ExCW=0 ScaHFX=  1.000000
 ScaDFX=  1.000000  1.000000  1.000000  1.000000 ScalE2=  1.000000  1.000000
 IRadAn=      5 IRanWt=     -1 IRanGd=            0 ICorTp=0 IEmpDi=121
 HFx  wShort=  0.000000 wLong=  0.200000 cFull=  0.222036 cShort=  0.000000 cLong=  0.777964
 DFx  wShort=  0.000000 wLong=  0.200000 cFull=  0.000000 cShort=  0.000000 cLong=  1.000000
 NAtoms=   17 NActive=   17 NUniq=   17 SFac= 1.00D+00 NAtFMM=   60 NAOKFM=F Big=F
 Integral buffers will be    131072 words long.
 Raffenetti 2 integral format.
 Two-electron integral symmetry is turned on.
 R6Disp:  Grimme-D2 Dispersion energy=       -0.0099772404 Hartrees.
 Nuclear repulsion after empirical dispersion term =      251.0630743331 Hartrees.
 ------------------------------------------------------------------------------
 Polarizable Continuum Model (PCM)
 =================================
 Model                : PCM.
 Atomic radii         : SMD-Coulomb.
 Polarization charges : Total charges.
 Charge compensation  : None.
 Solution method      : On-the-fly selection.
 Cavity type          : VdW (van der Waals Surface) (Alpha=1.000).
 Cavity algorithm     : GePol (No added spheres)
                        Default sphere list used, NSphG=   17.
                        Lebedev-Laikov grids with approx.  5.0 points / Ang**2.
                        Smoothing algorithm: York/Karplus (Gamma=1.0000).
                        Polarization charges: spherical gaussians, with
                                              point-specific exponents (IZeta= 3).
                        Self-potential: point-specific (ISelfS= 7).
                        Self-field    : sphere-specific E.n sum rule (ISelfD= 2).
 Solvent              : Water, Eps=  78.355300 Eps(inf)=   1.777849
 ------------------------------------------------------------------------------
 Spheres list:
 ISph  on   Nord     Re0    Alpha      Xe            Ye            Ze
    1   O      1    1.5200  1.000      1.034372     -0.690563      1.228975
    2   C      2    1.8500  1.000      1.100319     -0.377417     -0.096077
    3   C      3    1.8500  1.000      1.525211      1.091026     -0.345376
    4   C      4    1.8500  1.000     -0.205273     -0.713488     -0.893280
    5   C      5    1.8500  1.000     -1.510846     -0.518677     -0.121306
    6   C      6    1.8500  1.000     -1.790767      0.896569      0.373240
    7   H      7    1.2000  1.000      1.898111     -0.968709     -0.644503
    8   H      8    1.2000  1.000      2.465122      1.287457      0.198052
    9   H      9    1.2000  1.000      0.773644      1.802870      0.033112
   10   H     10    1.2000  1.000      1.695560      1.312643     -1.413666
   11   H     11    1.2000  1.000     -0.164982     -1.776562     -1.192439
   12   H     12    1.2000  1.000     -0.234493     -0.136424     -1.837074
   13   H     13    1.2000  1.000     -1.484276     -1.192348      0.751150
   14   H     14    1.2000  1.000     -2.351432     -0.858977     -0.751046
   15   H     15    1.2000  1.000     -1.737793      1.634935     -0.443827
   16   H     16    1.2000  1.000     -2.792230      0.970355      0.826333
   17   H     17    1.2000  1.000     -1.054074      1.181188      1.138899
 ------------------------------------------------------------------------------
 GePol: Number of generator spheres                  =      17
 GePol: Total number of spheres                      =      17
 GePol: Number of exposed spheres                    =      17 (100.00%)
 GePol: Number of points                             =    1203
 GePol: Average weight of points                     =       0.11
 GePol: Minimum weight of points                     =   0.96D-10
 GePol: Maximum weight of points                     =    0.21991
 GePol: Number of points with low weight             =      79
 GePol: Fraction of low-weight points (<1% of avg)   =       6.57%
 GePol: Cavity surface area                          =    136.060 Ang**2
 GePol: Cavity volume                                =    107.629 Ang**3
 ------------------------------------------------------------------------------
 Atomic radii for non-electrostatic terms: SMD-CDS.
 ------------------------------------------------------------------------------
 PCM non-electrostatic energy =         0.0050089535 Hartrees.
 Nuclear repulsion after PCM non-electrostatic terms =      251.0680832866 Hartrees.
 Leave Link  301 at Wed Oct 22 09:16:12 2025, MaxMem=  4294967296 cpu:               0.6 elap:               0.1
 (Enter /lrz/sys/applications/gaussian/g16.C.01/x86_64_legacy/exe/l302.exe)
 NPDir=0 NMtPBC=     1 NCelOv=     1 NCel=       1 NClECP=     1 NCelD=      1
         NCelK=      1 NCelE2=     1 NClLst=     1 CellRange=     0.0.
 One-electron integrals computed using PRISM.
 One-electron integral symmetry used in STVInt
   1 Symmetry operations used in ECPInt.
 ECPInt:  NShTT=    6105 NPrTT=   17556 LenC2=    6063 LenP2D=   14537.
 LDataN:  DoStor=T MaxTD1= 6 Len=  172
 NBasis=   252 RedAO= T EigKep=  1.98D-04  NBF=   252
 NBsUse=   252 1.00D-06 EigRej= -1.00D+00 NBFU=   252
 Precomputing XC quadrature grid using
 IXCGrd= 4 IRadAn=           5 IRanWt=          -1 IRanGd=           0 AccXCQ= 0.00D+00.
 Generated NRdTot=       0 NPtTot=           0 NUsed=           0 NTot=          32
 NSgBfM=   281   281   281   281   281 MxSgAt=    17 MxSgA2=    17.
 Leave Link  302 at Wed Oct 22 09:16:12 2025, MaxMem=  4294967296 cpu:               2.4 elap:               0.3
 (Enter /lrz/sys/applications/gaussian/g16.C.01/x86_64_legacy/exe/l303.exe)
 DipDrv:  MaxL=1.
 Leave Link  303 at Wed Oct 22 09:16:12 2025, MaxMem=  4294967296 cpu:               0.9 elap:               0.2
 (Enter /lrz/sys/applications/gaussian/g16.C.01/x86_64_legacy/exe/l401.exe)
 ExpMin= 9.52D-02 ExpMax= 2.70D+04 ExpMxC= 9.22D+02 IAcc=3 IRadAn=         5 AccDes= 0.00D+00
 Harris functional with IExCor= 4639 and IRadAn=       5 diagonalized for initial guess.
 HarFok:  IExCor= 4639 AccDes= 0.00D+00 IRadAn=         5 IDoV= 1 UseB2=F ITyADJ=14
 ICtDFT=  3500011 ScaDFX=  1.000000  1.000000  1.000000  1.000000
 FoFCou: FMM=F IPFlag=           0 FMFlag=      100000 FMFlg1=           0
         NFxFlg=           0 DoJE=T BraDBF=F KetDBF=T FulRan=T
         wScrn=  0.000000 ICntrl=       500 IOpCl=  0 I1Cent=   200000004 NGrid=           0
         NMat0=    1 NMatS0=      1 NMatT0=    0 NMatD0=    1 NMtDS0=    0 NMtDT0=    0
 Petite list used in FoFCou.
 Harris En= -260.002989727512    
 JPrj=0 DoOrth=F DoCkMO=F.
 Leave Link  401 at Wed Oct 22 09:16:15 2025, MaxMem=  4294967296 cpu:              18.2 elap:               2.3
 (Enter /lrz/sys/applications/gaussian/g16.C.01/x86_64_legacy/exe/l502.exe)
 Integral symmetry usage will be decided dynamically.
 Closed shell SCF:
 Using DIIS extrapolation, IDIIS=  1040.
 NGot=  4294967296 LenX=  4294802854 LenY=  4294722889
 Requested convergence on RMS density matrix=1.00D-08 within 128 cycles.
 Requested convergence on MAX density matrix=1.00D-06.
 Requested convergence on             energy=1.00D-06.
 No special actions if energy rises.
 Fock matrices will be formed incrementally for  20 cycles.

 Cycle   1  Pass 1  IDiag  1:
 FoFJK:  IHMeth= 1 ICntrl=       0 DoSepK=T KAlg= 0 I1Cent=           0 FoldK=F
 IRaf=         1 NMat=       1 IRICut=       1 DoRegI=T DoRafI=F ISym2E= 0 IDoP0=0 IntGTp=1.
 FoFCou: FMM=F IPFlag=           0 FMFlag=      100000 FMFlg1=           0
         NFxFlg=           0 DoJE=T BraDBF=F KetDBF=F FulRan=T
         wScrn=  0.000000 ICntrl=       500 IOpCl=  0 I1Cent=           0 NGrid=           0
         NMat0=    1 NMatS0=      1 NMatT0=    0 NMatD0=    1 NMtDS0=    0 NMtDT0=    0
 Symmetry not used in FoFCou.
 Inv3:  Mode=1 IEnd=     4341627.
 Iteration    1 A*A^-1 deviation from unit magnitude is 6.22D-15 for    610.
 Iteration    1 A*A^-1 deviation from orthogonality  is 3.04D-15 for    748    101.
 Iteration    1 A^-1*A deviation from unit magnitude is 6.22D-15 for    610.
 Iteration    1 A^-1*A deviation from orthogonality  is 3.10D-15 for   1118    471.
 E= -272.413464058605    
 DIIS: error= 4.63D-02 at cycle   1 NSaved=   1.
 NSaved= 1 IEnMin= 1 EnMin= -272.413464058605     IErMin= 1 ErrMin= 4.63D-02
 ErrMax= 4.63D-02  0.00D+00 EMaxC= 1.00D-01 BMatC= 5.64D-01 BMatP= 5.64D-01
 IDIUse=3 WtCom= 5.37D-01 WtEn= 4.63D-01
 Coeff-Com:  0.100D+01
 Coeff-En:   0.100D+01
 Coeff:      0.100D+01
 Gap=     0.375 Goal=   None    Shift=    0.000
 GapD=    0.375 DampG=1.000 DampE=0.500 DampFc=0.5000 IDamp=-1.
 Damping current iteration by 5.00D-01
 RMSDP=1.86D-03 MaxDP=5.27D-02              OVMax= 5.85D-02

 Cycle   2  Pass 1  IDiag  1:
 RMSU=  9.18D-04    CP:  9.85D-01
 E= -272.458180689568     Delta-E=       -0.044716630963 Rises=F Damp=T
 DIIS: error= 2.38D-02 at cycle   2 NSaved=   2.
 NSaved= 2 IEnMin= 2 EnMin= -272.458180689568     IErMin= 2 ErrMin= 2.38D-02
 ErrMax= 2.38D-02  0.00D+00 EMaxC= 1.00D-01 BMatC= 1.28D-01 BMatP= 5.64D-01
 IDIUse=3 WtCom= 7.62D-01 WtEn= 2.38D-01
 Coeff-Com: -0.820D+00 0.182D+01
 Coeff-En:   0.000D+00 0.100D+01
 Coeff:     -0.625D+00 0.163D+01
 Gap=     0.404 Goal=   None    Shift=    0.000
 RMSDP=1.02D-03 MaxDP=4.58D-02 DE=-4.47D-02 OVMax= 3.25D-02

 Cycle   3  Pass 1  IDiag  1:
 RMSU=  8.13D-04    CP:  9.58D-01  1.61D+00
 E= -272.496332866298     Delta-E=       -0.038152176730 Rises=F Damp=F
 DIIS: error= 3.26D-03 at cycle   3 NSaved=   3.
 NSaved= 3 IEnMin= 3 EnMin= -272.496332866298     IErMin= 3 ErrMin= 3.26D-03
 ErrMax= 3.26D-03  0.00D+00 EMaxC= 1.00D-01 BMatC= 4.95D-03 BMatP= 1.28D-01
 IDIUse=3 WtCom= 9.67D-01 WtEn= 3.26D-02
 Coeff-Com: -0.302D+00 0.651D+00 0.651D+00
 Coeff-En:   0.000D+00 0.000D+00 0.100D+01
 Coeff:     -0.292D+00 0.630D+00 0.662D+00
 Gap=     0.391 Goal=   None    Shift=    0.000
 RMSDP=2.49D-04 MaxDP=6.84D-03 DE=-3.82D-02 OVMax= 1.10D-02

 Cycle   4  Pass 1  IDiag  1:
 RMSU=  1.50D-04    CP:  9.56D-01  1.80D+00  8.82D-01
 E= -272.500872358146     Delta-E=       -0.004539491848 Rises=F Damp=F
 DIIS: error= 3.62D-04 at cycle   4 NSaved=   4.
 NSaved= 4 IEnMin= 4 EnMin= -272.500872358146     IErMin= 4 ErrMin= 3.62D-04
 ErrMax= 3.62D-04  0.00D+00 EMaxC= 1.00D-01 BMatC= 2.06D-05 BMatP= 4.95D-03
 IDIUse=3 WtCom= 9.96D-01 WtEn= 3.62D-03
 Coeff-Com:  0.408D-01-0.877D-01-0.345D-01 0.108D+01
 Coeff-En:   0.000D+00 0.000D+00 0.000D+00 0.100D+01
 Coeff:      0.407D-01-0.874D-01-0.344D-01 0.108D+01
 Gap=     0.392 Goal=   None    Shift=    0.000
 RMSDP=9.83D-05 MaxDP=5.15D-03 DE=-4.54D-03 OVMax= 2.41D-03

 Cycle   5  Pass 1  IDiag  1:
 RMSU=  2.60D-05    CP:  9.54D-01  1.81D+00  9.69D-01  1.38D+00
 E= -272.500906961829     Delta-E=       -0.000034603683 Rises=F Damp=F
 DIIS: error= 9.51D-05 at cycle   5 NSaved=   5.
 NSaved= 5 IEnMin= 5 EnMin= -272.500906961829     IErMin= 5 ErrMin= 9.51D-05
 ErrMax= 9.51D-05  0.00D+00 EMaxC= 1.00D-01 BMatC= 3.26D-06 BMatP= 2.06D-05
 IDIUse=1 WtCom= 1.00D+00 WtEn= 0.00D+00
 Coeff-Com:  0.312D-01-0.671D-01-0.485D-01 0.384D+00 0.701D+00
 Coeff:      0.312D-01-0.671D-01-0.485D-01 0.384D+00 0.701D+00
 Gap=     0.391 Goal=   None    Shift=    0.000
 RMSDP=2.10D-05 MaxDP=6.31D-04 DE=-3.46D-05 OVMax= 5.31D-04

 Cycle   6  Pass 1  IDiag  1:
 RMSU=  8.27D-06    CP:  9.54D-01  1.82D+00  9.79D-01  1.48D+00  1.16D+00
 E= -272.500910815125     Delta-E=       -0.000003853296 Rises=F Damp=F
 DIIS: error= 2.21D-05 at cycle   6 NSaved=   6.
 NSaved= 6 IEnMin= 6 EnMin= -272.500910815125     IErMin= 6 ErrMin= 2.21D-05
 ErrMax= 2.21D-05  0.00D+00 EMaxC= 1.00D-01 BMatC= 2.21D-07 BMatP= 3.26D-06
 IDIUse=1 WtCom= 1.00D+00 WtEn= 0.00D+00
 Coeff-Com:  0.274D-02-0.599D-02-0.820D-02-0.381D-01 0.145D+00 0.904D+00
 Coeff:      0.274D-02-0.599D-02-0.820D-02-0.381D-01 0.145D+00 0.904D+00
 Gap=     0.391 Goal=   None    Shift=    0.000
 RMSDP=1.25D-05 MaxDP=5.47D-04 DE=-3.85D-06 OVMax= 4.06D-04

 Cycle   7  Pass 1  IDiag  1:
 RMSU=  2.77D-06    CP:  9.54D-01  1.82D+00  9.87D-01  1.54D+00  1.35D+00
                    CP:  1.23D+00
 E= -272.500911241384     Delta-E=       -0.000000426258 Rises=F Damp=F
 DIIS: error= 1.26D-05 at cycle   7 NSaved=   7.
 NSaved= 7 IEnMin= 7 EnMin= -272.500911241384     IErMin= 7 ErrMin= 1.26D-05
 ErrMax= 1.26D-05  0.00D+00 EMaxC= 1.00D-01 BMatC= 5.10D-08 BMatP= 2.21D-07
 IDIUse=1 WtCom= 1.00D+00 WtEn= 0.00D+00
 Coeff-Com: -0.214D-02 0.459D-02 0.161D-02-0.545D-01-0.114D-01 0.363D+00
 Coeff-Com:  0.699D+00
 Coeff:     -0.214D-02 0.459D-02 0.161D-02-0.545D-01-0.114D-01 0.363D+00
 Coeff:      0.699D+00
 Gap=     0.391 Goal=   None    Shift=    0.000
 RMSDP=3.24D-06 MaxDP=1.08D-04 DE=-4.26D-07 OVMax= 1.25D-04

 Cycle   8  Pass 1  IDiag  1:
 RMSU=  1.20D-06    CP:  9.53D-01  1.82D+00  9.88D-01  1.55D+00  1.39D+00
                    CP:  1.42D+00  1.17D+00
 E= -272.500911298881     Delta-E=       -0.000000057498 Rises=F Damp=F
 DIIS: error= 3.83D-06 at cycle   8 NSaved=   8.
 NSaved= 8 IEnMin= 8 EnMin= -272.500911298881     IErMin= 8 ErrMin= 3.83D-06
 ErrMax= 3.83D-06  0.00D+00 EMaxC= 1.00D-01 BMatC= 9.10D-09 BMatP= 5.10D-08
 IDIUse=1 WtCom= 1.00D+00 WtEn= 0.00D+00
 Coeff-Com: -0.111D-02 0.239D-02 0.183D-02-0.101D-01-0.304D-01-0.393D-01
 Coeff-Com:  0.299D+00 0.778D+00
 Coeff:     -0.111D-02 0.239D-02 0.183D-02-0.101D-01-0.304D-01-0.393D-01
 Coeff:      0.299D+00 0.778D+00
 Gap=     0.391 Goal=   None    Shift=    0.000
 RMSDP=1.53D-06 MaxDP=6.79D-05 DE=-5.75D-08 OVMax= 7.15D-05

 Cycle   9  Pass 1  IDiag  1:
 RMSU=  3.89D-07    CP:  9.53D-01  1.82D+00  9.88D-01  1.55D+00  1.42D+00
                    CP:  1.50D+00  1.41D+00  1.27D+00
 E= -272.500911311270     Delta-E=       -0.000000012389 Rises=F Damp=F
 DIIS: error= 7.79D-07 at cycle   9 NSaved=   9.
 NSaved= 9 IEnMin= 9 EnMin= -272.500911311270     IErMin= 9 ErrMin= 7.79D-07
 ErrMax= 7.79D-07  0.00D+00 EMaxC= 1.00D-01 BMatC= 2.74D-10 BMatP= 9.10D-09
 IDIUse=1 WtCom= 1.00D+00 WtEn= 0.00D+00
 Coeff-Com:  0.163D-03-0.352D-03-0.712D-04 0.532D-02-0.809D-03-0.410D-01
 Coeff-Com: -0.569D-01 0.222D-01 0.107D+01
 Coeff:      0.163D-03-0.352D-03-0.712D-04 0.532D-02-0.809D-03-0.410D-01
 Coeff:     -0.569D-01 0.222D-01 0.107D+01
 Gap=     0.391 Goal=   None    Shift=    0.000
 RMSDP=6.71D-07 MaxDP=3.50D-05 DE=-1.24D-08 OVMax= 3.36D-05

 Cycle  10  Pass 1  IDiag  1:
 RMSU=  1.09D-07    CP:  9.53D-01  1.82D+00  9.88D-01  1.56D+00  1.42D+00
                    CP:  1.54D+00  1.52D+00  1.56D+00  1.52D+00
 E= -272.500911312497     Delta-E=       -0.000000001227 Rises=F Damp=F
 DIIS: error= 3.13D-07 at cycle  10 NSaved=  10.
 NSaved=10 IEnMin=10 EnMin= -272.500911312497     IErMin=10 ErrMin= 3.13D-07
 ErrMax= 3.13D-07  0.00D+00 EMaxC= 1.00D-01 BMatC= 3.58D-11 BMatP= 2.74D-10
 IDIUse=1 WtCom= 1.00D+00 WtEn= 0.00D+00
 Coeff-Com:  0.891D-04-0.192D-03-0.111D-03 0.160D-02 0.137D-02-0.525D-02
 Coeff-Com: -0.319D-01-0.407D-01 0.195D+00 0.880D+00
 Coeff:      0.891D-04-0.192D-03-0.111D-03 0.160D-02 0.137D-02-0.525D-02
 Coeff:     -0.319D-01-0.407D-01 0.195D+00 0.880D+00
 Gap=     0.391 Goal=   None    Shift=    0.000
 RMSDP=1.71D-07 MaxDP=8.74D-06 DE=-1.23D-09 OVMax= 8.20D-06

 Cycle  11  Pass 1  IDiag  1:
 RMSU=  2.96D-08    CP:  9.53D-01  1.82D+00  9.88D-01  1.56D+00  1.42D+00
                    CP:  1.54D+00  1.55D+00  1.64D+00  1.72D+00  1.34D+00
 E= -272.500911312609     Delta-E=       -0.000000000111 Rises=F Damp=F
 DIIS: error= 1.01D-07 at cycle  11 NSaved=  11.
 NSaved=11 IEnMin=11 EnMin= -272.500911312609     IErMin=11 ErrMin= 1.01D-07
 ErrMax= 1.01D-07  0.00D+00 EMaxC= 1.00D-01 BMatC= 6.67D-12 BMatP= 3.58D-11
 IDIUse=1 WtCom= 1.00D+00 WtEn= 0.00D+00
 Coeff-Com: -0.615D-05 0.131D-04-0.156D-04-0.507D-03 0.471D-03 0.597D-02
 Coeff-Com:  0.776D-03-0.147D-01-0.134D+00 0.259D+00 0.883D+00
 Coeff:     -0.615D-05 0.131D-04-0.156D-04-0.507D-03 0.471D-03 0.597D-02
 Coeff:      0.776D-03-0.147D-01-0.134D+00 0.259D+00 0.883D+00
 Gap=     0.391 Goal=   None    Shift=    0.000
 RMSDP=7.68D-08 MaxDP=3.96D-06 DE=-1.11D-10 OVMax= 3.60D-06

 Cycle  12  Pass 1  IDiag  1:
 RMSU=  1.28D-08    CP:  9.53D-01  1.82D+00  9.88D-01  1.56D+00  1.42D+00
                    CP:  1.55D+00  1.56D+00  1.68D+00  1.83D+00  1.57D+00
                    CP:  1.38D+00
 E= -272.500911312616     Delta-E=       -0.000000000007 Rises=F Damp=F
 DIIS: error= 2.05D-08 at cycle  12 NSaved=  12.
 NSaved=12 IEnMin=12 EnMin= -272.500911312616     IErMin=12 ErrMin= 2.05D-08
 ErrMax= 2.05D-08  0.00D+00 EMaxC= 1.00D-01 BMatC= 2.55D-13 BMatP= 6.67D-12
 IDIUse=1 WtCom= 1.00D+00 WtEn= 0.00D+00
 Coeff-Com: -0.485D-05 0.105D-04 0.683D-05-0.916D-04-0.999D-04 0.112D-03
 Coeff-Com:  0.282D-02 0.237D-02-0.952D-02-0.817D-01-0.313D-01 0.112D+01
 Coeff:     -0.485D-05 0.105D-04 0.683D-05-0.916D-04-0.999D-04 0.112D-03
 Coeff:      0.282D-02 0.237D-02-0.952D-02-0.817D-01-0.313D-01 0.112D+01
 Gap=     0.391 Goal=   None    Shift=    0.000
 RMSDP=2.20D-08 MaxDP=1.09D-06 DE=-7.28D-12 OVMax= 9.09D-07

 Cycle  13  Pass 1  IDiag  1:
 RMSU=  3.75D-09    CP:  9.53D-01  1.82D+00  9.88D-01  1.56D+00  1.42D+00
                    CP:  1.55D+00  1.56D+00  1.69D+00  1.86D+00  1.64D+00
                    CP:  1.63D+00  1.44D+00
 E= -272.500911312622     Delta-E=       -0.000000000006 Rises=F Damp=F
 DIIS: error= 4.53D-09 at cycle  13 NSaved=  13.
 NSaved=13 IEnMin=13 EnMin= -272.500911312622     IErMin=13 ErrMin= 4.53D-09
 ErrMax= 4.53D-09  0.00D+00 EMaxC= 1.00D-01 BMatC= 1.18D-14 BMatP= 2.55D-13
 IDIUse=1 WtCom= 1.00D+00 WtEn= 0.00D+00
 Coeff-Com:  0.212D-06-0.443D-06 0.881D-06 0.186D-04-0.281D-04-0.232D-03
 Coeff-Com:  0.140D-03 0.823D-03 0.548D-02-0.163D-01-0.411D-01 0.753D-01
 Coeff-Com:  0.976D+00
 Coeff:      0.212D-06-0.443D-06 0.881D-06 0.186D-04-0.281D-04-0.232D-03
 Coeff:      0.140D-03 0.823D-03 0.548D-02-0.163D-01-0.411D-01 0.753D-01
 Coeff:      0.976D+00
 Gap=     0.391 Goal=   None    Shift=    0.000
 RMSDP=3.57D-09 MaxDP=1.34D-07 DE=-6.48D-12 OVMax= 9.29D-08

 Error on total polarization charges =  0.06274
 SCF Done:  E(RwB97XD) =  -272.500911313     A.U. after   13 cycles
            NFock= 13  Conv=0.36D-08     -V/T= 2.0058
 KE= 2.709218352600D+02 PE=-1.147386397216D+03 EE= 3.528955673568D+02
 SMD-CDS (non-electrostatic) energy       (kcal/mol) =       3.14
 (included in total energy above)
 Leave Link  502 at Wed Oct 22 09:18:05 2025, MaxMem=  4294967296 cpu:             882.0 elap:             110.4
 (Enter /lrz/sys/applications/gaussian/g16.C.01/x86_64_legacy/exe/l601.exe)
 Copying SCF densities to generalized density rwf, IOpCl= 0 IROHF=0.

 **********************************************************************

            Population analysis using the SCF Density.

 **********************************************************************

 Orbital symmetries:
       Occupied  (A) (A) (A) (A) (A) (A) (A) (A) (A) (A) (A) (A)
                 (A) (A) (A) (A) (A) (A) (A) (A) (A) (A) (A) (A)
                 (A)
       Virtual   (A) (A) (A) (A) (A) (A) (A) (A) (A) (A) (A) (A)
                 (A) (A) (A) (A) (A) (A) (A) (A) (A) (A) (A) (A)
                 (A) (A) (A) (A) (A) (A) (A) (A) (A) (A) (A) (A)
                 (A) (A) (A) (A) (A) (A) (A) (A) (A) (A) (A) (A)
                 (A) (A) (A) (A) (A) (A) (A) (A) (A) (A) (A) (A)
                 (A) (A) (A) (A) (A) (A) (A) (A) (A) (A) (A) (A)
                 (A) (A) (A) (A) (A) (A) (A) (A) (A) (A) (A) (A)
                 (A) (A) (A) (A) (A) (A) (A) (A) (A) (A) (A) (A)
                 (A) (A) (A) (A) (A) (A) (A) (A) (A) (A) (A) (A)
                 (A) (A) (A) (A) (A) (A) (A) (A) (A) (A) (A) (A)
                 (A) (A) (A) (A) (A) (A) (A) (A) (A) (A) (A) (A)
                 (A) (A) (A) (A) (A) (A) (A) (A) (A) (A) (A) (A)
                 (A) (A) (A) (A) (A) (A) (A) (A) (A) (A) (A) (A)
                 (A) (A) (A) (A) (A) (A) (A) (A) (A) (A) (A) (A)
                 (A) (A) (A) (A) (A) (A) (A) (A) (A) (A) (A) (A)
                 (A) (A) (A) (A) (A) (A) (A) (A) (A) (A) (A) (A)
                 (A) (A) (A) (A) (A) (A) (A) (A) (A) (A) (A) (A)
                 (A) (A) (A) (A) (A) (A) (A) (A) (A) (A) (A) (A)
                 (A) (A) (A) (A) (A) (A) (A) (A) (A) (A) (A)
 The electronic state is 1-A.
 Alpha  occ. eigenvalues --  -19.12735 -10.29130 -10.26010 -10.25633 -10.24949
 Alpha  occ. eigenvalues --  -10.24433  -1.00154  -0.86292  -0.79873  -0.75834
 Alpha  occ. eigenvalues --   -0.67119  -0.60121  -0.53659  -0.52027  -0.48625
 Alpha  occ. eigenvalues --   -0.47218  -0.46710  -0.43868  -0.42932  -0.41440
 Alpha  occ. eigenvalues --   -0.38435  -0.38366  -0.37964  -0.27218  -0.26879
 Alpha virt. eigenvalues --    0.12257   0.15060   0.15262   0.17404   0.18378
 Alpha virt. eigenvalues --    0.19002   0.20170   0.20629   0.21253   0.22239
 Alpha virt. eigenvalues --    0.23849   0.25361   0.27008   0.27656   0.30212
 Alpha virt. eigenvalues --    0.30926   0.31859   0.32534   0.33120   0.34469
 Alpha virt. eigenvalues --    0.36852   0.38103   0.41233   0.43913   0.46229
 Alpha virt. eigenvalues --    0.46819   0.48031   0.48260   0.49902   0.50627
 Alpha virt. eigenvalues --    0.51889   0.52683   0.52935   0.53285   0.53486
 Alpha virt. eigenvalues --    0.54437   0.54698   0.57104   0.58108   0.58477
 Alpha virt. eigenvalues --    0.59236   0.61325   0.64780   0.66347   0.67807
 Alpha virt. eigenvalues --    0.68820   0.71546   0.73563   0.76628   0.79788
 Alpha virt. eigenvalues --    0.81185   0.84651   0.89753   0.91866   0.95851
 Alpha virt. eigenvalues --    0.96328   1.00069   1.00563   1.02603   1.03235
 Alpha virt. eigenvalues --    1.04958   1.11050   1.13063   1.14717   1.17657
 Alpha virt. eigenvalues --    1.18946   1.21728   1.23925   1.25374   1.26970
 Alpha virt. eigenvalues --    1.29456   1.31349   1.34205   1.35562   1.38872
 Alpha virt. eigenvalues --    1.44839   1.57931   1.60022   1.62672   1.63632
 Alpha virt. eigenvalues --    1.64570   1.66047   1.66675   1.67892   1.68862
 Alpha virt. eigenvalues --    1.69463   1.70876   1.72035   1.73367   1.75664
 Alpha virt. eigenvalues --    1.78082   1.79993   1.83119   1.84672   1.87267
 Alpha virt. eigenvalues --    1.91004   1.91874   1.95761   1.96858   1.98370
 Alpha virt. eigenvalues --    2.00056   2.03329   2.06937   2.09782   2.11206
 Alpha virt. eigenvalues --    2.12736   2.16017   2.18990   2.22486   2.23875
 Alpha virt. eigenvalues --    2.29207   2.31511   2.35749   2.38188   2.40870
 Alpha virt. eigenvalues --    2.44075   2.44371   2.45663   2.47707   2.49479
 Alpha virt. eigenvalues --    2.52016   2.52694   2.56032   2.60410   2.60558
 Alpha virt. eigenvalues --    2.61827   2.63322   2.66190   2.67185   2.69934
 Alpha virt. eigenvalues --    2.70353   2.71745   2.72618   2.75265   2.77498
 Alpha virt. eigenvalues --    2.79389   2.80026   2.84279   2.85090   2.87367
 Alpha virt. eigenvalues --    2.89119   2.91319   2.92952   2.95717   3.00909
 Alpha virt. eigenvalues --    3.04245   3.08710   3.11502   3.17367   3.19390
 Alpha virt. eigenvalues --    3.20079   3.21116   3.21717   3.24340   3.27219
 Alpha virt. eigenvalues --    3.29494   3.30080   3.30886   3.31816   3.36841
 Alpha virt. eigenvalues --    3.38631   3.41660   3.42264   3.42757   3.45001
 Alpha virt. eigenvalues --    3.47231   3.47928   3.50100   3.53377   3.57085
 Alpha virt. eigenvalues --    3.58450   3.59289   3.63462   3.65762   3.67277
 Alpha virt. eigenvalues --    3.69775   3.76629   3.79231   3.81369   3.85716
 Alpha virt. eigenvalues --    3.88411   3.92763   3.93149   3.95113   4.00359
 Alpha virt. eigenvalues --    4.05991   4.10091   4.11813   4.13592   4.15846
 Alpha virt. eigenvalues --    4.19871   4.21246   4.28274   4.35451   4.41004
 Alpha virt. eigenvalues --    4.44754   4.49406   4.51256   4.52831   4.58206
 Alpha virt. eigenvalues --    4.63354   4.69691   4.73604   4.79981   4.86282
 Alpha virt. eigenvalues --    4.92070   4.96597   5.03667   5.04348   5.36118
 Alpha virt. eigenvalues --    5.37072   5.59227   5.61152   6.05280   6.10492
 Alpha virt. eigenvalues --    6.17519   6.58779   6.59740   6.99901   7.08216
 Alpha virt. eigenvalues --    7.14126  22.40433  22.45546  22.56906  22.60695
 Alpha virt. eigenvalues --   22.75692  44.10431
          Condensed to atoms (all electrons):
               1          2          3          4          5          6
     1  O    8.838892   0.396470  -0.105775  -0.157797   0.009655  -0.033958
     2  C    0.396470   4.633133   0.319884   0.203905  -0.043699   0.023251
     3  C   -0.105775   0.319884   5.290445  -0.135541  -0.016523   0.013308
     4  C   -0.157797   0.203905  -0.135541   5.487265   0.279022  -0.029645
     5  C    0.009655  -0.043699  -0.016523   0.279022   5.110545   0.184902
     6  C   -0.033958   0.023251   0.013308  -0.029645   0.184902   5.175952
     7  H   -0.063194   0.435505  -0.082388  -0.131309   0.022456  -0.005230
     8  H    0.011085  -0.042359   0.382900   0.024388  -0.000645  -0.000140
     9  H   -0.001319  -0.032953   0.403220  -0.004818   0.001457  -0.005604
    10  H    0.010298  -0.028784   0.347937   0.012401   0.004107  -0.004183
    11  H    0.005524  -0.024796   0.012041   0.403627  -0.056204   0.013329
    12  H    0.009222  -0.039513   0.012139   0.374871  -0.042050  -0.001541
    13  H    0.035180  -0.012733   0.007072  -0.052368   0.373136  -0.024353
    14  H    0.001951   0.013390  -0.000873  -0.055147   0.419746  -0.037005
    15  H    0.001673  -0.007121  -0.001006   0.002637  -0.033785   0.389586
    16  H    0.001076  -0.001037   0.000455   0.007282  -0.029631   0.390521
    17  H    0.034197   0.010147  -0.014763  -0.028479  -0.011801   0.360102
               7          8          9         10         11         12
     1  O   -0.063194   0.011085  -0.001319   0.010298   0.005524   0.009222
     2  C    0.435505  -0.042359  -0.032953  -0.028784  -0.024796  -0.039513
     3  C   -0.082388   0.382900   0.403220   0.347937   0.012041   0.012139
     4  C   -0.131309   0.024388  -0.004818   0.012401   0.403627   0.374871
     5  C    0.022456  -0.000645   0.001457   0.004107  -0.056204  -0.042050
     6  C   -0.005230  -0.000140  -0.005604  -0.004183   0.013329  -0.001541
     7  H    0.838934  -0.012245   0.009327   0.003157  -0.016040   0.005971
     8  H   -0.012245   0.578290  -0.027314  -0.014555  -0.000534  -0.001033
     9  H    0.009327  -0.027314   0.571869  -0.025348  -0.000508   0.000456
    10  H    0.003157  -0.014555  -0.025348   0.594195  -0.000770  -0.006001
    11  H   -0.016040  -0.000534  -0.000508  -0.000770   0.606154  -0.027895
    12  H    0.005971  -0.001033   0.000456  -0.006001  -0.027895   0.617367
    13  H    0.000428  -0.000327  -0.000015  -0.000592  -0.002658   0.010924
    14  H    0.000070   0.000011  -0.000099  -0.000050  -0.004810  -0.002365
    15  H    0.000275   0.000147  -0.001563   0.001031  -0.000431   0.002017
    16  H    0.000120  -0.000033   0.000845   0.000023  -0.000383  -0.000065
    17  H    0.002478   0.000275   0.000457   0.001694  -0.000976   0.000639
              13         14         15         16         17
     1  O    0.035180   0.001951   0.001673   0.001076   0.034197
     2  C   -0.012733   0.013390  -0.007121  -0.001037   0.010147
     3  C    0.007072  -0.000873  -0.001006   0.000455  -0.014763
     4  C   -0.052368  -0.055147   0.002637   0.007282  -0.028479
     5  C    0.373136   0.419746  -0.033785  -0.029631  -0.011801
     6  C   -0.024353  -0.037005   0.389586   0.390521   0.360102
     7  H    0.000428   0.000070   0.000275   0.000120   0.002478
     8  H   -0.000327   0.000011   0.000147  -0.000033   0.000275
     9  H   -0.000015  -0.000099  -0.001563   0.000845   0.000457
    10  H   -0.000592  -0.000050   0.001031   0.000023   0.001694
    11  H   -0.002658  -0.004810  -0.000431  -0.000383  -0.000976
    12  H    0.010924  -0.002365   0.002017  -0.000065   0.000639
    13  H    0.634764  -0.028400   0.006315  -0.003161  -0.009063
    14  H   -0.028400   0.593868  -0.002266  -0.005873   0.007622
    15  H    0.006315  -0.002266   0.565155  -0.019141  -0.023578
    16  H   -0.003161  -0.005873  -0.019141   0.547044  -0.016776
    17  H   -0.009063   0.007622  -0.023578  -0.016776   0.587343
 Mulliken charges:
               1
     1  O   -0.993180
     2  C    0.197312
     3  C   -0.432532
     4  C   -0.200294
     5  C   -0.170689
     6  C   -0.409291
     7  H   -0.008314
     8  H    0.102090
     9  H    0.111911
    10  H    0.105442
    11  H    0.095329
    12  H    0.086860
    13  H    0.065851
    14  H    0.100231
    15  H    0.120055
    16  H    0.128734
    17  H    0.100483
 Sum of Mulliken charges =  -1.00000
 Mulliken charges with hydrogens summed into heavy atoms:
               1
     1  O   -0.993180
     2  C    0.188998
     3  C   -0.113089
     4  C   -0.018105
     5  C   -0.004606
     6  C   -0.060019
 Electronic spatial extent (au):  <R**2>=            696.2465
 Charge=             -1.0000 electrons
 Dipole moment (field-independent basis, Debye):
    X=             -4.7613    Y=              3.0573    Z=             -5.9745  Tot=              8.2287
 Quadrupole moment (field-independent basis, Debye-Ang):
   XX=            -49.3480   YY=            -46.7433   ZZ=            -51.6740
   XY=              3.0324   XZ=             -6.0186   YZ=              4.1009
 Traceless Quadrupole moment (field-independent basis, Debye-Ang):
   XX=             -0.0929   YY=              2.5118   ZZ=             -2.4189
   XY=              3.0324   XZ=             -6.0186   YZ=              4.1009
 Octapole moment (field-independent basis, Debye-Ang**2):
  XXX=            -10.6855  YYY=              0.2461  ZZZ=            -12.1458  XYY=             -4.7668
  XXY=              3.0930  XXZ=             -6.5018  XZZ=            -10.2711  YZZ=              6.9926
  YYZ=             -3.9754  XYZ=              5.1353
 Hexadecapole moment (field-independent basis, Debye-Ang**3):
 XXXX=           -551.2796 YYYY=           -259.6599 ZZZZ=           -214.3091 XXXY=              4.2922
 XXXZ=             -6.4431 YYYX=             -0.0676 YYYZ=              4.1333 ZZZX=            -12.9663
 ZZZY=              4.4729 XXYY=           -142.7153 XXZZ=           -134.4115 YYZZ=            -80.4339
 XXYZ=              6.2551 YYXZ=             -2.1661 ZZXY=              7.0953
 N-N= 2.510680832866D+02 E-N=-1.147386397616D+03  KE= 2.709218352600D+02
 No NMR shielding tensors so no spin-rotation constants.
 Leave Link  601 at Wed Oct 22 09:18:05 2025, MaxMem=  4294967296 cpu:               1.2 elap:               0.2
 (Enter /lrz/sys/applications/gaussian/g16.C.01/x86_64_legacy/exe/l9999.exe)
 Unable to Open any file for archive entry.
 1\1\GINC-CM4R15C05S03\SP\RwB97XD\def2TZVP\C5H11O1(1-)\GO29TIZ2\22-Oct-
 2025\0\\#p wb97xd scrf=(smd,solvent=water) def2tzvp\\g16_g16_C17-ma_12
 \\-1,1\O,0,1.034372,-0.690563,1.228975\C,0,1.100319,-0.377417,-0.09607
 7\C,0,1.525211,1.091026,-0.345376\C,0,-0.205273,-0.713488,-0.89328\C,0
 ,-1.510846,-0.518677,-0.121306\C,0,-1.790767,0.896569,0.37324\H,0,1.89
 8111,-0.968709,-0.644503\H,0,2.465122,1.287457,0.198052\H,0,0.773644,1
 .80287,0.033112\H,0,1.69556,1.312643,-1.413666\H,0,-0.164982,-1.776562
 ,-1.192439\H,0,-0.234493,-0.136424,-1.837074\H,0,-1.484276,-1.192348,0
 .75115\H,0,-2.351432,-0.858977,-0.751046\H,0,-1.737793,1.634935,-0.443
 827\H,0,-2.79223,0.970355,0.826333\H,0,-1.054074,1.181188,1.138899\\Ve
 rsion=EM64L-G16RevC.01\State=1-A\HF=-272.5009113\RMSD=3.573e-09\Dipole
 =-1.8732288,1.2028196,-2.3505317\Quadrupole=-0.0690422,1.8674442,-1.79
 8402,2.2544909,-4.474691,3.0489025\PG=C01 [X(C5H11O1)]\\@
 The archive entry for this job was punched.


 EVANS BOLDLY PUT 50 ATM. OF ETHYLENE IN A CELL WITH 25 ATM. OF OXYGEN.
 THE APPARATUS SUBSEQUENTLY BLEW UP, BUT LUCKILY NOT BEFORE HE
 OBTAINED THE SPECTRA SHOWN IN FIGURE 8.
 A.J.MERER AND R.S.MULLIKEN, CHEM.REV. 69, 645 (1969)
 Job cpu time:       0 days  0 hours 15 minutes 12.8 seconds.
 Elapsed time:       0 days  0 hours  1 minutes 54.6 seconds.
 File lengths (MBytes):  RWF=    288 Int=      0 D2E=      0 Chk=     12 Scr=     32
 Normal termination of Gaussian 16 at Wed Oct 22 09:18:06 2025.
