 Entering Gaussian System, Link 0=g16
 Input=../../g16_g16_C2_1.com
 Output=../../g16_g16_C2_1.log
 Initial command:
 /lrz/sys/applications/gaussian/g16.C.01/x86_64_legacy/exe/l1.exe "/dss/lxclscratch/0D/go29tiz2/Gau-12343.inp" -scrdir="/dss/lxclscratch/0D/go29tiz2/"
 Entering Link 1 = /lrz/sys/applications/gaussian/g16.C.01/x86_64_legacy/exe/l1.exe PID=     12344.
  
 Copyright (c) 1988-2019, Gaussian, Inc.  All Rights Reserved.
  
 This is part of the Gaussian(R) 16 program.  It is based on
 the Gaussian(R) 09 system (copyright 2009, Gaussian, Inc.),
 the Gaussian(R) 03 system (copyright 2003, Gaussian, Inc.),
 the Gaussian(R) 98 system (copyright 1998, Gaussian, Inc.),
 the Gaussian(R) 94 system (copyright 1995, Gaussian, Inc.),
 the Gaussian 92(TM) system (copyright 1992, Gaussian, Inc.),
 the Gaussian 90(TM) system (copyright 1990, Gaussian, Inc.),
 the Gaussian 88(TM) system (copyright 1988, Gaussian, Inc.),
 the Gaussian 86(TM) system (copyright 1986, Carnegie Mellon
 University), and the Gaussian 82(TM) system (copyright 1983,
 Carnegie Mellon University). Gaussian is a federally registered
 trademark of Gaussian, Inc.
  
 This software contains proprietary and confidential information,
 including trade secrets, belonging to Gaussian, Inc.
  
 This software is provided under written license and may be
 used, copied, transmitted, or stored only in accord with that
 written license.
  
 The following legend is applicable only to US Government
 contracts under FAR:
  
                    RESTRICTED RIGHTS LEGEND
  
 Use, reproduction and disclosure by the US Government is
 subject to restrictions as set forth in subparagraphs (a)
 and (c) of the Commercial Computer Software - Restricted
 Rights clause in FAR 52.227-19.
  
 Gaussian, Inc.
 340 Quinnipiac St., Bldg. 40, Wallingford CT 06492
  
  
 ---------------------------------------------------------------
 Warning -- This program may not be used in any manner that
 competes with the business of Gaussian, Inc. or will provide
 assistance to any competitor of Gaussian, Inc.  The licensee
 of this program is prohibited from giving any competitor of
 Gaussian, Inc. access to this program.  By using this program,
 the user acknowledges that Gaussian, Inc. is engaged in the
 business of creating and licensing software in the field of
 computational chemistry and represents and warrants to the
 licensee that it is not a competitor of Gaussian, Inc. and that
 it will not use this program in any manner prohibited above.
 ---------------------------------------------------------------
  

 Cite this work as:
 Gaussian 16, Revision C.01,
 M. J. Frisch, G. W. Trucks, H. B. Schlegel, G. E. Scuseria, 
 M. A. Robb, J. R. Cheeseman, G. Scalmani, V. Barone, 
 G. A. Petersson, H. Nakatsuji, X. Li, M. Caricato, A. V. Marenich, 
 J. Bloino, B. G. Janesko, R. Gomperts, B. Mennucci, H. P. Hratchian, 
 J. V. Ortiz, A. F. Izmaylov, J. L. Sonnenberg, D. Williams-Young, 
 F. Ding, F. Lipparini, F. Egidi, J. Goings, B. Peng, A. Petrone, 
 T. Henderson, D. Ranasinghe, V. G. Zakrzewski, J. Gao, N. Rega, 
 G. Zheng, W. Liang, M. Hada, M. Ehara, K. Toyota, R. Fukuda, 
 J. Hasegawa, M. Ishida, T. Nakajima, Y. Honda, O. Kitao, H. Nakai, 
 T. Vreven, K. Throssell, J. A. Montgomery, Jr., J. E. Peralta, 
 F. Ogliaro, M. J. Bearpark, J. J. Heyd, E. N. Brothers, K. N. Kudin, 
 V. N. Staroverov, T. A. Keith, R. Kobayashi, J. Normand, 
 K. Raghavachari, A. P. Rendell, J. C. Burant, S. S. Iyengar, 
 J. Tomasi, M. Cossi, J. M. Millam, M. Klene, C. Adamo, R. Cammi, 
 J. W. Ochterski, R. L. Martin, K. Morokuma, O. Farkas, 
 J. B. Foresman, and D. J. Fox, Gaussian, Inc., Wallingford CT, 2019.
 
 ******************************************
 Gaussian 16:  EM64L-G16RevC.01  3-Jul-2019
                22-Oct-2025 
 ******************************************
 %chk=g16_g16_C2_1.chk
 %nprocshared=8
 Will use up to    8 processors via shared memory.
 %mem=32GB
 -------------------------------------------
 #p wb97xd scrf=(smd,solvent=water) def2tzvp
 -------------------------------------------
 1/38=1,172=1/1;
 2/12=2,17=6,18=5,40=1/2;
 3/5=44,7=101,11=2,25=1,30=1,70=32201,72=1,74=-58/1,2,3;
 4//1;
 5/5=2,38=5,53=1/2;
 6/7=2,8=2,9=2,10=2,28=1/1;
 99/5=1,9=1/99;
 Leave Link    1 at Wed Oct 22 10:03:36 2025, MaxMem=  4294967296 cpu:               4.8 elap:               0.7
 (Enter /lrz/sys/applications/gaussian/g16.C.01/x86_64_legacy/exe/l101.exe)
 ------------
 g16_g16_C2_1
 ------------
 Symbolic Z-matrix:
 Charge =  0 Multiplicity = 1
 O                    -1.84007   0.00399  -0.2539 
 C                    -0.77077  -0.28589   0.23751 
 C                     0.46161   0.56098   0.16642 
 C                     1.71118  -0.24598  -0.17406 
 H                    -0.65671  -1.24142   0.80569 
 H                     0.57339   1.00734   1.17153 
 H                     0.28555   1.38253  -0.54373 
 H                     1.86658  -1.06211   0.54832 
 H                     2.6021    0.39694  -0.15154 
 H                     1.63751  -0.68984  -1.17826 
 
 ITRead=  0  0  0  0  0  0  0  0  0  0
 MicOpt= -1 -1 -1 -1 -1 -1 -1 -1 -1 -1
 NAtoms=     10 NQM=       10 NQMF=       0 NMMI=      0 NMMIF=      0
                NMic=       0 NMicF=      0.
                    Isotopes and Nuclear Properties:
 (Nuclear quadrupole moments (NQMom) in fm**2, nuclear magnetic moments (NMagM)
  in nuclear magnetons)

  Atom         1           2           3           4           5           6           7           8           9          10
 IAtWgt=          16          12          12          12           1           1           1           1           1           1
 AtmWgt=  15.9949146  12.0000000  12.0000000  12.0000000   1.0078250   1.0078250   1.0078250   1.0078250   1.0078250   1.0078250
 NucSpn=           0           0           0           0           1           1           1           1           1           1
 AtZEff=  -0.0000000  -0.0000000  -0.0000000  -0.0000000  -0.0000000  -0.0000000  -0.0000000  -0.0000000  -0.0000000  -0.0000000
 NQMom=    0.0000000   0.0000000   0.0000000   0.0000000   0.0000000   0.0000000   0.0000000   0.0000000   0.0000000   0.0000000
 NMagM=    0.0000000   0.0000000   0.0000000   0.0000000   2.7928460   2.7928460   2.7928460   2.7928460   2.7928460   2.7928460
 AtZNuc=   8.0000000   6.0000000   6.0000000   6.0000000   1.0000000   1.0000000   1.0000000   1.0000000   1.0000000   1.0000000
 Leave Link  101 at Wed Oct 22 10:03:36 2025, MaxMem=  4294967296 cpu:               0.7 elap:               0.1
 (Enter /lrz/sys/applications/gaussian/g16.C.01/x86_64_legacy/exe/l202.exe)
                          Input orientation:                          
 ---------------------------------------------------------------------
 Center     Atomic      Atomic             Coordinates (Angstroms)
 Number     Number       Type             X           Y           Z
 ---------------------------------------------------------------------
      1          8           0       -1.840068    0.003990   -0.253895
      2          6           0       -0.770765   -0.285894    0.237505
      3          6           0        0.461608    0.560984    0.166417
      4          6           0        1.711177   -0.245981   -0.174064
      5          1           0       -0.656711   -1.241424    0.805692
      6          1           0        0.573385    1.007337    1.171532
      7          1           0        0.285552    1.382534   -0.543733
      8          1           0        1.866581   -1.062113    0.548322
      9          1           0        2.602102    0.396935   -0.151543
     10          1           0        1.637511   -0.689840   -1.178258
 ---------------------------------------------------------------------
                    Distance matrix (angstroms):
                    1          2          3          4          5
     1  O    0.000000
     2  C    1.211988   0.000000
     3  C    2.405123   1.496997   0.000000
     4  C    3.560927   2.516151   1.525956   0.000000
     5  H    2.018444   1.117534   2.215397   2.749131   0.000000
     6  H    2.977130   2.086047   1.105433   2.162407   2.589189
     7  H    2.550029   2.123627   1.100115   2.195706   3.097412
     8  H    3.939464   2.766716   2.180423   1.100937   2.542714
     9  H    4.460690   3.463213   2.170190   1.098907   3.770992
    10  H    3.664615   2.822650   2.180702   1.100383   3.082816
                    6          7          8          9         10
     6  H    0.000000
     7  H    1.779257   0.000000
     8  H    2.518605   3.109427   0.000000
     9  H    2.497761   2.547866   1.777533   0.000000
    10  H    3.087764   2.554437   1.781050   1.779230   0.000000
 Stoichiometry    C3H6O
 Framework group  C1[X(C3H6O)]
 Deg. of freedom    24
 Full point group                 C1      NOp   1
 Largest Abelian subgroup         C1      NOp   1
 Largest concise Abelian subgroup C1      NOp   1
                         Standard orientation:                         
 ---------------------------------------------------------------------
 Center     Atomic      Atomic             Coordinates (Angstroms)
 Number     Number       Type             X           Y           Z
 ---------------------------------------------------------------------
      1          8           0       -1.840068    0.003990   -0.253895
      2          6           0       -0.770765   -0.285894    0.237505
      3          6           0        0.461608    0.560984    0.166417
      4          6           0        1.711177   -0.245981   -0.174064
      5          1           0       -0.656711   -1.241424    0.805692
      6          1           0        0.573385    1.007337    1.171532
      7          1           0        0.285552    1.382534   -0.543733
      8          1           0        1.866581   -1.062113    0.548322
      9          1           0        2.602102    0.396935   -0.151543
     10          1           0        1.637511   -0.689840   -1.178258
 ---------------------------------------------------------------------
 Rotational constants (GHZ):          27.7642590           4.2604255           4.0757361
 Leave Link  202 at Wed Oct 22 10:03:36 2025, MaxMem=  4294967296 cpu:               0.0 elap:               0.0
 (Enter /lrz/sys/applications/gaussian/g16.C.01/x86_64_legacy/exe/l301.exe)
 Standard basis: def2TZVP (5D, 7F)
 Ernie: Thresh=  0.10000D-02 Tol=  0.10000D-05 Strict=F.
 There are   180 symmetry adapted cartesian basis functions of A   symmetry.
 There are   160 symmetry adapted basis functions of A   symmetry.
   160 basis functions,   252 primitive gaussians,   180 cartesian basis functions
    16 alpha electrons       16 beta electrons
       nuclear repulsion energy       116.3969581915 Hartrees.
 IExCor= 4639 DFT=T Ex+Corr=wB97XD ExCW=0 ScaHFX=  1.000000
 ScaDFX=  1.000000  1.000000  1.000000  1.000000 ScalE2=  1.000000  1.000000
 IRadAn=      5 IRanWt=     -1 IRanGd=            0 ICorTp=0 IEmpDi=121
 HFx  wShort=  0.000000 wLong=  0.200000 cFull=  0.222036 cShort=  0.000000 cLong=  0.777964
 DFx  wShort=  0.000000 wLong=  0.200000 cFull=  0.000000 cShort=  0.000000 cLong=  1.000000
 NAtoms=   10 NActive=   10 NUniq=   10 SFac= 1.00D+00 NAtFMM=   60 NAOKFM=F Big=F
 Integral buffers will be    131072 words long.
 Raffenetti 2 integral format.
 Two-electron integral symmetry is turned on.
 R6Disp:  Grimme-D2 Dispersion energy=       -0.0032608989 Hartrees.
 Nuclear repulsion after empirical dispersion term =      116.3936972926 Hartrees.
 ------------------------------------------------------------------------------
 Polarizable Continuum Model (PCM)
 =================================
 Model                : PCM.
 Atomic radii         : SMD-Coulomb.
 Polarization charges : Total charges.
 Charge compensation  : None.
 Solution method      : On-the-fly selection.
 Cavity type          : VdW (van der Waals Surface) (Alpha=1.000).
 Cavity algorithm     : GePol (No added spheres)
                        Default sphere list used, NSphG=   10.
                        Lebedev-Laikov grids with approx.  5.0 points / Ang**2.
                        Smoothing algorithm: York/Karplus (Gamma=1.0000).
                        Polarization charges: spherical gaussians, with
                                              point-specific exponents (IZeta= 3).
                        Self-potential: point-specific (ISelfS= 7).
                        Self-field    : sphere-specific E.n sum rule (ISelfD= 2).
 Solvent              : Water, Eps=  78.355300 Eps(inf)=   1.777849
 ------------------------------------------------------------------------------
 Spheres list:
 ISph  on   Nord     Re0    Alpha      Xe            Ye            Ze
    1   O      1    1.5200  1.000     -1.840068      0.003990     -0.253895
    2   C      2    1.8500  1.000     -0.770765     -0.285894      0.237505
    3   C      3    1.8500  1.000      0.461608      0.560984      0.166417
    4   C      4    1.8500  1.000      1.711177     -0.245981     -0.174064
    5   H      5    1.2000  1.000     -0.656711     -1.241424      0.805692
    6   H      6    1.2000  1.000      0.573385      1.007337      1.171532
    7   H      7    1.2000  1.000      0.285552      1.382534     -0.543733
    8   H      8    1.2000  1.000      1.866581     -1.062113      0.548322
    9   H      9    1.2000  1.000      2.602102      0.396935     -0.151543
   10   H     10    1.2000  1.000      1.637511     -0.689840     -1.178258
 ------------------------------------------------------------------------------
 GePol: Number of generator spheres                  =      10
 GePol: Total number of spheres                      =      10
 GePol: Number of exposed spheres                    =      10 (100.00%)
 GePol: Number of points                             =     803
 GePol: Average weight of points                     =       0.12
 GePol: Minimum weight of points                     =   0.13D-07
 GePol: Maximum weight of points                     =    0.21991
 GePol: Number of points with low weight             =      49
 GePol: Fraction of low-weight points (<1% of avg)   =       6.10%
 GePol: Cavity surface area                          =     94.418 Ang**2
 GePol: Cavity volume                                =     69.505 Ang**3
 ------------------------------------------------------------------------------
 Atomic radii for non-electrostatic terms: SMD-CDS.
 ------------------------------------------------------------------------------
 PCM non-electrostatic energy =         0.0058882083 Hartrees.
 Nuclear repulsion after PCM non-electrostatic terms =      116.3995855009 Hartrees.
 Leave Link  301 at Wed Oct 22 10:03:36 2025, MaxMem=  4294967296 cpu:               0.6 elap:               0.1
 (Enter /lrz/sys/applications/gaussian/g16.C.01/x86_64_legacy/exe/l302.exe)
 NPDir=0 NMtPBC=     1 NCelOv=     1 NCel=       1 NClECP=     1 NCelD=      1
         NCelK=      1 NCelE2=     1 NClLst=     1 CellRange=     0.0.
 One-electron integrals computed using PRISM.
 One-electron integral symmetry used in STVInt
   1 Symmetry operations used in ECPInt.
 ECPInt:  NShTT=    2346 NPrTT=    6892 LenC2=    2333 LenP2D=    5913.
 LDataN:  DoStor=T MaxTD1= 6 Len=  172
 NBasis=   160 RedAO= T EigKep=  3.71D-04  NBF=   160
 NBsUse=   160 1.00D-06 EigRej= -1.00D+00 NBFU=   160
 Precomputing XC quadrature grid using
 IXCGrd= 4 IRadAn=           5 IRanWt=          -1 IRanGd=           0 AccXCQ= 0.00D+00.
 Generated NRdTot=       0 NPtTot=           0 NUsed=           0 NTot=          32
 NSgBfM=   180   180   180   180   180 MxSgAt=    10 MxSgA2=    10.
 Leave Link  302 at Wed Oct 22 10:03:36 2025, MaxMem=  4294967296 cpu:               1.5 elap:               0.2
 (Enter /lrz/sys/applications/gaussian/g16.C.01/x86_64_legacy/exe/l303.exe)
 DipDrv:  MaxL=1.
 Leave Link  303 at Wed Oct 22 10:03:36 2025, MaxMem=  4294967296 cpu:               0.2 elap:               0.0
 (Enter /lrz/sys/applications/gaussian/g16.C.01/x86_64_legacy/exe/l401.exe)
 ExpMin= 9.52D-02 ExpMax= 2.70D+04 ExpMxC= 9.22D+02 IAcc=3 IRadAn=         5 AccDes= 0.00D+00
 Harris functional with IExCor= 4639 and IRadAn=       5 diagonalized for initial guess.
 HarFok:  IExCor= 4639 AccDes= 0.00D+00 IRadAn=         5 IDoV= 1 UseB2=F ITyADJ=14
 ICtDFT=  3500011 ScaDFX=  1.000000  1.000000  1.000000  1.000000
 FoFCou: FMM=F IPFlag=           0 FMFlag=      100000 FMFlg1=           0
         NFxFlg=           0 DoJE=T BraDBF=F KetDBF=T FulRan=T
         wScrn=  0.000000 ICntrl=       500 IOpCl=  0 I1Cent=   200000004 NGrid=           0
         NMat0=    1 NMatS0=      1 NMatT0=    0 NMatD0=    1 NMtDS0=    0 NMtDT0=    0
 Petite list used in FoFCou.
 Harris En= -184.795578040958    
 JPrj=0 DoOrth=F DoCkMO=F.
 Leave Link  401 at Wed Oct 22 10:03:37 2025, MaxMem=  4294967296 cpu:               6.3 elap:               0.8
 (Enter /lrz/sys/applications/gaussian/g16.C.01/x86_64_legacy/exe/l502.exe)
 Keep R1 ints in memory in canonical form, NReq=176071796.
 FoFCou: FMM=F IPFlag=           0 FMFlag=           0 FMFlg1=           0
         NFxFlg=           0 DoJE=F BraDBF=F KetDBF=F FulRan=T
         wScrn=  0.000000 ICntrl=       600 IOpCl=  0 I1Cent=           0 NGrid=           0
         NMat0=    1 NMatS0=  12880 NMatT0=    0 NMatD0=    1 NMtDS0=    0 NMtDT0=    0
 Symmetry not used in FoFCou.
 Two-electron integral symmetry not used.
 Closed shell SCF:
 Using DIIS extrapolation, IDIIS=  1040.
 NGot=  4294967296 LenX=  4128991762 LenY=  4128958921
 Requested convergence on RMS density matrix=1.00D-08 within 128 cycles.
 Requested convergence on MAX density matrix=1.00D-06.
 Requested convergence on             energy=1.00D-06.
 No special actions if energy rises.

 Cycle   1  Pass 1  IDiag  1:
 Inv3:  Mode=1 IEnd=     1934427.
 Iteration    1 A*A^-1 deviation from unit magnitude is 5.77D-15 for    318.
 Iteration    1 A*A^-1 deviation from orthogonality  is 4.36D-15 for    700    459.
 Iteration    1 A^-1*A deviation from unit magnitude is 5.55D-15 for    318.
 Iteration    1 A^-1*A deviation from orthogonality  is 1.56D-15 for    486    213.
 E= -193.103995730985    
 DIIS: error= 4.70D-02 at cycle   1 NSaved=   1.
 NSaved= 1 IEnMin= 1 EnMin= -193.103995730985     IErMin= 1 ErrMin= 4.70D-02
 ErrMax= 4.70D-02  0.00D+00 EMaxC= 1.00D-01 BMatC= 4.13D-01 BMatP= 4.13D-01
 IDIUse=3 WtCom= 5.30D-01 WtEn= 4.70D-01
 Coeff-Com:  0.100D+01
 Coeff-En:   0.100D+01
 Coeff:      0.100D+01
 Gap=     0.409 Goal=   None    Shift=    0.000
 GapD=    0.409 DampG=2.000 DampE=0.500 DampFc=1.0000 IDamp=-1.
 RMSDP=3.26D-03 MaxDP=1.87D-01              OVMax= 7.58D-02

 Cycle   2  Pass 1  IDiag  1:
 E= -193.135736822641     Delta-E=       -0.031741091656 Rises=F Damp=F
 DIIS: error= 1.10D-02 at cycle   2 NSaved=   2.
 NSaved= 2 IEnMin= 2 EnMin= -193.135736822641     IErMin= 2 ErrMin= 1.10D-02
 ErrMax= 1.10D-02  0.00D+00 EMaxC= 1.00D-01 BMatC= 3.99D-02 BMatP= 4.13D-01
 IDIUse=3 WtCom= 8.90D-01 WtEn= 1.10D-01
 Coeff-Com:  0.169D+00 0.831D+00
 Coeff-En:   0.193D+00 0.807D+00
 Coeff:      0.171D+00 0.829D+00
 Gap=     0.411 Goal=   None    Shift=    0.000
 RMSDP=1.13D-03 MaxDP=3.74D-02 DE=-3.17D-02 OVMax= 8.29D-02

 Cycle   3  Pass 1  IDiag  1:
 E= -193.144459297170     Delta-E=       -0.008722474529 Rises=F Damp=F
 DIIS: error= 9.22D-03 at cycle   3 NSaved=   3.
 NSaved= 3 IEnMin= 3 EnMin= -193.144459297170     IErMin= 3 ErrMin= 9.22D-03
 ErrMax= 9.22D-03  0.00D+00 EMaxC= 1.00D-01 BMatC= 2.69D-02 BMatP= 3.99D-02
 IDIUse=3 WtCom= 9.08D-01 WtEn= 9.22D-02
 Coeff-Com:  0.308D-01 0.455D+00 0.515D+00
 Coeff-En:   0.000D+00 0.407D+00 0.593D+00
 Coeff:      0.279D-01 0.450D+00 0.522D+00
 Gap=     0.398 Goal=   None    Shift=    0.000
 RMSDP=7.35D-04 MaxDP=3.17D-02 DE=-8.72D-03 OVMax= 3.18D-02

 Cycle   4  Pass 1  IDiag  1:
 E= -193.162295817228     Delta-E=       -0.017836520058 Rises=F Damp=F
 DIIS: error= 1.53D-03 at cycle   4 NSaved=   4.
 NSaved= 4 IEnMin= 4 EnMin= -193.162295817228     IErMin= 4 ErrMin= 1.53D-03
 ErrMax= 1.53D-03  0.00D+00 EMaxC= 1.00D-01 BMatC= 5.66D-04 BMatP= 2.69D-02
 IDIUse=3 WtCom= 9.85D-01 WtEn= 1.53D-02
 Coeff-Com:  0.102D-01 0.183D+00 0.249D+00 0.558D+00
 Coeff-En:   0.000D+00 0.000D+00 0.000D+00 0.100D+01
 Coeff:      0.100D-01 0.181D+00 0.245D+00 0.564D+00
 Gap=     0.391 Goal=   None    Shift=    0.000
 RMSDP=8.82D-05 MaxDP=2.79D-03 DE=-1.78D-02 OVMax= 4.49D-03

 Cycle   5  Pass 1  IDiag  1:
 E= -193.162716866984     Delta-E=       -0.000421049756 Rises=F Damp=F
 DIIS: error= 1.53D-04 at cycle   5 NSaved=   5.
 NSaved= 5 IEnMin= 5 EnMin= -193.162716866984     IErMin= 5 ErrMin= 1.53D-04
 ErrMax= 1.53D-04  0.00D+00 EMaxC= 1.00D-01 BMatC= 7.06D-06 BMatP= 5.66D-04
 IDIUse=3 WtCom= 9.98D-01 WtEn= 1.53D-03
 Coeff-Com: -0.202D-02-0.257D-01-0.203D-01 0.236D-01 0.102D+01
 Coeff-En:   0.000D+00 0.000D+00 0.000D+00 0.000D+00 0.100D+01
 Coeff:     -0.202D-02-0.256D-01-0.202D-01 0.236D-01 0.102D+01
 Gap=     0.391 Goal=   None    Shift=    0.000
 RMSDP=7.37D-05 MaxDP=2.99D-03 DE=-4.21D-04 OVMax= 1.73D-03

 Cycle   6  Pass 1  IDiag  1:
 E= -193.162730620444     Delta-E=       -0.000013753459 Rises=F Damp=F
 DIIS: error= 5.46D-05 at cycle   6 NSaved=   6.
 NSaved= 6 IEnMin= 6 EnMin= -193.162730620444     IErMin= 6 ErrMin= 5.46D-05
 ErrMax= 5.46D-05  0.00D+00 EMaxC= 1.00D-01 BMatC= 6.36D-07 BMatP= 7.06D-06
 IDIUse=1 WtCom= 1.00D+00 WtEn= 0.00D+00
 Coeff-Com: -0.723D-03-0.142D-01-0.173D-01-0.294D-01 0.153D+00 0.908D+00
 Coeff:     -0.723D-03-0.142D-01-0.173D-01-0.294D-01 0.153D+00 0.908D+00
 Gap=     0.391 Goal=   None    Shift=    0.000
 RMSDP=1.69D-05 MaxDP=5.41D-04 DE=-1.38D-05 OVMax= 5.34D-04

 Cycle   7  Pass 1  IDiag  1:
 E= -193.162731855193     Delta-E=       -0.000001234749 Rises=F Damp=F
 DIIS: error= 1.59D-05 at cycle   7 NSaved=   7.
 NSaved= 7 IEnMin= 7 EnMin= -193.162731855193     IErMin= 7 ErrMin= 1.59D-05
 ErrMax= 1.59D-05  0.00D+00 EMaxC= 1.00D-01 BMatC= 8.27D-08 BMatP= 6.36D-07
 IDIUse=1 WtCom= 1.00D+00 WtEn= 0.00D+00
 Coeff-Com:  0.103D-03 0.136D-02 0.509D-03-0.744D-02-0.104D+00 0.179D+00
 Coeff-Com:  0.931D+00
 Coeff:      0.103D-03 0.136D-02 0.509D-03-0.744D-02-0.104D+00 0.179D+00
 Coeff:      0.931D+00
 Gap=     0.391 Goal=   None    Shift=    0.000
 RMSDP=6.17D-06 MaxDP=1.74D-04 DE=-1.23D-06 OVMax= 2.44D-04

 Cycle   8  Pass 1  IDiag  1:
 E= -193.162732015281     Delta-E=       -0.000000160089 Rises=F Damp=F
 DIIS: error= 3.26D-06 at cycle   8 NSaved=   8.
 NSaved= 8 IEnMin= 8 EnMin= -193.162732015281     IErMin= 8 ErrMin= 3.26D-06
 ErrMax= 3.26D-06  0.00D+00 EMaxC= 1.00D-01 BMatC= 3.40D-09 BMatP= 8.27D-08
 IDIUse=1 WtCom= 1.00D+00 WtEn= 0.00D+00
 Coeff-Com:  0.466D-04 0.854D-03 0.115D-02 0.108D-02-0.933D-02-0.526D-01
 Coeff-Com:  0.167D-01 0.104D+01
 Coeff:      0.466D-04 0.854D-03 0.115D-02 0.108D-02-0.933D-02-0.526D-01
 Coeff:      0.167D-01 0.104D+01
 Gap=     0.391 Goal=   None    Shift=    0.000
 RMSDP=1.43D-06 MaxDP=4.05D-05 DE=-1.60D-07 OVMax= 6.10D-05

 Cycle   9  Pass 1  IDiag  1:
 E= -193.162732023679     Delta-E=       -0.000000008397 Rises=F Damp=F
 DIIS: error= 7.43D-07 at cycle   9 NSaved=   9.
 NSaved= 9 IEnMin= 9 EnMin= -193.162732023679     IErMin= 9 ErrMin= 7.43D-07
 ErrMax= 7.43D-07  0.00D+00 EMaxC= 1.00D-01 BMatC= 1.56D-10 BMatP= 3.40D-09
 IDIUse=1 WtCom= 1.00D+00 WtEn= 0.00D+00
 Coeff-Com: -0.398D-05-0.385D-04 0.386D-04 0.507D-03 0.610D-02-0.139D-01
 Coeff-Com: -0.542D-01-0.384D-01 0.110D+01
 Coeff:     -0.398D-05-0.385D-04 0.386D-04 0.507D-03 0.610D-02-0.139D-01
 Coeff:     -0.542D-01-0.384D-01 0.110D+01
 Gap=     0.391 Goal=   None    Shift=    0.000
 RMSDP=5.02D-07 MaxDP=1.86D-05 DE=-8.40D-09 OVMax= 2.11D-05

 Cycle  10  Pass 1  IDiag  1:
 E= -193.162732024302     Delta-E=       -0.000000000623 Rises=F Damp=F
 DIIS: error= 3.29D-07 at cycle  10 NSaved=  10.
 NSaved=10 IEnMin=10 EnMin= -193.162732024302     IErMin=10 ErrMin= 3.29D-07
 ErrMax= 3.29D-07  0.00D+00 EMaxC= 1.00D-01 BMatC= 9.79D-12 BMatP= 1.56D-10
 IDIUse=1 WtCom= 1.00D+00 WtEn= 0.00D+00
 Coeff-Com: -0.545D-06-0.176D-04-0.401D-04-0.781D-04-0.463D-03 0.363D-02
 Coeff-Com:  0.548D-02-0.319D-01-0.133D+00 0.116D+01
 Coeff:     -0.545D-06-0.176D-04-0.401D-04-0.781D-04-0.463D-03 0.363D-02
 Coeff:      0.548D-02-0.319D-01-0.133D+00 0.116D+01
 Gap=     0.391 Goal=   None    Shift=    0.000
 RMSDP=1.19D-07 MaxDP=4.54D-06 DE=-6.23D-10 OVMax= 6.78D-06

 Cycle  11  Pass 1  IDiag  1:
 E= -193.162732024356     Delta-E=       -0.000000000055 Rises=F Damp=F
 DIIS: error= 1.61D-07 at cycle  11 NSaved=  11.
 NSaved=11 IEnMin=11 EnMin= -193.162732024356     IErMin=11 ErrMin= 1.61D-07
 ErrMax= 1.61D-07  0.00D+00 EMaxC= 1.00D-01 BMatC= 2.60D-12 BMatP= 9.79D-12
 IDIUse=1 WtCom= 1.00D+00 WtEn= 0.00D+00
 Coeff-Com:  0.231D-06-0.596D-06-0.138D-04-0.745D-04-0.749D-03 0.240D-02
 Coeff-Com:  0.720D-02-0.419D-02-0.151D+00 0.328D+00 0.818D+00
 Coeff:      0.231D-06-0.596D-06-0.138D-04-0.745D-04-0.749D-03 0.240D-02
 Coeff:      0.720D-02-0.419D-02-0.151D+00 0.328D+00 0.818D+00
 Gap=     0.391 Goal=   None    Shift=    0.000
 RMSDP=2.66D-08 MaxDP=6.52D-07 DE=-5.47D-11 OVMax= 2.55D-06

 Cycle  12  Pass 1  IDiag  1:
 E= -193.162732024367     Delta-E=       -0.000000000011 Rises=F Damp=F
 DIIS: error= 7.58D-08 at cycle  12 NSaved=  12.
 NSaved=12 IEnMin=12 EnMin= -193.162732024367     IErMin=12 ErrMin= 7.58D-08
 ErrMax= 7.58D-08  0.00D+00 EMaxC= 1.00D-01 BMatC= 4.14D-13 BMatP= 2.60D-12
 IDIUse=1 WtCom= 1.00D+00 WtEn= 0.00D+00
 Coeff-Com: -0.214D-07 0.166D-05 0.663D-05 0.108D-04 0.111D-03-0.761D-03
 Coeff-Com: -0.988D-03 0.633D-02 0.246D-01-0.245D+00 0.489D-02 0.121D+01
 Coeff:     -0.214D-07 0.166D-05 0.663D-05 0.108D-04 0.111D-03-0.761D-03
 Coeff:     -0.988D-03 0.633D-02 0.246D-01-0.245D+00 0.489D-02 0.121D+01
 Gap=     0.391 Goal=   None    Shift=    0.000
 RMSDP=1.48D-08 MaxDP=2.65D-07 DE=-1.05D-11 OVMax= 2.09D-06

 Cycle  13  Pass 1  IDiag  1:
 E= -193.162732024370     Delta-E=       -0.000000000003 Rises=F Damp=F
 DIIS: error= 1.94D-08 at cycle  13 NSaved=  13.
 NSaved=13 IEnMin=13 EnMin= -193.162732024370     IErMin=13 ErrMin= 1.94D-08
 ErrMax= 1.94D-08  0.00D+00 EMaxC= 1.00D-01 BMatC= 3.45D-14 BMatP= 4.14D-13
 IDIUse=1 WtCom= 1.00D+00 WtEn= 0.00D+00
 Coeff-Com: -0.135D-07-0.294D-07 0.807D-06 0.895D-05 0.818D-04-0.223D-03
 Coeff-Com: -0.806D-03-0.168D-03 0.163D-01-0.121D-01-0.111D+00-0.136D+00
 Coeff-Com:  0.124D+01
 Coeff:     -0.135D-07-0.294D-07 0.807D-06 0.895D-05 0.818D-04-0.223D-03
 Coeff:     -0.806D-03-0.168D-03 0.163D-01-0.121D-01-0.111D+00-0.136D+00
 Coeff:      0.124D+01
 Gap=     0.391 Goal=   None    Shift=    0.000
 RMSDP=7.17D-09 MaxDP=2.37D-07 DE=-2.56D-12 OVMax= 7.12D-07

 Error on total polarization charges =  0.03895
 SCF Done:  E(RwB97XD) =  -193.162732024     A.U. after   13 cycles
            NFock= 13  Conv=0.72D-08     -V/T= 2.0053
 KE= 1.921471073756D+02 PE=-6.835928150458D+02 EE= 1.818833901450D+02
 SMD-CDS (non-electrostatic) energy       (kcal/mol) =       3.69
 (included in total energy above)
 Leave Link  502 at Wed Oct 22 10:03:55 2025, MaxMem=  4294967296 cpu:             134.9 elap:              18.4
 (Enter /lrz/sys/applications/gaussian/g16.C.01/x86_64_legacy/exe/l601.exe)
 Copying SCF densities to generalized density rwf, IOpCl= 0 IROHF=0.

 **********************************************************************

            Population analysis using the SCF Density.

 **********************************************************************

 Orbital symmetries:
       Occupied  (A) (A) (A) (A) (A) (A) (A) (A) (A) (A) (A) (A)
                 (A) (A) (A) (A)
       Virtual   (A) (A) (A) (A) (A) (A) (A) (A) (A) (A) (A) (A)
                 (A) (A) (A) (A) (A) (A) (A) (A) (A) (A) (A) (A)
                 (A) (A) (A) (A) (A) (A) (A) (A) (A) (A) (A) (A)
                 (A) (A) (A) (A) (A) (A) (A) (A) (A) (A) (A) (A)
                 (A) (A) (A) (A) (A) (A) (A) (A) (A) (A) (A) (A)
                 (A) (A) (A) (A) (A) (A) (A) (A) (A) (A) (A) (A)
                 (A) (A) (A) (A) (A) (A) (A) (A) (A) (A) (A) (A)
                 (A) (A) (A) (A) (A) (A) (A) (A) (A) (A) (A) (A)
                 (A) (A) (A) (A) (A) (A) (A) (A) (A) (A) (A) (A)
                 (A) (A) (A) (A) (A) (A) (A) (A) (A) (A) (A) (A)
                 (A) (A) (A) (A) (A) (A) (A) (A) (A) (A) (A) (A)
                 (A) (A) (A) (A) (A) (A) (A) (A) (A) (A) (A) (A)
 The electronic state is 1-A.
 Alpha  occ. eigenvalues --  -19.25541 -10.37863 -10.28661 -10.27525  -1.15809
 Alpha  occ. eigenvalues --   -0.88118  -0.74742  -0.66474  -0.56849  -0.54544
 Alpha  occ. eigenvalues --   -0.52856  -0.48915  -0.46071  -0.44295  -0.42421
 Alpha  occ. eigenvalues --   -0.34766
 Alpha virt. eigenvalues --    0.04372   0.13284   0.16140   0.16785   0.18959
 Alpha virt. eigenvalues --    0.20050   0.20922   0.23993   0.24493   0.28621
 Alpha virt. eigenvalues --    0.29867   0.31777   0.33439   0.34381   0.39568
 Alpha virt. eigenvalues --    0.40906   0.43554   0.47503   0.48094   0.49235
 Alpha virt. eigenvalues --    0.49619   0.51386   0.52000   0.53255   0.56272
 Alpha virt. eigenvalues --    0.57561   0.60101   0.62869   0.67528   0.68462
 Alpha virt. eigenvalues --    0.70271   0.74533   0.83308   0.85904   0.89571
 Alpha virt. eigenvalues --    0.91874   0.95742   1.03227   1.04523   1.07683
 Alpha virt. eigenvalues --    1.12656   1.14880   1.17381   1.20081   1.25759
 Alpha virt. eigenvalues --    1.27448   1.35875   1.49963   1.51647   1.53902
 Alpha virt. eigenvalues --    1.59177   1.59716   1.62419   1.63684   1.66345
 Alpha virt. eigenvalues --    1.68516   1.69675   1.73869   1.79030   1.84464
 Alpha virt. eigenvalues --    1.86750   1.88116   1.95636   1.99093   2.01254
 Alpha virt. eigenvalues --    2.05105   2.11751   2.20703   2.21205   2.25469
 Alpha virt. eigenvalues --    2.28699   2.31746   2.37340   2.40461   2.41445
 Alpha virt. eigenvalues --    2.45933   2.47632   2.55475   2.60536   2.63405
 Alpha virt. eigenvalues --    2.64066   2.69753   2.71516   2.72333   2.75150
 Alpha virt. eigenvalues --    2.77461   2.82798   2.88729   2.91343   2.96212
 Alpha virt. eigenvalues --    3.01166   3.03888   3.06367   3.09738   3.15121
 Alpha virt. eigenvalues --    3.17525   3.22045   3.24720   3.25768   3.28363
 Alpha virt. eigenvalues --    3.30302   3.37933   3.38526   3.39933   3.46813
 Alpha virt. eigenvalues --    3.48630   3.55040   3.58403   3.60815   3.66475
 Alpha virt. eigenvalues --    3.70984   3.82961   3.84059   3.93155   3.97383
 Alpha virt. eigenvalues --    3.99931   4.09398   4.12129   4.21922   4.23793
 Alpha virt. eigenvalues --    4.37654   4.46530   4.52120   4.58212   4.62410
 Alpha virt. eigenvalues --    4.71036   4.81931   4.87531   5.25936   5.26332
 Alpha virt. eigenvalues --    5.62598   5.72305   6.17317   6.38462   6.41698
 Alpha virt. eigenvalues --    6.45603   6.52403   6.86412   6.98960   7.11276
 Alpha virt. eigenvalues --   22.38102  22.50608  22.82268  43.82434
          Condensed to atoms (all electrons):
               1          2          3          4          5          6
     1  O    8.014072   0.574821  -0.109827   0.005281  -0.061552   0.002109
     2  C    0.574821   4.561922   0.295023  -0.016341   0.424135  -0.013813
     3  C   -0.109827   0.295023   5.166573   0.260218  -0.122926   0.379823
     4  C    0.005281  -0.016341   0.260218   4.974212   0.014610  -0.029315
     5  H   -0.061552   0.424135  -0.122926   0.014610   0.619115   0.003006
     6  H    0.002109  -0.013813   0.379823  -0.029315   0.003006   0.534940
     7  H    0.011805  -0.026841   0.375478  -0.018056   0.009453  -0.019297
     8  H   -0.000015  -0.004094  -0.033603   0.410278   0.002444  -0.003980
     9  H   -0.000295   0.006294  -0.029048   0.407029  -0.000665  -0.005592
    10  H    0.001040  -0.003619  -0.035289   0.405903   0.000910   0.006404
               7          8          9         10
     1  O    0.011805  -0.000015  -0.000295   0.001040
     2  C   -0.026841  -0.004094   0.006294  -0.003619
     3  C    0.375478  -0.033603  -0.029048  -0.035289
     4  C   -0.018056   0.410278   0.407029   0.405903
     5  H    0.009453   0.002444  -0.000665   0.000910
     6  H   -0.019297  -0.003980  -0.005592   0.006404
     7  H    0.551125   0.005280  -0.004490  -0.003696
     8  H    0.005280   0.532872  -0.020415  -0.025444
     9  H   -0.004490  -0.020415   0.522722  -0.021487
    10  H   -0.003696  -0.025444  -0.021487   0.539156
 Mulliken charges:
               1
     1  O   -0.437441
     2  C    0.202513
     3  C   -0.146423
     4  C   -0.413820
     5  H    0.111471
     6  H    0.145715
     7  H    0.119238
     8  H    0.136678
     9  H    0.145948
    10  H    0.136121
 Sum of Mulliken charges =  -0.00000
 Mulliken charges with hydrogens summed into heavy atoms:
               1
     1  O   -0.437441
     2  C    0.313984
     3  C    0.118530
     4  C    0.004926
 Electronic spatial extent (au):  <R**2>=            336.3059
 Charge=             -0.0000 electrons
 Dipole moment (field-independent basis, Debye):
    X=              3.8341    Y=             -0.4235    Z=              1.4709  Tot=              4.1284
 Quadrupole moment (field-independent basis, Debye-Ang):
   XX=            -32.3332   YY=            -23.8918   ZZ=            -23.9730
   XY=              0.9169   XZ=             -1.6576   YZ=             -0.1218
 Traceless Quadrupole moment (field-independent basis, Debye-Ang):
   XX=             -5.6006   YY=              2.8409   ZZ=              2.7597
   XY=              0.9169   XZ=             -1.6576   YZ=             -0.1218
 Octapole moment (field-independent basis, Debye-Ang**2):
  XXX=             13.6422  YYY=             -0.3535  ZZZ=              0.6426  XYY=             -1.1012
  XXY=              0.7359  XXZ=              3.1931  XZZ=             -1.0815  YZZ=             -0.1299
  YYZ=              0.8368  XYZ=              0.0859
 Hexadecapole moment (field-independent basis, Debye-Ang**3):
 XXXX=           -349.8897 YYYY=            -65.5494 ZZZZ=            -45.5735 XXXY=              3.4557
 XXXZ=             -3.4157 YYYX=              1.5396 YYYZ=             -2.0043 ZZZX=              0.7017
 ZZZY=              1.4620 XXYY=            -64.3186 XXZZ=            -61.8593 YYZZ=            -16.8803
 XXYZ=             -0.1275 YYXZ=              0.4526 ZZXY=              0.1468
 N-N= 1.163995855009D+02 E-N=-6.835928148643D+02  KE= 1.921471073756D+02
 No NMR shielding tensors so no spin-rotation constants.
 Leave Link  601 at Wed Oct 22 10:03:56 2025, MaxMem=  4294967296 cpu:               1.0 elap:               0.2
 (Enter /lrz/sys/applications/gaussian/g16.C.01/x86_64_legacy/exe/l9999.exe)
 Unable to Open any file for archive entry.
 1\1\GINC-CM4R15C05S03\SP\RwB97XD\def2TZVP\C3H6O1\GO29TIZ2\22-Oct-2025\
 0\\#p wb97xd scrf=(smd,solvent=water) def2tzvp\\g16_g16_C2_1\\0,1\O,0,
 -1.840068,0.00399,-0.253895\C,0,-0.770765,-0.285894,0.237505\C,0,0.461
 608,0.560984,0.166417\C,0,1.711177,-0.245981,-0.174064\H,0,-0.656711,-
 1.241424,0.805692\H,0,0.573385,1.007337,1.171532\H,0,0.285552,1.382534
 ,-0.543733\H,0,1.866581,-1.062113,0.548322\H,0,2.602102,0.396935,-0.15
 1543\H,0,1.637511,-0.68984,-1.178258\\Version=EM64L-G16RevC.01\State=1
 -A\HF=-193.162732\RMSD=7.168e-09\Dipole=1.5084533,-0.1666376,0.5786938
 \Quadrupole=-4.1638722,2.112133,2.0517391,0.6817298,-1.2323867,-0.0905
 494\PG=C01 [X(C3H6O1)]\\@
 The archive entry for this job was punched.


 FRICTION IS A DRAG,
 AND ENTROPY AIN'T WHAT IT USED TO BE.
 Job cpu time:       0 days  0 hours  2 minutes 30.5 seconds.
 Elapsed time:       0 days  0 hours  0 minutes 20.6 seconds.
 File lengths (MBytes):  RWF=    272 Int=      0 D2E=      0 Chk=      8 Scr=     32
 Normal termination of Gaussian 16 at Wed Oct 22 10:03:56 2025.
