 Entering Gaussian System, Link 0=g16
 Input=../../g16_g16_C17-a_27.com
 Output=../../g16_g16_C17-a_27.log
 Initial command:
 /lrz/sys/applications/gaussian/g16.C.01/x86_64_legacy/exe/l1.exe "/dss/lxclscratch/0D/go29tiz2/Gau-2799.inp" -scrdir="/dss/lxclscratch/0D/go29tiz2/"
 Entering Link 1 = /lrz/sys/applications/gaussian/g16.C.01/x86_64_legacy/exe/l1.exe PID=      2800.
  
 Copyright (c) 1988-2019, Gaussian, Inc.  All Rights Reserved.
  
 This is part of the Gaussian(R) 16 program.  It is based on
 the Gaussian(R) 09 system (copyright 2009, Gaussian, Inc.),
 the Gaussian(R) 03 system (copyright 2003, Gaussian, Inc.),
 the Gaussian(R) 98 system (copyright 1998, Gaussian, Inc.),
 the Gaussian(R) 94 system (copyright 1995, Gaussian, Inc.),
 the Gaussian 92(TM) system (copyright 1992, Gaussian, Inc.),
 the Gaussian 90(TM) system (copyright 1990, Gaussian, Inc.),
 the Gaussian 88(TM) system (copyright 1988, Gaussian, Inc.),
 the Gaussian 86(TM) system (copyright 1986, Carnegie Mellon
 University), and the Gaussian 82(TM) system (copyright 1983,
 Carnegie Mellon University). Gaussian is a federally registered
 trademark of Gaussian, Inc.
  
 This software contains proprietary and confidential information,
 including trade secrets, belonging to Gaussian, Inc.
  
 This software is provided under written license and may be
 used, copied, transmitted, or stored only in accord with that
 written license.
  
 The following legend is applicable only to US Government
 contracts under FAR:
  
                    RESTRICTED RIGHTS LEGEND
  
 Use, reproduction and disclosure by the US Government is
 subject to restrictions as set forth in subparagraphs (a)
 and (c) of the Commercial Computer Software - Restricted
 Rights clause in FAR 52.227-19.
  
 Gaussian, Inc.
 340 Quinnipiac St., Bldg. 40, Wallingford CT 06492
  
  
 ---------------------------------------------------------------
 Warning -- This program may not be used in any manner that
 competes with the business of Gaussian, Inc. or will provide
 assistance to any competitor of Gaussian, Inc.  The licensee
 of this program is prohibited from giving any competitor of
 Gaussian, Inc. access to this program.  By using this program,
 the user acknowledges that Gaussian, Inc. is engaged in the
 business of creating and licensing software in the field of
 computational chemistry and represents and warrants to the
 licensee that it is not a competitor of Gaussian, Inc. and that
 it will not use this program in any manner prohibited above.
 ---------------------------------------------------------------
  

 Cite this work as:
 Gaussian 16, Revision C.01,
 M. J. Frisch, G. W. Trucks, H. B. Schlegel, G. E. Scuseria, 
 M. A. Robb, J. R. Cheeseman, G. Scalmani, V. Barone, 
 G. A. Petersson, H. Nakatsuji, X. Li, M. Caricato, A. V. Marenich, 
 J. Bloino, B. G. Janesko, R. Gomperts, B. Mennucci, H. P. Hratchian, 
 J. V. Ortiz, A. F. Izmaylov, J. L. Sonnenberg, D. Williams-Young, 
 F. Ding, F. Lipparini, F. Egidi, J. Goings, B. Peng, A. Petrone, 
 T. Henderson, D. Ranasinghe, V. G. Zakrzewski, J. Gao, N. Rega, 
 G. Zheng, W. Liang, M. Hada, M. Ehara, K. Toyota, R. Fukuda, 
 J. Hasegawa, M. Ishida, T. Nakajima, Y. Honda, O. Kitao, H. Nakai, 
 T. Vreven, K. Throssell, J. A. Montgomery, Jr., J. E. Peralta, 
 F. Ogliaro, M. J. Bearpark, J. J. Heyd, E. N. Brothers, K. N. Kudin, 
 V. N. Staroverov, T. A. Keith, R. Kobayashi, J. Normand, 
 K. Raghavachari, A. P. Rendell, J. C. Burant, S. S. Iyengar, 
 J. Tomasi, M. Cossi, J. M. Millam, M. Klene, C. Adamo, R. Cammi, 
 J. W. Ochterski, R. L. Martin, K. Morokuma, O. Farkas, 
 J. B. Foresman, and D. J. Fox, Gaussian, Inc., Wallingford CT, 2019.
 
 ******************************************
 Gaussian 16:  EM64L-G16RevC.01  3-Jul-2019
                22-Oct-2025 
 ******************************************
 %chk=g16_g16_C17-a_27.chk
 %nprocshared=8
 Will use up to    8 processors via shared memory.
 %mem=32GB
 -------------------------------------------
 #p wb97xd scrf=(smd,solvent=water) def2tzvp
 -------------------------------------------
 1/38=1,172=1/1;
 2/12=2,17=6,18=5,40=1/2;
 3/5=44,7=101,11=2,25=1,30=1,70=32201,72=1,74=-58/1,2,3;
 4//1;
 5/5=2,38=5,53=1/2;
 6/7=2,8=2,9=2,10=2,28=1/1;
 99/5=1,9=1/99;
 Leave Link    1 at Wed Oct 22 13:38:15 2025, MaxMem=  4294967296 cpu:               4.5 elap:               0.6
 (Enter /lrz/sys/applications/gaussian/g16.C.01/x86_64_legacy/exe/l101.exe)
 ----------------
 g16_g16_C17-a_27
 ----------------
 Symbolic Z-matrix:
 Charge =  0 Multiplicity = 1
 O                    -0.93254   1.31881   0.36598 
 C                    -0.8568    0.06364  -0.27838 
 N                    -2.17766  -0.52515  -0.36316 
 C                     0.15572  -0.77975   0.48686 
 C                     1.55074  -0.17059   0.62624 
 C                     2.23488   0.1397   -0.70096 
 H                    -1.59505   1.83601  -0.10822 
 H                    -0.50615   0.19794  -1.31846 
 H                    -2.40958  -0.9577    0.53261 
 H                    -2.16309  -1.28234  -1.04516 
 H                     0.22285  -1.75424  -0.0257 
 H                    -0.26428  -0.97637   1.48934 
 H                     2.17683  -0.8697    1.20445 
 H                     1.48475   0.74976   1.22889 
 H                     3.26866   0.48282  -0.54272 
 H                     2.2735   -0.75135  -1.34872 
 H                     1.70824   0.93276  -1.25464 
 
 ITRead=  0  0  0  0  0  0  0  0  0  0  0  0  0  0  0  0  0
 MicOpt= -1 -1 -1 -1 -1 -1 -1 -1 -1 -1 -1 -1 -1 -1 -1 -1 -1
 NAtoms=     17 NQM=       17 NQMF=       0 NMMI=      0 NMMIF=      0
                NMic=       0 NMicF=      0.
                    Isotopes and Nuclear Properties:
 (Nuclear quadrupole moments (NQMom) in fm**2, nuclear magnetic moments (NMagM)
  in nuclear magnetons)

  Atom         1           2           3           4           5           6           7           8           9          10
 IAtWgt=          16          12          14          12          12          12           1           1           1           1
 AtmWgt=  15.9949146  12.0000000  14.0030740  12.0000000  12.0000000  12.0000000   1.0078250   1.0078250   1.0078250   1.0078250
 NucSpn=           0           0           2           0           0           0           1           1           1           1
 AtZEff=  -0.0000000  -0.0000000  -0.0000000  -0.0000000  -0.0000000  -0.0000000  -0.0000000  -0.0000000  -0.0000000  -0.0000000
 NQMom=    0.0000000   0.0000000   2.0440000   0.0000000   0.0000000   0.0000000   0.0000000   0.0000000   0.0000000   0.0000000
 NMagM=    0.0000000   0.0000000   0.4037610   0.0000000   0.0000000   0.0000000   2.7928460   2.7928460   2.7928460   2.7928460
 AtZNuc=   8.0000000   6.0000000   7.0000000   6.0000000   6.0000000   6.0000000   1.0000000   1.0000000   1.0000000   1.0000000

  Atom        11          12          13          14          15          16          17
 IAtWgt=           1           1           1           1           1           1           1
 AtmWgt=   1.0078250   1.0078250   1.0078250   1.0078250   1.0078250   1.0078250   1.0078250
 NucSpn=           1           1           1           1           1           1           1
 AtZEff=  -0.0000000  -0.0000000  -0.0000000  -0.0000000  -0.0000000  -0.0000000  -0.0000000
 NQMom=    0.0000000   0.0000000   0.0000000   0.0000000   0.0000000   0.0000000   0.0000000
 NMagM=    2.7928460   2.7928460   2.7928460   2.7928460   2.7928460   2.7928460   2.7928460
 AtZNuc=   1.0000000   1.0000000   1.0000000   1.0000000   1.0000000   1.0000000   1.0000000
 Leave Link  101 at Wed Oct 22 13:38:16 2025, MaxMem=  4294967296 cpu:               1.2 elap:               0.2
 (Enter /lrz/sys/applications/gaussian/g16.C.01/x86_64_legacy/exe/l202.exe)
                          Input orientation:                          
 ---------------------------------------------------------------------
 Center     Atomic      Atomic             Coordinates (Angstroms)
 Number     Number       Type             X           Y           Z
 ---------------------------------------------------------------------
      1          8           0       -0.932544    1.318809    0.365980
      2          6           0       -0.856802    0.063639   -0.278375
      3          7           0       -2.177655   -0.525152   -0.363162
      4          6           0        0.155724   -0.779751    0.486858
      5          6           0        1.550738   -0.170592    0.626241
      6          6           0        2.234881    0.139703   -0.700956
      7          1           0       -1.595046    1.836013   -0.108217
      8          1           0       -0.506151    0.197938   -1.318460
      9          1           0       -2.409583   -0.957704    0.532614
     10          1           0       -2.163088   -1.282340   -1.045161
     11          1           0        0.222852   -1.754237   -0.025695
     12          1           0       -0.264277   -0.976369    1.489344
     13          1           0        2.176831   -0.869703    1.204447
     14          1           0        1.484753    0.749761    1.228890
     15          1           0        3.268661    0.482819   -0.542723
     16          1           0        2.273501   -0.751350   -1.348715
     17          1           0        1.708242    0.932760   -1.254640
 ---------------------------------------------------------------------
                    Distance matrix (angstroms):
                    1          2          3          4          5
     1  O    0.000000
     2  C    1.412934   0.000000
     3  N    2.341397   1.448626   0.000000
     4  C    2.367043   1.523843   2.496400   0.000000
     5  C    2.907360   2.582526   3.873699   1.528583   0.000000
     6  C    3.544182   3.121356   4.475110   2.564993   1.525053
     7  H    0.965024   1.927503   2.445308   3.203362   3.802874
     8  H    2.067728   1.105789   2.056545   2.157111   2.854552
     9  H    2.718809   2.027800   1.021424   2.571879   4.038868
    10  H    3.204923   2.026328   1.019151   2.824282   4.221620
    11  H    3.306352   2.129360   2.717898   1.103105   2.167079
    12  H    2.641282   2.134838   2.701183   1.104553   2.165295
    13  H    3.893690   3.503258   4.640869   2.146602   1.102303
    14  H    2.629022   2.868012   4.192048   2.157855   1.102084
    15  H    4.378898   4.155122   5.541715   3.513474   2.178229
    16  H    4.183833   3.407144   4.564567   2.802698   2.181769
    17  H    3.122370   2.878874   4.245048   2.894101   2.186300
                    6          7          8          9         10
     6  C    0.000000
     7  H    4.230502   0.000000
     8  H    2.810331   2.309474   0.000000
     9  H    4.929203   2.979763   2.895693   0.000000
    10  H    4.634956   3.305248   2.238606   1.629577   0.000000
    11  H    2.844512   4.025103   2.452279   2.806401   2.637178
    12  H    3.505542   3.497519   3.053074   2.349046   3.181637
    13  H    2.157042   4.824007   3.834489   4.636194   4.905701
    14  H    2.158511   3.528875   3.279817   4.308839   4.754733
    15  H    1.100667   5.067107   3.864212   5.955998   5.733422
    16  H    1.102297   4.816528   2.937436   5.051065   4.478551
    17  H    1.101297   3.611352   2.334004   4.870792   4.465170
                   11         12         13         14         15
    11  H    0.000000
    12  H    1.771360   0.000000
    13  H    2.472586   2.459990   0.000000
    14  H    3.071870   2.471127   1.761316   0.000000
    15  H    3.814275   4.328993   2.464551   2.528280   0.000000
    16  H    2.638432   3.813860   2.557731   3.085370   1.778522
    17  H    3.307059   3.881373   3.084730   2.500271   1.773184
                   16         17
    16  H    0.000000
    17  H    1.778931   0.000000
 Stoichiometry    C4H11NO
 Framework group  C1[X(C4H11NO)]
 Deg. of freedom    45
 Full point group                 C1      NOp   1
 Largest Abelian subgroup         C1      NOp   1
 Largest concise Abelian subgroup C1      NOp   1
                         Standard orientation:                         
 ---------------------------------------------------------------------
 Center     Atomic      Atomic             Coordinates (Angstroms)
 Number     Number       Type             X           Y           Z
 ---------------------------------------------------------------------
      1          8           0        0.932544    1.318809   -0.365980
      2          6           0        0.856802    0.063639    0.278375
      3          7           0        2.177655   -0.525152    0.363162
      4          6           0       -0.155724   -0.779751   -0.486858
      5          6           0       -1.550738   -0.170592   -0.626241
      6          6           0       -2.234881    0.139703    0.700956
      7          1           0        1.595046    1.836013    0.108217
      8          1           0        0.506151    0.197938    1.318460
      9          1           0        2.409583   -0.957704   -0.532614
     10          1           0        2.163088   -1.282340    1.045161
     11          1           0       -0.222852   -1.754237    0.025695
     12          1           0        0.264277   -0.976369   -1.489344
     13          1           0       -2.176831   -0.869703   -1.204447
     14          1           0       -1.484753    0.749761   -1.228890
     15          1           0       -3.268661    0.482819    0.542723
     16          1           0       -2.273501   -0.751350    1.348715
     17          1           0       -1.708242    0.932760    1.254640
 ---------------------------------------------------------------------
 Rotational constants (GHZ):           6.0866805           2.0394223           1.8704466
 Leave Link  202 at Wed Oct 22 13:38:16 2025, MaxMem=  4294967296 cpu:               0.0 elap:               0.0
 (Enter /lrz/sys/applications/gaussian/g16.C.01/x86_64_legacy/exe/l301.exe)
 Standard basis: def2TZVP (5D, 7F)
 Ernie: Thresh=  0.10000D-02 Tol=  0.10000D-05 Strict=F.
 There are   282 symmetry adapted cartesian basis functions of A   symmetry.
 There are   252 symmetry adapted basis functions of A   symmetry.
   252 basis functions,   394 primitive gaussians,   282 cartesian basis functions
    25 alpha electrons       25 beta electrons
       nuclear repulsion energy       261.3247137469 Hartrees.
 IExCor= 4639 DFT=T Ex+Corr=wB97XD ExCW=0 ScaHFX=  1.000000
 ScaDFX=  1.000000  1.000000  1.000000  1.000000 ScalE2=  1.000000  1.000000
 IRadAn=      5 IRanWt=     -1 IRanGd=            0 ICorTp=0 IEmpDi=121
 HFx  wShort=  0.000000 wLong=  0.200000 cFull=  0.222036 cShort=  0.000000 cLong=  0.777964
 DFx  wShort=  0.000000 wLong=  0.200000 cFull=  0.000000 cShort=  0.000000 cLong=  1.000000
 NAtoms=   17 NActive=   17 NUniq=   17 SFac= 1.00D+00 NAtFMM=   60 NAOKFM=F Big=F
 Integral buffers will be    131072 words long.
 Raffenetti 2 integral format.
 Two-electron integral symmetry is turned on.
 R6Disp:  Grimme-D2 Dispersion energy=       -0.0093237479 Hartrees.
 Nuclear repulsion after empirical dispersion term =      261.3153899990 Hartrees.
 ------------------------------------------------------------------------------
 Polarizable Continuum Model (PCM)
 =================================
 Model                : PCM.
 Atomic radii         : SMD-Coulomb.
 Polarization charges : Total charges.
 Charge compensation  : None.
 Solution method      : On-the-fly selection.
 Cavity type          : VdW (van der Waals Surface) (Alpha=1.000).
 Cavity algorithm     : GePol (No added spheres)
                        Default sphere list used, NSphG=   17.
                        Lebedev-Laikov grids with approx.  5.0 points / Ang**2.
                        Smoothing algorithm: York/Karplus (Gamma=1.0000).
                        Polarization charges: spherical gaussians, with
                                              point-specific exponents (IZeta= 3).
                        Self-potential: point-specific (ISelfS= 7).
                        Self-field    : sphere-specific E.n sum rule (ISelfD= 2).
 Solvent              : Water, Eps=  78.355300 Eps(inf)=   1.777849
 ------------------------------------------------------------------------------
 Spheres list:
 ISph  on   Nord     Re0    Alpha      Xe            Ye            Ze
    1   O      1    1.5200  1.000      0.932544      1.318809     -0.365980
    2   C      2    1.8500  1.000      0.856802      0.063639      0.278375
    3   N      3    1.8900  1.000      2.177655     -0.525152      0.363162
    4   C      4    1.8500  1.000     -0.155724     -0.779751     -0.486858
    5   C      5    1.8500  1.000     -1.550738     -0.170592     -0.626241
    6   C      6    1.8500  1.000     -2.234881      0.139703      0.700956
    7   H      7    1.2000  1.000      1.595046      1.836013      0.108217
    8   H      8    1.2000  1.000      0.506151      0.197938      1.318460
    9   H      9    1.2000  1.000      2.409583     -0.957704     -0.532614
   10   H     10    1.2000  1.000      2.163088     -1.282340      1.045161
   11   H     11    1.2000  1.000     -0.222852     -1.754237      0.025695
   12   H     12    1.2000  1.000      0.264277     -0.976369     -1.489344
   13   H     13    1.2000  1.000     -2.176831     -0.869703     -1.204447
   14   H     14    1.2000  1.000     -1.484753      0.749761     -1.228890
   15   H     15    1.2000  1.000     -3.268661      0.482819      0.542723
   16   H     16    1.2000  1.000     -2.273501     -0.751350      1.348715
   17   H     17    1.2000  1.000     -1.708242      0.932760      1.254640
 ------------------------------------------------------------------------------
 GePol: Number of generator spheres                  =      17
 GePol: Total number of spheres                      =      17
 GePol: Number of exposed spheres                    =      17 (100.00%)
 GePol: Number of points                             =    1208
 GePol: Average weight of points                     =       0.11
 GePol: Minimum weight of points                     =   0.68D-10
 GePol: Maximum weight of points                     =    0.21991
 GePol: Number of points with low weight             =      76
 GePol: Fraction of low-weight points (<1% of avg)   =       6.29%
 GePol: Cavity surface area                          =    137.173 Ang**2
 GePol: Cavity volume                                =    108.068 Ang**3
 ------------------------------------------------------------------------------
 Atomic radii for non-electrostatic terms: SMD-CDS.
 ------------------------------------------------------------------------------
 PCM non-electrostatic energy =         0.0031739808 Hartrees.
 Nuclear repulsion after PCM non-electrostatic terms =      261.3185639798 Hartrees.
 Leave Link  301 at Wed Oct 22 13:38:16 2025, MaxMem=  4294967296 cpu:               0.5 elap:               0.1
 (Enter /lrz/sys/applications/gaussian/g16.C.01/x86_64_legacy/exe/l302.exe)
 NPDir=0 NMtPBC=     1 NCelOv=     1 NCel=       1 NClECP=     1 NCelD=      1
         NCelK=      1 NCelE2=     1 NClLst=     1 CellRange=     0.0.
 One-electron integrals computed using PRISM.
 One-electron integral symmetry used in STVInt
   1 Symmetry operations used in ECPInt.
 ECPInt:  NShTT=    6105 NPrTT=   17556 LenC2=    6032 LenP2D=   14318.
 LDataN:  DoStor=T MaxTD1= 6 Len=  172
 NBasis=   252 RedAO= T EigKep=  2.02D-04  NBF=   252
 NBsUse=   252 1.00D-06 EigRej= -1.00D+00 NBFU=   252
 Precomputing XC quadrature grid using
 IXCGrd= 4 IRadAn=           5 IRanWt=          -1 IRanGd=           0 AccXCQ= 0.00D+00.
 Generated NRdTot=       0 NPtTot=           0 NUsed=           0 NTot=          32
 NSgBfM=   282   281   282   282   282 MxSgAt=    17 MxSgA2=    17.
 Leave Link  302 at Wed Oct 22 13:38:16 2025, MaxMem=  4294967296 cpu:               2.1 elap:               0.3
 (Enter /lrz/sys/applications/gaussian/g16.C.01/x86_64_legacy/exe/l303.exe)
 DipDrv:  MaxL=1.
 Leave Link  303 at Wed Oct 22 13:38:16 2025, MaxMem=  4294967296 cpu:               0.2 elap:               0.0
 (Enter /lrz/sys/applications/gaussian/g16.C.01/x86_64_legacy/exe/l401.exe)
 ExpMin= 9.52D-02 ExpMax= 2.70D+04 ExpMxC= 9.22D+02 IAcc=3 IRadAn=         5 AccDes= 0.00D+00
 Harris functional with IExCor= 4639 and IRadAn=       5 diagonalized for initial guess.
 HarFok:  IExCor= 4639 AccDes= 0.00D+00 IRadAn=         5 IDoV= 1 UseB2=F ITyADJ=14
 ICtDFT=  3500011 ScaDFX=  1.000000  1.000000  1.000000  1.000000
 FoFCou: FMM=F IPFlag=           0 FMFlag=      100000 FMFlg1=           0
         NFxFlg=           0 DoJE=T BraDBF=F KetDBF=T FulRan=T
         wScrn=  0.000000 ICntrl=       500 IOpCl=  0 I1Cent=   200000004 NGrid=           0
         NMat0=    1 NMatS0=      1 NMatT0=    0 NMatD0=    1 NMtDS0=    0 NMtDT0=    0
 Petite list used in FoFCou.
 Harris En= -276.199762405774    
 JPrj=0 DoOrth=F DoCkMO=F.
 Leave Link  401 at Wed Oct 22 13:38:18 2025, MaxMem=  4294967296 cpu:              17.2 elap:               2.2
 (Enter /lrz/sys/applications/gaussian/g16.C.01/x86_64_legacy/exe/l502.exe)
 Integral symmetry usage will be decided dynamically.
 Closed shell SCF:
 Using DIIS extrapolation, IDIIS=  1040.
 NGot=  4294967296 LenX=  4294802854 LenY=  4294722889
 Requested convergence on RMS density matrix=1.00D-08 within 128 cycles.
 Requested convergence on MAX density matrix=1.00D-06.
 Requested convergence on             energy=1.00D-06.
 No special actions if energy rises.
 Fock matrices will be formed incrementally for  20 cycles.

 Cycle   1  Pass 1  IDiag  1:
 FoFJK:  IHMeth= 1 ICntrl=       0 DoSepK=T KAlg= 0 I1Cent=           0 FoldK=F
 IRaf=         1 NMat=       1 IRICut=       1 DoRegI=T DoRafI=F ISym2E= 0 IDoP0=0 IntGTp=1.
 FoFCou: FMM=F IPFlag=           0 FMFlag=      100000 FMFlg1=           0
         NFxFlg=           0 DoJE=T BraDBF=F KetDBF=F FulRan=T
         wScrn=  0.000000 ICntrl=       500 IOpCl=  0 I1Cent=           0 NGrid=           0
         NMat0=    1 NMatS0=      1 NMatT0=    0 NMatD0=    1 NMtDS0=    0 NMtDT0=    0
 Symmetry not used in FoFCou.
 Inv3:  Mode=1 IEnd=     4377792.
 Iteration    1 A*A^-1 deviation from unit magnitude is 5.77D-15 for    303.
 Iteration    1 A*A^-1 deviation from orthogonality  is 3.43D-15 for    628    116.
 Iteration    1 A^-1*A deviation from unit magnitude is 5.33D-15 for    303.
 Iteration    1 A^-1*A deviation from orthogonality  is 3.26D-15 for    950    489.
 E= -288.987558619078    
 DIIS: error= 4.02D-02 at cycle   1 NSaved=   1.
 NSaved= 1 IEnMin= 1 EnMin= -288.987558619078     IErMin= 1 ErrMin= 4.02D-02
 ErrMax= 4.02D-02  0.00D+00 EMaxC= 1.00D-01 BMatC= 6.11D-01 BMatP= 6.11D-01
 IDIUse=3 WtCom= 5.98D-01 WtEn= 4.02D-01
 Coeff-Com:  0.100D+01
 Coeff-En:   0.100D+01
 Coeff:      0.100D+01
 Gap=     0.487 Goal=   None    Shift=    0.000
 GapD=    0.487 DampG=2.000 DampE=0.500 DampFc=1.0000 IDamp=-1.
 RMSDP=1.60D-03 MaxDP=4.90D-02              OVMax= 5.31D-02

 Cycle   2  Pass 1  IDiag  1:
 RMSU=  1.56D-03    CP:  9.63D-01
 E= -289.042480456428     Delta-E=       -0.054921837350 Rises=F Damp=F
 DIIS: error= 8.54D-03 at cycle   2 NSaved=   2.
 NSaved= 2 IEnMin= 2 EnMin= -289.042480456428     IErMin= 2 ErrMin= 8.54D-03
 ErrMax= 8.54D-03  0.00D+00 EMaxC= 1.00D-01 BMatC= 3.27D-02 BMatP= 6.11D-01
 IDIUse=3 WtCom= 9.15D-01 WtEn= 8.54D-02
 Coeff-Com:  0.121D+00 0.879D+00
 Coeff-En:   0.000D+00 0.100D+01
 Coeff:      0.110D+00 0.890D+00
 Gap=     0.462 Goal=   None    Shift=    0.000
 RMSDP=7.06D-04 MaxDP=2.95D-02 DE=-5.49D-02 OVMax= 4.61D-02

 Cycle   3  Pass 1  IDiag  1:
 RMSU=  5.97D-04    CP:  9.69D-01  7.61D-01
 E= -289.052102777083     Delta-E=       -0.009622320655 Rises=F Damp=F
 DIIS: error= 7.95D-03 at cycle   3 NSaved=   3.
 NSaved= 3 IEnMin= 3 EnMin= -289.052102777083     IErMin= 3 ErrMin= 7.95D-03
 ErrMax= 7.95D-03  0.00D+00 EMaxC= 1.00D-01 BMatC= 1.96D-02 BMatP= 3.27D-02
 IDIUse=3 WtCom= 9.20D-01 WtEn= 7.95D-02
 Coeff-Com:  0.239D-01 0.444D+00 0.532D+00
 Coeff-En:   0.000D+00 0.364D+00 0.636D+00
 Coeff:      0.220D-01 0.437D+00 0.541D+00
 Gap=     0.465 Goal=   None    Shift=    0.000
 RMSDP=3.65D-04 MaxDP=1.50D-02 DE=-9.62D-03 OVMax= 2.29D-02

 Cycle   4  Pass 1  IDiag  1:
 RMSU=  1.42D-04    CP:  9.64D-01  9.25D-01  6.43D-01
 E= -289.065682419725     Delta-E=       -0.013579642642 Rises=F Damp=F
 DIIS: error= 9.13D-04 at cycle   4 NSaved=   4.
 NSaved= 4 IEnMin= 4 EnMin= -289.065682419725     IErMin= 4 ErrMin= 9.13D-04
 ErrMax= 9.13D-04  0.00D+00 EMaxC= 1.00D-01 BMatC= 2.28D-04 BMatP= 1.96D-02
 IDIUse=3 WtCom= 9.91D-01 WtEn= 9.13D-03
 Coeff-Com:  0.886D-02 0.167D+00 0.228D+00 0.596D+00
 Coeff-En:   0.000D+00 0.000D+00 0.000D+00 0.100D+01
 Coeff:      0.878D-02 0.166D+00 0.226D+00 0.600D+00
 Gap=     0.448 Goal=   None    Shift=    0.000
 RMSDP=4.16D-05 MaxDP=1.49D-03 DE=-1.36D-02 OVMax= 2.18D-03

 Cycle   5  Pass 1  IDiag  1:
 RMSU=  3.59D-05    CP:  9.63D-01  9.32D-01  6.71D-01  9.60D-01
 E= -289.065840934100     Delta-E=       -0.000158514375 Rises=F Damp=F
 DIIS: error= 1.27D-04 at cycle   5 NSaved=   5.
 NSaved= 5 IEnMin= 5 EnMin= -289.065840934100     IErMin= 5 ErrMin= 1.27D-04
 ErrMax= 1.27D-04  0.00D+00 EMaxC= 1.00D-01 BMatC= 8.41D-06 BMatP= 2.28D-04
 IDIUse=3 WtCom= 9.99D-01 WtEn= 1.27D-03
 Coeff-Com: -0.200D-02-0.344D-01-0.330D-01 0.107D+00 0.963D+00
 Coeff-En:   0.000D+00 0.000D+00 0.000D+00 0.000D+00 0.100D+01
 Coeff:     -0.200D-02-0.344D-01-0.329D-01 0.107D+00 0.963D+00
 Gap=     0.447 Goal=   None    Shift=    0.000
 RMSDP=3.17D-05 MaxDP=7.72D-04 DE=-1.59D-04 OVMax= 8.90D-04

 Cycle   6  Pass 1  IDiag  1:
 RMSU=  9.70D-06    CP:  9.63D-01  9.42D-01  6.91D-01  1.11D+00  1.21D+00
 E= -289.065851840011     Delta-E=       -0.000010905911 Rises=F Damp=F
 DIIS: error= 2.36D-05 at cycle   6 NSaved=   6.
 NSaved= 6 IEnMin= 6 EnMin= -289.065851840011     IErMin= 6 ErrMin= 2.36D-05
 ErrMax= 2.36D-05  0.00D+00 EMaxC= 1.00D-01 BMatC= 3.84D-07 BMatP= 8.41D-06
 IDIUse=1 WtCom= 1.00D+00 WtEn= 0.00D+00
 Coeff-Com: -0.764D-03-0.130D-01-0.143D-01 0.118D-01 0.218D+00 0.798D+00
 Coeff:     -0.764D-03-0.130D-01-0.143D-01 0.118D-01 0.218D+00 0.798D+00
 Gap=     0.448 Goal=   None    Shift=    0.000
 RMSDP=6.54D-06 MaxDP=1.63D-04 DE=-1.09D-05 OVMax= 2.97D-04

 Cycle   7  Pass 1  IDiag  1:
 RMSU=  2.63D-06    CP:  9.63D-01  9.44D-01  6.95D-01  1.13D+00  1.29D+00
                    CP:  1.16D+00
 E= -289.065852276440     Delta-E=       -0.000000436429 Rises=F Damp=F
 DIIS: error= 1.49D-05 at cycle   7 NSaved=   7.
 NSaved= 7 IEnMin= 7 EnMin= -289.065852276440     IErMin= 7 ErrMin= 1.49D-05
 ErrMax= 1.49D-05  0.00D+00 EMaxC= 1.00D-01 BMatC= 1.00D-07 BMatP= 3.84D-07
 IDIUse=1 WtCom= 1.00D+00 WtEn= 0.00D+00
 Coeff-Com:  0.902D-05-0.163D-03-0.946D-03-0.112D-01-0.656D-01 0.317D+00
 Coeff-Com:  0.761D+00
 Coeff:      0.902D-05-0.163D-03-0.946D-03-0.112D-01-0.656D-01 0.317D+00
 Coeff:      0.761D+00
 Gap=     0.448 Goal=   None    Shift=    0.000
 RMSDP=2.91D-06 MaxDP=6.49D-05 DE=-4.36D-07 OVMax= 1.17D-04

 Cycle   8  Pass 1  IDiag  1:
 RMSU=  1.03D-06    CP:  9.63D-01  9.44D-01  6.96D-01  1.14D+00  1.32D+00
                    CP:  1.32D+00  1.15D+00
 E= -289.065852386577     Delta-E=       -0.000000110137 Rises=F Damp=F
 DIIS: error= 2.51D-06 at cycle   8 NSaved=   8.
 NSaved= 8 IEnMin= 8 EnMin= -289.065852386577     IErMin= 8 ErrMin= 2.51D-06
 ErrMax= 2.51D-06  0.00D+00 EMaxC= 1.00D-01 BMatC= 2.65D-09 BMatP= 1.00D-07
 IDIUse=1 WtCom= 1.00D+00 WtEn= 0.00D+00
 Coeff-Com:  0.400D-04 0.673D-03 0.709D-03-0.181D-02-0.194D-01-0.575D-02
 Coeff-Com:  0.972D-01 0.928D+00
 Coeff:      0.400D-04 0.673D-03 0.709D-03-0.181D-02-0.194D-01-0.575D-02
 Coeff:      0.972D-01 0.928D+00
 Gap=     0.448 Goal=   None    Shift=    0.000
 RMSDP=8.24D-07 MaxDP=2.20D-05 DE=-1.10D-07 OVMax= 4.05D-05

 Cycle   9  Pass 1  IDiag  1:
 RMSU=  2.12D-07    CP:  9.63D-01  9.44D-01  6.96D-01  1.15D+00  1.33D+00
                    CP:  1.37D+00  1.30D+00  1.28D+00
 E= -289.065852391625     Delta-E=       -0.000000005048 Rises=F Damp=F
 DIIS: error= 7.20D-07 at cycle   9 NSaved=   9.
 NSaved= 9 IEnMin= 9 EnMin= -289.065852391625     IErMin= 9 ErrMin= 7.20D-07
 ErrMax= 7.20D-07  0.00D+00 EMaxC= 1.00D-01 BMatC= 5.48D-10 BMatP= 2.65D-09
 IDIUse=1 WtCom= 1.00D+00 WtEn= 0.00D+00
 Coeff-Com:  0.109D-04 0.233D-03 0.337D-03 0.531D-03 0.594D-03-0.350D-01
 Coeff-Com: -0.512D-01 0.297D+00 0.787D+00
 Coeff:      0.109D-04 0.233D-03 0.337D-03 0.531D-03 0.594D-03-0.350D-01
 Coeff:     -0.512D-01 0.297D+00 0.787D+00
 Gap=     0.448 Goal=   None    Shift=    0.000
 RMSDP=2.73D-07 MaxDP=7.16D-06 DE=-5.05D-09 OVMax= 1.41D-05

 Cycle  10  Pass 1  IDiag  1:
 RMSU=  8.26D-08    CP:  9.63D-01  9.44D-01  6.96D-01  1.15D+00  1.33D+00
                    CP:  1.38D+00  1.35D+00  1.42D+00  1.18D+00
 E= -289.065852392455     Delta-E=       -0.000000000830 Rises=F Damp=F
 DIIS: error= 2.37D-07 at cycle  10 NSaved=  10.
 NSaved=10 IEnMin=10 EnMin= -289.065852392455     IErMin=10 ErrMin= 2.37D-07
 ErrMax= 2.37D-07  0.00D+00 EMaxC= 1.00D-01 BMatC= 3.68D-11 BMatP= 5.48D-10
 IDIUse=1 WtCom= 1.00D+00 WtEn= 0.00D+00
 Coeff-Com: -0.266D-05-0.366D-04-0.171D-04 0.370D-03 0.273D-02-0.702D-02
 Coeff-Com: -0.256D-01-0.521D-01 0.153D+00 0.928D+00
 Coeff:     -0.266D-05-0.366D-04-0.171D-04 0.370D-03 0.273D-02-0.702D-02
 Coeff:     -0.256D-01-0.521D-01 0.153D+00 0.928D+00
 Gap=     0.448 Goal=   None    Shift=    0.000
 RMSDP=1.01D-07 MaxDP=2.91D-06 DE=-8.30D-10 OVMax= 5.93D-06

 Cycle  11  Pass 1  IDiag  1:
 RMSU=  2.39D-08    CP:  9.63D-01  9.44D-01  6.96D-01  1.15D+00  1.33D+00
                    CP:  1.38D+00  1.36D+00  1.47D+00  1.39D+00  1.31D+00
 E= -289.065852392536     Delta-E=       -0.000000000082 Rises=F Damp=F
 DIIS: error= 5.04D-08 at cycle  11 NSaved=  11.
 NSaved=11 IEnMin=11 EnMin= -289.065852392536     IErMin=11 ErrMin= 5.04D-08
 ErrMax= 5.04D-08  0.00D+00 EMaxC= 1.00D-01 BMatC= 9.74D-13 BMatP= 3.68D-11
 IDIUse=1 WtCom= 1.00D+00 WtEn= 0.00D+00
 Coeff-Com: -0.278D-07-0.431D-05-0.129D-04-0.575D-04-0.432D-03 0.264D-02
 Coeff-Com:  0.567D-02-0.615D-02-0.589D-01-0.114D+00 0.117D+01
 Coeff:     -0.278D-07-0.431D-05-0.129D-04-0.575D-04-0.432D-03 0.264D-02
 Coeff:      0.567D-02-0.615D-02-0.589D-01-0.114D+00 0.117D+01
 Gap=     0.448 Goal=   None    Shift=    0.000
 RMSDP=2.41D-08 MaxDP=7.02D-07 DE=-8.15D-11 OVMax= 1.57D-06

 Cycle  12  Pass 1  IDiag  1:
 RMSU=  6.32D-09    CP:  9.63D-01  9.44D-01  6.96D-01  1.15D+00  1.33D+00
                    CP:  1.38D+00  1.36D+00  1.48D+00  1.45D+00  1.48D+00
                    CP:  1.45D+00
 E= -289.065852392534     Delta-E=        0.000000000002 Rises=F Damp=F
 DIIS: error= 1.03D-08 at cycle  12 NSaved=  12.
 NSaved=12 IEnMin=11 EnMin= -289.065852392536     IErMin=12 ErrMin= 1.03D-08
 ErrMax= 1.03D-08  0.00D+00 EMaxC= 1.00D-01 BMatC= 3.78D-14 BMatP= 9.74D-13
 IDIUse=1 WtCom= 1.00D+00 WtEn= 0.00D+00
 Coeff-Com:  0.571D-07 0.859D-06 0.564D-06-0.121D-04-0.692D-04 0.150D-03
 Coeff-Com:  0.717D-03 0.185D-02-0.211D-02-0.321D-01-0.440D-01 0.108D+01
 Coeff:      0.571D-07 0.859D-06 0.564D-06-0.121D-04-0.692D-04 0.150D-03
 Coeff:      0.717D-03 0.185D-02-0.211D-02-0.321D-01-0.440D-01 0.108D+01
 Gap=     0.448 Goal=   None    Shift=    0.000
 RMSDP=5.11D-09 MaxDP=1.52D-07 DE= 2.16D-12 OVMax= 3.24D-07

 Error on total polarization charges =  0.04302
 SCF Done:  E(RwB97XD) =  -289.065852393     A.U. after   12 cycles
            NFock= 12  Conv=0.51D-08     -V/T= 2.0055
 KE= 2.874889897297D+02 PE=-1.196970184056D+03 EE= 3.590967779544D+02
 SMD-CDS (non-electrostatic) energy       (kcal/mol) =       1.99
 (included in total energy above)
 Leave Link  502 at Wed Oct 22 13:39:59 2025, MaxMem=  4294967296 cpu:             800.9 elap:             100.3
 (Enter /lrz/sys/applications/gaussian/g16.C.01/x86_64_legacy/exe/l601.exe)
 Copying SCF densities to generalized density rwf, IOpCl= 0 IROHF=0.

 **********************************************************************

            Population analysis using the SCF Density.

 **********************************************************************

 Orbital symmetries:
       Occupied  (A) (A) (A) (A) (A) (A) (A) (A) (A) (A) (A) (A)
                 (A) (A) (A) (A) (A) (A) (A) (A) (A) (A) (A) (A)
                 (A)
       Virtual   (A) (A) (A) (A) (A) (A) (A) (A) (A) (A) (A) (A)
                 (A) (A) (A) (A) (A) (A) (A) (A) (A) (A) (A) (A)
                 (A) (A) (A) (A) (A) (A) (A) (A) (A) (A) (A) (A)
                 (A) (A) (A) (A) (A) (A) (A) (A) (A) (A) (A) (A)
                 (A) (A) (A) (A) (A) (A) (A) (A) (A) (A) (A) (A)
                 (A) (A) (A) (A) (A) (A) (A) (A) (A) (A) (A) (A)
                 (A) (A) (A) (A) (A) (A) (A) (A) (A) (A) (A) (A)
                 (A) (A) (A) (A) (A) (A) (A) (A) (A) (A) (A) (A)
                 (A) (A) (A) (A) (A) (A) (A) (A) (A) (A) (A) (A)
                 (A) (A) (A) (A) (A) (A) (A) (A) (A) (A) (A) (A)
                 (A) (A) (A) (A) (A) (A) (A) (A) (A) (A) (A) (A)
                 (A) (A) (A) (A) (A) (A) (A) (A) (A) (A) (A) (A)
                 (A) (A) (A) (A) (A) (A) (A) (A) (A) (A) (A) (A)
                 (A) (A) (A) (A) (A) (A) (A) (A) (A) (A) (A) (A)
                 (A) (A) (A) (A) (A) (A) (A) (A) (A) (A) (A) (A)
                 (A) (A) (A) (A) (A) (A) (A) (A) (A) (A) (A) (A)
                 (A) (A) (A) (A) (A) (A) (A) (A) (A) (A) (A) (A)
                 (A) (A) (A) (A) (A) (A) (A) (A) (A) (A) (A) (A)
                 (A) (A) (A) (A) (A) (A) (A) (A) (A) (A) (A)
 The electronic state is 1-A.
 Alpha  occ. eigenvalues --  -19.24816 -14.40999 -10.34993 -10.27097 -10.26892
 Alpha  occ. eigenvalues --  -10.26322  -1.13311  -0.97237  -0.87982  -0.79242
 Alpha  occ. eigenvalues --   -0.71679  -0.65532  -0.62047  -0.57686  -0.52807
 Alpha  occ. eigenvalues --   -0.52470  -0.50098  -0.48845  -0.45941  -0.44038
 Alpha  occ. eigenvalues --   -0.41726  -0.40615  -0.40179  -0.37336  -0.33272
 Alpha virt. eigenvalues --    0.11480   0.14026   0.14393   0.15790   0.17380
 Alpha virt. eigenvalues --    0.18707   0.19960   0.20375   0.21244   0.22743
 Alpha virt. eigenvalues --    0.24051   0.26269   0.27231   0.27963   0.29304
 Alpha virt. eigenvalues --    0.30561   0.31041   0.32531   0.33809   0.36016
 Alpha virt. eigenvalues --    0.37878   0.40327   0.41733   0.44493   0.45045
 Alpha virt. eigenvalues --    0.45528   0.47158   0.48701   0.49779   0.50550
 Alpha virt. eigenvalues --    0.51504   0.51734   0.52474   0.53632   0.54169
 Alpha virt. eigenvalues --    0.54736   0.57312   0.58296   0.58448   0.59637
 Alpha virt. eigenvalues --    0.61164   0.61877   0.64589   0.65746   0.66132
 Alpha virt. eigenvalues --    0.70520   0.72030   0.72560   0.77221   0.81049
 Alpha virt. eigenvalues --    0.85734   0.88436   0.89003   0.91145   0.94030
 Alpha virt. eigenvalues --    0.96625   0.98653   1.01239   1.04116   1.07324
 Alpha virt. eigenvalues --    1.11466   1.13095   1.16560   1.19170   1.20566
 Alpha virt. eigenvalues --    1.21460   1.24831   1.25879   1.28716   1.31477
 Alpha virt. eigenvalues --    1.32392   1.37343   1.42350   1.45551   1.51376
 Alpha virt. eigenvalues --    1.53462   1.56734   1.58293   1.60949   1.63120
 Alpha virt. eigenvalues --    1.63784   1.67294   1.67460   1.67726   1.69292
 Alpha virt. eigenvalues --    1.71090   1.73784   1.75325   1.76561   1.81532
 Alpha virt. eigenvalues --    1.84924   1.86264   1.89194   1.89551   1.95627
 Alpha virt. eigenvalues --    1.97090   1.97229   1.98552   2.02001   2.04421
 Alpha virt. eigenvalues --    2.05827   2.07601   2.08918   2.11849   2.12618
 Alpha virt. eigenvalues --    2.13431   2.20055   2.22359   2.25081   2.27992
 Alpha virt. eigenvalues --    2.29438   2.33010   2.37089   2.37786   2.41339
 Alpha virt. eigenvalues --    2.42527   2.45308   2.47858   2.49989   2.51474
 Alpha virt. eigenvalues --    2.53386   2.56437   2.58691   2.61391   2.62979
 Alpha virt. eigenvalues --    2.64924   2.66065   2.68627   2.68877   2.70695
 Alpha virt. eigenvalues --    2.74279   2.74713   2.75515   2.77191   2.79474
 Alpha virt. eigenvalues --    2.81356   2.83875   2.87070   2.88811   2.91212
 Alpha virt. eigenvalues --    2.95050   3.01604   3.03342   3.06716   3.08956
 Alpha virt. eigenvalues --    3.12944   3.14682   3.17907   3.18805   3.21619
 Alpha virt. eigenvalues --    3.25028   3.27155   3.29677   3.30304   3.34507
 Alpha virt. eigenvalues --    3.35991   3.37463   3.39034   3.43121   3.44162
 Alpha virt. eigenvalues --    3.45061   3.46192   3.49381   3.53643   3.57812
 Alpha virt. eigenvalues --    3.59834   3.61045   3.63936   3.65580   3.73259
 Alpha virt. eigenvalues --    3.75800   3.77359   3.81673   3.86422   3.89698
 Alpha virt. eigenvalues --    3.93780   3.99230   4.00282   4.03294   4.04762
 Alpha virt. eigenvalues --    4.09278   4.14372   4.16337   4.18623   4.24671
 Alpha virt. eigenvalues --    4.33682   4.35950   4.42420   4.45455   4.48459
 Alpha virt. eigenvalues --    4.50650   4.62336   4.64844   4.70607   4.74027
 Alpha virt. eigenvalues --    4.78725   4.80842   4.84761   4.89827   4.95974
 Alpha virt. eigenvalues --    4.96732   5.00040   5.02036   5.19753   5.26338
 Alpha virt. eigenvalues --    5.29492   5.40073   5.44015   5.51792   5.56091
 Alpha virt. eigenvalues --    5.66218   5.78354   5.87783   5.93361   6.12024
 Alpha virt. eigenvalues --    6.37560   6.60861   6.81238   6.88458   7.08710
 Alpha virt. eigenvalues --    7.27340  22.40822  22.57108  22.58306  22.71654
 Alpha virt. eigenvalues --   32.09107  43.99432
          Condensed to atoms (all electrons):
               1          2          3          4          5          6
     1  O    8.157362   0.270511  -0.066993  -0.086739   0.004590  -0.005760
     2  C    0.270511   4.762930   0.296226   0.292777  -0.060257   0.020760
     3  N   -0.066993   0.296226   6.714703  -0.051908   0.015954  -0.001734
     4  C   -0.086739   0.292777  -0.051908   5.134527   0.294789  -0.044727
     5  C    0.004590  -0.060257   0.015954   0.294789   4.977746   0.288801
     6  C   -0.005760   0.020760  -0.001734  -0.044727   0.288801   5.005640
     7  H    0.301397  -0.028921   0.006751   0.014466  -0.000842   0.000163
     8  H   -0.051718   0.476506  -0.053410  -0.078510  -0.010472   0.006118
     9  H    0.005171  -0.038388   0.362517  -0.010952   0.000337   0.000111
    10  H    0.005878  -0.040272   0.371446   0.005630   0.000176   0.000188
    11  H    0.004740  -0.046231   0.005120   0.406439  -0.022673  -0.005828
    12  H    0.004645  -0.016227  -0.006344   0.389928  -0.036045   0.008173
    13  H    0.000179   0.011522  -0.000567  -0.040859   0.415038  -0.030561
    14  H    0.010195  -0.014678   0.000279  -0.033820   0.419986  -0.038979
    15  H   -0.000146  -0.000280   0.000005   0.009240  -0.037198   0.411870
    16  H    0.000489  -0.007311   0.000049   0.007455  -0.044161   0.408143
    17  H    0.004924   0.007316   0.000495  -0.012792  -0.032599   0.410463
               7          8          9         10         11         12
     1  O    0.301397  -0.051718   0.005171   0.005878   0.004740   0.004645
     2  C   -0.028921   0.476506  -0.038388  -0.040272  -0.046231  -0.016227
     3  N    0.006751  -0.053410   0.362517   0.371446   0.005120  -0.006344
     4  C    0.014466  -0.078510  -0.010952   0.005630   0.406439   0.389928
     5  C   -0.000842  -0.010472   0.000337   0.000176  -0.022673  -0.036045
     6  C    0.000163   0.006118   0.000111   0.000188  -0.005828   0.008173
     7  H    0.351893  -0.006700  -0.001318  -0.000027  -0.000636  -0.000730
     8  H   -0.006700   0.597742   0.008841  -0.006155   0.000999   0.007521
     9  H   -0.001318   0.008841   0.438140  -0.023980   0.000653   0.007284
    10  H   -0.000027  -0.006155  -0.023980   0.420772   0.001277   0.000045
    11  H   -0.000636   0.000999   0.000653   0.001277   0.558826  -0.019533
    12  H   -0.000730   0.007521   0.007284   0.000045  -0.019533   0.556624
    13  H    0.000054  -0.000543  -0.000094  -0.000016  -0.006019  -0.006428
    14  H   -0.000566   0.001546   0.000044  -0.000049   0.006211  -0.001766
    15  H   -0.000005   0.000366   0.000004  -0.000002  -0.000035  -0.000190
    16  H    0.000005   0.000020  -0.000018  -0.000021   0.001812   0.000031
    17  H    0.000121  -0.008676  -0.000074  -0.000050   0.000413  -0.000683
              13         14         15         16         17
     1  O    0.000179   0.010195  -0.000146   0.000489   0.004924
     2  C    0.011522  -0.014678  -0.000280  -0.007311   0.007316
     3  N   -0.000567   0.000279   0.000005   0.000049   0.000495
     4  C   -0.040859  -0.033820   0.009240   0.007455  -0.012792
     5  C    0.415038   0.419986  -0.037198  -0.044161  -0.032599
     6  C   -0.030561  -0.038979   0.411870   0.408143   0.410463
     7  H    0.000054  -0.000566  -0.000005   0.000005   0.000121
     8  H   -0.000543   0.001546   0.000366   0.000020  -0.008676
     9  H   -0.000094   0.000044   0.000004  -0.000018  -0.000074
    10  H   -0.000016  -0.000049  -0.000002  -0.000021  -0.000050
    11  H   -0.006019   0.006211  -0.000035   0.001812   0.000413
    12  H   -0.006428  -0.001766  -0.000190   0.000031  -0.000683
    13  H    0.576048  -0.027840  -0.005825  -0.003319   0.006084
    14  H   -0.027840   0.576454  -0.003106   0.006457  -0.004336
    15  H   -0.005825  -0.003106   0.533887  -0.022030  -0.023112
    16  H   -0.003319   0.006457  -0.022030   0.553170  -0.026358
    17  H    0.006084  -0.004336  -0.023112  -0.026358   0.546339
 Mulliken charges:
               1
     1  O   -0.558722
     2  C    0.114017
     3  N   -0.592591
     4  C   -0.194942
     5  C   -0.173169
     6  C   -0.432841
     7  H    0.364897
     8  H    0.116525
     9  H    0.251723
    10  H    0.265162
    11  H    0.114464
    12  H    0.113695
    13  H    0.113145
    14  H    0.103969
    15  H    0.136556
    16  H    0.125588
    17  H    0.132525
 Sum of Mulliken charges =  -0.00000
 Mulliken charges with hydrogens summed into heavy atoms:
               1
     1  O   -0.193825
     2  C    0.230542
     3  N   -0.075706
     4  C    0.033216
     5  C    0.043945
     6  C   -0.038172
 Electronic spatial extent (au):  <R**2>=            736.6573
 Charge=             -0.0000 electrons
 Dipole moment (field-independent basis, Debye):
    X=              0.0314    Y=             -2.1584    Z=              1.2664  Tot=              2.5027
 Quadrupole moment (field-independent basis, Debye-Ang):
   XX=            -40.9082   YY=            -36.1194   ZZ=            -38.6958
   XY=             -1.3092   XZ=              0.3954   YZ=              1.5819
 Traceless Quadrupole moment (field-independent basis, Debye-Ang):
   XX=             -2.3337   YY=              2.4551   ZZ=             -0.1213
   XY=             -1.3092   XZ=              0.3954   YZ=              1.5819
 Octapole moment (field-independent basis, Debye-Ang**2):
  XXX=             -2.1567  YYY=              3.9701  ZZZ=              1.1450  XYY=             13.6041
  XXY=             -2.3166  XXZ=             -5.0740  XZZ=              5.3791  YZZ=             -2.6223
  YYZ=              5.3062  XYZ=              1.4021
 Hexadecapole moment (field-independent basis, Debye-Ang**3):
 XXXX=           -691.1221 YYYY=           -163.2669 ZZZZ=           -139.9874 XXXY=             -8.6913
 XXXZ=            -10.8751 YYYX=             11.1835 YYYZ=             -0.7892 ZZZX=              3.7879
 ZZZY=             -1.9794 XXYY=           -112.7450 XXZZ=           -132.5113 YYZZ=            -50.4052
 XXYZ=              0.2432 YYXZ=              7.3596 ZZXY=             -4.5169
 N-N= 2.613185639798D+02 E-N=-1.196970183449D+03  KE= 2.874889897297D+02
 No NMR shielding tensors so no spin-rotation constants.
 Leave Link  601 at Wed Oct 22 13:39:59 2025, MaxMem=  4294967296 cpu:               1.3 elap:               0.2
 (Enter /lrz/sys/applications/gaussian/g16.C.01/x86_64_legacy/exe/l9999.exe)
 Unable to Open any file for archive entry.
 1\1\GINC-CM4R13C05S08\SP\RwB97XD\def2TZVP\C4H11N1O1\GO29TIZ2\22-Oct-20
 25\0\\#p wb97xd scrf=(smd,solvent=water) def2tzvp\\g16_g16_C17-a_27\\0
 ,1\O,0,-0.932544,1.318809,0.36598\C,0,-0.856802,0.063639,-0.278375\N,0
 ,-2.177655,-0.525152,-0.363162\C,0,0.155724,-0.779751,0.486858\C,0,1.5
 50738,-0.170592,0.626241\C,0,2.234881,0.139703,-0.700956\H,0,-1.595046
 ,1.836013,-0.108217\H,0,-0.506151,0.197938,-1.31846\H,0,-2.409583,-0.9
 57704,0.532614\H,0,-2.163088,-1.28234,-1.045161\H,0,0.222852,-1.754237
 ,-0.025695\H,0,-0.264277,-0.976369,1.489344\H,0,2.176831,-0.869703,1.2
 04447\H,0,1.484753,0.749761,1.22889\H,0,3.268661,0.482819,-0.542723\H,
 0,2.273501,-0.75135,-1.348715\H,0,1.708242,0.93276,-1.25464\\Version=E
 M64L-G16RevC.01\State=1-A\HF=-289.0658524\RMSD=5.110e-09\Dipole=-0.012
 3393,-0.8491774,-0.498234\Quadrupole=-1.7350601,1.8252727,-0.0902126,0
 .9733457,0.2939636,-1.176103\PG=C01 [X(C4H11N1O1)]\\@
 The archive entry for this job was punched.


     SCHOPENHAUER'S LAW OF ENTROPY
 IF YOU PUT A SPOONFUL OF WINE IN A BARREL FULL
 OF SEWAGE, YOU GET SEWAGE.
 IF YOU PUT A SPOONFUL OF SEWAGE IN A BARREL FULL
 OF WINE, YOU GET SEWAGE.
 Job cpu time:       0 days  0 hours 13 minutes 48.3 seconds.
 Elapsed time:       0 days  0 hours  1 minutes 44.0 seconds.
 File lengths (MBytes):  RWF=    288 Int=      0 D2E=      0 Chk=     12 Scr=     32
 Normal termination of Gaussian 16 at Wed Oct 22 13:39:59 2025.
