 Entering Gaussian System, Link 0=g16
 Input=../../g16_g16_C2-w_1.com
 Output=../../g16_g16_C2-w_1.log
 Initial command:
 /lrz/sys/applications/gaussian/g16.C.01/x86_64_legacy/exe/l1.exe "/dss/lxclscratch/0D/go29tiz2/Gau-16171.inp" -scrdir="/dss/lxclscratch/0D/go29tiz2/"
 Entering Link 1 = /lrz/sys/applications/gaussian/g16.C.01/x86_64_legacy/exe/l1.exe PID=     16172.
  
 Copyright (c) 1988-2019, Gaussian, Inc.  All Rights Reserved.
  
 This is part of the Gaussian(R) 16 program.  It is based on
 the Gaussian(R) 09 system (copyright 2009, Gaussian, Inc.),
 the Gaussian(R) 03 system (copyright 2003, Gaussian, Inc.),
 the Gaussian(R) 98 system (copyright 1998, Gaussian, Inc.),
 the Gaussian(R) 94 system (copyright 1995, Gaussian, Inc.),
 the Gaussian 92(TM) system (copyright 1992, Gaussian, Inc.),
 the Gaussian 90(TM) system (copyright 1990, Gaussian, Inc.),
 the Gaussian 88(TM) system (copyright 1988, Gaussian, Inc.),
 the Gaussian 86(TM) system (copyright 1986, Carnegie Mellon
 University), and the Gaussian 82(TM) system (copyright 1983,
 Carnegie Mellon University). Gaussian is a federally registered
 trademark of Gaussian, Inc.
  
 This software contains proprietary and confidential information,
 including trade secrets, belonging to Gaussian, Inc.
  
 This software is provided under written license and may be
 used, copied, transmitted, or stored only in accord with that
 written license.
  
 The following legend is applicable only to US Government
 contracts under FAR:
  
                    RESTRICTED RIGHTS LEGEND
  
 Use, reproduction and disclosure by the US Government is
 subject to restrictions as set forth in subparagraphs (a)
 and (c) of the Commercial Computer Software - Restricted
 Rights clause in FAR 52.227-19.
  
 Gaussian, Inc.
 340 Quinnipiac St., Bldg. 40, Wallingford CT 06492
  
  
 ---------------------------------------------------------------
 Warning -- This program may not be used in any manner that
 competes with the business of Gaussian, Inc. or will provide
 assistance to any competitor of Gaussian, Inc.  The licensee
 of this program is prohibited from giving any competitor of
 Gaussian, Inc. access to this program.  By using this program,
 the user acknowledges that Gaussian, Inc. is engaged in the
 business of creating and licensing software in the field of
 computational chemistry and represents and warrants to the
 licensee that it is not a competitor of Gaussian, Inc. and that
 it will not use this program in any manner prohibited above.
 ---------------------------------------------------------------
  

 Cite this work as:
 Gaussian 16, Revision C.01,
 M. J. Frisch, G. W. Trucks, H. B. Schlegel, G. E. Scuseria, 
 M. A. Robb, J. R. Cheeseman, G. Scalmani, V. Barone, 
 G. A. Petersson, H. Nakatsuji, X. Li, M. Caricato, A. V. Marenich, 
 J. Bloino, B. G. Janesko, R. Gomperts, B. Mennucci, H. P. Hratchian, 
 J. V. Ortiz, A. F. Izmaylov, J. L. Sonnenberg, D. Williams-Young, 
 F. Ding, F. Lipparini, F. Egidi, J. Goings, B. Peng, A. Petrone, 
 T. Henderson, D. Ranasinghe, V. G. Zakrzewski, J. Gao, N. Rega, 
 G. Zheng, W. Liang, M. Hada, M. Ehara, K. Toyota, R. Fukuda, 
 J. Hasegawa, M. Ishida, T. Nakajima, Y. Honda, O. Kitao, H. Nakai, 
 T. Vreven, K. Throssell, J. A. Montgomery, Jr., J. E. Peralta, 
 F. Ogliaro, M. J. Bearpark, J. J. Heyd, E. N. Brothers, K. N. Kudin, 
 V. N. Staroverov, T. A. Keith, R. Kobayashi, J. Normand, 
 K. Raghavachari, A. P. Rendell, J. C. Burant, S. S. Iyengar, 
 J. Tomasi, M. Cossi, J. M. Millam, M. Klene, C. Adamo, R. Cammi, 
 J. W. Ochterski, R. L. Martin, K. Morokuma, O. Farkas, 
 J. B. Foresman, and D. J. Fox, Gaussian, Inc., Wallingford CT, 2019.
 
 ******************************************
 Gaussian 16:  EM64L-G16RevC.01  3-Jul-2019
                22-Oct-2025 
 ******************************************
 %chk=g16_g16_C2-w_1.chk
 %nprocshared=8
 Will use up to    8 processors via shared memory.
 %mem=32GB
 -------------------------------------------
 #p wb97xd scrf=(smd,solvent=water) def2tzvp
 -------------------------------------------
 1/38=1,172=1/1;
 2/12=2,17=6,18=5,40=1/2;
 3/5=44,7=101,11=2,25=1,30=1,70=32201,72=1,74=-58/1,2,3;
 4//1;
 5/5=2,38=5,53=1/2;
 6/7=2,8=2,9=2,10=2,28=1/1;
 99/5=1,9=1/99;
 Leave Link    1 at Wed Oct 22 10:09:06 2025, MaxMem=  4294967296 cpu:               4.5 elap:               0.6
 (Enter /lrz/sys/applications/gaussian/g16.C.01/x86_64_legacy/exe/l101.exe)
 --------------
 g16_g16_C2-w_1
 --------------
 Symbolic Z-matrix:
 Charge =  0 Multiplicity = 1
 O                    -0.64454   1.33757  -0.06977 
 C                    -0.51724  -0.00624   0.32352 
 O                    -1.63293  -0.76195  -0.0747 
 C                     0.71851  -0.67178  -0.25791 
 C                     2.01348   0.03684   0.10849 
 H                    -0.59      1.36763  -1.03521 
 H                    -0.4512    0.02974   1.42582 
 H                    -2.40829  -0.39395   0.3674 
 H                     0.73677  -1.71474   0.09435 
 H                     0.59205  -0.70855  -1.3543 
 H                     2.15679   0.06474   1.20037 
 H                     2.01464   1.07466  -0.25638 
 H                     2.88051  -0.47746  -0.33087 
 
 ITRead=  0  0  0  0  0  0  0  0  0  0  0  0  0
 MicOpt= -1 -1 -1 -1 -1 -1 -1 -1 -1 -1 -1 -1 -1
 NAtoms=     13 NQM=       13 NQMF=       0 NMMI=      0 NMMIF=      0
                NMic=       0 NMicF=      0.
                    Isotopes and Nuclear Properties:
 (Nuclear quadrupole moments (NQMom) in fm**2, nuclear magnetic moments (NMagM)
  in nuclear magnetons)

  Atom         1           2           3           4           5           6           7           8           9          10
 IAtWgt=          16          12          16          12          12           1           1           1           1           1
 AtmWgt=  15.9949146  12.0000000  15.9949146  12.0000000  12.0000000   1.0078250   1.0078250   1.0078250   1.0078250   1.0078250
 NucSpn=           0           0           0           0           0           1           1           1           1           1
 AtZEff=  -0.0000000  -0.0000000  -0.0000000  -0.0000000  -0.0000000  -0.0000000  -0.0000000  -0.0000000  -0.0000000  -0.0000000
 NQMom=    0.0000000   0.0000000   0.0000000   0.0000000   0.0000000   0.0000000   0.0000000   0.0000000   0.0000000   0.0000000
 NMagM=    0.0000000   0.0000000   0.0000000   0.0000000   0.0000000   2.7928460   2.7928460   2.7928460   2.7928460   2.7928460
 AtZNuc=   8.0000000   6.0000000   8.0000000   6.0000000   6.0000000   1.0000000   1.0000000   1.0000000   1.0000000   1.0000000

  Atom        11          12          13
 IAtWgt=           1           1           1
 AtmWgt=   1.0078250   1.0078250   1.0078250
 NucSpn=           1           1           1
 AtZEff=  -0.0000000  -0.0000000  -0.0000000
 NQMom=    0.0000000   0.0000000   0.0000000
 NMagM=    2.7928460   2.7928460   2.7928460
 AtZNuc=   1.0000000   1.0000000   1.0000000
 Leave Link  101 at Wed Oct 22 10:09:06 2025, MaxMem=  4294967296 cpu:               1.2 elap:               0.2
 (Enter /lrz/sys/applications/gaussian/g16.C.01/x86_64_legacy/exe/l202.exe)
                          Input orientation:                          
 ---------------------------------------------------------------------
 Center     Atomic      Atomic             Coordinates (Angstroms)
 Number     Number       Type             X           Y           Z
 ---------------------------------------------------------------------
      1          8           0       -0.644539    1.337572   -0.069770
      2          6           0       -0.517237   -0.006243    0.323517
      3          8           0       -1.632930   -0.761945   -0.074698
      4          6           0        0.718506   -0.671779   -0.257909
      5          6           0        2.013476    0.036842    0.108488
      6          1           0       -0.590000    1.367634   -1.035213
      7          1           0       -0.451198    0.029737    1.425817
      8          1           0       -2.408287   -0.393954    0.367401
      9          1           0        0.736773   -1.714736    0.094348
     10          1           0        0.592049   -0.708554   -1.354303
     11          1           0        2.156792    0.064738    1.200369
     12          1           0        2.014641    1.074665   -0.256384
     13          1           0        2.880514   -0.477460   -0.330874
 ---------------------------------------------------------------------
                    Distance matrix (angstroms):
                    1          2          3          4          5
     1  O    0.000000
     2  C    1.405958   0.000000
     3  O    2.320541   1.405145   0.000000
     4  C    2.435319   1.519228   2.360285   0.000000
     5  C    2.964577   2.540197   3.737365   1.520966   0.000000
     6  H    0.967449   1.933644   2.558398   2.544719   3.139609
     7  H    1.996145   1.104862   2.067558   2.166856   2.794642
     8  H    2.510002   1.930885   0.965426   3.200786   4.450237
     9  H    3.354332   2.131668   2.559664   1.100990   2.167532
    10  H    2.714002   2.130454   2.567250   1.104275   2.171596
    11  H    3.328786   2.815020   4.083037   2.176626   1.101600
    12  H    2.678653   2.813370   4.087899   2.174864   1.100095
    13  H    3.973476   3.492132   4.529651   2.171949   1.099682
                    6          7          8          9         10
     6  H    0.000000
     7  H    2.804622   0.000000
     8  H    2.894250   2.264941   0.000000
     9  H    3.540796   2.495450   3.422050   0.000000
    10  H    2.410314   3.059821   3.473507   1.769728   0.000000
    11  H    3.773623   2.617950   4.663066   2.531060   3.093986
    12  H    2.734330   3.162600   4.701940   3.088158   2.531613
    13  H    3.993111   3.800463   5.335352   2.511432   2.517515
                   11         12         13
    11  H    0.000000
    12  H    1.778283   0.000000
    13  H    1.778330   1.778870   0.000000
 Stoichiometry    C3H8O2
 Framework group  C1[X(C3H8O2)]
 Deg. of freedom    33
 Full point group                 C1      NOp   1
 Largest Abelian subgroup         C1      NOp   1
 Largest concise Abelian subgroup C1      NOp   1
                         Standard orientation:                         
 ---------------------------------------------------------------------
 Center     Atomic      Atomic             Coordinates (Angstroms)
 Number     Number       Type             X           Y           Z
 ---------------------------------------------------------------------
      1          8           0       -0.644539    1.337572   -0.069770
      2          6           0       -0.517237   -0.006243    0.323517
      3          8           0       -1.632930   -0.761945   -0.074698
      4          6           0        0.718506   -0.671779   -0.257909
      5          6           0        2.013476    0.036842    0.108488
      6          1           0       -0.590000    1.367634   -1.035213
      7          1           0       -0.451198    0.029737    1.425817
      8          1           0       -2.408287   -0.393954    0.367401
      9          1           0        0.736773   -1.714736    0.094348
     10          1           0        0.592049   -0.708554   -1.354303
     11          1           0        2.156792    0.064738    1.200369
     12          1           0        2.014641    1.074665   -0.256384
     13          1           0        2.880514   -0.477460   -0.330874
 ---------------------------------------------------------------------
 Rotational constants (GHZ):           8.5162798           3.5948656           2.7809153
 Leave Link  202 at Wed Oct 22 10:09:06 2025, MaxMem=  4294967296 cpu:               0.1 elap:               0.0
 (Enter /lrz/sys/applications/gaussian/g16.C.01/x86_64_legacy/exe/l301.exe)
 Standard basis: def2TZVP (5D, 7F)
 Ernie: Thresh=  0.10000D-02 Tol=  0.10000D-05 Strict=F.
 There are   228 symmetry adapted cartesian basis functions of A   symmetry.
 There are   203 symmetry adapted basis functions of A   symmetry.
   203 basis functions,   319 primitive gaussians,   228 cartesian basis functions
    21 alpha electrons       21 beta electrons
       nuclear repulsion energy       195.1108766887 Hartrees.
 IExCor= 4639 DFT=T Ex+Corr=wB97XD ExCW=0 ScaHFX=  1.000000
 ScaDFX=  1.000000  1.000000  1.000000  1.000000 ScalE2=  1.000000  1.000000
 IRadAn=      5 IRanWt=     -1 IRanGd=            0 ICorTp=0 IEmpDi=121
 HFx  wShort=  0.000000 wLong=  0.200000 cFull=  0.222036 cShort=  0.000000 cLong=  0.777964
 DFx  wShort=  0.000000 wLong=  0.200000 cFull=  0.000000 cShort=  0.000000 cLong=  1.000000
 NAtoms=   13 NActive=   13 NUniq=   13 SFac= 1.00D+00 NAtFMM=   60 NAOKFM=F Big=F
 Integral buffers will be    131072 words long.
 Raffenetti 2 integral format.
 Two-electron integral symmetry is turned on.
 R6Disp:  Grimme-D2 Dispersion energy=       -0.0055765292 Hartrees.
 Nuclear repulsion after empirical dispersion term =      195.1053001596 Hartrees.
 ------------------------------------------------------------------------------
 Polarizable Continuum Model (PCM)
 =================================
 Model                : PCM.
 Atomic radii         : SMD-Coulomb.
 Polarization charges : Total charges.
 Charge compensation  : None.
 Solution method      : On-the-fly selection.
 Cavity type          : VdW (van der Waals Surface) (Alpha=1.000).
 Cavity algorithm     : GePol (No added spheres)
                        Default sphere list used, NSphG=   13.
                        Lebedev-Laikov grids with approx.  5.0 points / Ang**2.
                        Smoothing algorithm: York/Karplus (Gamma=1.0000).
                        Polarization charges: spherical gaussians, with
                                              point-specific exponents (IZeta= 3).
                        Self-potential: point-specific (ISelfS= 7).
                        Self-field    : sphere-specific E.n sum rule (ISelfD= 2).
 Solvent              : Water, Eps=  78.355300 Eps(inf)=   1.777849
 ------------------------------------------------------------------------------
 Spheres list:
 ISph  on   Nord     Re0    Alpha      Xe            Ye            Ze
    1   O      1    1.5200  1.000     -0.644539      1.337572     -0.069770
    2   C      2    1.8500  1.000     -0.517237     -0.006243      0.323517
    3   O      3    1.5200  1.000     -1.632930     -0.761945     -0.074698
    4   C      4    1.8500  1.000      0.718506     -0.671779     -0.257909
    5   C      5    1.8500  1.000      2.013476      0.036842      0.108488
    6   H      6    1.2000  1.000     -0.590000      1.367634     -1.035213
    7   H      7    1.2000  1.000     -0.451198      0.029737      1.425817
    8   H      8    1.2000  1.000     -2.408287     -0.393954      0.367401
    9   H      9    1.2000  1.000      0.736773     -1.714736      0.094348
   10   H     10    1.2000  1.000      0.592049     -0.708554     -1.354303
   11   H     11    1.2000  1.000      2.156792      0.064738      1.200369
   12   H     12    1.2000  1.000      2.014641      1.074665     -0.256384
   13   H     13    1.2000  1.000      2.880514     -0.477460     -0.330874
 ------------------------------------------------------------------------------
 GePol: Number of generator spheres                  =      13
 GePol: Total number of spheres                      =      13
 GePol: Number of exposed spheres                    =      13 (100.00%)
 GePol: Number of points                             =     908
 GePol: Average weight of points                     =       0.12
 GePol: Minimum weight of points                     =   0.10D-07
 GePol: Maximum weight of points                     =    0.21991
 GePol: Number of points with low weight             =      52
 GePol: Fraction of low-weight points (<1% of avg)   =       5.73%
 GePol: Cavity surface area                          =    111.062 Ang**2
 GePol: Cavity volume                                =     82.170 Ang**3
 ------------------------------------------------------------------------------
 Atomic radii for non-electrostatic terms: SMD-CDS.
 ------------------------------------------------------------------------------
 PCM non-electrostatic energy =         0.0046976139 Hartrees.
 Nuclear repulsion after PCM non-electrostatic terms =      195.1099977734 Hartrees.
 Leave Link  301 at Wed Oct 22 10:09:06 2025, MaxMem=  4294967296 cpu:               0.5 elap:               0.1
 (Enter /lrz/sys/applications/gaussian/g16.C.01/x86_64_legacy/exe/l302.exe)
 NPDir=0 NMtPBC=     1 NCelOv=     1 NCel=       1 NClECP=     1 NCelD=      1
         NCelK=      1 NCelE2=     1 NClLst=     1 CellRange=     0.0.
 One-electron integrals computed using PRISM.
 One-electron integral symmetry used in STVInt
   1 Symmetry operations used in ECPInt.
 ECPInt:  NShTT=    3828 NPrTT=   11160 LenC2=    3798 LenP2D=    9340.
 LDataN:  DoStor=T MaxTD1= 6 Len=  172
 NBasis=   203 RedAO= T EigKep=  3.34D-04  NBF=   203
 NBsUse=   203 1.00D-06 EigRej= -1.00D+00 NBFU=   203
 Precomputing XC quadrature grid using
 IXCGrd= 4 IRadAn=           5 IRanWt=          -1 IRanGd=           0 AccXCQ= 0.00D+00.
 Generated NRdTot=       0 NPtTot=           0 NUsed=           0 NTot=          32
 NSgBfM=   228   228   228   228   228 MxSgAt=    13 MxSgA2=    13.
 Leave Link  302 at Wed Oct 22 10:09:06 2025, MaxMem=  4294967296 cpu:               1.8 elap:               0.2
 (Enter /lrz/sys/applications/gaussian/g16.C.01/x86_64_legacy/exe/l303.exe)
 DipDrv:  MaxL=1.
 Leave Link  303 at Wed Oct 22 10:09:06 2025, MaxMem=  4294967296 cpu:               0.3 elap:               0.1
 (Enter /lrz/sys/applications/gaussian/g16.C.01/x86_64_legacy/exe/l401.exe)
 ExpMin= 9.52D-02 ExpMax= 2.70D+04 ExpMxC= 9.22D+02 IAcc=3 IRadAn=         5 AccDes= 0.00D+00
 Harris functional with IExCor= 4639 and IRadAn=       5 diagonalized for initial guess.
 HarFok:  IExCor= 4639 AccDes= 0.00D+00 IRadAn=         5 IDoV= 1 UseB2=F ITyADJ=14
 ICtDFT=  3500011 ScaDFX=  1.000000  1.000000  1.000000  1.000000
 FoFCou: FMM=F IPFlag=           0 FMFlag=      100000 FMFlg1=           0
         NFxFlg=           0 DoJE=T BraDBF=F KetDBF=T FulRan=T
         wScrn=  0.000000 ICntrl=       500 IOpCl=  0 I1Cent=   200000004 NGrid=           0
         NMat0=    1 NMatS0=      1 NMatT0=    0 NMatD0=    1 NMtDS0=    0 NMtDT0=    0
 Petite list used in FoFCou.
 Harris En= -258.423841149320    
 JPrj=0 DoOrth=F DoCkMO=F.
 Leave Link  401 at Wed Oct 22 10:09:08 2025, MaxMem=  4294967296 cpu:              10.4 elap:               1.3
 (Enter /lrz/sys/applications/gaussian/g16.C.01/x86_64_legacy/exe/l502.exe)
 Integral symmetry usage will be decided dynamically.
 Closed shell SCF:
 Using DIIS extrapolation, IDIIS=  1040.
 NGot=  4294967296 LenX=  4294858978 LenY=  4294806553
 Requested convergence on RMS density matrix=1.00D-08 within 128 cycles.
 Requested convergence on MAX density matrix=1.00D-06.
 Requested convergence on             energy=1.00D-06.
 No special actions if energy rises.
 Fock matrices will be formed incrementally for  20 cycles.

 Cycle   1  Pass 1  IDiag  1:
 FoFJK:  IHMeth= 1 ICntrl=       0 DoSepK=T KAlg= 0 I1Cent=           0 FoldK=F
 IRaf=         1 NMat=       1 IRICut=       1 DoRegI=T DoRafI=F ISym2E= 0 IDoP0=0 IntGTp=1.
 FoFCou: FMM=F IPFlag=           0 FMFlag=      100000 FMFlg1=           0
         NFxFlg=           0 DoJE=T BraDBF=F KetDBF=F FulRan=T
         wScrn=  0.000000 ICntrl=       500 IOpCl=  0 I1Cent=           0 NGrid=           0
         NMat0=    1 NMatS0=      1 NMatT0=    0 NMatD0=    1 NMtDS0=    0 NMtDT0=    0
 Symmetry not used in FoFCou.
 Inv3:  Mode=1 IEnd=     2473392.
 Iteration    1 A*A^-1 deviation from unit magnitude is 5.33D-15 for     74.
 Iteration    1 A*A^-1 deviation from orthogonality  is 2.87D-15 for    819    738.
 Iteration    1 A^-1*A deviation from unit magnitude is 4.88D-15 for    595.
 Iteration    1 A^-1*A deviation from orthogonality  is 1.91D-15 for    835    416.
 E= -269.552131556395    
 DIIS: error= 3.24D-02 at cycle   1 NSaved=   1.
 NSaved= 1 IEnMin= 1 EnMin= -269.552131556395     IErMin= 1 ErrMin= 3.24D-02
 ErrMax= 3.24D-02  0.00D+00 EMaxC= 1.00D-01 BMatC= 5.66D-01 BMatP= 5.66D-01
 IDIUse=3 WtCom= 6.76D-01 WtEn= 3.24D-01
 Coeff-Com:  0.100D+01
 Coeff-En:   0.100D+01
 Coeff:      0.100D+01
 Gap=     0.559 Goal=   None    Shift=    0.000
 GapD=    0.559 DampG=2.000 DampE=0.500 DampFc=1.0000 IDamp=-1.
 RMSDP=2.29D-03 MaxDP=8.17D-02              OVMax= 6.53D-02

 Cycle   2  Pass 1  IDiag  1:
 RMSU=  2.20D-03    CP:  9.47D-01
 E= -269.597594466359     Delta-E=       -0.045462909964 Rises=F Damp=F
 DIIS: error= 9.30D-03 at cycle   2 NSaved=   2.
 NSaved= 2 IEnMin= 2 EnMin= -269.597594466359     IErMin= 2 ErrMin= 9.30D-03
 ErrMax= 9.30D-03  0.00D+00 EMaxC= 1.00D-01 BMatC= 4.52D-02 BMatP= 5.66D-01
 IDIUse=3 WtCom= 9.07D-01 WtEn= 9.30D-02
 Coeff-Com:  0.157D+00 0.843D+00
 Coeff-En:   0.127D+00 0.873D+00
 Coeff:      0.154D+00 0.846D+00
 Gap=     0.558 Goal=   None    Shift=    0.000
 RMSDP=8.85D-04 MaxDP=2.75D-02 DE=-4.55D-02 OVMax= 4.55D-02

 Cycle   3  Pass 1  IDiag  1:
 RMSU=  6.63D-04    CP:  9.55D-01  7.37D-01
 E= -269.613432939471     Delta-E=       -0.015838473112 Rises=F Damp=F
 DIIS: error= 7.02D-03 at cycle   3 NSaved=   3.
 NSaved= 3 IEnMin= 3 EnMin= -269.613432939471     IErMin= 3 ErrMin= 7.02D-03
 ErrMax= 7.02D-03  0.00D+00 EMaxC= 1.00D-01 BMatC= 2.13D-02 BMatP= 4.52D-02
 IDIUse=3 WtCom= 9.30D-01 WtEn= 7.02D-02
 Coeff-Com:  0.232D-01 0.415D+00 0.562D+00
 Coeff-En:   0.000D+00 0.311D+00 0.689D+00
 Coeff:      0.216D-01 0.408D+00 0.571D+00
 Gap=     0.502 Goal=   None    Shift=    0.000
 RMSDP=4.71D-04 MaxDP=1.52D-02 DE=-1.58D-02 OVMax= 2.13D-02

 Cycle   4  Pass 1  IDiag  1:
 RMSU=  1.42D-04    CP:  9.47D-01  9.14D-01  6.91D-01
 E= -269.627581275244     Delta-E=       -0.014148335774 Rises=F Damp=F
 DIIS: error= 6.11D-04 at cycle   4 NSaved=   4.
 NSaved= 4 IEnMin= 4 EnMin= -269.627581275244     IErMin= 4 ErrMin= 6.11D-04
 ErrMax= 6.11D-04  0.00D+00 EMaxC= 1.00D-01 BMatC= 2.02D-04 BMatP= 2.13D-02
 IDIUse=3 WtCom= 9.94D-01 WtEn= 6.11D-03
 Coeff-Com:  0.764D-02 0.147D+00 0.228D+00 0.617D+00
 Coeff-En:   0.000D+00 0.000D+00 0.000D+00 0.100D+01
 Coeff:      0.760D-02 0.146D+00 0.227D+00 0.619D+00
 Gap=     0.497 Goal=   None    Shift=    0.000
 RMSDP=4.62D-05 MaxDP=1.48D-03 DE=-1.41D-02 OVMax= 2.12D-03

 Cycle   5  Pass 1  IDiag  1:
 RMSU=  3.81D-05    CP:  9.46D-01  9.22D-01  7.18D-01  9.89D-01
 E= -269.627721222531     Delta-E=       -0.000139947287 Rises=F Damp=F
 DIIS: error= 1.28D-04 at cycle   5 NSaved=   5.
 NSaved= 5 IEnMin= 5 EnMin= -269.627721222531     IErMin= 5 ErrMin= 1.28D-04
 ErrMax= 1.28D-04  0.00D+00 EMaxC= 1.00D-01 BMatC= 7.62D-06 BMatP= 2.02D-04
 IDIUse=3 WtCom= 9.99D-01 WtEn= 1.28D-03
 Coeff-Com: -0.196D-02-0.313D-01-0.328D-01 0.106D+00 0.960D+00
 Coeff-En:   0.000D+00 0.000D+00 0.000D+00 0.000D+00 0.100D+01
 Coeff:     -0.195D-02-0.313D-01-0.328D-01 0.106D+00 0.960D+00
 Gap=     0.497 Goal=   None    Shift=    0.000
 RMSDP=3.78D-05 MaxDP=9.31D-04 DE=-1.40D-04 OVMax= 1.10D-03

 Cycle   6  Pass 1  IDiag  1:
 RMSU=  1.07D-05    CP:  9.46D-01  9.31D-01  7.42D-01  1.14D+00  1.22D+00
 E= -269.627731899450     Delta-E=       -0.000010676919 Rises=F Damp=F
 DIIS: error= 2.09D-05 at cycle   6 NSaved=   6.
 NSaved= 6 IEnMin= 6 EnMin= -269.627731899450     IErMin= 6 ErrMin= 2.09D-05
 ErrMax= 2.09D-05  0.00D+00 EMaxC= 1.00D-01 BMatC= 1.38D-07 BMatP= 7.62D-06
 IDIUse=1 WtCom= 1.00D+00 WtEn= 0.00D+00
 Coeff-Com: -0.276D-03-0.545D-02-0.832D-02-0.196D-01-0.110D-01 0.104D+01
 Coeff:     -0.276D-03-0.545D-02-0.832D-02-0.196D-01-0.110D-01 0.104D+01
 Gap=     0.497 Goal=   None    Shift=    0.000
 RMSDP=9.33D-06 MaxDP=2.28D-04 DE=-1.07D-05 OVMax= 3.22D-04

 Cycle   7  Pass 1  IDiag  1:
 RMSU=  2.35D-06    CP:  9.46D-01  9.33D-01  7.47D-01  1.17D+00  1.32D+00
                    CP:  1.33D+00
 E= -269.627732256967     Delta-E=       -0.000000357518 Rises=F Damp=F
 DIIS: error= 6.01D-06 at cycle   7 NSaved=   7.
 NSaved= 7 IEnMin= 7 EnMin= -269.627732256967     IErMin= 7 ErrMin= 6.01D-06
 ErrMax= 6.01D-06  0.00D+00 EMaxC= 1.00D-01 BMatC= 1.69D-08 BMatP= 1.38D-07
 IDIUse=1 WtCom= 1.00D+00 WtEn= 0.00D+00
 Coeff-Com:  0.269D-04 0.260D-03-0.169D-03-0.737D-02-0.448D-01 0.194D+00
 Coeff-Com:  0.858D+00
 Coeff:      0.269D-04 0.260D-03-0.169D-03-0.737D-02-0.448D-01 0.194D+00
 Coeff:      0.858D+00
 Gap=     0.497 Goal=   None    Shift=    0.000
 RMSDP=1.80D-06 MaxDP=3.63D-05 DE=-3.58D-07 OVMax= 7.22D-05

 Cycle   8  Pass 1  IDiag  1:
 RMSU=  6.81D-07    CP:  9.46D-01  9.34D-01  7.47D-01  1.18D+00  1.34D+00
                    CP:  1.44D+00  1.24D+00
 E= -269.627732276168     Delta-E=       -0.000000019201 Rises=F Damp=F
 DIIS: error= 3.62D-06 at cycle   8 NSaved=   8.
 NSaved= 8 IEnMin= 8 EnMin= -269.627732276168     IErMin= 8 ErrMin= 3.62D-06
 ErrMax= 3.62D-06  0.00D+00 EMaxC= 1.00D-01 BMatC= 7.94D-09 BMatP= 1.69D-08
 IDIUse=1 WtCom= 1.00D+00 WtEn= 0.00D+00
 Coeff-Com:  0.450D-04 0.782D-03 0.948D-03-0.113D-02-0.209D-01-0.326D-01
 Coeff-Com:  0.437D+00 0.616D+00
 Coeff:      0.450D-04 0.782D-03 0.948D-03-0.113D-02-0.209D-01-0.326D-01
 Coeff:      0.437D+00 0.616D+00
 Gap=     0.497 Goal=   None    Shift=    0.000
 RMSDP=5.78D-07 MaxDP=1.17D-05 DE=-1.92D-08 OVMax= 2.42D-05

 Cycle   9  Pass 1  IDiag  1:
 RMSU=  2.04D-07    CP:  9.46D-01  9.34D-01  7.47D-01  1.18D+00  1.34D+00
                    CP:  1.47D+00  1.37D+00  8.81D-01
 E= -269.627732282287     Delta-E=       -0.000000006119 Rises=F Damp=F
 DIIS: error= 5.77D-07 at cycle   9 NSaved=   9.
 NSaved= 9 IEnMin= 9 EnMin= -269.627732282287     IErMin= 9 ErrMin= 5.77D-07
 ErrMax= 5.77D-07  0.00D+00 EMaxC= 1.00D-01 BMatC= 1.51D-10 BMatP= 7.94D-09
 IDIUse=1 WtCom= 1.00D+00 WtEn= 0.00D+00
 Coeff-Com: -0.177D-05 0.903D-05 0.965D-04 0.886D-03 0.461D-02-0.281D-01
 Coeff-Com: -0.750D-01 0.245D-01 0.107D+01
 Coeff:     -0.177D-05 0.903D-05 0.965D-04 0.886D-03 0.461D-02-0.281D-01
 Coeff:     -0.750D-01 0.245D-01 0.107D+01
 Gap=     0.497 Goal=   None    Shift=    0.000
 RMSDP=2.76D-07 MaxDP=8.06D-06 DE=-6.12D-09 OVMax= 9.52D-06

 Cycle  10  Pass 1  IDiag  1:
 RMSU=  6.10D-08    CP:  9.46D-01  9.33D-01  7.47D-01  1.18D+00  1.34D+00
                    CP:  1.48D+00  1.43D+00  1.01D+00  1.35D+00
 E= -269.627732282603     Delta-E=       -0.000000000316 Rises=F Damp=F
 DIIS: error= 9.55D-08 at cycle  10 NSaved=  10.
 NSaved=10 IEnMin=10 EnMin= -269.627732282603     IErMin=10 ErrMin= 9.55D-08
 ErrMax= 9.55D-08  0.00D+00 EMaxC= 1.00D-01 BMatC= 3.35D-12 BMatP= 1.51D-10
 IDIUse=1 WtCom= 1.00D+00 WtEn= 0.00D+00
 Coeff-Com: -0.733D-06-0.153D-04-0.191D-04 0.576D-04 0.568D-03 0.599D-04
 Coeff-Com: -0.123D-01-0.150D-01 0.124D-01 0.101D+01
 Coeff:     -0.733D-06-0.153D-04-0.191D-04 0.576D-04 0.568D-03 0.599D-04
 Coeff:     -0.123D-01-0.150D-01 0.124D-01 0.101D+01
 Gap=     0.497 Goal=   None    Shift=    0.000
 RMSDP=3.61D-08 MaxDP=9.59D-07 DE=-3.16D-10 OVMax= 1.39D-06

 Cycle  11  Pass 1  IDiag  1:
 RMSU=  1.14D-08    CP:  9.46D-01  9.33D-01  7.47D-01  1.18D+00  1.34D+00
                    CP:  1.48D+00  1.43D+00  1.03D+00  1.44D+00  1.32D+00
 E= -269.627732282614     Delta-E=       -0.000000000011 Rises=F Damp=F
 DIIS: error= 4.10D-08 at cycle  11 NSaved=  11.
 NSaved=11 IEnMin=11 EnMin= -269.627732282614     IErMin=11 ErrMin= 4.10D-08
 ErrMax= 4.10D-08  0.00D+00 EMaxC= 1.00D-01 BMatC= 7.12D-13 BMatP= 3.35D-12
 IDIUse=1 WtCom= 1.00D+00 WtEn= 0.00D+00
 Coeff-Com:  0.187D-07-0.337D-05-0.119D-04-0.594D-04-0.280D-03 0.244D-02
 Coeff-Com:  0.370D-02-0.579D-02-0.898D-01 0.294D+00 0.796D+00
 Coeff:      0.187D-07-0.337D-05-0.119D-04-0.594D-04-0.280D-03 0.244D-02
 Coeff:      0.370D-02-0.579D-02-0.898D-01 0.294D+00 0.796D+00
 Gap=     0.497 Goal=   None    Shift=    0.000
 RMSDP=9.70D-09 MaxDP=2.46D-07 DE=-1.15D-11 OVMax= 3.53D-07

 Error on total polarization charges =  0.04262
 SCF Done:  E(RwB97XD) =  -269.627732283     A.U. after   11 cycles
            NFock= 11  Conv=0.97D-08     -V/T= 2.0050
 KE= 2.682763319649D+02 PE=-1.022068223630D+03 EE= 2.890541616096D+02
 SMD-CDS (non-electrostatic) energy       (kcal/mol) =       2.95
 (included in total energy above)
 Leave Link  502 at Wed Oct 22 10:09:56 2025, MaxMem=  4294967296 cpu:             390.0 elap:              48.9
 (Enter /lrz/sys/applications/gaussian/g16.C.01/x86_64_legacy/exe/l601.exe)
 Copying SCF densities to generalized density rwf, IOpCl= 0 IROHF=0.

 **********************************************************************

            Population analysis using the SCF Density.

 **********************************************************************

 Orbital symmetries:
       Occupied  (A) (A) (A) (A) (A) (A) (A) (A) (A) (A) (A) (A)
                 (A) (A) (A) (A) (A) (A) (A) (A) (A)
       Virtual   (A) (A) (A) (A) (A) (A) (A) (A) (A) (A) (A) (A)
                 (A) (A) (A) (A) (A) (A) (A) (A) (A) (A) (A) (A)
                 (A) (A) (A) (A) (A) (A) (A) (A) (A) (A) (A) (A)
                 (A) (A) (A) (A) (A) (A) (A) (A) (A) (A) (A) (A)
                 (A) (A) (A) (A) (A) (A) (A) (A) (A) (A) (A) (A)
                 (A) (A) (A) (A) (A) (A) (A) (A) (A) (A) (A) (A)
                 (A) (A) (A) (A) (A) (A) (A) (A) (A) (A) (A) (A)
                 (A) (A) (A) (A) (A) (A) (A) (A) (A) (A) (A) (A)
                 (A) (A) (A) (A) (A) (A) (A) (A) (A) (A) (A) (A)
                 (A) (A) (A) (A) (A) (A) (A) (A) (A) (A) (A) (A)
                 (A) (A) (A) (A) (A) (A) (A) (A) (A) (A) (A) (A)
                 (A) (A) (A) (A) (A) (A) (A) (A) (A) (A) (A) (A)
                 (A) (A) (A) (A) (A) (A) (A) (A) (A) (A) (A) (A)
                 (A) (A) (A) (A) (A) (A) (A) (A) (A) (A) (A) (A)
                 (A) (A) (A) (A) (A) (A) (A) (A) (A) (A) (A) (A)
                 (A) (A)
 The electronic state is 1-A.
 Alpha  occ. eigenvalues --  -19.25554 -19.25549 -10.37679 -10.27508 -10.26711
 Alpha  occ. eigenvalues --   -1.16832  -1.09913  -0.87145  -0.76434  -0.69459
 Alpha  occ. eigenvalues --   -0.62721  -0.57468  -0.55150  -0.51350  -0.50267
 Alpha  occ. eigenvalues --   -0.46186  -0.44370  -0.41685  -0.40388  -0.40097
 Alpha  occ. eigenvalues --   -0.37341
 Alpha virt. eigenvalues --    0.12362   0.14255   0.15257   0.17294   0.18979
 Alpha virt. eigenvalues --    0.19781   0.20945   0.22725   0.24283   0.27167
 Alpha virt. eigenvalues --    0.29073   0.29942   0.31393   0.31910   0.35940
 Alpha virt. eigenvalues --    0.37680   0.39637   0.40876   0.41727   0.44048
 Alpha virt. eigenvalues --    0.47749   0.48455   0.48965   0.50321   0.50818
 Alpha virt. eigenvalues --    0.52338   0.54268   0.55750   0.56576   0.59367
 Alpha virt. eigenvalues --    0.60170   0.63421   0.64937   0.66133   0.67714
 Alpha virt. eigenvalues --    0.69395   0.70089   0.77570   0.82243   0.86744
 Alpha virt. eigenvalues --    0.88359   0.92349   0.93179   0.96147   0.98030
 Alpha virt. eigenvalues --    1.02935   1.06358   1.08628   1.10141   1.18330
 Alpha virt. eigenvalues --    1.19798   1.22212   1.24753   1.26549   1.31656
 Alpha virt. eigenvalues --    1.42240   1.45953   1.52850   1.57865   1.59661
 Alpha virt. eigenvalues --    1.61153   1.62759   1.64940   1.67209   1.67923
 Alpha virt. eigenvalues --    1.68906   1.72711   1.75872   1.77409   1.79008
 Alpha virt. eigenvalues --    1.86847   1.88192   1.92499   1.93808   1.96012
 Alpha virt. eigenvalues --    1.98155   2.00041   2.02357   2.03942   2.11590
 Alpha virt. eigenvalues --    2.16193   2.22917   2.24946   2.26634   2.27061
 Alpha virt. eigenvalues --    2.32413   2.34928   2.35570   2.38050   2.40632
 Alpha virt. eigenvalues --    2.41976   2.43780   2.48023   2.50715   2.55428
 Alpha virt. eigenvalues --    2.56988   2.59237   2.63956   2.66947   2.68385
 Alpha virt. eigenvalues --    2.72015   2.73039   2.75118   2.77138   2.81876
 Alpha virt. eigenvalues --    2.82908   2.86039   2.89076   2.92278   2.99230
 Alpha virt. eigenvalues --    3.00260   3.02915   3.07389   3.15702   3.16121
 Alpha virt. eigenvalues --    3.19427   3.20640   3.27652   3.29576   3.30269
 Alpha virt. eigenvalues --    3.32888   3.36216   3.38051   3.43393   3.45605
 Alpha virt. eigenvalues --    3.47605   3.49310   3.54501   3.59815   3.60957
 Alpha virt. eigenvalues --    3.64066   3.68092   3.70805   3.74962   3.83875
 Alpha virt. eigenvalues --    3.89112   3.97317   3.99550   4.04912   4.09376
 Alpha virt. eigenvalues --    4.13191   4.14020   4.25126   4.34259   4.39935
 Alpha virt. eigenvalues --    4.47364   4.59071   4.61073   4.64872   4.65976
 Alpha virt. eigenvalues --    4.78714   4.88511   4.98768   5.31470   5.33086
 Alpha virt. eigenvalues --    5.39722   5.44626   5.51872   5.54663   5.66254
 Alpha virt. eigenvalues --    5.79725   5.89755   5.96473   6.01362   6.22898
 Alpha virt. eigenvalues --    6.35810   6.36850   6.53408   6.58507   6.76642
 Alpha virt. eigenvalues --    6.79477   6.83014   6.99088   7.05810   7.08570
 Alpha virt. eigenvalues --    7.21269   7.32541  22.40592  22.54105  22.72486
 Alpha virt. eigenvalues --   43.90188  43.93441
          Condensed to atoms (all electrons):
               1          2          3          4          5          6
     1  O    8.153153   0.262130  -0.076955  -0.034158  -0.010571   0.295057
     2  C    0.262130   4.568202   0.319503   0.314080  -0.023061  -0.016714
     3  O   -0.076955   0.319503   8.115105  -0.084157   0.005954   0.003013
     4  C   -0.034158   0.314080  -0.084157   5.133611   0.238915  -0.010860
     5  C   -0.010571  -0.023061   0.005954   0.238915   5.014381  -0.000705
     6  H    0.295057  -0.016714   0.003013  -0.010860  -0.000705   0.345691
     7  H   -0.051537   0.452992  -0.050231  -0.079762   0.006792   0.008905
     8  H    0.004146  -0.027155   0.303548   0.013129  -0.001113  -0.000899
     9  H    0.007029  -0.043294   0.006442   0.407884  -0.022779   0.000213
    10  H   -0.007417  -0.015530   0.004519   0.384749  -0.024869   0.004820
    11  H   -0.000317  -0.000018  -0.000006  -0.037918   0.407069   0.000152
    12  H    0.015243  -0.017975   0.000526  -0.023954   0.402470   0.000742
    13  H    0.000666   0.007837  -0.000092  -0.030760   0.404290  -0.000150
               7          8          9         10         11         12
     1  O   -0.051537   0.004146   0.007029  -0.007417  -0.000317   0.015243
     2  C    0.452992  -0.027155  -0.043294  -0.015530  -0.000018  -0.017975
     3  O   -0.050231   0.303548   0.006442   0.004519  -0.000006   0.000526
     4  C   -0.079762   0.013129   0.407884   0.384749  -0.037918  -0.023954
     5  C    0.006792  -0.001113  -0.022779  -0.024869   0.407069   0.402470
     6  H    0.008905  -0.000899   0.000213   0.004820   0.000152   0.000742
     7  H    0.610883  -0.008171  -0.004060   0.008657   0.002813  -0.000143
     8  H   -0.008171   0.343443  -0.000632  -0.000481   0.000006  -0.000044
     9  H   -0.004060  -0.000632   0.559257  -0.026168  -0.004325   0.006230
    10  H    0.008657  -0.000481  -0.026168   0.557020   0.005966  -0.004622
    11  H    0.002813   0.000006  -0.004325   0.005966   0.546609  -0.025908
    12  H   -0.000143  -0.000044   0.006230  -0.004622  -0.025908   0.546322
    13  H   -0.000504   0.000017  -0.004381  -0.004991  -0.021171  -0.019655
              13
     1  O    0.000666
     2  C    0.007837
     3  O   -0.000092
     4  C   -0.030760
     5  C    0.404290
     6  H   -0.000150
     7  H   -0.000504
     8  H    0.000017
     9  H   -0.004381
    10  H   -0.004991
    11  H   -0.021171
    12  H   -0.019655
    13  H    0.529744
 Mulliken charges:
               1
     1  O   -0.556469
     2  C    0.219005
     3  O   -0.547168
     4  C   -0.190798
     5  C   -0.396772
     6  H    0.370734
     7  H    0.103366
     8  H    0.374204
     9  H    0.118584
    10  H    0.118344
    11  H    0.127051
    12  H    0.120768
    13  H    0.139150
 Sum of Mulliken charges =  -0.00000
 Mulliken charges with hydrogens summed into heavy atoms:
               1
     1  O   -0.185735
     2  C    0.322371
     3  O   -0.172964
     4  C    0.046131
     5  C   -0.009803
 Electronic spatial extent (au):  <R**2>=            477.9403
 Charge=             -0.0000 electrons
 Dipole moment (field-independent basis, Debye):
    X=              0.2705    Y=             -0.0711    Z=             -0.1071  Tot=              0.2995
 Quadrupole moment (field-independent basis, Debye-Ang):
   XX=            -28.8426   YY=            -36.2767   ZZ=            -28.5070
   XY=             -1.6120   XZ=             -2.0993   YZ=             -3.2585
 Traceless Quadrupole moment (field-independent basis, Debye-Ang):
   XX=              2.3662   YY=             -5.0679   ZZ=              2.7017
   XY=             -1.6120   XZ=             -2.0993   YZ=             -3.2585
 Octapole moment (field-independent basis, Debye-Ang**2):
  XXX=            -24.1031  YYY=             -0.1388  ZZZ=             -1.6526  XYY=              2.4602
  XXY=              0.6789  XXZ=              4.8722  XZZ=             -4.7109  YZZ=              4.1287
  YYZ=             -4.1202  XYZ=              2.6268
 Hexadecapole moment (field-independent basis, Debye-Ang**3):
 XXXX=           -339.1029 YYYY=           -162.8126 ZZZZ=            -56.9978 XXXY=             -1.6501
 XXXZ=            -17.2144 YYYX=             -0.5676 YYYZ=            -10.1127 ZZZX=              0.7181
 ZZZY=             -5.4634 XXYY=            -97.4050 XXZZ=            -73.2268 YYZZ=            -32.9654
 XXYZ=             -3.3237 YYXZ=              1.1901 ZZXY=             -2.2532
 N-N= 1.951099977734D+02 E-N=-1.022068227259D+03  KE= 2.682763319649D+02
 No NMR shielding tensors so no spin-rotation constants.
 Leave Link  601 at Wed Oct 22 10:09:57 2025, MaxMem=  4294967296 cpu:               1.0 elap:               0.2
 (Enter /lrz/sys/applications/gaussian/g16.C.01/x86_64_legacy/exe/l9999.exe)
 Unable to Open any file for archive entry.
 1\1\GINC-CM4R15C05S03\SP\RwB97XD\def2TZVP\C3H8O2\GO29TIZ2\22-Oct-2025\
 0\\#p wb97xd scrf=(smd,solvent=water) def2tzvp\\g16_g16_C2-w_1\\0,1\O,
 0,-0.644539,1.337572,-0.06977\C,0,-0.517237,-0.006243,0.323517\O,0,-1.
 63293,-0.761945,-0.074698\C,0,0.718506,-0.671779,-0.257909\C,0,2.01347
 6,0.036842,0.108488\H,0,-0.59,1.367634,-1.035213\H,0,-0.451198,0.02973
 7,1.425817\H,0,-2.408287,-0.393954,0.367401\H,0,0.736773,-1.714736,0.0
 94348\H,0,0.592049,-0.708554,-1.354303\H,0,2.156792,0.064738,1.200369\
 H,0,2.014641,1.074665,-0.256384\H,0,2.880514,-0.47746,-0.330874\\Versi
 on=EM64L-G16RevC.01\State=1-A\HF=-269.6277323\RMSD=9.700e-09\Dipole=0.
 1064259,-0.02798,-0.0421203\Quadrupole=1.7592135,-3.7678929,2.0086795,
 -1.1984544,-1.5607713,-2.4225889\PG=C01 [X(C3H8O2)]\\@
 The archive entry for this job was punched.


 The cat could very well be man's best friend
 but would never stoop to admitting it.
                               -- Doug Larson
 Job cpu time:       0 days  0 hours  6 minutes 50.0 seconds.
 Elapsed time:       0 days  0 hours  0 minutes 51.6 seconds.
 File lengths (MBytes):  RWF=    272 Int=      0 D2E=      0 Chk=      8 Scr=     32
 Normal termination of Gaussian 16 at Wed Oct 22 10:09:57 2025.
