 Entering Gaussian System, Link 0=g16
 Input=g16_oxonium_2.com
 Output=g16_oxonium_2.log
 Initial command:
 /lrz/sys/applications/gaussian/g16.C.01/x86_64_legacy/exe/l1.exe "/dss/lxclscratch/0D/go29tiz2/Gau-25316.inp" -scrdir="/dss/lxclscratch/0D/go29tiz2/"
 Entering Link 1 = /lrz/sys/applications/gaussian/g16.C.01/x86_64_legacy/exe/l1.exe PID=     25317.
  
 Copyright (c) 1988-2019, Gaussian, Inc.  All Rights Reserved.
  
 This is part of the Gaussian(R) 16 program.  It is based on
 the Gaussian(R) 09 system (copyright 2009, Gaussian, Inc.),
 the Gaussian(R) 03 system (copyright 2003, Gaussian, Inc.),
 the Gaussian(R) 98 system (copyright 1998, Gaussian, Inc.),
 the Gaussian(R) 94 system (copyright 1995, Gaussian, Inc.),
 the Gaussian 92(TM) system (copyright 1992, Gaussian, Inc.),
 the Gaussian 90(TM) system (copyright 1990, Gaussian, Inc.),
 the Gaussian 88(TM) system (copyright 1988, Gaussian, Inc.),
 the Gaussian 86(TM) system (copyright 1986, Carnegie Mellon
 University), and the Gaussian 82(TM) system (copyright 1983,
 Carnegie Mellon University). Gaussian is a federally registered
 trademark of Gaussian, Inc.
  
 This software contains proprietary and confidential information,
 including trade secrets, belonging to Gaussian, Inc.
  
 This software is provided under written license and may be
 used, copied, transmitted, or stored only in accord with that
 written license.
  
 The following legend is applicable only to US Government
 contracts under FAR:
  
                    RESTRICTED RIGHTS LEGEND
  
 Use, reproduction and disclosure by the US Government is
 subject to restrictions as set forth in subparagraphs (a)
 and (c) of the Commercial Computer Software - Restricted
 Rights clause in FAR 52.227-19.
  
 Gaussian, Inc.
 340 Quinnipiac St., Bldg. 40, Wallingford CT 06492
  
  
 ---------------------------------------------------------------
 Warning -- This program may not be used in any manner that
 competes with the business of Gaussian, Inc. or will provide
 assistance to any competitor of Gaussian, Inc.  The licensee
 of this program is prohibited from giving any competitor of
 Gaussian, Inc. access to this program.  By using this program,
 the user acknowledges that Gaussian, Inc. is engaged in the
 business of creating and licensing software in the field of
 computational chemistry and represents and warrants to the
 licensee that it is not a competitor of Gaussian, Inc. and that
 it will not use this program in any manner prohibited above.
 ---------------------------------------------------------------
  

 Cite this work as:
 Gaussian 16, Revision C.01,
 M. J. Frisch, G. W. Trucks, H. B. Schlegel, G. E. Scuseria, 
 M. A. Robb, J. R. Cheeseman, G. Scalmani, V. Barone, 
 G. A. Petersson, H. Nakatsuji, X. Li, M. Caricato, A. V. Marenich, 
 J. Bloino, B. G. Janesko, R. Gomperts, B. Mennucci, H. P. Hratchian, 
 J. V. Ortiz, A. F. Izmaylov, J. L. Sonnenberg, D. Williams-Young, 
 F. Ding, F. Lipparini, F. Egidi, J. Goings, B. Peng, A. Petrone, 
 T. Henderson, D. Ranasinghe, V. G. Zakrzewski, J. Gao, N. Rega, 
 G. Zheng, W. Liang, M. Hada, M. Ehara, K. Toyota, R. Fukuda, 
 J. Hasegawa, M. Ishida, T. Nakajima, Y. Honda, O. Kitao, H. Nakai, 
 T. Vreven, K. Throssell, J. A. Montgomery, Jr., J. E. Peralta, 
 F. Ogliaro, M. J. Bearpark, J. J. Heyd, E. N. Brothers, K. N. Kudin, 
 V. N. Staroverov, T. A. Keith, R. Kobayashi, J. Normand, 
 K. Raghavachari, A. P. Rendell, J. C. Burant, S. S. Iyengar, 
 J. Tomasi, M. Cossi, J. M. Millam, M. Klene, C. Adamo, R. Cammi, 
 J. W. Ochterski, R. L. Martin, K. Morokuma, O. Farkas, 
 J. B. Foresman, and D. J. Fox, Gaussian, Inc., Wallingford CT, 2019.
 
 ******************************************
 Gaussian 16:  EM64L-G16RevC.01  3-Jul-2019
                16-Jun-2026 
 ******************************************
 %chk=g16_oxonium_2.chk
 %nprocshared=8
 Will use up to    8 processors via shared memory.
 %mem=32GB
 -------------------------------------------
 #p wb97xd scrf=(smd,solvent=water) def2tzvp
 -------------------------------------------
 1/38=1,172=1/1;
 2/12=2,17=6,18=5,40=1/2;
 3/5=44,7=101,11=2,25=1,30=1,70=32201,72=1,74=-58/1,2,3;
 4//1;
 5/5=2,38=5,53=1/2;
 6/7=2,8=2,9=2,10=2,28=1/1;
 99/5=1,9=1/99;
 Leave Link    1 at Tue Jun 16 15:32:26 2026, MaxMem=  4294967296 cpu:               4.4 elap:               0.6
 (Enter /lrz/sys/applications/gaussian/g16.C.01/x86_64_legacy/exe/l101.exe)
 -------------
 g16_oxonium_2
 -------------
 Symbolic Z-matrix:
 Charge =  1 Multiplicity = 1
 H                    -0.89184  -0.18845  -0.25825 
 H                     0.60974  -0.67802  -0.2578 
 H                     0.28316   0.86646  -0.2579 
 O                    -0.00013   0.        0.09674 
 
 ITRead=  0  0  0  0
 MicOpt= -1 -1 -1 -1
 NAtoms=      4 NQM=        4 NQMF=       0 NMMI=      0 NMMIF=      0
                NMic=       0 NMicF=      0.
                    Isotopes and Nuclear Properties:
 (Nuclear quadrupole moments (NQMom) in fm**2, nuclear magnetic moments (NMagM)
  in nuclear magnetons)

  Atom         1           2           3           4
 IAtWgt=           1           1           1          16
 AtmWgt=   1.0078250   1.0078250   1.0078250  15.9949146
 NucSpn=           1           1           1           0
 AtZEff=  -0.0000000  -0.0000000  -0.0000000  -0.0000000
 NQMom=    0.0000000   0.0000000   0.0000000   0.0000000
 NMagM=    2.7928460   2.7928460   2.7928460   0.0000000
 AtZNuc=   1.0000000   1.0000000   1.0000000   8.0000000
 Leave Link  101 at Tue Jun 16 15:32:26 2026, MaxMem=  4294967296 cpu:               1.2 elap:               0.2
 (Enter /lrz/sys/applications/gaussian/g16.C.01/x86_64_legacy/exe/l202.exe)
                          Input orientation:                          
 ---------------------------------------------------------------------
 Center     Atomic      Atomic             Coordinates (Angstroms)
 Number     Number       Type             X           Y           Z
 ---------------------------------------------------------------------
      1          1           0       -0.891843   -0.188449   -0.258250
      2          1           0        0.609735   -0.678024   -0.257799
      3          1           0        0.283160    0.866464   -0.257901
      4          8           0       -0.000131    0.000001    0.096744
 ---------------------------------------------------------------------
                    Distance matrix (angstroms):
                    1          2          3          4
     1  H    0.000000
     2  H    1.579373   0.000000
     3  H    1.579074   1.578637   0.000000
     4  O    0.978102   0.978445   0.978154   0.000000
 Stoichiometry    H3O(1+)
 Framework group  C1[X(H3O)]
 Deg. of freedom     6
 Full point group                 C1      NOp   1
 Largest Abelian subgroup         C1      NOp   1
 Largest concise Abelian subgroup C1      NOp   1
                         Standard orientation:                         
 ---------------------------------------------------------------------
 Center     Atomic      Atomic             Coordinates (Angstroms)
 Number     Number       Type             X           Y           Z
 ---------------------------------------------------------------------
      1          1           0        0.891830   -0.188513    0.258250
      2          1           0       -0.609783   -0.677980    0.257799
      3          1           0       -0.283097    0.866484    0.257901
      4          8           0        0.000131    0.000001   -0.096744
 ---------------------------------------------------------------------
 Rotational constants (GHZ):         320.7318942         320.4549720         201.1186306
 Leave Link  202 at Tue Jun 16 15:32:26 2026, MaxMem=  4294967296 cpu:               0.1 elap:               0.0
 (Enter /lrz/sys/applications/gaussian/g16.C.01/x86_64_legacy/exe/l301.exe)
 Standard basis: def2TZVP (5D, 7F)
 Ernie: Thresh=  0.10000D-02 Tol=  0.10000D-05 Strict=F.
 There are    54 symmetry adapted cartesian basis functions of A   symmetry.
 There are    49 symmetry adapted basis functions of A   symmetry.
    49 basis functions,    75 primitive gaussians,    54 cartesian basis functions
     5 alpha electrons        5 beta electrons
       nuclear repulsion energy        13.9882248835 Hartrees.
 IExCor= 4639 DFT=T Ex+Corr=wB97XD ExCW=0 ScaHFX=  1.000000
 ScaDFX=  1.000000  1.000000  1.000000  1.000000 ScalE2=  1.000000  1.000000
 IRadAn=      5 IRanWt=     -1 IRanGd=            0 ICorTp=0 IEmpDi=121
 HFx  wShort=  0.000000 wLong=  0.200000 cFull=  0.222036 cShort=  0.000000 cLong=  0.777964
 DFx  wShort=  0.000000 wLong=  0.200000 cFull=  0.000000 cShort=  0.000000 cLong=  1.000000
 NAtoms=    4 NActive=    4 NUniq=    4 SFac= 1.00D+00 NAtFMM=   60 NAOKFM=F Big=F
 Integral buffers will be    131072 words long.
 Raffenetti 2 integral format.
 Two-electron integral symmetry is turned on.
 R6Disp:  Grimme-D2 Dispersion energy=       -0.0001006461 Hartrees.
 Nuclear repulsion after empirical dispersion term =       13.9881242374 Hartrees.
 ------------------------------------------------------------------------------
 Polarizable Continuum Model (PCM)
 =================================
 Model                : PCM.
 Atomic radii         : SMD-Coulomb.
 Polarization charges : Total charges.
 Charge compensation  : None.
 Solution method      : On-the-fly selection.
 Cavity type          : VdW (van der Waals Surface) (Alpha=1.000).
 Cavity algorithm     : GePol (No added spheres)
                        Default sphere list used, NSphG=    4.
                        Lebedev-Laikov grids with approx.  5.0 points / Ang**2.
                        Smoothing algorithm: York/Karplus (Gamma=1.0000).
                        Polarization charges: spherical gaussians, with
                                              point-specific exponents (IZeta= 3).
                        Self-potential: point-specific (ISelfS= 7).
                        Self-field    : sphere-specific E.n sum rule (ISelfD= 2).
 Solvent              : Water, Eps=  78.355300 Eps(inf)=   1.777849
 ------------------------------------------------------------------------------
 Spheres list:
 ISph  on   Nord     Re0    Alpha      Xe            Ye            Ze
    1   H      1    1.2000  1.000      0.891830     -0.188513      0.258250
    2   H      2    1.2000  1.000     -0.609783     -0.677980      0.257799
    3   H      3    1.2000  1.000     -0.283097      0.866484      0.257901
    4   O      4    1.5200  1.000      0.000131      0.000001     -0.096744
 ------------------------------------------------------------------------------
 GePol: Number of generator spheres                  =       4
 GePol: Total number of spheres                      =       4
 GePol: Number of exposed spheres                    =       4 (100.00%)
 GePol: Number of points                             =     291
 GePol: Average weight of points                     =       0.14
 GePol: Minimum weight of points                     =   0.32D-07
 GePol: Maximum weight of points                     =    0.21991
 GePol: Number of points with low weight             =      11
 GePol: Fraction of low-weight points (<1% of avg)   =       3.78%
 GePol: Cavity surface area                          =     40.239 Ang**2
 GePol: Cavity volume                                =     21.794 Ang**3
 ------------------------------------------------------------------------------
 Atomic radii for non-electrostatic terms: SMD-CDS.
 ------------------------------------------------------------------------------
 PCM non-electrostatic energy =         0.0033962354 Hartrees.
 Nuclear repulsion after PCM non-electrostatic terms =       13.9915204728 Hartrees.
 Leave Link  301 at Tue Jun 16 15:32:26 2026, MaxMem=  4294967296 cpu:               0.5 elap:               0.1
 (Enter /lrz/sys/applications/gaussian/g16.C.01/x86_64_legacy/exe/l302.exe)
 NPDir=0 NMtPBC=     1 NCelOv=     1 NCel=       1 NClECP=     1 NCelD=      1
         NCelK=      1 NCelE2=     1 NClLst=     1 CellRange=     0.0.
 One-electron integrals computed using PRISM.
 One-electron integral symmetry used in STVInt
   1 Symmetry operations used in ECPInt.
 ECPInt:  NShTT=     276 NPrTT=     772 LenC2=     277 LenP2D=     751.
 LDataN:  DoStor=T MaxTD1= 6 Len=  172
 NBasis=    49 RedAO= T EigKep=  7.96D-03  NBF=    49
 NBsUse=    49 1.00D-06 EigRej= -1.00D+00 NBFU=    49
 Precomputing XC quadrature grid using
 IXCGrd= 4 IRadAn=           5 IRanWt=          -1 IRanGd=           0 AccXCQ= 0.00D+00.
 Generated NRdTot=       0 NPtTot=           0 NUsed=           0 NTot=          32
 NSgBfM=    54    54    54    54    54 MxSgAt=     4 MxSgA2=     4.
 Leave Link  302 at Tue Jun 16 15:32:26 2026, MaxMem=  4294967296 cpu:               1.2 elap:               0.3
 (Enter /lrz/sys/applications/gaussian/g16.C.01/x86_64_legacy/exe/l303.exe)
 DipDrv:  MaxL=1.
 Leave Link  303 at Tue Jun 16 15:32:27 2026, MaxMem=  4294967296 cpu:               0.4 elap:               0.1
 (Enter /lrz/sys/applications/gaussian/g16.C.01/x86_64_legacy/exe/l401.exe)
 ExpMin= 1.03D-01 ExpMax= 2.70D+04 ExpMxC= 9.22D+02 IAcc=3 IRadAn=         5 AccDes= 0.00D+00
 Harris functional with IExCor= 4639 and IRadAn=       5 diagonalized for initial guess.
 HarFok:  IExCor= 4639 AccDes= 0.00D+00 IRadAn=         5 IDoV= 1 UseB2=F ITyADJ=14
 ICtDFT=  3500011 ScaDFX=  1.000000  1.000000  1.000000  1.000000
 FoFCou: FMM=F IPFlag=           0 FMFlag=      100000 FMFlg1=           0
         NFxFlg=           0 DoJE=T BraDBF=F KetDBF=T FulRan=T
         wScrn=  0.000000 ICntrl=       500 IOpCl=  0 I1Cent=   200000004 NGrid=           0
         NMat0=    1 NMatS0=      1 NMatT0=    0 NMatD0=    1 NMtDS0=    0 NMtDT0=    0
 Petite list used in FoFCou.
 Harris En= -74.0030238424583    
 JPrj=0 DoOrth=F DoCkMO=F.
 Leave Link  401 at Tue Jun 16 15:32:27 2026, MaxMem=  4294967296 cpu:               2.1 elap:               0.3
 (Enter /lrz/sys/applications/gaussian/g16.C.01/x86_64_legacy/exe/l502.exe)
 Keep R1 ints in memory in canonical form, NReq=8579811.
 FoFCou: FMM=F IPFlag=           0 FMFlag=           0 FMFlg1=           0
         NFxFlg=           0 DoJE=F BraDBF=F KetDBF=F FulRan=T
         wScrn=  0.000000 ICntrl=       600 IOpCl=  0 I1Cent=           0 NGrid=           0
         NMat0=    1 NMatS0=   1225 NMatT0=    0 NMatD0=    1 NMtDS0=    0 NMtDT0=    0
 Symmetry not used in FoFCou.
 Two-electron integral symmetry not used.
 Closed shell SCF:
 Using DIIS extrapolation, IDIIS=  1040.
 NGot=  4294967296 LenX=  4293458412 LenY=  4293455055
 Requested convergence on RMS density matrix=1.00D-08 within 128 cycles.
 Requested convergence on MAX density matrix=1.00D-06.
 Requested convergence on             energy=1.00D-06.
 No special actions if energy rises.

 Cycle   1  Pass 1  IDiag  1:
 Inv3:  Mode=1 IEnd=      254043.
 Iteration    1 A*A^-1 deviation from unit magnitude is 3.55D-15 for     46.
 Iteration    1 A*A^-1 deviation from orthogonality  is 2.06D-15 for    266     15.
 Iteration    1 A^-1*A deviation from unit magnitude is 2.89D-15 for     71.
 Iteration    1 A^-1*A deviation from orthogonality  is 1.14D-15 for    247    169.
 E= -76.8270432178889    
 DIIS: error= 1.05D-01 at cycle   1 NSaved=   1.
 NSaved= 1 IEnMin= 1 EnMin= -76.8270432178889     IErMin= 1 ErrMin= 1.05D-01
 ErrMax= 1.05D-01  0.00D+00 EMaxC= 1.00D-01 BMatC= 1.87D-01 BMatP= 1.87D-01
 IDIUse=3 WtCom= 0.00D+00 WtEn= 1.00D+00
 Coeff-Com:  0.100D+01
 Coeff-En:   0.100D+01
 Coeff:      0.100D+01
 Gap=     0.725 Goal=   None    Shift=    0.000
 GapD=    0.725 DampG=2.000 DampE=0.250 DampFc=0.5000 IDamp=-1.
 Damping current iteration by 5.00D-01
 RMSDP=3.72D-03 MaxDP=4.82D-02              OVMax= 9.18D-02

 Cycle   2  Pass 1  IDiag  1:
 E= -76.8487004451453     Delta-E=       -0.021657227256 Rises=F Damp=T
 DIIS: error= 3.97D-02 at cycle   2 NSaved=   2.
 NSaved= 2 IEnMin= 2 EnMin= -76.8487004451453     IErMin= 2 ErrMin= 3.97D-02
 ErrMax= 3.97D-02  0.00D+00 EMaxC= 1.00D-01 BMatC= 3.03D-02 BMatP= 1.87D-01
 IDIUse=3 WtCom= 6.03D-01 WtEn= 3.97D-01
 Coeff-Com: -0.382D+00 0.138D+01
 Coeff-En:   0.000D+00 0.100D+01
 Coeff:     -0.231D+00 0.123D+01
 Gap=     0.634 Goal=   None    Shift=    0.000
 RMSDP=1.13D-03 MaxDP=1.15D-02 DE=-2.17D-02 OVMax= 4.86D-02

 Cycle   3  Pass 1  IDiag  1:
 E= -76.8694976852329     Delta-E=       -0.020797240088 Rises=F Damp=F
 DIIS: error= 9.18D-03 at cycle   3 NSaved=   3.
 NSaved= 3 IEnMin= 3 EnMin= -76.8694976852329     IErMin= 3 ErrMin= 9.18D-03
 ErrMax= 9.18D-03  0.00D+00 EMaxC= 1.00D-01 BMatC= 2.50D-03 BMatP= 3.03D-02
 IDIUse=3 WtCom= 9.08D-01 WtEn= 9.18D-02
 Coeff-Com: -0.176D+00 0.372D+00 0.804D+00
 Coeff-En:   0.000D+00 0.000D+00 0.100D+01
 Coeff:     -0.160D+00 0.337D+00 0.822D+00
 Gap=     0.655 Goal=   None    Shift=    0.000
 RMSDP=4.49D-04 MaxDP=7.01D-03 DE=-2.08D-02 OVMax= 1.21D-02

 Cycle   4  Pass 1  IDiag  1:
 E= -76.8710605959510     Delta-E=       -0.001562910718 Rises=F Damp=F
 DIIS: error= 1.15D-03 at cycle   4 NSaved=   4.
 NSaved= 4 IEnMin= 4 EnMin= -76.8710605959510     IErMin= 4 ErrMin= 1.15D-03
 ErrMax= 1.15D-03  0.00D+00 EMaxC= 1.00D-01 BMatC= 5.65D-05 BMatP= 2.50D-03
 IDIUse=3 WtCom= 9.89D-01 WtEn= 1.15D-02
 Coeff-Com:  0.320D-01-0.699D-01 0.699D-02 0.103D+01
 Coeff-En:   0.000D+00 0.000D+00 0.000D+00 0.100D+01
 Coeff:      0.317D-01-0.691D-01 0.691D-02 0.103D+01
 Gap=     0.652 Goal=   None    Shift=    0.000
 RMSDP=6.57D-05 MaxDP=8.64D-04 DE=-1.56D-03 OVMax= 1.45D-03

 Cycle   5  Pass 1  IDiag  1:
 E= -76.8710935530186     Delta-E=       -0.000032957068 Rises=F Damp=F
 DIIS: error= 8.58D-05 at cycle   5 NSaved=   5.
 NSaved= 5 IEnMin= 5 EnMin= -76.8710935530186     IErMin= 5 ErrMin= 8.58D-05
 ErrMax= 8.58D-05  0.00D+00 EMaxC= 1.00D-01 BMatC= 1.35D-07 BMatP= 5.65D-05
 IDIUse=1 WtCom= 1.00D+00 WtEn= 0.00D+00
 Coeff-Com:  0.846D-02-0.181D-01-0.227D-01 0.937D-01 0.939D+00
 Coeff:      0.846D-02-0.181D-01-0.227D-01 0.937D-01 0.939D+00
 Gap=     0.651 Goal=   None    Shift=    0.000
 RMSDP=8.52D-06 MaxDP=5.96D-05 DE=-3.30D-05 OVMax= 2.31D-04

 Cycle   6  Pass 1  IDiag  1:
 E= -76.8710937175498     Delta-E=       -0.000000164531 Rises=F Damp=F
 DIIS: error= 1.19D-05 at cycle   6 NSaved=   6.
 NSaved= 6 IEnMin= 6 EnMin= -76.8710937175498     IErMin= 6 ErrMin= 1.19D-05
 ErrMax= 1.19D-05  0.00D+00 EMaxC= 1.00D-01 BMatC= 5.58D-09 BMatP= 1.35D-07
 IDIUse=1 WtCom= 1.00D+00 WtEn= 0.00D+00
 Coeff-Com: -0.235D-02 0.509D-02 0.576D-02-0.219D-01-0.252D+00 0.126D+01
 Coeff:     -0.235D-02 0.509D-02 0.576D-02-0.219D-01-0.252D+00 0.126D+01
 Gap=     0.652 Goal=   None    Shift=    0.000
 RMSDP=2.20D-06 MaxDP=2.76D-05 DE=-1.65D-07 OVMax= 8.56D-05

 Cycle   7  Pass 1  IDiag  1:
 E= -76.8710937288627     Delta-E=       -0.000000011313 Rises=F Damp=F
 DIIS: error= 2.16D-06 at cycle   7 NSaved=   7.
 NSaved= 7 IEnMin= 7 EnMin= -76.8710937288627     IErMin= 7 ErrMin= 2.16D-06
 ErrMax= 2.16D-06  0.00D+00 EMaxC= 1.00D-01 BMatC= 2.03D-10 BMatP= 5.58D-09
 IDIUse=1 WtCom= 1.00D+00 WtEn= 0.00D+00
 Coeff-Com:  0.110D-03-0.246D-03-0.324D-03-0.104D-03-0.137D-01-0.546D-01
 Coeff-Com:  0.107D+01
 Coeff:      0.110D-03-0.246D-03-0.324D-03-0.104D-03-0.137D-01-0.546D-01
 Coeff:      0.107D+01
 Gap=     0.652 Goal=   None    Shift=    0.000
 RMSDP=3.47D-07 MaxDP=3.74D-06 DE=-1.13D-08 OVMax= 1.52D-05

 Cycle   8  Pass 1  IDiag  1:
 E= -76.8710937292150     Delta-E=       -0.000000000352 Rises=F Damp=F
 DIIS: error= 3.37D-07 at cycle   8 NSaved=   8.
 NSaved= 8 IEnMin= 8 EnMin= -76.8710937292150     IErMin= 8 ErrMin= 3.37D-07
 ErrMax= 3.37D-07  0.00D+00 EMaxC= 1.00D-01 BMatC= 3.81D-12 BMatP= 2.03D-10
 IDIUse=1 WtCom= 1.00D+00 WtEn= 0.00D+00
 Coeff-Com: -0.121D-05 0.393D-05 0.660D-04 0.484D-03 0.265D-02-0.371D-02
 Coeff-Com: -0.235D+00 0.124D+01
 Coeff:     -0.121D-05 0.393D-05 0.660D-04 0.484D-03 0.265D-02-0.371D-02
 Coeff:     -0.235D+00 0.124D+01
 Gap=     0.652 Goal=   None    Shift=    0.000
 RMSDP=7.25D-08 MaxDP=8.79D-07 DE=-3.52D-10 OVMax= 2.63D-06

 Cycle   9  Pass 1  IDiag  1:
 E= -76.8710937292243     Delta-E=       -0.000000000009 Rises=F Damp=F
 DIIS: error= 2.97D-08 at cycle   9 NSaved=   9.
 NSaved= 9 IEnMin= 9 EnMin= -76.8710937292243     IErMin= 9 ErrMin= 2.97D-08
 ErrMax= 2.97D-08  0.00D+00 EMaxC= 1.00D-01 BMatC= 2.10D-14 BMatP= 3.81D-12
 IDIUse=1 WtCom= 1.00D+00 WtEn= 0.00D+00
 Coeff-Com:  0.191D-06-0.668D-06-0.133D-04-0.101D-03-0.529D-03 0.122D-02
 Coeff-Com:  0.472D-01-0.292D+00 0.124D+01
 Coeff:      0.191D-06-0.668D-06-0.133D-04-0.101D-03-0.529D-03 0.122D-02
 Coeff:      0.472D-01-0.292D+00 0.124D+01
 Gap=     0.652 Goal=   None    Shift=    0.000
 RMSDP=8.59D-09 MaxDP=8.99D-08 DE=-9.32D-12 OVMax= 1.58D-07

 Error on total polarization charges =  0.00852
 SCF Done:  E(RwB97XD) =  -76.8710937292     A.U. after    9 cycles
            NFock=  9  Conv=0.86D-08     -V/T= 2.0061
 KE= 7.640209724559D+01 PE=-2.050485960619D+02 EE= 3.778388461433D+01
 SMD-CDS (non-electrostatic) energy       (kcal/mol) =       2.13
 (included in total energy above)
 Leave Link  502 at Tue Jun 16 15:32:29 2026, MaxMem=  4294967296 cpu:              18.3 elap:               2.3
 (Enter /lrz/sys/applications/gaussian/g16.C.01/x86_64_legacy/exe/l601.exe)
 Copying SCF densities to generalized density rwf, IOpCl= 0 IROHF=0.

 **********************************************************************

            Population analysis using the SCF Density.

 **********************************************************************

 Orbital symmetries:
       Occupied  (A) (A) (A) (A) (A)
       Virtual   (A) (A) (A) (A) (A) (A) (A) (A) (A) (A) (A) (A)
                 (A) (A) (A) (A) (A) (A) (A) (A) (A) (A) (A) (A)
                 (A) (A) (A) (A) (A) (A) (A) (A) (A) (A) (A) (A)
                 (A) (A) (A) (A) (A) (A) (A) (A)
 The electronic state is 1-A.
 Alpha  occ. eigenvalues --  -19.39632  -1.26459  -0.72605  -0.72582  -0.55869
 Alpha virt. eigenvalues --    0.09284   0.17740   0.17747   0.39800   0.39822
 Alpha virt. eigenvalues --    0.46734   0.48652   0.60727   0.60735   0.70717
 Alpha virt. eigenvalues --    1.10764   1.10798   1.46399   1.55901   1.55910
 Alpha virt. eigenvalues --    1.66798   1.83999   1.84013   1.96102   2.26506
 Alpha virt. eigenvalues --    2.29754   2.29765   2.47819   2.47838   2.59182
 Alpha virt. eigenvalues --    2.59199   2.62244   2.82663   3.55423   3.99064
 Alpha virt. eigenvalues --    3.99190   5.18273   5.40655   5.40706   5.49055
 Alpha virt. eigenvalues --    5.91320   5.91393   6.24001   6.42608   6.42659
 Alpha virt. eigenvalues --    6.83555   6.94822   6.94918  43.34635
          Condensed to atoms (all electrons):
               1          2          3          4
     1  H    0.238961  -0.007746  -0.007738   0.303491
     2  H   -0.007746   0.239030  -0.007738   0.303428
     3  H   -0.007738  -0.007738   0.239124   0.303564
     4  O    0.303491   0.303428   0.303564   7.508362
 Mulliken charges:
               1
     1  H    0.473032
     2  H    0.473026
     3  H    0.472788
     4  O   -0.418846
 Sum of Mulliken charges =   1.00000
 Mulliken charges with hydrogens summed into heavy atoms:
               1
     4  O    1.000000
 Electronic spatial extent (au):  <R**2>=             18.2829
 Charge=              1.0000 electrons
 Dipole moment (field-independent basis, Debye):
    X=             -0.0029    Y=             -0.0008    Z=              2.1510  Tot=              2.1510
 Quadrupole moment (field-independent basis, Debye-Ang):
   XX=             -2.6629   YY=             -2.6680   ZZ=             -5.9656
   XY=              0.0002   XZ=              0.0005   YZ=              0.0000
 Traceless Quadrupole moment (field-independent basis, Debye-Ang):
   XX=              1.1025   YY=              1.0975   ZZ=             -2.2001
   XY=              0.0002   XZ=              0.0005   YZ=              0.0000
 Octapole moment (field-independent basis, Debye-Ang**2):
  XXX=              1.2841  YYY=              0.9278  ZZZ=              1.1939  XYY=             -1.2892
  XXY=             -0.9296  XXZ=              1.2214  XZZ=             -0.0001  YZZ=             -0.0002
  YYZ=              1.2194  XYZ=             -0.0002
 Hexadecapole moment (field-independent basis, Debye-Ang**3):
 XXXX=             -3.3167 YYYY=             -3.3204 ZZZZ=             -5.2320 XXXY=              0.0012
 XXXZ=              0.3906 YYYX=             -0.0004 YYYZ=              0.2814 ZZZX=              0.0005
 ZZZY=              0.0001 XXYY=             -1.1047 XXZZ=             -1.5625 YYZZ=             -1.5633
 XXYZ=             -0.2817 YYXZ=             -0.3902 ZZXY=             -0.0002
 N-N= 1.399152047278D+01 E-N=-2.050485958904D+02  KE= 7.640209724559D+01
 No NMR shielding tensors so no spin-rotation constants.
 Leave Link  601 at Tue Jun 16 15:32:30 2026, MaxMem=  4294967296 cpu:               2.1 elap:               0.3
 (Enter /lrz/sys/applications/gaussian/g16.C.01/x86_64_legacy/exe/l9999.exe)
 Unable to Open any file for archive entry.
 1\1\GINC-CM4R07C01S03\SP\RwB97XD\def2TZVP\H3O1(1+)\GO29TIZ2\16-Jun-202
 6\0\\#p wb97xd scrf=(smd,solvent=water) def2tzvp\\g16_oxonium_2\\1,1\H
 ,0,-0.891843,-0.188449,-0.25825\H,0,0.609735,-0.678024,-0.257799\H,0,0
 .28316,0.866464,-0.257901\O,0,-0.000131,0.000001,0.096744\\Version=EM6
 4L-G16RevC.01\State=1-A\HF=-76.8710937\RMSD=8.591e-09\Dipole=0.0011459
 ,-0.0003096,-0.8462568\Quadrupole=0.8197161,0.8159743,-1.6356904,-0.00
 01361,0.0003532,-0.0000234\PG=C01 [X(H3O1)]\\@
 The archive entry for this job was punched.


 ... THE UNIVERSE IS NOT ONLY QUEERER THAN WE SUPPOSE,
 BUT QUEERER THAN WE CAN SUPPOSE ... 

                                   -- J. B. S. HALDANE
 Job cpu time:       0 days  0 hours  0 minutes 31.1 seconds.
 Elapsed time:       0 days  0 hours  0 minutes  4.6 seconds.
 File lengths (MBytes):  RWF=    272 Int=      0 D2E=      0 Chk=      8 Scr=     32
 Normal termination of Gaussian 16 at Tue Jun 16 15:32:30 2026.
