 Entering Gaussian System, Link 0=g16
 Input=../../g16_C12-w_3.com
 Output=../../g16_C12-w_3.log
 Initial command:
 /lrz/sys/applications/gaussian/g16.C.01/x86_64_legacy/exe/l1.exe "/dss/lxclscratch/0D/go29tiz2/Gau-65103.inp" -scrdir="/dss/lxclscratch/0D/go29tiz2/"
 Entering Link 1 = /lrz/sys/applications/gaussian/g16.C.01/x86_64_legacy/exe/l1.exe PID=     65104.
  
 Copyright (c) 1988-2019, Gaussian, Inc.  All Rights Reserved.
  
 This is part of the Gaussian(R) 16 program.  It is based on
 the Gaussian(R) 09 system (copyright 2009, Gaussian, Inc.),
 the Gaussian(R) 03 system (copyright 2003, Gaussian, Inc.),
 the Gaussian(R) 98 system (copyright 1998, Gaussian, Inc.),
 the Gaussian(R) 94 system (copyright 1995, Gaussian, Inc.),
 the Gaussian 92(TM) system (copyright 1992, Gaussian, Inc.),
 the Gaussian 90(TM) system (copyright 1990, Gaussian, Inc.),
 the Gaussian 88(TM) system (copyright 1988, Gaussian, Inc.),
 the Gaussian 86(TM) system (copyright 1986, Carnegie Mellon
 University), and the Gaussian 82(TM) system (copyright 1983,
 Carnegie Mellon University). Gaussian is a federally registered
 trademark of Gaussian, Inc.
  
 This software contains proprietary and confidential information,
 including trade secrets, belonging to Gaussian, Inc.
  
 This software is provided under written license and may be
 used, copied, transmitted, or stored only in accord with that
 written license.
  
 The following legend is applicable only to US Government
 contracts under FAR:
  
                    RESTRICTED RIGHTS LEGEND
  
 Use, reproduction and disclosure by the US Government is
 subject to restrictions as set forth in subparagraphs (a)
 and (c) of the Commercial Computer Software - Restricted
 Rights clause in FAR 52.227-19.
  
 Gaussian, Inc.
 340 Quinnipiac St., Bldg. 40, Wallingford CT 06492
  
  
 ---------------------------------------------------------------
 Warning -- This program may not be used in any manner that
 competes with the business of Gaussian, Inc. or will provide
 assistance to any competitor of Gaussian, Inc.  The licensee
 of this program is prohibited from giving any competitor of
 Gaussian, Inc. access to this program.  By using this program,
 the user acknowledges that Gaussian, Inc. is engaged in the
 business of creating and licensing software in the field of
 computational chemistry and represents and warrants to the
 licensee that it is not a competitor of Gaussian, Inc. and that
 it will not use this program in any manner prohibited above.
 ---------------------------------------------------------------
  

 Cite this work as:
 Gaussian 16, Revision C.01,
 M. J. Frisch, G. W. Trucks, H. B. Schlegel, G. E. Scuseria, 
 M. A. Robb, J. R. Cheeseman, G. Scalmani, V. Barone, 
 G. A. Petersson, H. Nakatsuji, X. Li, M. Caricato, A. V. Marenich, 
 J. Bloino, B. G. Janesko, R. Gomperts, B. Mennucci, H. P. Hratchian, 
 J. V. Ortiz, A. F. Izmaylov, J. L. Sonnenberg, D. Williams-Young, 
 F. Ding, F. Lipparini, F. Egidi, J. Goings, B. Peng, A. Petrone, 
 T. Henderson, D. Ranasinghe, V. G. Zakrzewski, J. Gao, N. Rega, 
 G. Zheng, W. Liang, M. Hada, M. Ehara, K. Toyota, R. Fukuda, 
 J. Hasegawa, M. Ishida, T. Nakajima, Y. Honda, O. Kitao, H. Nakai, 
 T. Vreven, K. Throssell, J. A. Montgomery, Jr., J. E. Peralta, 
 F. Ogliaro, M. J. Bearpark, J. J. Heyd, E. N. Brothers, K. N. Kudin, 
 V. N. Staroverov, T. A. Keith, R. Kobayashi, J. Normand, 
 K. Raghavachari, A. P. Rendell, J. C. Burant, S. S. Iyengar, 
 J. Tomasi, M. Cossi, J. M. Millam, M. Klene, C. Adamo, R. Cammi, 
 J. W. Ochterski, R. L. Martin, K. Morokuma, O. Farkas, 
 J. B. Foresman, and D. J. Fox, Gaussian, Inc., Wallingford CT, 2019.
 
 ******************************************
 Gaussian 16:  EM64L-G16RevC.01  3-Jul-2019
                21-Oct-2025 
 ******************************************
 %chk=g16_C12-w_3.chk
 %nprocshared=8
 Will use up to    8 processors via shared memory.
 %mem=32GB
 ---------------------------------------------------
 #p opt freq wb97xd scrf=(smd,solvent=water) def2svp
 ---------------------------------------------------
 1/18=20,19=15,26=3,38=1/1,3;
 2/9=110,12=2,17=6,18=5,40=1/2;
 3/5=43,7=101,11=2,25=1,30=1,70=32201,71=1,72=1,74=-58/1,2,3;
 4//1;
 5/5=2,38=5,53=1/2;
 6/7=2,8=2,9=2,10=2,28=1/1;
 7//1,2,3,16;
 1/18=20,19=15,26=3/3(2);
 2/9=110/2;
 99//99;
 2/9=110/2;
 3/5=43,7=101,11=2,25=1,30=1,70=32205,71=1,72=1,74=-58/1,2,3;
 4/5=5,16=3,69=1/1;
 5/5=2,38=5,53=1/2;
 7//1,2,3,16;
 1/18=20,19=15,26=3/3(-5);
 2/9=110/2;
 6/7=2,8=2,9=2,10=2,19=2,28=1/1;
 99/9=1/99;
 Leave Link    1 at Tue Oct 21 14:59:17 2025, MaxMem=  4294967296 cpu:               4.7 elap:               0.7
 (Enter /lrz/sys/applications/gaussian/g16.C.01/x86_64_legacy/exe/l101.exe)
 -----------
 g16_C12-w_3
 -----------
 Symbolic Z-matrix:
 Charge =  0 Multiplicity = 1
 O                    -3.02971  -1.1598    0.23075 
 C                    -2.45267  -0.00092  -0.29599 
 O                    -3.02916   1.16249   0.22132 
 C                    -0.93305  -0.00072  -0.18182 
 C                    -0.23674  -1.20356  -0.13809 
 C                     1.14108  -1.21004  -0.05314 
 C                     1.83617  -0.00026  -0.01399 
 C                     3.24599  0.         0.07527 
 N                     4.39103   0.00007   0.15052 
 C                     1.14145   1.20926  -0.06577 
 C                    -0.23636   1.2023   -0.15069 
 H                    -2.84916  -1.22184   1.17931 
 H                    -2.72874  -0.00518  -1.35956 
 H                    -2.84801   1.2325    1.16921 
 H                    -0.78384  -2.13417  -0.17673 
 H                     1.68564  -2.14196  -0.01832 
 H                     1.6863    2.14133  -0.04088 
 H                    -0.78321   2.1326   -0.1991 
 
 ITRead=  0  0  0  0  0  0  0  0  0  0  0  0  0  0  0  0  0  0
 MicOpt= -1 -1 -1 -1 -1 -1 -1 -1 -1 -1 -1 -1 -1 -1 -1 -1 -1 -1
 NAtoms=     18 NQM=       18 NQMF=       0 NMMI=      0 NMMIF=      0
                NMic=       0 NMicF=      0.
                    Isotopes and Nuclear Properties:
 (Nuclear quadrupole moments (NQMom) in fm**2, nuclear magnetic moments (NMagM)
  in nuclear magnetons)

  Atom         1           2           3           4           5           6           7           8           9          10
 IAtWgt=          16          12          16          12          12          12          12          12          14          12
 AtmWgt=  15.9949146  12.0000000  15.9949146  12.0000000  12.0000000  12.0000000  12.0000000  12.0000000  14.0030740  12.0000000
 NucSpn=           0           0           0           0           0           0           0           0           2           0
 AtZEff=  -0.0000000  -0.0000000  -0.0000000  -0.0000000  -0.0000000  -0.0000000  -0.0000000  -0.0000000  -0.0000000  -0.0000000
 NQMom=    0.0000000   0.0000000   0.0000000   0.0000000   0.0000000   0.0000000   0.0000000   0.0000000   2.0440000   0.0000000
 NMagM=    0.0000000   0.0000000   0.0000000   0.0000000   0.0000000   0.0000000   0.0000000   0.0000000   0.4037610   0.0000000
 AtZNuc=   8.0000000   6.0000000   8.0000000   6.0000000   6.0000000   6.0000000   6.0000000   6.0000000   7.0000000   6.0000000

  Atom        11          12          13          14          15          16          17          18
 IAtWgt=          12           1           1           1           1           1           1           1
 AtmWgt=  12.0000000   1.0078250   1.0078250   1.0078250   1.0078250   1.0078250   1.0078250   1.0078250
 NucSpn=           0           1           1           1           1           1           1           1
 AtZEff=  -0.0000000  -0.0000000  -0.0000000  -0.0000000  -0.0000000  -0.0000000  -0.0000000  -0.0000000
 NQMom=    0.0000000   0.0000000   0.0000000   0.0000000   0.0000000   0.0000000   0.0000000   0.0000000
 NMagM=    0.0000000   2.7928460   2.7928460   2.7928460   2.7928460   2.7928460   2.7928460   2.7928460
 AtZNuc=   6.0000000   1.0000000   1.0000000   1.0000000   1.0000000   1.0000000   1.0000000   1.0000000
 Leave Link  101 at Tue Oct 21 14:59:17 2025, MaxMem=  4294967296 cpu:               3.4 elap:               0.5
 (Enter /lrz/sys/applications/gaussian/g16.C.01/x86_64_legacy/exe/l103.exe)

 GradGradGradGradGradGradGradGradGradGradGradGradGradGradGradGradGradGrad
 Berny optimization.
 Initialization pass.
                           ----------------------------
                           !    Initial Parameters    !
                           ! (Angstroms and Degrees)  !
 --------------------------                            --------------------------
 ! Name  Definition              Value          Derivative Info.                !
 --------------------------------------------------------------------------------
 ! R1    R(1,2)                  1.3976         estimate D2E/DX2                !
 ! R2    R(1,12)                 0.9676         estimate D2E/DX2                !
 ! R3    R(2,3)                  1.3977         estimate D2E/DX2                !
 ! R4    R(2,4)                  1.5239         estimate D2E/DX2                !
 ! R5    R(2,13)                 1.0988         estimate D2E/DX2                !
 ! R6    R(3,14)                 0.9676         estimate D2E/DX2                !
 ! R7    R(4,5)                  1.3905         estimate D2E/DX2                !
 ! R8    R(4,11)                 1.3905         estimate D2E/DX2                !
 ! R9    R(5,6)                  1.3804         estimate D2E/DX2                !
 ! R10   R(5,15)                 1.0802         estimate D2E/DX2                !
 ! R11   R(6,7)                  1.3958         estimate D2E/DX2                !
 ! R12   R(6,16)                 1.0799         estimate D2E/DX2                !
 ! R13   R(7,8)                  1.4126         estimate D2E/DX2                !
 ! R14   R(7,10)                 1.3958         estimate D2E/DX2                !
 ! R15   R(8,9)                  1.1475         estimate D2E/DX2                !
 ! R16   R(10,11)                1.3804         estimate D2E/DX2                !
 ! R17   R(10,17)                1.0799         estimate D2E/DX2                !
 ! R18   R(11,18)                1.0802         estimate D2E/DX2                !
 ! A1    A(2,1,12)             110.2181         estimate D2E/DX2                !
 ! A2    A(1,2,3)              112.3589         estimate D2E/DX2                !
 ! A3    A(1,2,4)              112.555          estimate D2E/DX2                !
 ! A4    A(1,2,13)             104.9422         estimate D2E/DX2                !
 ! A5    A(3,2,4)              112.5485         estimate D2E/DX2                !
 ! A6    A(3,2,13)             104.9426         estimate D2E/DX2                !
 ! A7    A(4,2,13)             108.8477         estimate D2E/DX2                !
 ! A8    A(2,3,14)             110.2189         estimate D2E/DX2                !
 ! A9    A(2,4,5)              120.1053         estimate D2E/DX2                !
 ! A10   A(2,4,11)             120.0927         estimate D2E/DX2                !
 ! A11   A(5,4,11)             119.7868         estimate D2E/DX2                !
 ! A12   A(4,5,6)              120.3841         estimate D2E/DX2                !
 ! A13   A(4,5,15)             119.3717         estimate D2E/DX2                !
 ! A14   A(6,5,15)             120.2434         estimate D2E/DX2                !
 ! A15   A(5,6,7)              119.6499         estimate D2E/DX2                !
 ! A16   A(5,6,16)             120.619          estimate D2E/DX2                !
 ! A17   A(7,6,16)             119.731          estimate D2E/DX2                !
 ! A18   A(6,7,8)              119.9287         estimate D2E/DX2                !
 ! A19   A(6,7,10)             120.1427         estimate D2E/DX2                !
 ! A20   A(8,7,10)             119.9285         estimate D2E/DX2                !
 ! A21   A(7,10,11)            119.6493         estimate D2E/DX2                !
 ! A22   A(7,10,17)            119.7309         estimate D2E/DX2                !
 ! A23   A(11,10,17)           120.6197         estimate D2E/DX2                !
 ! A24   A(4,11,10)            120.3847         estimate D2E/DX2                !
 ! A25   A(4,11,18)            119.3693         estimate D2E/DX2                !
 ! A26   A(10,11,18)           120.2451         estimate D2E/DX2                !
 ! A27   L(7,8,9,16,-1)        179.9931         estimate D2E/DX2                !
 ! A28   L(7,8,9,16,-2)        180.17           estimate D2E/DX2                !
 ! D1    D(12,1,2,3)           -65.2027         estimate D2E/DX2                !
 ! D2    D(12,1,2,4)            63.1004         estimate D2E/DX2                !
 ! D3    D(12,1,2,13)         -178.6773         estimate D2E/DX2                !
 ! D4    D(1,2,3,14)            65.2459         estimate D2E/DX2                !
 ! D5    D(4,2,3,14)           -63.0607         estimate D2E/DX2                !
 ! D6    D(13,2,3,14)          178.7202         estimate D2E/DX2                !
 ! D7    D(1,2,4,5)             26.54           estimate D2E/DX2                !
 ! D8    D(1,2,4,11)          -154.8758         estimate D2E/DX2                !
 ! D9    D(3,2,4,5)            154.7437         estimate D2E/DX2                !
 ! D10   D(3,2,4,11)           -26.6721         estimate D2E/DX2                !
 ! D11   D(13,2,4,5)           -89.3598         estimate D2E/DX2                !
 ! D12   D(13,2,4,11)           89.2244         estimate D2E/DX2                !
 ! D13   D(2,4,5,6)            179.1113         estimate D2E/DX2                !
 ! D14   D(2,4,5,15)            -0.5532         estimate D2E/DX2                !
 ! D15   D(11,4,5,6)             0.5227         estimate D2E/DX2                !
 ! D16   D(11,4,5,15)         -179.1417         estimate D2E/DX2                !
 ! D17   D(2,4,11,10)         -179.1133         estimate D2E/DX2                !
 ! D18   D(2,4,11,18)            0.5517         estimate D2E/DX2                !
 ! D19   D(5,4,11,10)           -0.5246         estimate D2E/DX2                !
 ! D20   D(5,4,11,18)          179.1404         estimate D2E/DX2                !
 ! D21   D(4,5,6,7)             -0.1368         estimate D2E/DX2                !
 ! D22   D(4,5,6,16)           179.9611         estimate D2E/DX2                !
 ! D23   D(15,5,6,7)           179.5247         estimate D2E/DX2                !
 ! D24   D(15,5,6,16)           -0.3774         estimate D2E/DX2                !
 ! D25   D(5,6,7,8)            179.8899         estimate D2E/DX2                !
 ! D26   D(5,6,7,10)            -0.2495         estimate D2E/DX2                !
 ! D27   D(16,6,7,8)            -0.2071         estimate D2E/DX2                !
 ! D28   D(16,6,7,10)          179.6534         estimate D2E/DX2                !
 ! D29   D(6,7,10,11)            0.2477         estimate D2E/DX2                !
 ! D30   D(6,7,10,17)         -179.6413         estimate D2E/DX2                !
 ! D31   D(8,7,10,11)         -179.8917         estimate D2E/DX2                !
 ! D32   D(8,7,10,17)            0.2192         estimate D2E/DX2                !
 ! D33   D(7,10,11,4)            0.1404         estimate D2E/DX2                !
 ! D34   D(7,10,11,18)        -179.5215         estimate D2E/DX2                !
 ! D35   D(17,10,11,4)        -179.9715         estimate D2E/DX2                !
 ! D36   D(17,10,11,18)          0.3665         estimate D2E/DX2                !
 --------------------------------------------------------------------------------
 Trust Radius=3.00D-01 FncErr=1.00D-07 GrdErr=1.00D-06 EigMax=2.50D+02 EigMin=1.00D-04
 Number of steps in this run=     92 maximum allowed number of steps=    108.
 GradGradGradGradGradGradGradGradGradGradGradGradGradGradGradGradGradGrad

 Leave Link  103 at Tue Oct 21 14:59:17 2025, MaxMem=  4294967296 cpu:               0.1 elap:               0.0
 (Enter /lrz/sys/applications/gaussian/g16.C.01/x86_64_legacy/exe/l202.exe)
                          Input orientation:                          
 ---------------------------------------------------------------------
 Center     Atomic      Atomic             Coordinates (Angstroms)
 Number     Number       Type             X           Y           Z
 ---------------------------------------------------------------------
      1          8           0       -3.029706   -1.159796    0.230753
      2          6           0       -2.452673   -0.000921   -0.295990
      3          8           0       -3.029158    1.162488    0.221324
      4          6           0       -0.933053   -0.000724   -0.181816
      5          6           0       -0.236738   -1.203562   -0.138090
      6          6           0        1.141079   -1.210039   -0.053140
      7          6           0        1.836171   -0.000259   -0.013990
      8          6           0        3.245986   -0.000005    0.075267
      9          7           0        4.391033    0.000072    0.150518
     10          6           0        1.141446    1.209262   -0.065775
     11          6           0       -0.236360    1.202302   -0.150691
     12          1           0       -2.849155   -1.221837    1.179306
     13          1           0       -2.728744   -0.005180   -1.359565
     14          1           0       -2.848007    1.232505    1.169208
     15          1           0       -0.783841   -2.134169   -0.176727
     16          1           0        1.685637   -2.141963   -0.018318
     17          1           0        1.686301    2.141331   -0.040885
     18          1           0       -0.783215    2.132598   -0.199100
 ---------------------------------------------------------------------
                    Distance matrix (angstroms):
                    1          2          3          4          5
     1  O    0.000000
     2  C    1.397647   0.000000
     3  O    2.322304   1.397665   0.000000
     4  C    2.430970   1.523903   2.430892   0.000000
     5  C    2.817558   2.526192   3.677632   1.390534   0.000000
     6  C    4.180738   3.799473   4.805735   2.404376   1.380448
     7  C    5.008112   4.298105   5.007872   2.774305   2.400060
     8  C    6.383855   5.710739   6.383584   4.186939   3.690993
     9  N    7.511265   6.858256   7.511022   5.334449   4.790437
    10  C    4.806129   3.799372   4.180735   2.404387   2.779628
    11  C    3.678015   2.526044   2.817747   1.390548   2.405897
    12  H    0.967575   1.955591   2.575876   2.648625   2.925849
    13  H    1.988171   1.098829   1.988192   2.147468   3.022948
    14  H    2.576202   1.955616   0.967575   2.648238   3.802917
    15  H    2.481804   2.711083   4.008471   2.138662   1.080206
    16  H    4.822981   4.667630   5.762474   3.386617   2.142537
    17  H    5.762981   4.667486   4.823115   3.386632   3.859512
    18  H    4.008910   2.710790   2.482364   2.138648   3.381171
                    6          7          8          9         10
     6  C    0.000000
     7  C    1.395799   0.000000
     8  C    2.431317   1.412637   0.000000
     9  N    3.473910   2.560153   1.147517   0.000000
    10  C    2.419334   1.395803   2.431318   3.474009   0.000000
    11  C    2.779612   2.400047   3.690980   4.790496   1.380437
    12  H    4.176246   4.986832   6.313677   7.414296   4.835841
    13  H    4.258398   4.759101   6.144604   7.278159   4.257597
    14  H    4.834559   4.986100   6.312886   7.413523   4.176297
    15  H    2.138833   3.382975   4.567019   5.607263   3.859736
    16  H    1.079925   2.146992   2.651685   3.454850   3.395453
    17  H    3.395453   2.146996   2.651683   3.455025   1.079926
    18  H    3.859719   3.382976   4.567026   5.607382   2.138842
                   11         12         13         14         15
    11  C    0.000000
    12  H    3.804214   0.000000
    13  H    3.021815   2.817910   0.000000
    14  H    2.926388   2.454363   2.817939   0.000000
    15  H    3.381191   2.633761   3.116784   4.172147   0.000000
    16  H    3.859495   4.779673   5.084441   5.775048   2.474565
    17  H    2.142535   5.776688   5.083213   4.780192   4.939631
    18  H    1.080205   4.173769   3.114781   2.635489   4.266825
                   16         17         18
    16  H    0.000000
    17  H    4.283353   0.000000
    18  H    4.939613   2.474594   0.000000
 Stoichiometry    C8H7NO2
 Framework group  C1[X(C8H7NO2)]
 Deg. of freedom    48
 Full point group                 C1      NOp   1
 Largest Abelian subgroup         C1      NOp   1
 Largest concise Abelian subgroup C1      NOp   1
                         Standard orientation:                         
 ---------------------------------------------------------------------
 Center     Atomic      Atomic             Coordinates (Angstroms)
 Number     Number       Type             X           Y           Z
 ---------------------------------------------------------------------
      1          8           0        2.988366    1.161236    0.202578
      2          6           0        2.408173   -0.000282   -0.314791
      3          8           0        2.988074   -1.161067    0.204597
      4          6           0        0.889306   -0.000075   -0.191015
      5          6           0        0.193116    1.202890   -0.148818
      6          6           0       -1.184136    1.209642   -0.055197
      7          6           0       -1.878803   -0.000003   -0.005693
      8          6           0       -3.288025    0.000035    0.092472
      9          7           0       -4.432574    0.000209    0.174957
     10          6           0       -1.184254   -1.209691   -0.055905
     11          6           0        0.192986   -1.203007   -0.149560
     12          1           0        2.813804    1.227932    1.151936
     13          1           0        2.677518   -0.001236   -1.380096
     14          1           0        2.812926   -1.226429    1.153941
     15          1           0        0.739838    2.133353   -0.195498
     16          1           0       -1.728590    2.141669   -0.021527
     17          1           0       -1.728815   -2.141684   -0.022979
     18          1           0        0.739651   -2.133472   -0.196839
 ---------------------------------------------------------------------
 Rotational constants (GHZ):           3.5292808           0.5708493           0.4998878
 Leave Link  202 at Tue Oct 21 14:59:17 2025, MaxMem=  4294967296 cpu:               0.0 elap:               0.0
 (Enter /lrz/sys/applications/gaussian/g16.C.01/x86_64_legacy/exe/l301.exe)
 Standard basis: def2SVP (5D, 7F)
 Ernie: Thresh=  0.10000D-02 Tol=  0.10000D-05 Strict=F.
 There are   200 symmetry adapted cartesian basis functions of A   symmetry.
 There are   189 symmetry adapted basis functions of A   symmetry.
   189 basis functions,   324 primitive gaussians,   200 cartesian basis functions
    39 alpha electrons       39 beta electrons
       nuclear repulsion energy       548.4557858884 Hartrees.
 IExCor= 4639 DFT=T Ex+Corr=wB97XD ExCW=0 ScaHFX=  1.000000
 ScaDFX=  1.000000  1.000000  1.000000  1.000000 ScalE2=  1.000000  1.000000
 IRadAn=      5 IRanWt=     -1 IRanGd=            0 ICorTp=0 IEmpDi=121
 HFx  wShort=  0.000000 wLong=  0.200000 cFull=  0.222036 cShort=  0.000000 cLong=  0.777964
 DFx  wShort=  0.000000 wLong=  0.200000 cFull=  0.000000 cShort=  0.000000 cLong=  1.000000
 NAtoms=   18 NActive=   18 NUniq=   18 SFac= 1.00D+00 NAtFMM=   60 NAOKFM=F Big=F
 Integral buffers will be    131072 words long.
 Raffenetti 2 integral format.
 Two-electron integral symmetry is turned on.
 R6Disp:  Grimme-D2 Dispersion energy=       -0.0094733369 Hartrees.
 Nuclear repulsion after empirical dispersion term =      548.4463125515 Hartrees.
 ------------------------------------------------------------------------------
 Polarizable Continuum Model (PCM)
 =================================
 Model                : PCM.
 Atomic radii         : SMD-Coulomb.
 Polarization charges : Total charges.
 Charge compensation  : None.
 Solution method      : On-the-fly selection.
 Cavity type          : VdW (van der Waals Surface) (Alpha=1.000).
 Cavity algorithm     : GePol (No added spheres)
                        Default sphere list used, NSphG=   18.
                        Lebedev-Laikov grids with approx.  5.0 points / Ang**2.
                        Smoothing algorithm: York/Karplus (Gamma=1.0000).
                        Polarization charges: spherical gaussians, with
                                              point-specific exponents (IZeta= 3).
                        Self-potential: point-specific (ISelfS= 7).
                        Self-field    : sphere-specific E.n sum rule (ISelfD= 2).
 1st derivatives      : Analytical E(r).r(x)/FMM algorithm (CHGder, D1EAlg=3).
                        Cavity 1st derivative terms included.
 Solvent              : Water, Eps=  78.355300 Eps(inf)=   1.777849
 ------------------------------------------------------------------------------
 Spheres list:
 ISph  on   Nord     Re0    Alpha      Xe            Ye            Ze
    1   O      1    1.5200  1.000      2.988366      1.161236      0.202578
    2   C      2    1.8500  1.000      2.408173     -0.000282     -0.314791
    3   O      3    1.5200  1.000      2.988074     -1.161067      0.204597
    4   C      4    1.8500  1.000      0.889306     -0.000075     -0.191015
    5   C      5    1.8500  1.000      0.193116      1.202890     -0.148818
    6   C      6    1.8500  1.000     -1.184136      1.209642     -0.055197
    7   C      7    1.8500  1.000     -1.878803     -0.000003     -0.005693
    8   C      8    1.8500  1.000     -3.288025      0.000035      0.092472
    9   N      9    1.8900  1.000     -4.432574      0.000209      0.174957
   10   C     10    1.8500  1.000     -1.184254     -1.209691     -0.055905
   11   C     11    1.8500  1.000      0.192986     -1.203007     -0.149560
   12   H     12    1.2000  1.000      2.813804      1.227932      1.151936
   13   H     13    1.2000  1.000      2.677518     -0.001236     -1.380096
   14   H     14    1.2000  1.000      2.812926     -1.226429      1.153941
   15   H     15    1.2000  1.000      0.739838      2.133353     -0.195498
   16   H     16    1.2000  1.000     -1.728590      2.141669     -0.021527
   17   H     17    1.2000  1.000     -1.728815     -2.141684     -0.022979
   18   H     18    1.2000  1.000      0.739651     -2.133472     -0.196839
 ------------------------------------------------------------------------------
 GePol: Number of generator spheres                  =      18
 GePol: Total number of spheres                      =      18
 GePol: Number of exposed spheres                    =      18 (100.00%)
 GePol: Number of points                             =    1545
 GePol: Average weight of points                     =       0.12
 GePol: Minimum weight of points                     =   0.15D-07
 GePol: Maximum weight of points                     =    0.21991
 GePol: Number of points with low weight             =      92
 GePol: Fraction of low-weight points (<1% of avg)   =       5.95%
 GePol: Cavity surface area                          =    178.916 Ang**2
 GePol: Cavity volume                                =    152.241 Ang**3
 ------------------------------------------------------------------------------
 Atomic radii for non-electrostatic terms: SMD-CDS.
 ------------------------------------------------------------------------------
 PCM non-electrostatic energy =         0.0089129996 Hartrees.
 Nuclear repulsion after PCM non-electrostatic terms =      548.4552255510 Hartrees.
 Leave Link  301 at Tue Oct 21 14:59:17 2025, MaxMem=  4294967296 cpu:               0.6 elap:               0.1
 (Enter /lrz/sys/applications/gaussian/g16.C.01/x86_64_legacy/exe/l302.exe)
 NPDir=0 NMtPBC=     1 NCelOv=     1 NCel=       1 NClECP=     1 NCelD=      1
         NCelK=      1 NCelE2=     1 NClLst=     1 CellRange=     0.0.
 One-electron integrals computed using PRISM.
 One-electron integral symmetry used in STVInt
   1 Symmetry operations used in ECPInt.
 ECPInt:  NShTT=    3828 NPrTT=   14192 LenC2=    3694 LenP2D=   10510.
 LDataN:  DoStor=T MaxTD1= 4 Len=   56
 NBasis=   189 RedAO= T EigKep=  2.65D-04  NBF=   189
 NBsUse=   189 1.00D-06 EigRej= -1.00D+00 NBFU=   189
 Precomputing XC quadrature grid using
 IXCGrd= 4 IRadAn=           5 IRanWt=          -1 IRanGd=           0 AccXCQ= 0.00D+00.
 Generated NRdTot=       0 NPtTot=           0 NUsed=           0 NTot=          32
 NSgBfM=   199   199   199   199   199 MxSgAt=    18 MxSgA2=    18.
 Leave Link  302 at Tue Oct 21 14:59:18 2025, MaxMem=  4294967296 cpu:               1.9 elap:               0.3
 (Enter /lrz/sys/applications/gaussian/g16.C.01/x86_64_legacy/exe/l303.exe)
 DipDrv:  MaxL=1.
 Leave Link  303 at Tue Oct 21 14:59:18 2025, MaxMem=  4294967296 cpu:               0.3 elap:               0.1
 (Enter /lrz/sys/applications/gaussian/g16.C.01/x86_64_legacy/exe/l401.exe)
 ExpMin= 1.22D-01 ExpMax= 2.27D+03 ExpMxC= 3.41D+02 IAcc=3 IRadAn=         5 AccDes= 0.00D+00
 Harris functional with IExCor= 4639 and IRadAn=       5 diagonalized for initial guess.
 HarFok:  IExCor= 4639 AccDes= 0.00D+00 IRadAn=         5 IDoV= 1 UseB2=F ITyADJ=14
 ICtDFT=  3500011 ScaDFX=  1.000000  1.000000  1.000000  1.000000
 FoFCou: FMM=F IPFlag=           0 FMFlag=      100000 FMFlg1=           0
         NFxFlg=           0 DoJE=T BraDBF=F KetDBF=T FulRan=T
         wScrn=  0.000000 ICntrl=       500 IOpCl=  0 I1Cent=   200000004 NGrid=           0
         NMat0=    1 NMatS0=      1 NMatT0=    0 NMatD0=    1 NMtDS0=    0 NMtDT0=    0
 Petite list used in FoFCou.
 Harris En= -492.354503880924    
 JPrj=0 DoOrth=F DoCkMO=F.
 Leave Link  401 at Tue Oct 21 14:59:19 2025, MaxMem=  4294967296 cpu:              10.3 elap:               1.3
 (Enter /lrz/sys/applications/gaussian/g16.C.01/x86_64_legacy/exe/l502.exe)
 Integral symmetry usage will be decided dynamically.
 Closed shell SCF:
 Using DIIS extrapolation, IDIIS=  1040.
 NGot=  4294967296 LenX=  4294883082 LenY=  4294842641
 Requested convergence on RMS density matrix=1.00D-08 within 128 cycles.
 Requested convergence on MAX density matrix=1.00D-06.
 Requested convergence on             energy=1.00D-06.
 No special actions if energy rises.
 Fock matrices will be formed incrementally for  20 cycles.

 Cycle   1  Pass 1  IDiag  1:
 FoFJK:  IHMeth= 1 ICntrl=       0 DoSepK=T KAlg= 0 I1Cent=           0 FoldK=F
 IRaf=         1 NMat=       1 IRICut=       1 DoRegI=T DoRafI=F ISym2E= 0 IDoP0=0 IntGTp=1.
 FoFCou: FMM=F IPFlag=           0 FMFlag=      100000 FMFlg1=           0
         NFxFlg=           0 DoJE=T BraDBF=F KetDBF=F FulRan=T
         wScrn=  0.000000 ICntrl=       500 IOpCl=  0 I1Cent=           0 NGrid=           0
         NMat0=    1 NMatS0=      1 NMatT0=    0 NMatD0=    1 NMtDS0=    0 NMtDT0=    0
 Symmetry not used in FoFCou.
 Inv3:  Mode=1 IEnd=     7161075.
 Iteration    1 A*A^-1 deviation from unit magnitude is 5.66D-15 for    173.
 Iteration    1 A*A^-1 deviation from orthogonality  is 5.21D-15 for   1250    482.
 Iteration    1 A^-1*A deviation from unit magnitude is 5.66D-15 for    491.
 Iteration    1 A^-1*A deviation from orthogonality  is 7.76D-13 for    838    807.
 E= -513.642360533065    
 DIIS: error= 3.00D-02 at cycle   1 NSaved=   1.
 NSaved= 1 IEnMin= 1 EnMin= -513.642360533065     IErMin= 1 ErrMin= 3.00D-02
 ErrMax= 3.00D-02  0.00D+00 EMaxC= 1.00D-01 BMatC= 2.07D-01 BMatP= 2.07D-01
 IDIUse=3 WtCom= 7.00D-01 WtEn= 3.00D-01
 Coeff-Com:  0.100D+01
 Coeff-En:   0.100D+01
 Coeff:      0.100D+01
 Gap=     0.450 Goal=   None    Shift=    0.000
 GapD=    0.450 DampG=2.000 DampE=0.500 DampFc=1.0000 IDamp=-1.
 RMSDP=3.86D-03 MaxDP=1.08D-01              OVMax= 5.85D-02

 Cycle   2  Pass 1  IDiag  1:
 RMSU=  3.74D-03    CP:  9.65D-01
 E= -513.689935195470     Delta-E=       -0.047574662406 Rises=F Damp=F
 DIIS: error= 1.16D-02 at cycle   2 NSaved=   2.
 NSaved= 2 IEnMin= 2 EnMin= -513.689935195470     IErMin= 2 ErrMin= 1.16D-02
 ErrMax= 1.16D-02  0.00D+00 EMaxC= 1.00D-01 BMatC= 2.90D-02 BMatP= 2.07D-01
 IDIUse=3 WtCom= 8.84D-01 WtEn= 1.16D-01
 Coeff-Com:  0.204D+00 0.796D+00
 Coeff-En:   0.000D+00 0.100D+01
 Coeff:      0.180D+00 0.820D+00
 Gap=     0.375 Goal=   None    Shift=    0.000
 RMSDP=1.26D-03 MaxDP=3.66D-02 DE=-4.76D-02 OVMax= 3.72D-02

 Cycle   3  Pass 1  IDiag  1:
 RMSU=  1.11D-03    CP:  9.66D-01  8.38D-01
 E= -513.705378542887     Delta-E=       -0.015443347416 Rises=F Damp=F
 DIIS: error= 6.83D-03 at cycle   3 NSaved=   3.
 NSaved= 3 IEnMin= 3 EnMin= -513.705378542887     IErMin= 3 ErrMin= 6.83D-03
 ErrMax= 6.83D-03  0.00D+00 EMaxC= 1.00D-01 BMatC= 9.86D-03 BMatP= 2.90D-02
 IDIUse=3 WtCom= 9.32D-01 WtEn= 6.83D-02
 Coeff-Com:  0.156D-02 0.367D+00 0.632D+00
 Coeff-En:   0.000D+00 0.210D+00 0.790D+00
 Coeff:      0.145D-02 0.356D+00 0.642D+00
 Gap=     0.352 Goal=   None    Shift=    0.000
 RMSDP=5.48D-04 MaxDP=1.51D-02 DE=-1.54D-02 OVMax= 1.53D-02

 Cycle   4  Pass 1  IDiag  1:
 RMSU=  2.30D-04    CP:  9.62D-01  9.41D-01  7.31D-01
 E= -513.712946440386     Delta-E=       -0.007567897500 Rises=F Damp=F
 DIIS: error= 8.14D-04 at cycle   4 NSaved=   4.
 NSaved= 4 IEnMin= 4 EnMin= -513.712946440386     IErMin= 4 ErrMin= 8.14D-04
 ErrMax= 8.14D-04  0.00D+00 EMaxC= 1.00D-01 BMatC= 1.61D-04 BMatP= 9.86D-03
 IDIUse=3 WtCom= 9.92D-01 WtEn= 8.14D-03
 Coeff-Com: -0.266D-02 0.122D+00 0.256D+00 0.624D+00
 Coeff-En:   0.000D+00 0.000D+00 0.000D+00 0.100D+01
 Coeff:     -0.264D-02 0.121D+00 0.254D+00 0.627D+00
 Gap=     0.351 Goal=   None    Shift=    0.000
 RMSDP=7.27D-05 MaxDP=3.09D-03 DE=-7.57D-03 OVMax= 2.32D-03

 Cycle   5  Pass 1  IDiag  1:
 RMSU=  6.34D-05    CP:  9.62D-01  9.47D-01  7.50D-01  9.28D-01
 E= -513.713070051029     Delta-E=       -0.000123610642 Rises=F Damp=F
 DIIS: error= 1.40D-04 at cycle   5 NSaved=   5.
 NSaved= 5 IEnMin= 5 EnMin= -513.713070051029     IErMin= 5 ErrMin= 1.40D-04
 ErrMax= 1.40D-04  0.00D+00 EMaxC= 1.00D-01 BMatC= 7.84D-06 BMatP= 1.61D-04
 IDIUse=3 WtCom= 9.99D-01 WtEn= 1.40D-03
 Coeff-Com: -0.881D-03-0.156D-01-0.112D-01 0.150D+00 0.878D+00
 Coeff-En:   0.000D+00 0.000D+00 0.000D+00 0.000D+00 0.100D+01
 Coeff:     -0.879D-03-0.156D-01-0.112D-01 0.150D+00 0.878D+00
 Gap=     0.351 Goal=   None    Shift=    0.000
 RMSDP=3.60D-05 MaxDP=7.05D-04 DE=-1.24D-04 OVMax= 1.14D-03

 Cycle   6  Pass 1  IDiag  1:
 RMSU=  1.74D-05    CP:  9.62D-01  9.51D-01  7.64D-01  1.02D+00  1.08D+00
 E= -513.713080002834     Delta-E=       -0.000009951805 Rises=F Damp=F
 DIIS: error= 1.19D-04 at cycle   6 NSaved=   6.
 NSaved= 6 IEnMin= 6 EnMin= -513.713080002834     IErMin= 6 ErrMin= 1.19D-04
 ErrMax= 1.19D-04  0.00D+00 EMaxC= 1.00D-01 BMatC= 1.44D-06 BMatP= 7.84D-06
 IDIUse=3 WtCom= 9.99D-01 WtEn= 1.19D-03
 Coeff-Com: -0.775D-04-0.164D-01-0.246D-01 0.840D-02 0.360D+00 0.673D+00
 Coeff-En:   0.000D+00 0.000D+00 0.000D+00 0.000D+00 0.000D+00 0.100D+01
 Coeff:     -0.774D-04-0.164D-01-0.245D-01 0.839D-02 0.360D+00 0.673D+00
 Gap=     0.351 Goal=   None    Shift=    0.000
 RMSDP=1.01D-05 MaxDP=3.34D-04 DE=-9.95D-06 OVMax= 4.02D-04

 Cycle   7  Pass 1  IDiag  1:
 RMSU=  6.36D-06    CP:  9.62D-01  9.52D-01  7.66D-01  1.04D+00  1.16D+00
                    CP:  1.01D+00
 E= -513.713081359499     Delta-E=       -0.000001356665 Rises=F Damp=F
 DIIS: error= 3.98D-05 at cycle   7 NSaved=   7.
 NSaved= 7 IEnMin= 7 EnMin= -513.713081359499     IErMin= 7 ErrMin= 3.98D-05
 ErrMax= 3.98D-05  0.00D+00 EMaxC= 1.00D-01 BMatC= 2.64D-07 BMatP= 1.44D-06
 IDIUse=1 WtCom= 1.00D+00 WtEn= 0.00D+00
 Coeff-Com:  0.883D-04-0.623D-02-0.108D-01-0.184D-01 0.554D-01 0.331D+00
 Coeff-Com:  0.649D+00
 Coeff:      0.883D-04-0.623D-02-0.108D-01-0.184D-01 0.554D-01 0.331D+00
 Coeff:      0.649D+00
 Gap=     0.351 Goal=   None    Shift=    0.000
 RMSDP=3.97D-06 MaxDP=1.29D-04 DE=-1.36D-06 OVMax= 1.95D-04

 Cycle   8  Pass 1  IDiag  1:
 RMSU=  2.47D-06    CP:  9.62D-01  9.52D-01  7.67D-01  1.05D+00  1.19D+00
                    CP:  1.11D+00  9.33D-01
 E= -513.713081654481     Delta-E=       -0.000000294983 Rises=F Damp=F
 DIIS: error= 1.10D-05 at cycle   8 NSaved=   8.
 NSaved= 8 IEnMin= 8 EnMin= -513.713081654481     IErMin= 8 ErrMin= 1.10D-05
 ErrMax= 1.10D-05  0.00D+00 EMaxC= 1.00D-01 BMatC= 1.84D-08 BMatP= 2.64D-07
 IDIUse=1 WtCom= 1.00D+00 WtEn= 0.00D+00
 Coeff-Com:  0.205D-04 0.254D-04-0.156D-03-0.573D-02-0.227D-01 0.534D-02
 Coeff-Com:  0.194D+00 0.829D+00
 Coeff:      0.205D-04 0.254D-04-0.156D-03-0.573D-02-0.227D-01 0.534D-02
 Coeff:      0.194D+00 0.829D+00
 Gap=     0.351 Goal=   None    Shift=    0.000
 RMSDP=1.52D-06 MaxDP=3.62D-05 DE=-2.95D-07 OVMax= 1.15D-04

 Cycle   9  Pass 1  IDiag  1:
 RMSU=  8.02D-07    CP:  9.62D-01  9.52D-01  7.67D-01  1.05D+00  1.19D+00
                    CP:  1.16D+00  1.06D+00  1.09D+00
 E= -513.713081689145     Delta-E=       -0.000000034664 Rises=F Damp=F
 DIIS: error= 4.18D-06 at cycle   9 NSaved=   9.
 NSaved= 9 IEnMin= 9 EnMin= -513.713081689145     IErMin= 9 ErrMin= 4.18D-06
 ErrMax= 4.18D-06  0.00D+00 EMaxC= 1.00D-01 BMatC= 2.54D-09 BMatP= 1.84D-08
 IDIUse=1 WtCom= 1.00D+00 WtEn= 0.00D+00
 Coeff-Com: -0.112D-04 0.109D-02 0.189D-02 0.182D-02-0.152D-01-0.602D-01
 Coeff-Com: -0.575D-01 0.229D+00 0.899D+00
 Coeff:     -0.112D-04 0.109D-02 0.189D-02 0.182D-02-0.152D-01-0.602D-01
 Coeff:     -0.575D-01 0.229D+00 0.899D+00
 Gap=     0.351 Goal=   None    Shift=    0.000
 RMSDP=7.34D-07 MaxDP=1.85D-05 DE=-3.47D-08 OVMax= 5.57D-05

 Cycle  10  Pass 1  IDiag  1:
 RMSU=  3.60D-07    CP:  9.62D-01  9.52D-01  7.67D-01  1.05D+00  1.20D+00
                    CP:  1.17D+00  1.11D+00  1.23D+00  1.22D+00
 E= -513.713081695797     Delta-E=       -0.000000006651 Rises=F Damp=F
 DIIS: error= 1.57D-06 at cycle  10 NSaved=  10.
 NSaved=10 IEnMin=10 EnMin= -513.713081695797     IErMin=10 ErrMin= 1.57D-06
 ErrMax= 1.57D-06  0.00D+00 EMaxC= 1.00D-01 BMatC= 1.99D-10 BMatP= 2.54D-09
 IDIUse=1 WtCom= 1.00D+00 WtEn= 0.00D+00
 Coeff-Com: -0.305D-05 0.211D-03 0.385D-03 0.971D-03-0.393D-03-0.126D-01
 Coeff-Com: -0.329D-01-0.385D-01 0.152D+00 0.930D+00
 Coeff:     -0.305D-05 0.211D-03 0.385D-03 0.971D-03-0.393D-03-0.126D-01
 Coeff:     -0.329D-01-0.385D-01 0.152D+00 0.930D+00
 Gap=     0.351 Goal=   None    Shift=    0.000
 RMSDP=2.25D-07 MaxDP=6.26D-06 DE=-6.65D-09 OVMax= 2.31D-05

 Cycle  11  Pass 1  IDiag  1:
 RMSU=  1.07D-07    CP:  9.62D-01  9.52D-01  7.67D-01  1.05D+00  1.20D+00
                    CP:  1.18D+00  1.11D+00  1.28D+00  1.40D+00  1.19D+00
 E= -513.713081696524     Delta-E=       -0.000000000727 Rises=F Damp=F
 DIIS: error= 6.12D-07 at cycle  11 NSaved=  11.
 NSaved=11 IEnMin=11 EnMin= -513.713081696524     IErMin=11 ErrMin= 6.12D-07
 ErrMax= 6.12D-07  0.00D+00 EMaxC= 1.00D-01 BMatC= 2.89D-11 BMatP= 1.99D-10
 IDIUse=1 WtCom= 1.00D+00 WtEn= 0.00D+00
 Coeff-Com:  0.803D-06-0.144D-03-0.247D-03-0.147D-03 0.242D-02 0.759D-02
 Coeff-Com:  0.400D-02-0.372D-01-0.129D+00 0.109D+00 0.104D+01
 Coeff:      0.803D-06-0.144D-03-0.247D-03-0.147D-03 0.242D-02 0.759D-02
 Coeff:      0.400D-02-0.372D-01-0.129D+00 0.109D+00 0.104D+01
 Gap=     0.351 Goal=   None    Shift=    0.000
 RMSDP=1.03D-07 MaxDP=2.25D-06 DE=-7.27D-10 OVMax= 7.73D-06

 Cycle  12  Pass 1  IDiag  1:
 RMSU=  4.04D-08    CP:  9.62D-01  9.52D-01  7.67D-01  1.05D+00  1.20D+00
                    CP:  1.18D+00  1.11D+00  1.29D+00  1.47D+00  1.39D+00
                    CP:  1.21D+00
 E= -513.713081696632     Delta-E=       -0.000000000108 Rises=F Damp=F
 DIIS: error= 1.26D-07 at cycle  12 NSaved=  12.
 NSaved=12 IEnMin=12 EnMin= -513.713081696632     IErMin=12 ErrMin= 1.26D-07
 ErrMax= 1.26D-07  0.00D+00 EMaxC= 1.00D-01 BMatC= 4.21D-12 BMatP= 2.89D-11
 IDIUse=1 WtCom= 1.00D+00 WtEn= 0.00D+00
 Coeff-Com:  0.651D-06-0.741D-04-0.130D-03-0.141D-03 0.951D-03 0.394D-02
 Coeff-Com:  0.467D-02-0.892D-02-0.589D-01-0.382D-01 0.382D+00 0.715D+00
 Coeff:      0.651D-06-0.741D-04-0.130D-03-0.141D-03 0.951D-03 0.394D-02
 Coeff:      0.467D-02-0.892D-02-0.589D-01-0.382D-01 0.382D+00 0.715D+00
 Gap=     0.351 Goal=   None    Shift=    0.000
 RMSDP=2.01D-08 MaxDP=5.08D-07 DE=-1.08D-10 OVMax= 1.48D-06

 Cycle  13  Pass 1  IDiag  1:
 RMSU=  1.26D-08    CP:  9.62D-01  9.52D-01  7.67D-01  1.05D+00  1.20D+00
                    CP:  1.18D+00  1.11D+00  1.28D+00  1.47D+00  1.40D+00
                    CP:  1.32D+00  1.05D+00
 E= -513.713081696630     Delta-E=        0.000000000001 Rises=F Damp=F
 DIIS: error= 6.98D-08 at cycle  13 NSaved=  13.
 NSaved=13 IEnMin=12 EnMin= -513.713081696632     IErMin=13 ErrMin= 6.98D-08
 ErrMax= 6.98D-08  0.00D+00 EMaxC= 1.00D-01 BMatC= 2.13D-13 BMatP= 4.21D-12
 IDIUse=1 WtCom= 1.00D+00 WtEn= 0.00D+00
 Coeff-Com:  0.685D-07 0.335D-05 0.454D-05-0.108D-04-0.122D-03-0.169D-03
 Coeff-Com:  0.288D-03 0.232D-02 0.315D-02-0.182D-01-0.477D-01 0.104D+00
 Coeff-Com:  0.957D+00
 Coeff:      0.685D-07 0.335D-05 0.454D-05-0.108D-04-0.122D-03-0.169D-03
 Coeff:      0.288D-03 0.232D-02 0.315D-02-0.182D-01-0.477D-01 0.104D+00
 Coeff:      0.957D+00
 Gap=     0.351 Goal=   None    Shift=    0.000
 RMSDP=7.97D-09 MaxDP=1.39D-07 DE= 1.36D-12 OVMax= 5.83D-07

 Error on total polarization charges =  0.03085
 SCF Done:  E(RwB97XD) =  -513.713081697     A.U. after   13 cycles
            NFock= 13  Conv=0.80D-08     -V/T= 2.0091
 KE= 5.090646514673D+02 PE=-2.293251989926D+03 EE= 7.220190312111D+02
 SMD-CDS (non-electrostatic) energy       (kcal/mol) =       5.59
 (included in total energy above)
 Leave Link  502 at Tue Oct 21 15:00:04 2025, MaxMem=  4294967296 cpu:             356.8 elap:              44.9
 (Enter /lrz/sys/applications/gaussian/g16.C.01/x86_64_legacy/exe/l601.exe)
 Copying SCF densities to generalized density rwf, IOpCl= 0 IROHF=0.

 **********************************************************************

            Population analysis using the SCF Density.

 **********************************************************************

 Orbital symmetries:
       Occupied  (A) (A) (A) (A) (A) (A) (A) (A) (A) (A) (A) (A)
                 (A) (A) (A) (A) (A) (A) (A) (A) (A) (A) (A) (A)
                 (A) (A) (A) (A) (A) (A) (A) (A) (A) (A) (A) (A)
                 (A) (A) (A)
       Virtual   (A) (A) (A) (A) (A) (A) (A) (A) (A) (A) (A) (A)
                 (A) (A) (A) (A) (A) (A) (A) (A) (A) (A) (A) (A)
                 (A) (A) (A) (A) (A) (A) (A) (A) (A) (A) (A) (A)
                 (A) (A) (A) (A) (A) (A) (A) (A) (A) (A) (A) (A)
                 (A) (A) (A) (A) (A) (A) (A) (A) (A) (A) (A) (A)
                 (A) (A) (A) (A) (A) (A) (A) (A) (A) (A) (A) (A)
                 (A) (A) (A) (A) (A) (A) (A) (A) (A) (A) (A) (A)
                 (A) (A) (A) (A) (A) (A) (A) (A) (A) (A) (A) (A)
                 (A) (A) (A) (A) (A) (A) (A) (A) (A) (A) (A) (A)
                 (A) (A) (A) (A) (A) (A) (A) (A) (A) (A) (A) (A)
                 (A) (A) (A) (A) (A) (A) (A) (A) (A) (A) (A) (A)
                 (A) (A) (A) (A) (A) (A) (A) (A) (A) (A) (A) (A)
                 (A) (A) (A) (A) (A) (A)
 The electronic state is 1-A.
 Alpha  occ. eigenvalues --  -19.26554 -19.26551 -14.45148 -10.40092 -10.34935
 Alpha  occ. eigenvalues --  -10.34178 -10.32082 -10.32080 -10.31804 -10.30987
 Alpha  occ. eigenvalues --  -10.30987  -1.16120  -1.08830  -1.01494  -0.97547
 Alpha  occ. eigenvalues --   -0.88585  -0.85820  -0.78812  -0.72326  -0.71678
 Alpha  occ. eigenvalues --   -0.65153  -0.62997  -0.61176  -0.56801  -0.56568
 Alpha  occ. eigenvalues --   -0.53784  -0.52180  -0.50234  -0.49316  -0.46576
 Alpha  occ. eigenvalues --   -0.46570  -0.45638  -0.44677  -0.43761  -0.42527
 Alpha  occ. eigenvalues --   -0.38287  -0.38220  -0.35010  -0.33952
 Alpha virt. eigenvalues --    0.01193   0.04879   0.10972   0.14486   0.15687
 Alpha virt. eigenvalues --    0.16626   0.18960   0.19774   0.20305   0.21828
 Alpha virt. eigenvalues --    0.25137   0.26210   0.26895   0.29983   0.30793
 Alpha virt. eigenvalues --    0.33714   0.35443   0.36486   0.37110   0.39269
 Alpha virt. eigenvalues --    0.43667   0.44670   0.48208   0.48424   0.51681
 Alpha virt. eigenvalues --    0.53035   0.54742   0.56436   0.57317   0.57972
 Alpha virt. eigenvalues --    0.59385   0.60049   0.62626   0.64639   0.66995
 Alpha virt. eigenvalues --    0.68974   0.70278   0.70851   0.71503   0.72599
 Alpha virt. eigenvalues --    0.73013   0.73351   0.74090   0.75444   0.75706
 Alpha virt. eigenvalues --    0.77165   0.77782   0.79804   0.80658   0.81080
 Alpha virt. eigenvalues --    0.83260   0.89026   0.90604   0.93632   0.93951
 Alpha virt. eigenvalues --    0.94980   0.98769   0.99967   1.06827   1.07418
 Alpha virt. eigenvalues --    1.07680   1.10125   1.12345   1.16723   1.19075
 Alpha virt. eigenvalues --    1.22520   1.23469   1.29871   1.31763   1.32166
 Alpha virt. eigenvalues --    1.33163   1.33940   1.36126   1.37536   1.38139
 Alpha virt. eigenvalues --    1.42134   1.46524   1.46604   1.53932   1.57040
 Alpha virt. eigenvalues --    1.62366   1.66157   1.67328   1.68506   1.73035
 Alpha virt. eigenvalues --    1.74011   1.77083   1.77737   1.78737   1.80310
 Alpha virt. eigenvalues --    1.83582   1.83900   1.85116   1.86529   1.88603
 Alpha virt. eigenvalues --    1.88679   1.95495   1.98826   1.98837   2.03642
 Alpha virt. eigenvalues --    2.04206   2.05252   2.05716   2.06623   2.09719
 Alpha virt. eigenvalues --    2.13501   2.16371   2.18174   2.21090   2.24708
 Alpha virt. eigenvalues --    2.25444   2.30035   2.31528   2.31872   2.35113
 Alpha virt. eigenvalues --    2.36056   2.36991   2.40841   2.41547   2.42563
 Alpha virt. eigenvalues --    2.44133   2.44931   2.55583   2.63323   2.72277
 Alpha virt. eigenvalues --    2.72774   2.73344   2.73679   2.82968   2.86324
 Alpha virt. eigenvalues --    2.87698   2.94947   2.97518   3.00047   3.02878
 Alpha virt. eigenvalues --    3.04464   3.10331   3.10648   3.11333   3.12295
 Alpha virt. eigenvalues --    3.21516   3.23698   3.26838   3.39217   3.48781
 Alpha virt. eigenvalues --    3.53775   3.54805   3.78683   3.82753   3.86349
          Condensed to atoms (all electrons):
               1          2          3          4          5          6
     1  O    7.799009   0.368448  -0.060519  -0.083015   0.005518   0.001250
     2  C    0.368448   4.386450   0.368401   0.293137  -0.070198   0.008530
     3  O   -0.060519   0.368401   7.799117  -0.083020   0.006323  -0.000094
     4  C   -0.083015   0.293137  -0.083020   5.705556   0.226287   0.083109
     5  C    0.005518  -0.070198   0.006323   0.226287   5.122869   0.298077
     6  C    0.001250   0.008530  -0.000094   0.083109   0.298077   5.033507
     7  C   -0.000015  -0.000052  -0.000015  -0.176862   0.095814   0.261730
     8  C    0.000000   0.000079   0.000000   0.000938   0.014499  -0.091904
     9  N    0.000000   0.000000   0.000000   0.000017   0.000013  -0.001841
    10  C   -0.000095   0.008504   0.001247   0.083132  -0.129411   0.082485
    11  C    0.006330  -0.070148   0.005537   0.226038   0.056404  -0.129409
    12  H    0.334989  -0.033394  -0.000531   0.002234  -0.001390  -0.000168
    13  H   -0.028314   0.379188  -0.028313  -0.022952  -0.004780  -0.000390
    14  H   -0.000529  -0.033416   0.335001   0.002249   0.000063  -0.000103
    15  H    0.019506  -0.015428   0.000483  -0.081807   0.464361  -0.057436
    16  H   -0.000019  -0.000166   0.000001   0.015179  -0.060735   0.470335
    17  H    0.000001  -0.000166  -0.000019   0.015177  -0.002193   0.012533
    18  H    0.000483  -0.015406   0.019475  -0.081831   0.011956  -0.001561
               7          8          9         10         11         12
     1  O   -0.000015   0.000000   0.000000  -0.000095   0.006330   0.334989
     2  C   -0.000052   0.000079   0.000000   0.008504  -0.070148  -0.033394
     3  O   -0.000015   0.000000   0.000000   0.001247   0.005537  -0.000531
     4  C   -0.176862   0.000938   0.000017   0.083132   0.226038   0.002234
     5  C    0.095814   0.014499   0.000013  -0.129411   0.056404  -0.001390
     6  C    0.261730  -0.091904  -0.001841   0.082485  -0.129409  -0.000168
     7  C    5.456172   0.312105  -0.036252   0.261721   0.095795  -0.000029
     8  C    0.312105   4.969433   0.942115  -0.091888   0.014498  -0.000001
     9  N   -0.036252   0.942115   6.146241  -0.001839   0.000013  -0.000000
    10  C    0.261721  -0.091888  -0.001839   5.033391   0.298224  -0.000102
    11  C    0.095795   0.014498   0.000013   0.298224   5.122863   0.000059
    12  H   -0.000029  -0.000001  -0.000000  -0.000102   0.000059   0.466085
    13  H    0.000001  -0.000000  -0.000000  -0.000390  -0.004806   0.007680
    14  H   -0.000029  -0.000001  -0.000000  -0.000169  -0.001400   0.004285
    15  H    0.014409  -0.000350  -0.000001  -0.001561   0.011957   0.000142
    16  H   -0.066747  -0.019740  -0.000309   0.012532  -0.002193   0.000012
    17  H   -0.066744  -0.019739  -0.000308   0.470335  -0.060738   0.000001
    18  H    0.014411  -0.000350  -0.000001  -0.057450   0.464410  -0.000058
              13         14         15         16         17         18
     1  O   -0.028314  -0.000529   0.019506  -0.000019   0.000001   0.000483
     2  C    0.379188  -0.033416  -0.015428  -0.000166  -0.000166  -0.015406
     3  O   -0.028313   0.335001   0.000483   0.000001  -0.000019   0.019475
     4  C   -0.022952   0.002249  -0.081807   0.015179   0.015177  -0.081831
     5  C   -0.004780   0.000063   0.464361  -0.060735  -0.002193   0.011956
     6  C   -0.000390  -0.000103  -0.057436   0.470335   0.012533  -0.001561
     7  C    0.000001  -0.000029   0.014409  -0.066747  -0.066744   0.014411
     8  C   -0.000000  -0.000001  -0.000350  -0.019740  -0.019739  -0.000350
     9  N   -0.000000  -0.000000  -0.000001  -0.000309  -0.000308  -0.000001
    10  C   -0.000390  -0.000169  -0.001561   0.012532   0.470335  -0.057450
    11  C   -0.004806  -0.001400   0.011957  -0.002193  -0.060738   0.464410
    12  H    0.007680   0.004285   0.000142   0.000012   0.000001  -0.000058
    13  H    0.632721   0.007680   0.000525   0.000010   0.000011   0.000524
    14  H    0.007680   0.466092  -0.000058   0.000001   0.000012   0.000140
    15  H    0.000525  -0.000058   0.621552  -0.010507   0.000020  -0.000151
    16  H    0.000010   0.000001  -0.010507   0.612147  -0.000091   0.000020
    17  H    0.000011   0.000012   0.000020  -0.000091   0.612142  -0.010507
    18  H    0.000524   0.000140  -0.000151   0.000020  -0.010507   0.621538
 Mulliken charges:
               1
     1  O   -0.363030
     2  C    0.425637
     3  O   -0.363073
     4  C   -0.123567
     5  C   -0.033479
     6  C    0.031351
     7  C   -0.165412
     8  C   -0.029692
     9  N   -0.047847
    10  C    0.031333
    11  C   -0.033436
    12  H    0.220186
    13  H    0.061605
    14  H    0.220180
    15  H    0.034344
    16  H    0.050269
    17  H    0.050273
    18  H    0.034359
 Sum of Mulliken charges =  -0.00000
 Mulliken charges with hydrogens summed into heavy atoms:
               1
     1  O   -0.142845
     2  C    0.487242
     3  O   -0.142893
     4  C   -0.123567
     5  C    0.000865
     6  C    0.081620
     7  C   -0.165412
     8  C   -0.029692
     9  N   -0.047847
    10  C    0.081606
    11  C    0.000923
 Electronic spatial extent (au):  <R**2>=           2080.2187
 Charge=             -0.0000 electrons
 Dipole moment (field-independent basis, Debye):
    X=              3.9921    Y=              0.0013    Z=              2.1401  Tot=              4.5296
 Quadrupole moment (field-independent basis, Debye-Ang):
   XX=            -98.9204   YY=            -57.4175   ZZ=            -58.4119
   XY=              0.0082   XZ=              8.0466   YZ=              0.0111
 Traceless Quadrupole moment (field-independent basis, Debye-Ang):
   XX=            -27.3371   YY=             14.1658   ZZ=             13.1713
   XY=              0.0082   XZ=              8.0466   YZ=              0.0111
 Octapole moment (field-independent basis, Debye-Ang**2):
  XXX=            143.9165  YYY=              0.0143  ZZZ=              9.6114  XYY=             -5.2047
  XXY=              0.0103  XXZ=             13.2176  XZZ=             30.2093  YZZ=             -0.0064
  YYZ=              6.1962  XYZ=              0.0230
 Hexadecapole moment (field-independent basis, Debye-Ang**3):
 XXXX=          -3129.8080 YYYY=           -370.4357 ZZZZ=            -77.1908 XXXY=              0.1170
 XXXZ=             95.3745 YYYX=              0.0485 YYYZ=              0.0386 ZZZX=             25.0761
 ZZZY=             -0.0211 XXYY=           -443.0305 XXZZ=           -328.5071 YYZZ=            -78.2101
 XXYZ=              0.0871 YYXZ=             19.0622 ZZXY=             -0.0127
 N-N= 5.484552255510D+02 E-N=-2.293251987521D+03  KE= 5.090646514673D+02
 No NMR shielding tensors so no spin-rotation constants.
 Leave Link  601 at Tue Oct 21 15:00:04 2025, MaxMem=  4294967296 cpu:               0.8 elap:               0.3
 (Enter /lrz/sys/applications/gaussian/g16.C.01/x86_64_legacy/exe/l701.exe)
 ... and contract with generalized density number  0.
 Compute integral first derivatives.
 R6Disp: Adding Grimme-D2 dispersion energy 1st derivatives to the gradient.
   1 Symmetry operations used in ECPInt.
 ECPInt:  NShTT=    3828 NPrTT=   14192 LenC2=    3694 LenP2D=   10510.
 LDataN:  DoStor=T MaxTD1= 5 Len=  102
 D1PCM: PCM CHGder 1st derivatives, ID1Alg=3 FixD1E=F DoIter=F DoCFld=F I1PDM=0.
 GePol: Maximum number of non-zero 1st derivatives   =     260
 Leave Link  701 at Tue Oct 21 15:00:05 2025, MaxMem=  4294967296 cpu:               8.4 elap:               1.1
 (Enter /lrz/sys/applications/gaussian/g16.C.01/x86_64_legacy/exe/l702.exe)
 L702 exits ... SP integral derivatives will be done elsewhere.
 Leave Link  702 at Tue Oct 21 15:00:05 2025, MaxMem=  4294967296 cpu:               0.2 elap:               0.0
 (Enter /lrz/sys/applications/gaussian/g16.C.01/x86_64_legacy/exe/l703.exe)
 Integral derivatives from FoFJK, PRISM(SPDF).
 Compute integral first derivatives, UseDBF=F ICtDFT=           0.
 Calling FoFJK, ICntrl=      2127 FMM=F ISym2X=0 I1Cent= 0 IOpClX= 0 NMat=1 NMatS=1 NMatT=0.
 FoFJK:  IHMeth= 1 ICntrl=    2127 DoSepK=T KAlg= 0 I1Cent=           0 FoldK=F
 IRaf=         1 NMat=       1 IRICut=       1 DoRegI=T DoRafI=F ISym2E= 0 IDoP0=0 IntGTp=1.
 FoFCou: FMM=F IPFlag=           0 FMFlag=      100000 FMFlg1=         800
         NFxFlg=           0 DoJE=F BraDBF=F KetDBF=F FulRan=T
         wScrn=  0.000000 ICntrl=      2527 IOpCl=  0 I1Cent=           0 NGrid=           0
         NMat0=    1 NMatS0=      1 NMatT0=    0 NMatD0=    1 NMtDS0=    0 NMtDT0=    0
 Symmetry not used in FoFCou.
 Leave Link  703 at Tue Oct 21 15:00:13 2025, MaxMem=  4294967296 cpu:              62.2 elap:               7.8
 (Enter /lrz/sys/applications/gaussian/g16.C.01/x86_64_legacy/exe/l716.exe)
 Dipole        = 1.57061704D+00 4.92021873D-04 8.41966794D-01
 ***** Axes restored to original set *****
 -------------------------------------------------------------------
 Center     Atomic                   Forces (Hartrees/Bohr)
 Number     Number              X              Y              Z
 -------------------------------------------------------------------
      1        8          -0.003589102   -0.003711895   -0.000496099
      2        6          -0.000733597    0.000007293    0.002144983
      3        8          -0.003585736    0.003705970   -0.000532075
      4        6          -0.009233789    0.000013285    0.002127235
      5        6          -0.001451427    0.000718355   -0.000746455
      6        6           0.002106037    0.000371658   -0.000078558
      7        6          -0.011504623   -0.000000270   -0.000801296
      8        6          -0.012632992   -0.000009869   -0.000608099
      9        7           0.031303124    0.000007039    0.001932685
     10        6           0.002101081   -0.000367734   -0.000097529
     11        6          -0.001448720   -0.000728434   -0.000732802
     12        1           0.003097259    0.001499489   -0.000795932
     13        1           0.001054003   -0.000008251   -0.002101045
     14        1           0.003098307   -0.001508494   -0.000782944
     15        1          -0.003181216   -0.006879921    0.000534502
     16        1           0.003888088   -0.007220514    0.000318246
     17        1           0.003889393    0.007221805    0.000250757
     18        1          -0.003176090    0.006890486    0.000464426
 -------------------------------------------------------------------
 Cartesian Forces:  Max     0.031303124 RMS     0.005646178
 Leave Link  716 at Tue Oct 21 15:00:13 2025, MaxMem=  4294967296 cpu:               0.2 elap:               0.0
 (Enter /lrz/sys/applications/gaussian/g16.C.01/x86_64_legacy/exe/l103.exe)

 GradGradGradGradGradGradGradGradGradGradGradGradGradGradGradGradGradGrad
 Berny optimization.
 FormGI is forming the generalized inverse of G from B-inverse, IUseBI=4.
 Internal  Forces:  Max     0.031361947 RMS     0.005065790
 Search for a local minimum.
 Step number   1 out of a maximum of   92
 All quantities printed in internal units (Hartrees-Bohrs-Radians)
 RMS Force = .50658D-02 SwitMx=.10000D-02 MixMth= 1
 Mixed Optimization -- RFO/linear search
 Second derivative matrix not updated -- first step.
 ITU=  0
     Eigenvalues ---    0.00450   0.01510   0.01723   0.01723   0.02144
     Eigenvalues ---    0.02177   0.02228   0.02232   0.02262   0.02269
     Eigenvalues ---    0.02294   0.02295   0.05032   0.05032   0.06044
     Eigenvalues ---    0.07078   0.09896   0.16000   0.16000   0.16000
     Eigenvalues ---    0.16000   0.16000   0.16000   0.20442   0.21329
     Eigenvalues ---    0.22000   0.22974   0.23998   0.24992   0.25000
     Eigenvalues ---    0.29994   0.33812   0.35969   0.35970   0.36003
     Eigenvalues ---    0.36003   0.42661   0.43345   0.43589   0.46010
     Eigenvalues ---    0.46013   0.46711   0.46815   0.47836   0.49021
     Eigenvalues ---    0.53875   0.53875   1.36323
 RFO step:  Lambda=-4.00105872D-03 EMin= 4.49761122D-03
 Linear search not attempted -- first point.
 Iteration  1 RMS(Cart)=  0.02212192 RMS(Int)=  0.00052245
 Iteration  2 RMS(Cart)=  0.00045484 RMS(Int)=  0.00001920
 Iteration  3 RMS(Cart)=  0.00000025 RMS(Int)=  0.00001919
 ITry= 1 IFail=0 DXMaxC= 7.82D-02 DCOld= 1.00D+10 DXMaxT= 3.00D-01 DXLimC= 3.00D+00 Rises=F
 Variable       Old X    -DE/DX   Delta X   Delta X   Delta X     New X
                                 (Linear)    (Quad)   (Total)
    R1        2.64117   0.00156   0.00000   0.00335   0.00335   2.64452
    R2        1.82845  -0.00029   0.00000  -0.00053  -0.00053   1.82792
    R3        2.64120   0.00155   0.00000   0.00333   0.00333   2.64454
    R4        2.87976   0.00084   0.00000   0.00277   0.00277   2.88253
    R5        2.07648   0.00176   0.00000   0.00515   0.00515   2.08164
    R6        1.82845  -0.00029   0.00000  -0.00053  -0.00053   1.82792
    R7        2.62773   0.00832   0.00000   0.01756   0.01757   2.64530
    R8        2.62775   0.00832   0.00000   0.01757   0.01758   2.64533
    R9        2.60867   0.00959   0.00000   0.01940   0.01940   2.62807
   R10        2.04129   0.00752   0.00000   0.02068   0.02068   2.06197
   R11        2.63768   0.00722   0.00000   0.01535   0.01535   2.65302
   R12        2.04076   0.00820   0.00000   0.02253   0.02253   2.06329
   R13        2.66950   0.01872   0.00000   0.04255   0.04255   2.71204
   R14        2.63768   0.00723   0.00000   0.01536   0.01536   2.65304
   R15        2.16849   0.03136   0.00000   0.02294   0.02294   2.19143
   R16        2.60865   0.00958   0.00000   0.01939   0.01939   2.62804
   R17        2.04076   0.00820   0.00000   0.02253   0.02253   2.06329
   R18        2.04129   0.00752   0.00000   0.02068   0.02068   2.06197
    A1        1.92367  -0.00530   0.00000  -0.03232  -0.03232   1.89135
    A2        1.96103   0.00224   0.00000   0.00892   0.00883   1.96987
    A3        1.96446  -0.00159   0.00000  -0.00977  -0.00977   1.95468
    A4        1.83159   0.00041   0.00000   0.00621   0.00617   1.83776
    A5        1.96434  -0.00159   0.00000  -0.00980  -0.00980   1.95455
    A6        1.83159   0.00041   0.00000   0.00620   0.00616   1.83775
    A7        1.89975   0.00037   0.00000   0.00044   0.00047   1.90022
    A8        1.92368  -0.00530   0.00000  -0.03235  -0.03235   1.89134
    A9        2.09623   0.00070   0.00000   0.00257   0.00255   2.09878
   A10        2.09601   0.00071   0.00000   0.00261   0.00259   2.09860
   A11        2.09067  -0.00142   0.00000  -0.00539  -0.00539   2.08529
   A12        2.10110   0.00067   0.00000   0.00311   0.00311   2.10420
   A13        2.08343   0.00047   0.00000   0.00336   0.00335   2.08678
   A14        2.09864  -0.00114   0.00000  -0.00643  -0.00644   2.09220
   A15        2.08828   0.00008   0.00000   0.00002   0.00002   2.08831
   A16        2.10520  -0.00033   0.00000  -0.00177  -0.00177   2.10343
   A17        2.08970   0.00025   0.00000   0.00175   0.00175   2.09145
   A18        2.09315   0.00004   0.00000   0.00041   0.00041   2.09356
   A19        2.09689  -0.00008   0.00000  -0.00082  -0.00083   2.09605
   A20        2.09315   0.00004   0.00000   0.00042   0.00042   2.09357
   A21        2.08827   0.00008   0.00000   0.00002   0.00002   2.08830
   A22        2.08970   0.00025   0.00000   0.00176   0.00175   2.09145
   A23        2.10521  -0.00033   0.00000  -0.00177  -0.00178   2.10343
   A24        2.10111   0.00067   0.00000   0.00310   0.00310   2.10421
   A25        2.08339   0.00047   0.00000   0.00340   0.00338   2.08677
   A26        2.09867  -0.00114   0.00000  -0.00646  -0.00647   2.09220
   A27        3.14147   0.00001   0.00000   0.00023   0.00023   3.14170
   A28        3.14456  -0.00024   0.00000  -0.00447  -0.00447   3.14009
    D1       -1.13800  -0.00001   0.00000  -0.04412  -0.04407  -1.18207
    D2        1.10131  -0.00164   0.00000  -0.05833  -0.05835   1.04296
    D3       -3.11851  -0.00177   0.00000  -0.05913  -0.05916   3.10551
    D4        1.13876   0.00001   0.00000   0.04413   0.04408   1.18283
    D5       -1.10062   0.00164   0.00000   0.05833   0.05834  -1.04228
    D6        3.11926   0.00178   0.00000   0.05914   0.05918  -3.10475
    D7        0.46321  -0.00008   0.00000   0.00732   0.00729   0.47050
    D8       -2.70309  -0.00029   0.00000  -0.00271  -0.00276  -2.70586
    D9        2.70079   0.00029   0.00000   0.00288   0.00293   2.70372
   D10       -0.46552   0.00008   0.00000  -0.00715  -0.00713  -0.47264
   D11       -1.55962   0.00010   0.00000   0.00508   0.00510  -1.55453
   D12        1.55726  -0.00010   0.00000  -0.00495  -0.00496   1.55230
   D13        3.12608  -0.00033   0.00000  -0.01453  -0.01451   3.11157
   D14       -0.00965  -0.00055   0.00000  -0.02292  -0.02292  -0.03257
   D15        0.00912  -0.00016   0.00000  -0.00465  -0.00465   0.00448
   D16       -3.12661  -0.00038   0.00000  -0.01303  -0.01305  -3.13966
   D17       -3.12612   0.00034   0.00000   0.01461   0.01459  -3.11153
   D18        0.00963   0.00056   0.00000   0.02298   0.02298   0.03261
   D19       -0.00916   0.00016   0.00000   0.00473   0.00472  -0.00443
   D20        3.12659   0.00038   0.00000   0.01309   0.01312   3.13970
   D21       -0.00239   0.00004   0.00000   0.00088   0.00089  -0.00150
   D22        3.14091  -0.00006   0.00000  -0.00263  -0.00261   3.13830
   D23        3.13330   0.00026   0.00000   0.00937   0.00936  -3.14053
   D24       -0.00659   0.00016   0.00000   0.00586   0.00585  -0.00074
   D25        3.13967  -0.00005   0.00000  -0.00186  -0.00186   3.13781
   D26       -0.00435   0.00007   0.00000   0.00279   0.00279  -0.00157
   D27       -0.00361   0.00004   0.00000   0.00161   0.00161  -0.00200
   D28        3.13554   0.00017   0.00000   0.00626   0.00626  -3.14138
   D29        0.00432  -0.00007   0.00000  -0.00271  -0.00271   0.00161
   D30       -3.13533  -0.00018   0.00000  -0.00646  -0.00646   3.14140
   D31       -3.13970   0.00005   0.00000   0.00194   0.00194  -3.13776
   D32        0.00383  -0.00005   0.00000  -0.00180  -0.00181   0.00202
   D33        0.00245  -0.00004   0.00000  -0.00104  -0.00105   0.00141
   D34       -3.13324  -0.00027   0.00000  -0.00951  -0.00950   3.14045
   D35       -3.14110   0.00006   0.00000   0.00275   0.00273  -3.13836
   D36        0.00640  -0.00016   0.00000  -0.00573  -0.00572   0.00068
         Item               Value     Threshold  Converged?
 Maximum Force            0.031362     0.000450     NO 
 RMS     Force            0.005066     0.000300     NO 
 Maximum Displacement     0.078230     0.001800     NO 
 RMS     Displacement     0.022224     0.001200     NO 
 Predicted change in Energy=-2.058471D-03
 Lowest energy point so far.  Saving SCF results.
 GradGradGradGradGradGradGradGradGradGradGradGradGradGradGradGradGradGrad

 Leave Link  103 at Tue Oct 21 15:00:13 2025, MaxMem=  4294967296 cpu:               0.5 elap:               0.1
 (Enter /lrz/sys/applications/gaussian/g16.C.01/x86_64_legacy/exe/l202.exe)
                          Input orientation:                          
 ---------------------------------------------------------------------
 Center     Atomic      Atomic             Coordinates (Angstroms)
 Number     Number       Type             X           Y           Z
 ---------------------------------------------------------------------
      1          8           0       -3.044671   -1.164718    0.224981
      2          6           0       -2.474458   -0.000973   -0.303160
      3          8           0       -3.044121    1.167363    0.215375
      4          6           0       -0.954464   -0.000691   -0.175214
      5          6           0       -0.250268   -1.209679   -0.130711
      6          6           0        1.138084   -1.216798   -0.050014
      7          6           0        1.838000   -0.000301   -0.014778
      8          6           0        3.270454   -0.000085    0.073163
      9          7           0        4.428016    0.000206    0.142820
     10          6           0        1.138480    1.216001   -0.062756
     11          6           0       -0.249864    1.208482   -0.143320
     12          1           0       -2.807771   -1.222495    1.161034
     13          1           0       -2.742122   -0.005308   -1.371691
     14          1           0       -2.806610    1.233085    1.150751
     15          1           0       -0.797981   -2.153026   -0.157318
     16          1           0        1.686436   -2.160204   -0.012252
     17          1           0        1.687143    2.159570   -0.034894
     18          1           0       -0.797282    2.151676   -0.179728
 ---------------------------------------------------------------------
                    Distance matrix (angstroms):
                    1          2          3          4          5
     1  O    0.000000
     2  C    1.399421   0.000000
     3  O    2.332101   1.399430   0.000000
     4  C    2.425712   1.525369   2.425608   0.000000
     5  C    2.817308   2.537268   3.684524   1.399830   0.000000
     6  C    4.192108   3.820049   4.821359   2.423500   1.390714
     7  C    5.025318   4.322089   5.025088   2.797069   2.415967
     8  C    6.423412   5.757225   6.423163   4.232213   3.728293
     9  N    7.563389   6.916867   7.563092   5.391868   4.839937
    10  C    4.821760   3.819966   4.192121   2.423510   2.795919
    11  C    3.684924   2.537153   2.817485   1.399849   2.418194
    12  H    0.967293   1.935737   2.580999   2.590967   2.865238
    13  H    1.996279   1.101555   1.996282   2.151116   3.033130
    14  H    2.581314   1.935738   0.967295   2.590527   3.760868
    15  H    2.484053   2.731881   4.026044   2.158090   1.091147
    16  H    4.840520   4.696801   5.788150   3.415319   2.160637
    17  H    5.788652   4.696683   4.840658   3.415334   3.887748
    18  H    4.026538   2.731675   2.484605   2.158103   3.405926
                    6          7          8          9         10
     6  C    0.000000
     7  C    1.403919   0.000000
     8  C    2.458163   1.435152   0.000000
     9  N    3.513109   2.594807   1.159656   0.000000
    10  C    2.432833   1.403930   2.458181   3.513042   0.000000
    11  C    2.795906   2.415958   3.728290   4.839873   1.390700
    12  H    4.127523   4.945652   6.294646   7.408669   4.797585
    13  H    4.274405   4.776898   6.183745   7.328346   4.273638
    14  H    4.796288   4.944906   6.293855   7.407815   4.127545
    15  H    2.153227   3.406309   4.608736   5.660172   3.887051
    16  H    1.091847   2.165216   2.680023   3.493950   3.420755
    17  H    3.420754   2.165227   2.680049   3.493826   1.091847
    18  H    3.887041   3.406306   4.608743   5.660089   2.153218
                   11         12         13         14         15
    11  C    0.000000
    12  H    3.762164   0.000000
    13  H    3.032083   2.810793   0.000000
    14  H    2.865689   2.455602   2.810782   0.000000
    15  H    3.405931   2.577440   3.141190   4.148661   0.000000
    16  H    3.887735   4.738543   5.109185   5.749300   2.488659
    17  H    2.160630   5.750901   5.108044   4.738981   4.978887
    18  H    1.091149   4.150269   3.139388   2.579027   4.304760
                   16         17         18
    16  H    0.000000
    17  H    4.319834   0.000000
    18  H    4.978877   2.488656   0.000000
 Stoichiometry    C8H7NO2
 Framework group  C1[X(C8H7NO2)]
 Deg. of freedom    48
 Full point group                 C1      NOp   1
 RotChk:  IX=0 Diff= 1.40D-03
 Largest Abelian subgroup         C1      NOp   1
 Largest concise Abelian subgroup C1      NOp   1
                         Standard orientation:                         
 ---------------------------------------------------------------------
 Center     Atomic      Atomic             Coordinates (Angstroms)
 Number     Number       Type             X           Y           Z
 ---------------------------------------------------------------------
      1          8           0        3.000071    1.166105    0.200202
      2          6           0        2.427194   -0.000286   -0.319146
      3          8           0        2.999753   -1.165996    0.202103
      4          6           0        0.907904   -0.000081   -0.183104
      5          6           0        0.203808    1.209045   -0.140813
      6          6           0       -1.184095    1.216430   -0.052757
      7          6           0       -1.883666    0.000055   -0.007791
      8          6           0       -3.315631    0.000137    0.087781
      9          7           0       -4.472806    0.000079    0.163605
     10          6           0       -1.184264   -1.216402   -0.053495
     11          6           0        0.203630   -1.209149   -0.141492
     12          1           0        2.768155    1.228476    1.137208
     13          1           0        2.689161   -0.001197   -1.389097
     14          1           0        2.767237   -1.227125    1.139044
     15          1           0        0.751257    2.152301   -0.174992
     16          1           0       -1.732352    2.159959   -0.016727
     17          1           0       -1.732656   -2.159875   -0.018056
     18          1           0        0.750961   -2.152459   -0.176163
 ---------------------------------------------------------------------
 Rotational constants (GHZ):           3.4994426           0.5640539           0.4938684
 Leave Link  202 at Tue Oct 21 15:00:13 2025, MaxMem=  4294967296 cpu:               0.0 elap:               0.0
 (Enter /lrz/sys/applications/gaussian/g16.C.01/x86_64_legacy/exe/l301.exe)
 Standard basis: def2SVP (5D, 7F)
 Ernie: Thresh=  0.10000D-02 Tol=  0.10000D-05 Strict=F.
 There are   200 symmetry adapted cartesian basis functions of A   symmetry.
 There are   189 symmetry adapted basis functions of A   symmetry.
   189 basis functions,   324 primitive gaussians,   200 cartesian basis functions
    39 alpha electrons       39 beta electrons
       nuclear repulsion energy       545.5459235458 Hartrees.
 IExCor= 4639 DFT=T Ex+Corr=wB97XD ExCW=0 ScaHFX=  1.000000
 ScaDFX=  1.000000  1.000000  1.000000  1.000000 ScalE2=  1.000000  1.000000
 IRadAn=      5 IRanWt=     -1 IRanGd=            0 ICorTp=0 IEmpDi=121
 HFx  wShort=  0.000000 wLong=  0.200000 cFull=  0.222036 cShort=  0.000000 cLong=  0.777964
 DFx  wShort=  0.000000 wLong=  0.200000 cFull=  0.000000 cShort=  0.000000 cLong=  1.000000
 NAtoms=   18 NActive=   18 NUniq=   18 SFac= 1.00D+00 NAtFMM=   60 NAOKFM=F Big=F
 Integral buffers will be    131072 words long.
 Raffenetti 2 integral format.
 Two-electron integral symmetry is turned on.
 R6Disp:  Grimme-D2 Dispersion energy=       -0.0094572407 Hartrees.
 Nuclear repulsion after empirical dispersion term =      545.5364663051 Hartrees.
 ------------------------------------------------------------------------------
 Polarizable Continuum Model (PCM)
 =================================
 Model                : PCM.
 Atomic radii         : SMD-Coulomb.
 Polarization charges : Total charges.
 Charge compensation  : None.
 Solution method      : On-the-fly selection.
 Cavity type          : VdW (van der Waals Surface) (Alpha=1.000).
 Cavity algorithm     : GePol (No added spheres)
                        Default sphere list used, NSphG=   18.
                        Lebedev-Laikov grids with approx.  5.0 points / Ang**2.
                        Smoothing algorithm: York/Karplus (Gamma=1.0000).
                        Polarization charges: spherical gaussians, with
                                              point-specific exponents (IZeta= 3).
                        Self-potential: point-specific (ISelfS= 7).
                        Self-field    : sphere-specific E.n sum rule (ISelfD= 2).
 1st derivatives      : Analytical E(r).r(x)/FMM algorithm (CHGder, D1EAlg=3).
                        Cavity 1st derivative terms included.
 Solvent              : Water, Eps=  78.355300 Eps(inf)=   1.777849
 ------------------------------------------------------------------------------
 Spheres list:
 ISph  on   Nord     Re0    Alpha      Xe            Ye            Ze
    1   O      1    1.5200  1.000      3.000071      1.166105      0.200202
    2   C      2    1.8500  1.000      2.427194     -0.000286     -0.319146
    3   O      3    1.5200  1.000      2.999753     -1.165996      0.202103
    4   C      4    1.8500  1.000      0.907904     -0.000081     -0.183104
    5   C      5    1.8500  1.000      0.203808      1.209045     -0.140813
    6   C      6    1.8500  1.000     -1.184095      1.216430     -0.052757
    7   C      7    1.8500  1.000     -1.883666      0.000055     -0.007791
    8   C      8    1.8500  1.000     -3.315631      0.000137      0.087781
    9   N      9    1.8900  1.000     -4.472806      0.000079      0.163605
   10   C     10    1.8500  1.000     -1.184264     -1.216402     -0.053495
   11   C     11    1.8500  1.000      0.203630     -1.209149     -0.141492
   12   H     12    1.2000  1.000      2.768155      1.228476      1.137208
   13   H     13    1.2000  1.000      2.689161     -0.001197     -1.389097
   14   H     14    1.2000  1.000      2.767237     -1.227125      1.139044
   15   H     15    1.2000  1.000      0.751257      2.152301     -0.174992
   16   H     16    1.2000  1.000     -1.732352      2.159959     -0.016727
   17   H     17    1.2000  1.000     -1.732656     -2.159875     -0.018056
   18   H     18    1.2000  1.000      0.750961     -2.152459     -0.176163
 ------------------------------------------------------------------------------
 GePol: Number of generator spheres                  =      18
 GePol: Total number of spheres                      =      18
 GePol: Number of exposed spheres                    =      18 (100.00%)
 GePol: Number of points                             =    1545
 GePol: Average weight of points                     =       0.12
 GePol: Minimum weight of points                     =   0.72D-10
 GePol: Maximum weight of points                     =    0.21991
 GePol: Number of points with low weight             =      81
 GePol: Fraction of low-weight points (<1% of avg)   =       5.24%
 GePol: Cavity surface area                          =    179.397 Ang**2
 GePol: Cavity volume                                =    152.896 Ang**3
 ------------------------------------------------------------------------------
 Atomic radii for non-electrostatic terms: SMD-CDS.
 ------------------------------------------------------------------------------
 PCM non-electrostatic energy =         0.0088920969 Hartrees.
 Nuclear repulsion after PCM non-electrostatic terms =      545.5453584020 Hartrees.
 Leave Link  301 at Tue Oct 21 15:00:13 2025, MaxMem=  4294967296 cpu:               0.5 elap:               0.1
 (Enter /lrz/sys/applications/gaussian/g16.C.01/x86_64_legacy/exe/l302.exe)
 NPDir=0 NMtPBC=     1 NCelOv=     1 NCel=       1 NClECP=     1 NCelD=      1
         NCelK=      1 NCelE2=     1 NClLst=     1 CellRange=     0.0.
 One-electron integrals computed using PRISM.
 One-electron integral symmetry used in STVInt
   1 Symmetry operations used in ECPInt.
 ECPInt:  NShTT=    3828 NPrTT=   14192 LenC2=    3687 LenP2D=   10485.
 LDataN:  DoStor=T MaxTD1= 4 Len=   56
 NBasis=   189 RedAO= T EigKep=  2.83D-04  NBF=   189
 NBsUse=   189 1.00D-06 EigRej= -1.00D+00 NBFU=   189
 Precomputing XC quadrature grid using
 IXCGrd= 4 IRadAn=           5 IRanWt=          -1 IRanGd=           0 AccXCQ= 0.00D+00.
 Generated NRdTot=       0 NPtTot=           0 NUsed=           0 NTot=          32
 NSgBfM=   199   199   199   199   199 MxSgAt=    18 MxSgA2=    18.
 Leave Link  302 at Tue Oct 21 15:00:14 2025, MaxMem=  4294967296 cpu:               1.8 elap:               0.2
 (Enter /lrz/sys/applications/gaussian/g16.C.01/x86_64_legacy/exe/l303.exe)
 DipDrv:  MaxL=1.
 Leave Link  303 at Tue Oct 21 15:00:14 2025, MaxMem=  4294967296 cpu:               0.2 elap:               0.0
 (Enter /lrz/sys/applications/gaussian/g16.C.01/x86_64_legacy/exe/l401.exe)
 Initial guess from the checkpoint file:  "g16_C12-w_3.chk"
 B after Tr=    -0.000000    0.000000   -0.000000
         Rot=    1.000000   -0.000005    0.000486    0.000002 Ang=  -0.06 deg.
 Guess basis will be translated and rotated to current coordinates.
 JPrj=2 DoOrth=T DoCkMO=T.
 Generating alternative initial guess.
 ExpMin= 1.22D-01 ExpMax= 2.27D+03 ExpMxC= 3.41D+02 IAcc=3 IRadAn=         5 AccDes= 0.00D+00
 Harris functional with IExCor= 4639 and IRadAn=       5 diagonalized for initial guess.
 HarFok:  IExCor= 4639 AccDes= 0.00D+00 IRadAn=         5 IDoV= 1 UseB2=F ITyADJ=14
 ICtDFT=  3500011 ScaDFX=  1.000000  1.000000  1.000000  1.000000
 FoFCou: FMM=F IPFlag=           0 FMFlag=      100000 FMFlg1=           0
         NFxFlg=           0 DoJE=T BraDBF=F KetDBF=T FulRan=T
         wScrn=  0.000000 ICntrl=       500 IOpCl=  0 I1Cent=   200000004 NGrid=           0
         NMat0=    1 NMatS0=      1 NMatT0=    0 NMatD0=    1 NMtDS0=    0 NMtDT0=    0
 Petite list used in FoFCou.
 Harris En= -492.368278225640    
 Leave Link  401 at Tue Oct 21 15:00:15 2025, MaxMem=  4294967296 cpu:              10.6 elap:               1.4
 (Enter /lrz/sys/applications/gaussian/g16.C.01/x86_64_legacy/exe/l502.exe)
 Integral symmetry usage will be decided dynamically.
 Closed shell SCF:
 Using DIIS extrapolation, IDIIS=  1040.
 NGot=  4294967296 LenX=  4294883082 LenY=  4294842641
 Requested convergence on RMS density matrix=1.00D-08 within 128 cycles.
 Requested convergence on MAX density matrix=1.00D-06.
 Requested convergence on             energy=1.00D-06.
 No special actions if energy rises.
 Fock matrices will be formed incrementally for  20 cycles.

 Cycle   1  Pass 1  IDiag  1:
 FoFJK:  IHMeth= 1 ICntrl=       0 DoSepK=T KAlg= 0 I1Cent=           0 FoldK=F
 IRaf=         1 NMat=       1 IRICut=       1 DoRegI=T DoRafI=F ISym2E= 0 IDoP0=0 IntGTp=1.
 FoFCou: FMM=F IPFlag=           0 FMFlag=      100000 FMFlg1=           0
         NFxFlg=           0 DoJE=T BraDBF=F KetDBF=F FulRan=T
         wScrn=  0.000000 ICntrl=       500 IOpCl=  0 I1Cent=           0 NGrid=           0
         NMat0=    1 NMatS0=      1 NMatT0=    0 NMatD0=    1 NMtDS0=    0 NMtDT0=    0
 Symmetry not used in FoFCou.
 Inv3:  Mode=1 IEnd=     7161075.
 Iteration    1 A*A^-1 deviation from unit magnitude is 6.44D-15 for    149.
 Iteration    1 A*A^-1 deviation from orthogonality  is 3.80D-15 for    829    347.
 Iteration    1 A^-1*A deviation from unit magnitude is 5.55D-15 for     77.
 Iteration    1 A^-1*A deviation from orthogonality  is 2.83D-15 for   1215    553.
 E= -513.713676759524    
 DIIS: error= 2.15D-03 at cycle   1 NSaved=   1.
 NSaved= 1 IEnMin= 1 EnMin= -513.713676759524     IErMin= 1 ErrMin= 2.15D-03
 ErrMax= 2.15D-03  0.00D+00 EMaxC= 1.00D-01 BMatC= 1.21D-03 BMatP= 1.21D-03
 IDIUse=3 WtCom= 9.78D-01 WtEn= 2.15D-02
 Coeff-Com:  0.100D+01
 Coeff-En:   0.100D+01
 Coeff:      0.100D+01
 Gap=     0.800 Goal=   None    Shift=    0.000
 GapD=    0.800 DampG=2.000 DampE=1.000 DampFc=2.0000 IDamp=-1.
 RMSDP=6.08D-04 MaxDP=1.50D-02              OVMax= 7.71D-03

 Cycle   2  Pass 1  IDiag  1:
 RMSU=  5.89D-04    CP:  9.94D-01
 E= -513.715030902395     Delta-E=       -0.001354142872 Rises=F Damp=F
 DIIS: error= 3.61D-04 at cycle   2 NSaved=   2.
 NSaved= 2 IEnMin= 2 EnMin= -513.715030902395     IErMin= 2 ErrMin= 3.61D-04
 ErrMax= 3.61D-04  0.00D+00 EMaxC= 1.00D-01 BMatC= 4.79D-05 BMatP= 1.21D-03
 IDIUse=3 WtCom= 9.96D-01 WtEn= 3.61D-03
 Coeff-Com: -0.438D-01 0.104D+01
 Coeff-En:   0.000D+00 0.100D+01
 Coeff:     -0.436D-01 0.104D+01
 Gap=     0.349 Goal=   None    Shift=    0.000
 RMSDP=8.53D-05 MaxDP=2.78D-03 DE=-1.35D-03 OVMax= 2.54D-03

 Cycle   3  Pass 1  IDiag  1:
 RMSU=  7.22D-05    CP:  9.94D-01  1.08D+00
 E= -513.715089155718     Delta-E=       -0.000058253323 Rises=F Damp=F
 DIIS: error= 3.33D-04 at cycle   3 NSaved=   3.
 NSaved= 3 IEnMin= 3 EnMin= -513.715089155718     IErMin= 3 ErrMin= 3.33D-04
 ErrMax= 3.33D-04  0.00D+00 EMaxC= 1.00D-01 BMatC= 1.91D-05 BMatP= 4.79D-05
 IDIUse=3 WtCom= 9.97D-01 WtEn= 3.33D-03
 Coeff-Com: -0.483D-01 0.390D+00 0.659D+00
 Coeff-En:   0.000D+00 0.000D+00 0.100D+01
 Coeff:     -0.481D-01 0.388D+00 0.660D+00
 Gap=     0.349 Goal=   None    Shift=    0.000
 RMSDP=3.01D-05 MaxDP=1.05D-03 DE=-5.83D-05 OVMax= 1.27D-03

 Cycle   4  Pass 1  IDiag  1:
 RMSU=  2.53D-05    CP:  9.94D-01  1.09D+00  8.33D-01
 E= -513.715105912265     Delta-E=       -0.000016756547 Rises=F Damp=F
 DIIS: error= 2.12D-04 at cycle   4 NSaved=   4.
 NSaved= 4 IEnMin= 4 EnMin= -513.715105912265     IErMin= 4 ErrMin= 2.12D-04
 ErrMax= 2.12D-04  0.00D+00 EMaxC= 1.00D-01 BMatC= 4.62D-06 BMatP= 1.91D-05
 IDIUse=3 WtCom= 9.98D-01 WtEn= 2.12D-03
 Coeff-Com: -0.214D-01 0.961D-01 0.347D+00 0.578D+00
 Coeff-En:   0.000D+00 0.000D+00 0.438D-01 0.956D+00
 Coeff:     -0.213D-01 0.959D-01 0.346D+00 0.579D+00
 Gap=     0.349 Goal=   None    Shift=    0.000
 RMSDP=1.06D-05 MaxDP=4.97D-04 DE=-1.68D-05 OVMax= 5.93D-04

 Cycle   5  Pass 1  IDiag  1:
 RMSU=  9.51D-06    CP:  9.94D-01  1.10D+00  8.88D-01  9.21D-01
 E= -513.715110047025     Delta-E=       -0.000004134760 Rises=F Damp=F
 DIIS: error= 4.03D-05 at cycle   5 NSaved=   5.
 NSaved= 5 IEnMin= 5 EnMin= -513.715110047025     IErMin= 5 ErrMin= 4.03D-05
 ErrMax= 4.03D-05  0.00D+00 EMaxC= 1.00D-01 BMatC= 2.52D-07 BMatP= 4.62D-06
 IDIUse=1 WtCom= 1.00D+00 WtEn= 0.00D+00
 Coeff-Com:  0.969D-03-0.326D-01 0.671D-02 0.181D+00 0.844D+00
 Coeff:      0.969D-03-0.326D-01 0.671D-02 0.181D+00 0.844D+00
 Gap=     0.349 Goal=   None    Shift=    0.000
 RMSDP=4.34D-06 MaxDP=1.31D-04 DE=-4.13D-06 OVMax= 1.72D-04

 Cycle   6  Pass 1  IDiag  1:
 RMSU=  2.72D-06    CP:  9.94D-01  1.10D+00  9.21D-01  1.01D+00  1.03D+00
 E= -513.715110353510     Delta-E=       -0.000000306486 Rises=F Damp=F
 DIIS: error= 9.15D-06 at cycle   6 NSaved=   6.
 NSaved= 6 IEnMin= 6 EnMin= -513.715110353510     IErMin= 6 ErrMin= 9.15D-06
 ErrMax= 9.15D-06  0.00D+00 EMaxC= 1.00D-01 BMatC= 2.64D-08 BMatP= 2.52D-07
 IDIUse=1 WtCom= 1.00D+00 WtEn= 0.00D+00
 Coeff-Com:  0.211D-02-0.207D-01-0.253D-01 0.205D-01 0.315D+00 0.709D+00
 Coeff:      0.211D-02-0.207D-01-0.253D-01 0.205D-01 0.315D+00 0.709D+00
 Gap=     0.349 Goal=   None    Shift=    0.000
 RMSDP=1.28D-06 MaxDP=4.14D-05 DE=-3.06D-07 OVMax= 5.10D-05

 Cycle   7  Pass 1  IDiag  1:
 RMSU=  8.37D-07    CP:  9.94D-01  1.10D+00  9.28D-01  1.04D+00  1.07D+00
                    CP:  9.00D-01
 E= -513.715110385859     Delta-E=       -0.000000032349 Rises=F Damp=F
 DIIS: error= 1.99D-06 at cycle   7 NSaved=   7.
 NSaved= 7 IEnMin= 7 EnMin= -513.715110385859     IErMin= 7 ErrMin= 1.99D-06
 ErrMax= 1.99D-06  0.00D+00 EMaxC= 1.00D-01 BMatC= 1.12D-09 BMatP= 2.64D-08
 IDIUse=1 WtCom= 1.00D+00 WtEn= 0.00D+00
 Coeff-Com:  0.199D-03 0.264D-03-0.354D-02-0.148D-01-0.420D-01 0.849D-01
 Coeff-Com:  0.975D+00
 Coeff:      0.199D-03 0.264D-03-0.354D-02-0.148D-01-0.420D-01 0.849D-01
 Coeff:      0.975D+00
 Gap=     0.349 Goal=   None    Shift=    0.000
 RMSDP=4.92D-07 MaxDP=1.62D-05 DE=-3.23D-08 OVMax= 2.44D-05

 Cycle   8  Pass 1  IDiag  1:
 RMSU=  2.91D-07    CP:  9.94D-01  1.10D+00  9.30D-01  1.05D+00  1.10D+00
                    CP:  9.83D-01  1.13D+00
 E= -513.715110388367     Delta-E=       -0.000000002508 Rises=F Damp=F
 DIIS: error= 9.05D-07 at cycle   8 NSaved=   8.
 NSaved= 8 IEnMin= 8 EnMin= -513.715110388367     IErMin= 8 ErrMin= 9.05D-07
 ErrMax= 9.05D-07  0.00D+00 EMaxC= 1.00D-01 BMatC= 1.48D-10 BMatP= 1.12D-09
 IDIUse=1 WtCom= 1.00D+00 WtEn= 0.00D+00
 Coeff-Com: -0.101D-03 0.170D-02 0.918D-03-0.596D-02-0.375D-01-0.301D-01
 Coeff-Com:  0.287D+00 0.784D+00
 Coeff:     -0.101D-03 0.170D-02 0.918D-03-0.596D-02-0.375D-01-0.301D-01
 Coeff:      0.287D+00 0.784D+00
 Gap=     0.349 Goal=   None    Shift=    0.000
 RMSDP=1.23D-07 MaxDP=3.76D-06 DE=-2.51D-09 OVMax= 5.75D-06

 Cycle   9  Pass 1  IDiag  1:
 RMSU=  8.53D-08    CP:  9.94D-01  1.10D+00  9.30D-01  1.05D+00  1.10D+00
                    CP:  1.00D+00  1.21D+00  9.52D-01
 E= -513.715110388584     Delta-E=       -0.000000000216 Rises=F Damp=F
 DIIS: error= 3.61D-07 at cycle   9 NSaved=   9.
 NSaved= 9 IEnMin= 9 EnMin= -513.715110388584     IErMin= 9 ErrMin= 3.61D-07
 ErrMax= 3.61D-07  0.00D+00 EMaxC= 1.00D-01 BMatC= 1.79D-11 BMatP= 1.48D-10
 IDIUse=1 WtCom= 1.00D+00 WtEn= 0.00D+00
 Coeff-Com: -0.501D-04 0.514D-03 0.647D-03-0.421D-03-0.781D-02-0.174D-01
 Coeff-Com: -0.798D-02 0.258D+00 0.774D+00
 Coeff:     -0.501D-04 0.514D-03 0.647D-03-0.421D-03-0.781D-02-0.174D-01
 Coeff:     -0.798D-02 0.258D+00 0.774D+00
 Gap=     0.349 Goal=   None    Shift=    0.000
 RMSDP=3.73D-08 MaxDP=9.45D-07 DE=-2.16D-10 OVMax= 1.82D-06

 Cycle  10  Pass 1  IDiag  1:
 RMSU=  2.53D-08    CP:  9.94D-01  1.10D+00  9.30D-01  1.05D+00  1.10D+00
                    CP:  1.01D+00  1.22D+00  1.02D+00  1.02D+00
 E= -513.715110388627     Delta-E=       -0.000000000043 Rises=F Damp=F
 DIIS: error= 8.95D-08 at cycle  10 NSaved=  10.
 NSaved=10 IEnMin=10 EnMin= -513.715110388627     IErMin=10 ErrMin= 8.95D-08
 ErrMax= 8.95D-08  0.00D+00 EMaxC= 1.00D-01 BMatC= 9.96D-13 BMatP= 1.79D-11
 IDIUse=1 WtCom= 1.00D+00 WtEn= 0.00D+00
 Coeff-Com:  0.110D-05-0.740D-04 0.272D-04 0.482D-03 0.213D-02 0.341D-03
 Coeff-Com: -0.296D-01-0.281D-01 0.136D+00 0.919D+00
 Coeff:      0.110D-05-0.740D-04 0.272D-04 0.482D-03 0.213D-02 0.341D-03
 Coeff:     -0.296D-01-0.281D-01 0.136D+00 0.919D+00
 Gap=     0.349 Goal=   None    Shift=    0.000
 RMSDP=1.36D-08 MaxDP=2.02D-07 DE=-4.34D-11 OVMax= 6.54D-07

 Cycle  11  Pass 1  IDiag  1:
 RMSU=  7.23D-09    CP:  9.94D-01  1.10D+00  9.30D-01  1.05D+00  1.10D+00
                    CP:  1.01D+00  1.23D+00  1.05D+00  1.12D+00  1.09D+00
 E= -513.715110388622     Delta-E=        0.000000000005 Rises=F Damp=F
 DIIS: error= 2.90D-08 at cycle  11 NSaved=  11.
 NSaved=11 IEnMin=10 EnMin= -513.715110388627     IErMin=11 ErrMin= 2.90D-08
 ErrMax= 2.90D-08  0.00D+00 EMaxC= 1.00D-01 BMatC= 2.13D-13 BMatP= 9.96D-13
 IDIUse=1 WtCom= 1.00D+00 WtEn= 0.00D+00
 Coeff-Com:  0.474D-05-0.757D-04-0.425D-04 0.234D-03 0.154D-02 0.176D-02
 Coeff-Com: -0.118D-01-0.351D-01-0.119D-01 0.377D+00 0.678D+00
 Coeff:      0.474D-05-0.757D-04-0.425D-04 0.234D-03 0.154D-02 0.176D-02
 Coeff:     -0.118D-01-0.351D-01-0.119D-01 0.377D+00 0.678D+00
 Gap=     0.349 Goal=   None    Shift=    0.000
 RMSDP=3.65D-09 MaxDP=6.66D-08 DE= 5.46D-12 OVMax= 1.52D-07

 Error on total polarization charges =  0.03104
 SCF Done:  E(RwB97XD) =  -513.715110389     A.U. after   11 cycles
            NFock= 11  Conv=0.37D-08     -V/T= 2.0097
 KE= 5.087581737758D+02 PE=-2.287118496526D+03 EE= 7.190998539600D+02
 SMD-CDS (non-electrostatic) energy       (kcal/mol) =       5.58
 (included in total energy above)
 Leave Link  502 at Tue Oct 21 15:00:54 2025, MaxMem=  4294967296 cpu:             305.5 elap:              38.4
 (Enter /lrz/sys/applications/gaussian/g16.C.01/x86_64_legacy/exe/l701.exe)
 ... and contract with generalized density number  0.
 Compute integral first derivatives.
 R6Disp: Adding Grimme-D2 dispersion energy 1st derivatives to the gradient.
   1 Symmetry operations used in ECPInt.
 ECPInt:  NShTT=    3828 NPrTT=   14192 LenC2=    3687 LenP2D=   10485.
 LDataN:  DoStor=T MaxTD1= 5 Len=  102
 D1PCM: PCM CHGder 1st derivatives, ID1Alg=3 FixD1E=F DoIter=F DoCFld=F I1PDM=0.
 GePol: Maximum number of non-zero 1st derivatives   =     259
 Leave Link  701 at Tue Oct 21 15:00:55 2025, MaxMem=  4294967296 cpu:               8.1 elap:               1.0
 (Enter /lrz/sys/applications/gaussian/g16.C.01/x86_64_legacy/exe/l702.exe)
 L702 exits ... SP integral derivatives will be done elsewhere.
 Leave Link  702 at Tue Oct 21 15:00:55 2025, MaxMem=  4294967296 cpu:               0.2 elap:               0.0
 (Enter /lrz/sys/applications/gaussian/g16.C.01/x86_64_legacy/exe/l703.exe)
 Integral derivatives from FoFJK, PRISM(SPDF).
 Compute integral first derivatives, UseDBF=F ICtDFT=           0.
 Calling FoFJK, ICntrl=      2127 FMM=F ISym2X=0 I1Cent= 0 IOpClX= 0 NMat=1 NMatS=1 NMatT=0.
 FoFJK:  IHMeth= 1 ICntrl=    2127 DoSepK=T KAlg= 0 I1Cent=           0 FoldK=F
 IRaf=         1 NMat=       1 IRICut=       1 DoRegI=T DoRafI=F ISym2E= 0 IDoP0=0 IntGTp=1.
 FoFCou: FMM=F IPFlag=           0 FMFlag=      100000 FMFlg1=         800
         NFxFlg=           0 DoJE=F BraDBF=F KetDBF=F FulRan=T
         wScrn=  0.000000 ICntrl=      2527 IOpCl=  0 I1Cent=           0 NGrid=           0
         NMat0=    1 NMatS0=      1 NMatT0=    0 NMatD0=    1 NMtDS0=    0 NMtDT0=    0
 Symmetry not used in FoFCou.
 Leave Link  703 at Tue Oct 21 15:01:02 2025, MaxMem=  4294967296 cpu:              62.0 elap:               7.8
 (Enter /lrz/sys/applications/gaussian/g16.C.01/x86_64_legacy/exe/l716.exe)
 Dipole        = 1.50076103D+00 5.68136562D-04 8.20392554D-01
 ***** Axes restored to original set *****
 -------------------------------------------------------------------
 Center     Atomic                   Forces (Hartrees/Bohr)
 Number     Number              X              Y              Z
 -------------------------------------------------------------------
      1        8          -0.002305107    0.000810520    0.000469644
      2        6           0.001412360   -0.000007082   -0.001759284
      3        8          -0.002305856   -0.000803194    0.000479660
      4        6           0.000302735    0.000002539    0.000399505
      5        6           0.000471239    0.001081898   -0.000204203
      6        6           0.000924580    0.000488566    0.000193963
      7        6          -0.003469439   -0.000007160   -0.000131133
      8        6          -0.000470399    0.000008407   -0.000233665
      9        7           0.000691113   -0.000003991    0.000111450
     10        6           0.000925826   -0.000484384    0.000200238
     11        6           0.000471617   -0.001086150   -0.000192262
     12        1           0.001109916   -0.001072490    0.000253694
     13        1           0.000910390   -0.000002467   -0.000023161
     14        1           0.001109890    0.001074123    0.000244710
     15        1           0.000481082    0.000129920    0.000128502
     16        1          -0.000370801    0.000267545   -0.000035537
     17        1          -0.000370963   -0.000268202   -0.000032168
     18        1           0.000481816   -0.000128398    0.000130048
 -------------------------------------------------------------------
 Cartesian Forces:  Max     0.003469439 RMS     0.000885623
 Leave Link  716 at Tue Oct 21 15:01:02 2025, MaxMem=  4294967296 cpu:               0.2 elap:               0.0
 (Enter /lrz/sys/applications/gaussian/g16.C.01/x86_64_legacy/exe/l103.exe)

 GradGradGradGradGradGradGradGradGradGradGradGradGradGradGradGradGradGrad
 Berny optimization.
 Using GEDIIS/GDIIS optimizer.
 FormGI is forming the generalized inverse of G from B-inverse, IUseBI=4.
 Internal  Forces:  Max     0.001849548 RMS     0.000533710
 Search for a local minimum.
 Step number   2 out of a maximum of   92
 All quantities printed in internal units (Hartrees-Bohrs-Radians)
 RMS Force = .53371D-03 SwitMx=.10000D-02 MixMth= 2
 Mixed Optimization -- En-DIIS/RFO-DIIS
 Update second derivatives using D2CorX and points    1    2
 DE= -2.03D-03 DEPred=-2.06D-03 R= 9.86D-01
 TightC=F SS=  1.41D+00  RLast= 1.70D-01 DXNew= 5.0454D-01 5.0949D-01
 Trust test= 9.86D-01 RLast= 1.70D-01 DXMaxT set to 5.05D-01
 ITU=  1  0
 Use linear search instead of GDIIS.
     Eigenvalues ---    0.00450   0.01509   0.01560   0.01723   0.02144
     Eigenvalues ---    0.02178   0.02228   0.02237   0.02262   0.02269
     Eigenvalues ---    0.02293   0.02294   0.05032   0.05033   0.06158
     Eigenvalues ---    0.07125   0.09803   0.15912   0.16000   0.16000
     Eigenvalues ---    0.16000   0.16000   0.16370   0.20477   0.21323
     Eigenvalues ---    0.22000   0.22883   0.24028   0.24985   0.25000
     Eigenvalues ---    0.29990   0.33824   0.35969   0.35984   0.36003
     Eigenvalues ---    0.36500   0.42317   0.43375   0.43528   0.45899
     Eigenvalues ---    0.46011   0.46711   0.47841   0.47997   0.51820
     Eigenvalues ---    0.53875   0.54096   1.35332
 RFO step:  Lambda=-2.95123868D-04 EMin= 4.49761137D-03
 Quartic linear search produced a step of  0.02401.
 Iteration  1 RMS(Cart)=  0.01221087 RMS(Int)=  0.00031887
 Iteration  2 RMS(Cart)=  0.00029257 RMS(Int)=  0.00000153
 Iteration  3 RMS(Cart)=  0.00000014 RMS(Int)=  0.00000153
 ITry= 1 IFail=0 DXMaxC= 5.59D-02 DCOld= 1.00D+10 DXMaxT= 5.05D-01 DXLimC= 3.00D+00 Rises=F
 Variable       Old X    -DE/DX   Delta X   Delta X   Delta X     New X
                                 (Linear)    (Quad)   (Total)
    R1        2.64452   0.00098   0.00008   0.00229   0.00237   2.64689
    R2        1.82792   0.00058  -0.00001   0.00108   0.00107   1.82898
    R3        2.64454   0.00098   0.00008   0.00229   0.00237   2.64691
    R4        2.88253   0.00010   0.00007   0.00043   0.00050   2.88303
    R5        2.08164  -0.00020   0.00012  -0.00041  -0.00029   2.08135
    R6        1.82792   0.00058  -0.00001   0.00108   0.00107   1.82899
    R7        2.64530  -0.00073   0.00042  -0.00088  -0.00046   2.64484
    R8        2.64533  -0.00073   0.00042  -0.00088  -0.00046   2.64487
    R9        2.62807  -0.00106   0.00047  -0.00153  -0.00107   2.62700
   R10        2.06197  -0.00036   0.00050  -0.00029   0.00021   2.06218
   R11        2.65302  -0.00185   0.00037  -0.00362  -0.00325   2.64978
   R12        2.06329  -0.00042   0.00054  -0.00039   0.00015   2.06344
   R13        2.71204   0.00021   0.00102   0.00200   0.00302   2.71506
   R14        2.65304  -0.00185   0.00037  -0.00361  -0.00325   2.64980
   R15        2.19143   0.00070   0.00055   0.00133   0.00188   2.19331
   R16        2.62804  -0.00106   0.00047  -0.00153  -0.00107   2.62697
   R17        2.06329  -0.00042   0.00054  -0.00040   0.00015   2.06344
   R18        2.06197  -0.00036   0.00050  -0.00029   0.00021   2.06218
    A1        1.89135   0.00068  -0.00078   0.00320   0.00242   1.89377
    A2        1.96987  -0.00087   0.00021  -0.00459  -0.00438   1.96549
    A3        1.95468   0.00043  -0.00023   0.00139   0.00115   1.95584
    A4        1.83776   0.00014   0.00015   0.00154   0.00169   1.83945
    A5        1.95455   0.00043  -0.00024   0.00140   0.00116   1.95571
    A6        1.83775   0.00015   0.00015   0.00157   0.00172   1.83947
    A7        1.90022  -0.00032   0.00001  -0.00120  -0.00119   1.89902
    A8        1.89134   0.00068  -0.00078   0.00320   0.00242   1.89375
    A9        2.09878   0.00026   0.00006   0.00098   0.00104   2.09982
   A10        2.09860   0.00026   0.00006   0.00099   0.00105   2.09965
   A11        2.08529  -0.00051  -0.00013  -0.00196  -0.00209   2.08320
   A12        2.10420   0.00024   0.00007   0.00141   0.00149   2.10569
   A13        2.08678   0.00025   0.00008   0.00181   0.00189   2.08867
   A14        2.09220  -0.00049  -0.00015  -0.00323  -0.00339   2.08881
   A15        2.08831  -0.00043   0.00000  -0.00210  -0.00210   2.08620
   A16        2.10343   0.00002  -0.00004  -0.00024  -0.00028   2.10315
   A17        2.09145   0.00041   0.00004   0.00234   0.00238   2.09384
   A18        2.09356  -0.00044   0.00001  -0.00166  -0.00165   2.09191
   A19        2.09605   0.00089  -0.00002   0.00334   0.00332   2.09937
   A20        2.09357  -0.00045   0.00001  -0.00168  -0.00167   2.09190
   A21        2.08830  -0.00043   0.00000  -0.00210  -0.00210   2.08619
   A22        2.09145   0.00041   0.00004   0.00234   0.00239   2.09384
   A23        2.10343   0.00002  -0.00004  -0.00024  -0.00028   2.10315
   A24        2.10421   0.00024   0.00007   0.00142   0.00149   2.10570
   A25        2.08677   0.00025   0.00008   0.00181   0.00189   2.08866
   A26        2.09220  -0.00049  -0.00016  -0.00324  -0.00339   2.08881
   A27        3.14170  -0.00001   0.00001  -0.00018  -0.00017   3.14153
   A28        3.14009   0.00013  -0.00011   0.00250   0.00239   3.14248
    D1       -1.18207  -0.00094  -0.00106  -0.04881  -0.04987  -1.23194
    D2        1.04296  -0.00071  -0.00140  -0.04955  -0.05095   0.99201
    D3        3.10551  -0.00078  -0.00142  -0.04933  -0.05075   3.05476
    D4        1.18283   0.00094   0.00106   0.04880   0.04986   1.23269
    D5       -1.04228   0.00071   0.00140   0.04954   0.05094  -0.99133
    D6       -3.10475   0.00078   0.00142   0.04930   0.05072  -3.05403
    D7        0.47050   0.00023   0.00018   0.00175   0.00192   0.47242
    D8       -2.70586   0.00023  -0.00007   0.00225   0.00218  -2.70367
    D9        2.70372  -0.00023   0.00007  -0.00219  -0.00212   2.70160
   D10       -0.47264  -0.00023  -0.00017  -0.00169  -0.00186  -0.47450
   D11       -1.55453  -0.00000   0.00012  -0.00020  -0.00008  -1.55460
   D12        1.55230   0.00000  -0.00012   0.00030   0.00018   1.55248
   D13        3.11157   0.00004  -0.00035   0.00124   0.00089   3.11246
   D14       -0.03257  -0.00003  -0.00055  -0.00209  -0.00264  -0.03521
   D15        0.00448   0.00002  -0.00011   0.00068   0.00057   0.00505
   D16       -3.13966  -0.00005  -0.00031  -0.00264  -0.00296   3.14056
   D17       -3.11153  -0.00004   0.00035  -0.00124  -0.00089  -3.11242
   D18        0.03261   0.00003   0.00055   0.00208   0.00264   0.03525
   D19       -0.00443  -0.00002   0.00011  -0.00069  -0.00057  -0.00501
   D20        3.13970   0.00005   0.00031   0.00264   0.00296  -3.14052
   D21       -0.00150  -0.00003   0.00002  -0.00131  -0.00128  -0.00278
   D22        3.13830  -0.00001  -0.00006  -0.00031  -0.00037   3.13793
   D23       -3.14053   0.00004   0.00022   0.00202   0.00224  -3.13829
   D24       -0.00074   0.00006   0.00014   0.00301   0.00315   0.00242
   D25        3.13781   0.00005  -0.00004   0.00235   0.00231   3.14011
   D26       -0.00157   0.00004   0.00007   0.00192   0.00199   0.00042
   D27       -0.00200   0.00003   0.00004   0.00137   0.00140  -0.00060
   D28       -3.14138   0.00001   0.00015   0.00094   0.00109  -3.14029
   D29        0.00161  -0.00004  -0.00007  -0.00193  -0.00199  -0.00038
   D30        3.14140  -0.00001  -0.00016  -0.00094  -0.00109   3.14030
   D31       -3.13776  -0.00005   0.00005  -0.00236  -0.00231  -3.14007
   D32        0.00202  -0.00003  -0.00004  -0.00137  -0.00141   0.00061
   D33        0.00141   0.00003  -0.00003   0.00132   0.00129   0.00269
   D34        3.14045  -0.00004  -0.00023  -0.00201  -0.00224   3.13821
   D35       -3.13836   0.00001   0.00007   0.00032   0.00038  -3.13798
   D36        0.00068  -0.00006  -0.00014  -0.00301  -0.00314  -0.00246
         Item               Value     Threshold  Converged?
 Maximum Force            0.001850     0.000450     NO 
 RMS     Force            0.000534     0.000300     NO 
 Maximum Displacement     0.055901     0.001800     NO 
 RMS     Displacement     0.012221     0.001200     NO 
 Predicted change in Energy=-1.494009D-04
 Lowest energy point so far.  Saving SCF results.
 GradGradGradGradGradGradGradGradGradGradGradGradGradGradGradGradGradGrad

 Leave Link  103 at Tue Oct 21 15:01:02 2025, MaxMem=  4294967296 cpu:               0.2 elap:               0.0
 (Enter /lrz/sys/applications/gaussian/g16.C.01/x86_64_legacy/exe/l202.exe)
                          Input orientation:                          
 ---------------------------------------------------------------------
 Center     Atomic      Atomic             Coordinates (Angstroms)
 Number     Number       Type             X           Y           Z
 ---------------------------------------------------------------------
      1          8           0       -3.051154   -1.164061    0.226400
      2          6           0       -2.478565   -0.000987   -0.303965
      3          8           0       -3.050634    1.166712    0.216745
      4          6           0       -0.958358   -0.000688   -0.175404
      5          6           0       -0.253043   -1.208724   -0.130373
      6          6           0        1.134647   -1.216443   -0.048080
      7          6           0        1.831710   -0.000274   -0.013386
      8          6           0        3.265833   -0.000041    0.073460
      9          7           0        4.424312    0.000075    0.144448
     10          6           0        1.135028    1.215698   -0.060791
     11          6           0       -0.252653    1.207545   -0.142949
     12          1           0       -2.778189   -1.246629    1.151289
     13          1           0       -2.744499   -0.005372   -1.372770
     14          1           0       -2.777071    1.257168    1.140723
     15          1           0       -0.798177   -2.153761   -0.154403
     16          1           0        1.682316   -2.160308   -0.009644
     17          1           0        1.682995    2.159740   -0.032231
     18          1           0       -0.797498    2.152452   -0.176780
 ---------------------------------------------------------------------
                    Distance matrix (angstroms):
                    1          2          3          4          5
     1  O    0.000000
     2  C    1.400674   0.000000
     3  O    2.330794   1.400687   0.000000
     4  C    2.427896   1.525634   2.427802   0.000000
     5  C    2.821118   2.538053   3.686422   1.399589   0.000000
     6  C    4.195118   3.820748   4.823498   2.423828   1.390150
     7  C    5.025361   4.320059   5.025147   2.794768   2.412516
     8  C    6.425158   5.756784   6.424920   4.231515   3.726252
     9  N    7.566010   6.917426   7.565784   5.392164   4.838840
    10  C    4.823883   3.820669   4.195139   2.423839   2.794531
    11  C    3.686807   2.537944   2.821302   1.399607   2.416302
    12  H    0.967857   1.938856   2.602271   2.573766   2.832041
    13  H    1.998486   1.101402   1.998514   2.150351   3.032979
    14  H    2.602587   1.938861   0.967860   2.573345   3.750603
    15  H    2.490064   2.735052   4.029498   2.159126   1.091258
    16  H    4.842929   4.697044   5.789743   3.415347   2.160023
    17  H    5.790225   4.696931   4.843071   3.415361   3.886441
    18  H    4.029985   2.734861   2.490616   2.159141   3.405304
                    6          7          8          9         10
     6  C    0.000000
     7  C    1.402201   0.000000
     8  C    2.456900   1.436750   0.000000
     9  N    3.512673   2.597402   1.160652   0.000000
    10  C    2.432174   1.402212   2.456903   3.512727   0.000000
    11  C    2.794516   2.412505   3.726237   4.838861   1.390135
    12  H    4.092638   4.915388   6.264655   7.378619   4.779693
    13  H    4.274257   4.773849   6.181885   7.327607   4.273527
    14  H    4.778445   4.914671   6.263889   7.377856   4.092661
    15  H    2.150740   3.402014   4.605064   5.657094   3.885782
    16  H    1.091924   2.165197   2.679773   3.494215   3.420461
    17  H    3.420460   2.165209   2.679776   3.494308   1.091924
    18  H    3.885769   3.402008   4.605052   5.657138   2.150725
                   11         12         13         14         15
    11  C    0.000000
    12  H    3.751847   0.000000
    13  H    3.031984   2.812958   0.000000
    14  H    2.832483   2.503819   2.812955   0.000000
    15  H    3.405306   2.539325   3.144545   4.150639   0.000000
    16  H    3.886426   4.698796   5.108674   5.734859   2.484722
    17  H    2.160015   5.736396   5.107588   4.699217   4.977694
    18  H    1.091261   4.152188   3.142835   2.540877   4.306272
                   16         17         18
    16  H    0.000000
    17  H    4.320107   0.000000
    18  H    4.977681   2.484711   0.000000
 Stoichiometry    C8H7NO2
 Framework group  C1[X(C8H7NO2)]
 Deg. of freedom    48
 Full point group                 C1      NOp   1
 RotChk:  IX=0 Diff= 5.29D-04
 Largest Abelian subgroup         C1      NOp   1
 Largest concise Abelian subgroup C1      NOp   1
                         Standard orientation:                         
 ---------------------------------------------------------------------
 Center     Atomic      Atomic             Coordinates (Angstroms)
 Number     Number       Type             X           Y           Z
 ---------------------------------------------------------------------
      1          8           0        3.003011    1.165477    0.202017
      2          6           0        2.427951   -0.000259   -0.319762
      3          8           0        3.002742   -1.165316    0.203861
      4          6           0        0.908400   -0.000082   -0.183671
      5          6           0        0.203162    1.208089   -0.141106
      6          6           0       -1.184105    1.216069   -0.051978
      7          6           0       -1.880831    0.000014   -0.007833
      8          6           0       -3.314506    0.000060    0.086117
      9          7           0       -4.472619    0.000175    0.162843
     10          6           0       -1.184237   -1.216104   -0.052690
     11          6           0        0.203019   -1.208213   -0.141762
     12          1           0        2.734621    1.252577    1.127828
     13          1           0        2.688587   -0.001119   -1.389880
     14          1           0        2.733771   -1.251241    1.129617
     15          1           0        0.748049    2.153053   -0.172497
     16          1           0       -1.731697    2.160055   -0.015486
     17          1           0       -1.731935   -2.160051   -0.016760
     18          1           0        0.747811   -2.153219   -0.173631
 ---------------------------------------------------------------------
 Rotational constants (GHZ):           3.4997630           0.5640701           0.4938693
 Leave Link  202 at Tue Oct 21 15:01:03 2025, MaxMem=  4294967296 cpu:               0.0 elap:               0.0
 (Enter /lrz/sys/applications/gaussian/g16.C.01/x86_64_legacy/exe/l301.exe)
 Standard basis: def2SVP (5D, 7F)
 Ernie: Thresh=  0.10000D-02 Tol=  0.10000D-05 Strict=F.
 There are   200 symmetry adapted cartesian basis functions of A   symmetry.
 There are   189 symmetry adapted basis functions of A   symmetry.
   189 basis functions,   324 primitive gaussians,   200 cartesian basis functions
    39 alpha electrons       39 beta electrons
       nuclear repulsion energy       545.5536013368 Hartrees.
 IExCor= 4639 DFT=T Ex+Corr=wB97XD ExCW=0 ScaHFX=  1.000000
 ScaDFX=  1.000000  1.000000  1.000000  1.000000 ScalE2=  1.000000  1.000000
 IRadAn=      5 IRanWt=     -1 IRanGd=            0 ICorTp=0 IEmpDi=121
 HFx  wShort=  0.000000 wLong=  0.200000 cFull=  0.222036 cShort=  0.000000 cLong=  0.777964
 DFx  wShort=  0.000000 wLong=  0.200000 cFull=  0.000000 cShort=  0.000000 cLong=  1.000000
 NAtoms=   18 NActive=   18 NUniq=   18 SFac= 1.00D+00 NAtFMM=   60 NAOKFM=F Big=F
 Integral buffers will be    131072 words long.
 Raffenetti 2 integral format.
 Two-electron integral symmetry is turned on.
 R6Disp:  Grimme-D2 Dispersion energy=       -0.0094735713 Hartrees.
 Nuclear repulsion after empirical dispersion term =      545.5441277655 Hartrees.
 ------------------------------------------------------------------------------
 Polarizable Continuum Model (PCM)
 =================================
 Model                : PCM.
 Atomic radii         : SMD-Coulomb.
 Polarization charges : Total charges.
 Charge compensation  : None.
 Solution method      : On-the-fly selection.
 Cavity type          : VdW (van der Waals Surface) (Alpha=1.000).
 Cavity algorithm     : GePol (No added spheres)
                        Default sphere list used, NSphG=   18.
                        Lebedev-Laikov grids with approx.  5.0 points / Ang**2.
                        Smoothing algorithm: York/Karplus (Gamma=1.0000).
                        Polarization charges: spherical gaussians, with
                                              point-specific exponents (IZeta= 3).
                        Self-potential: point-specific (ISelfS= 7).
                        Self-field    : sphere-specific E.n sum rule (ISelfD= 2).
 1st derivatives      : Analytical E(r).r(x)/FMM algorithm (CHGder, D1EAlg=3).
                        Cavity 1st derivative terms included.
 Solvent              : Water, Eps=  78.355300 Eps(inf)=   1.777849
 ------------------------------------------------------------------------------
 Spheres list:
 ISph  on   Nord     Re0    Alpha      Xe            Ye            Ze
    1   O      1    1.5200  1.000      3.003011      1.165477      0.202017
    2   C      2    1.8500  1.000      2.427951     -0.000259     -0.319762
    3   O      3    1.5200  1.000      3.002742     -1.165316      0.203861
    4   C      4    1.8500  1.000      0.908400     -0.000082     -0.183671
    5   C      5    1.8500  1.000      0.203162      1.208089     -0.141106
    6   C      6    1.8500  1.000     -1.184105      1.216069     -0.051978
    7   C      7    1.8500  1.000     -1.880831      0.000014     -0.007833
    8   C      8    1.8500  1.000     -3.314506      0.000060      0.086117
    9   N      9    1.8900  1.000     -4.472619      0.000175      0.162843
   10   C     10    1.8500  1.000     -1.184237     -1.216104     -0.052690
   11   C     11    1.8500  1.000      0.203019     -1.208213     -0.141762
   12   H     12    1.2000  1.000      2.734621      1.252577      1.127828
   13   H     13    1.2000  1.000      2.688587     -0.001119     -1.389880
   14   H     14    1.2000  1.000      2.733771     -1.251241      1.129617
   15   H     15    1.2000  1.000      0.748049      2.153053     -0.172497
   16   H     16    1.2000  1.000     -1.731697      2.160055     -0.015486
   17   H     17    1.2000  1.000     -1.731935     -2.160051     -0.016760
   18   H     18    1.2000  1.000      0.747811     -2.153219     -0.173631
 ------------------------------------------------------------------------------
 GePol: Number of generator spheres                  =      18
 GePol: Total number of spheres                      =      18
 GePol: Number of exposed spheres                    =      18 (100.00%)
 GePol: Number of points                             =    1538
 GePol: Average weight of points                     =       0.12
 GePol: Minimum weight of points                     =   0.31D-08
 GePol: Maximum weight of points                     =    0.21991
 GePol: Number of points with low weight             =      79
 GePol: Fraction of low-weight points (<1% of avg)   =       5.14%
 GePol: Cavity surface area                          =    179.231 Ang**2
 GePol: Cavity volume                                =    152.798 Ang**3
 ------------------------------------------------------------------------------
 Atomic radii for non-electrostatic terms: SMD-CDS.
 ------------------------------------------------------------------------------
 PCM non-electrostatic energy =         0.0088537647 Hartrees.
 Nuclear repulsion after PCM non-electrostatic terms =      545.5529815302 Hartrees.
 Leave Link  301 at Tue Oct 21 15:01:03 2025, MaxMem=  4294967296 cpu:               0.5 elap:               0.1
 (Enter /lrz/sys/applications/gaussian/g16.C.01/x86_64_legacy/exe/l302.exe)
 NPDir=0 NMtPBC=     1 NCelOv=     1 NCel=       1 NClECP=     1 NCelD=      1
         NCelK=      1 NCelE2=     1 NClLst=     1 CellRange=     0.0.
 One-electron integrals computed using PRISM.
 One-electron integral symmetry used in STVInt
   1 Symmetry operations used in ECPInt.
 ECPInt:  NShTT=    3828 NPrTT=   14192 LenC2=    3691 LenP2D=   10491.
 LDataN:  DoStor=T MaxTD1= 4 Len=   56
 NBasis=   189 RedAO= T EigKep=  2.81D-04  NBF=   189
 NBsUse=   189 1.00D-06 EigRej= -1.00D+00 NBFU=   189
 Precomputing XC quadrature grid using
 IXCGrd= 4 IRadAn=           5 IRanWt=          -1 IRanGd=           0 AccXCQ= 0.00D+00.
 Generated NRdTot=       0 NPtTot=           0 NUsed=           0 NTot=          32
 NSgBfM=   199   199   199   199   199 MxSgAt=    18 MxSgA2=    18.
 Leave Link  302 at Tue Oct 21 15:01:03 2025, MaxMem=  4294967296 cpu:               1.8 elap:               0.2
 (Enter /lrz/sys/applications/gaussian/g16.C.01/x86_64_legacy/exe/l303.exe)
 DipDrv:  MaxL=1.
 Leave Link  303 at Tue Oct 21 15:01:03 2025, MaxMem=  4294967296 cpu:               0.3 elap:               0.0
 (Enter /lrz/sys/applications/gaussian/g16.C.01/x86_64_legacy/exe/l401.exe)
 Initial guess from the checkpoint file:  "g16_C12-w_3.chk"
 B after Tr=     0.000000   -0.000000    0.000000
         Rot=    1.000000   -0.000000    0.000139   -0.000003 Ang=  -0.02 deg.
 Guess basis will be translated and rotated to current coordinates.
 JPrj=2 DoOrth=T DoCkMO=T.
 Generating alternative initial guess.
 ExpMin= 1.22D-01 ExpMax= 2.27D+03 ExpMxC= 3.41D+02 IAcc=3 IRadAn=         5 AccDes= 0.00D+00
 Harris functional with IExCor= 4639 and IRadAn=       5 diagonalized for initial guess.
 HarFok:  IExCor= 4639 AccDes= 0.00D+00 IRadAn=         5 IDoV= 1 UseB2=F ITyADJ=14
 ICtDFT=  3500011 ScaDFX=  1.000000  1.000000  1.000000  1.000000
 FoFCou: FMM=F IPFlag=           0 FMFlag=      100000 FMFlg1=           0
         NFxFlg=           0 DoJE=T BraDBF=F KetDBF=T FulRan=T
         wScrn=  0.000000 ICntrl=       500 IOpCl=  0 I1Cent=   200000004 NGrid=           0
         NMat0=    1 NMatS0=      1 NMatT0=    0 NMatD0=    1 NMtDS0=    0 NMtDT0=    0
 Petite list used in FoFCou.
 Harris En= -492.368786246876    
 Leave Link  401 at Tue Oct 21 15:01:05 2025, MaxMem=  4294967296 cpu:              12.6 elap:               1.6
 (Enter /lrz/sys/applications/gaussian/g16.C.01/x86_64_legacy/exe/l502.exe)
 Integral symmetry usage will be decided dynamically.
 Closed shell SCF:
 Using DIIS extrapolation, IDIIS=  1040.
 NGot=  4294967296 LenX=  4294883082 LenY=  4294842641
 Requested convergence on RMS density matrix=1.00D-08 within 128 cycles.
 Requested convergence on MAX density matrix=1.00D-06.
 Requested convergence on             energy=1.00D-06.
 No special actions if energy rises.
 Fock matrices will be formed incrementally for  20 cycles.

 Cycle   1  Pass 1  IDiag  1:
 FoFJK:  IHMeth= 1 ICntrl=       0 DoSepK=T KAlg= 0 I1Cent=           0 FoldK=F
 IRaf=         1 NMat=       1 IRICut=       1 DoRegI=T DoRafI=F ISym2E= 0 IDoP0=0 IntGTp=1.
 FoFCou: FMM=F IPFlag=           0 FMFlag=      100000 FMFlg1=           0
         NFxFlg=           0 DoJE=T BraDBF=F KetDBF=F FulRan=T
         wScrn=  0.000000 ICntrl=       500 IOpCl=  0 I1Cent=           0 NGrid=           0
         NMat0=    1 NMatS0=      1 NMatT0=    0 NMatD0=    1 NMtDS0=    0 NMtDT0=    0
 Symmetry not used in FoFCou.
 Inv3:  Mode=1 IEnd=     7096332.
 Iteration    1 A*A^-1 deviation from unit magnitude is 5.44D-15 for    929.
 Iteration    1 A*A^-1 deviation from orthogonality  is 3.21D-15 for    660     41.
 Iteration    1 A^-1*A deviation from unit magnitude is 5.44D-15 for    408.
 Iteration    1 A^-1*A deviation from orthogonality  is 3.94D-15 for   1284     97.
 E= -513.714737750057    
 DIIS: error= 1.92D-03 at cycle   1 NSaved=   1.
 NSaved= 1 IEnMin= 1 EnMin= -513.714737750057     IErMin= 1 ErrMin= 1.92D-03
 ErrMax= 1.92D-03  0.00D+00 EMaxC= 1.00D-01 BMatC= 4.60D-04 BMatP= 4.60D-04
 IDIUse=3 WtCom= 9.81D-01 WtEn= 1.92D-02
 Coeff-Com:  0.100D+01
 Coeff-En:   0.100D+01
 Coeff:      0.100D+01
 Gap=     0.800 Goal=   None    Shift=    0.000
 GapD=    0.800 DampG=2.000 DampE=1.000 DampFc=2.0000 IDamp=-1.
 RMSDP=1.98D-04 MaxDP=8.22D-03              OVMax= 6.55D-03

 Cycle   2  Pass 1  IDiag  1:
 RMSU=  1.98D-04    CP:  1.00D+00
 E= -513.715303006037     Delta-E=       -0.000565255980 Rises=F Damp=F
 DIIS: error= 2.94D-04 at cycle   2 NSaved=   2.
 NSaved= 2 IEnMin= 2 EnMin= -513.715303006037     IErMin= 2 ErrMin= 2.94D-04
 ErrMax= 2.94D-04  0.00D+00 EMaxC= 1.00D-01 BMatC= 1.38D-05 BMatP= 4.60D-04
 IDIUse=3 WtCom= 9.97D-01 WtEn= 2.94D-03
 Coeff-Com: -0.145D+00 0.114D+01
 Coeff-En:   0.000D+00 0.100D+01
 Coeff:     -0.145D+00 0.114D+01
 Gap=     0.350 Goal=   None    Shift=    0.000
 RMSDP=4.68D-05 MaxDP=1.67D-03 DE=-5.65D-04 OVMax= 2.21D-03

 Cycle   3  Pass 1  IDiag  1:
 RMSU=  3.18D-05    CP:  1.00D+00  1.17D+00
 E= -513.715327185176     Delta-E=       -0.000024179138 Rises=F Damp=F
 DIIS: error= 7.88D-05 at cycle   3 NSaved=   3.
 NSaved= 3 IEnMin= 3 EnMin= -513.715327185176     IErMin= 3 ErrMin= 7.88D-05
 ErrMax= 7.88D-05  0.00D+00 EMaxC= 1.00D-01 BMatC= 1.61D-06 BMatP= 1.38D-05
 IDIUse=1 WtCom= 1.00D+00 WtEn= 0.00D+00
 Coeff-Com: -0.460D-01 0.288D+00 0.758D+00
 Coeff:     -0.460D-01 0.288D+00 0.758D+00
 Gap=     0.350 Goal=   None    Shift=    0.000
 RMSDP=1.02D-05 MaxDP=2.88D-04 DE=-2.42D-05 OVMax= 4.38D-04

 Cycle   4  Pass 1  IDiag  1:
 RMSU=  9.51D-06    CP:  1.00D+00  1.19D+00  1.05D+00
 E= -513.715328668518     Delta-E=       -0.000001483342 Rises=F Damp=F
 DIIS: error= 4.23D-05 at cycle   4 NSaved=   4.
 NSaved= 4 IEnMin= 4 EnMin= -513.715328668518     IErMin= 4 ErrMin= 4.23D-05
 ErrMax= 4.23D-05  0.00D+00 EMaxC= 1.00D-01 BMatC= 3.77D-07 BMatP= 1.61D-06
 IDIUse=1 WtCom= 1.00D+00 WtEn= 0.00D+00
 Coeff-Com:  0.829D-02-0.898D-01 0.286D+00 0.796D+00
 Coeff:      0.829D-02-0.898D-01 0.286D+00 0.796D+00
 Gap=     0.350 Goal=   None    Shift=    0.000
 RMSDP=5.08D-06 MaxDP=1.04D-04 DE=-1.48D-06 OVMax= 2.22D-04

 Cycle   5  Pass 1  IDiag  1:
 RMSU=  2.60D-06    CP:  1.00D+00  1.20D+00  1.18D+00  9.67D-01
 E= -513.715329064576     Delta-E=       -0.000000396058 Rises=F Damp=F
 DIIS: error= 7.62D-06 at cycle   5 NSaved=   5.
 NSaved= 5 IEnMin= 5 EnMin= -513.715329064576     IErMin= 5 ErrMin= 7.62D-06
 ErrMax= 7.62D-06  0.00D+00 EMaxC= 1.00D-01 BMatC= 1.63D-08 BMatP= 3.77D-07
 IDIUse=1 WtCom= 1.00D+00 WtEn= 0.00D+00
 Coeff-Com:  0.515D-02-0.454D-01 0.347D-01 0.217D+00 0.789D+00
 Coeff:      0.515D-02-0.454D-01 0.347D-01 0.217D+00 0.789D+00
 Gap=     0.350 Goal=   None    Shift=    0.000
 RMSDP=1.39D-06 MaxDP=3.89D-05 DE=-3.96D-07 OVMax= 6.39D-05

 Cycle   6  Pass 1  IDiag  1:
 RMSU=  9.09D-07    CP:  1.00D+00  1.20D+00  1.21D+00  1.01D+00  1.09D+00
 E= -513.715329087225     Delta-E=       -0.000000022648 Rises=F Damp=F
 DIIS: error= 3.57D-06 at cycle   6 NSaved=   6.
 NSaved= 6 IEnMin= 6 EnMin= -513.715329087225     IErMin= 6 ErrMin= 3.57D-06
 ErrMax= 3.57D-06  0.00D+00 EMaxC= 1.00D-01 BMatC= 3.07D-09 BMatP= 1.63D-08
 IDIUse=1 WtCom= 1.00D+00 WtEn= 0.00D+00
 Coeff-Com:  0.107D-02-0.761D-02-0.214D-01-0.158D-01 0.295D+00 0.749D+00
 Coeff:      0.107D-02-0.761D-02-0.214D-01-0.158D-01 0.295D+00 0.749D+00
 Gap=     0.350 Goal=   None    Shift=    0.000
 RMSDP=5.71D-07 MaxDP=1.72D-05 DE=-2.26D-08 OVMax= 2.38D-05

 Cycle   7  Pass 1  IDiag  1:
 RMSU=  2.84D-07    CP:  1.00D+00  1.20D+00  1.22D+00  1.04D+00  1.23D+00
                    CP:  9.78D-01
 E= -513.715329091284     Delta-E=       -0.000000004060 Rises=F Damp=F
 DIIS: error= 1.89D-06 at cycle   7 NSaved=   7.
 NSaved= 7 IEnMin= 7 EnMin= -513.715329091284     IErMin= 7 ErrMin= 1.89D-06
 ErrMax= 1.89D-06  0.00D+00 EMaxC= 1.00D-01 BMatC= 5.79D-10 BMatP= 3.07D-09
 IDIUse=1 WtCom= 1.00D+00 WtEn= 0.00D+00
 Coeff-Com: -0.179D-03 0.263D-02-0.126D-01-0.346D-01 0.150D-01 0.328D+00
 Coeff-Com:  0.702D+00
 Coeff:     -0.179D-03 0.263D-02-0.126D-01-0.346D-01 0.150D-01 0.328D+00
 Coeff:      0.702D+00
 Gap=     0.350 Goal=   None    Shift=    0.000
 RMSDP=1.93D-07 MaxDP=5.95D-06 DE=-4.06D-09 OVMax= 8.07D-06

 Cycle   8  Pass 1  IDiag  1:
 RMSU=  1.17D-07    CP:  1.00D+00  1.20D+00  1.22D+00  1.04D+00  1.27D+00
                    CP:  1.07D+00  8.93D-01
 E= -513.715329091896     Delta-E=       -0.000000000611 Rises=F Damp=F
 DIIS: error= 7.90D-07 at cycle   8 NSaved=   8.
 NSaved= 8 IEnMin= 8 EnMin= -513.715329091896     IErMin= 8 ErrMin= 7.90D-07
 ErrMax= 7.90D-07  0.00D+00 EMaxC= 1.00D-01 BMatC= 1.11D-10 BMatP= 5.79D-10
 IDIUse=1 WtCom= 1.00D+00 WtEn= 0.00D+00
 Coeff-Com: -0.247D-03 0.248D-02-0.190D-02-0.133D-01-0.431D-01 0.330D-01
 Coeff-Com:  0.352D+00 0.671D+00
 Coeff:     -0.247D-03 0.248D-02-0.190D-02-0.133D-01-0.431D-01 0.330D-01
 Coeff:      0.352D+00 0.671D+00
 Gap=     0.350 Goal=   None    Shift=    0.000
 RMSDP=6.90D-08 MaxDP=2.08D-06 DE=-6.11D-10 OVMax= 3.31D-06

 Cycle   9  Pass 1  IDiag  1:
 RMSU=  3.64D-08    CP:  1.00D+00  1.20D+00  1.22D+00  1.04D+00  1.28D+00
                    CP:  1.11D+00  1.00D+00  8.73D-01
 E= -513.715329092014     Delta-E=       -0.000000000118 Rises=F Damp=F
 DIIS: error= 1.52D-07 at cycle   9 NSaved=   9.
 NSaved= 9 IEnMin= 9 EnMin= -513.715329092014     IErMin= 9 ErrMin= 1.52D-07
 ErrMax= 1.52D-07  0.00D+00 EMaxC= 1.00D-01 BMatC= 3.00D-12 BMatP= 1.11D-10
 IDIUse=1 WtCom= 1.00D+00 WtEn= 0.00D+00
 Coeff-Com: -0.407D-04 0.355D-03 0.464D-03-0.809D-03-0.108D-01-0.143D-01
 Coeff-Com:  0.334D-01 0.141D+00 0.851D+00
 Coeff:     -0.407D-04 0.355D-03 0.464D-03-0.809D-03-0.108D-01-0.143D-01
 Coeff:      0.334D-01 0.141D+00 0.851D+00
 Gap=     0.350 Goal=   None    Shift=    0.000
 RMSDP=2.05D-08 MaxDP=5.75D-07 DE=-1.18D-10 OVMax= 1.10D-06

 Cycle  10  Pass 1  IDiag  1:
 RMSU=  1.34D-08    CP:  1.00D+00  1.20D+00  1.22D+00  1.04D+00  1.28D+00
                    CP:  1.12D+00  1.04D+00  9.37D-01  1.11D+00
 E= -513.715329092019     Delta-E=       -0.000000000006 Rises=F Damp=F
 DIIS: error= 8.84D-08 at cycle  10 NSaved=  10.
 NSaved=10 IEnMin=10 EnMin= -513.715329092019     IErMin=10 ErrMin= 8.84D-08
 ErrMax= 8.84D-08  0.00D+00 EMaxC= 1.00D-01 BMatC= 6.31D-13 BMatP= 3.00D-12
 IDIUse=1 WtCom= 1.00D+00 WtEn= 0.00D+00
 Coeff-Com:  0.237D-04-0.264D-03 0.483D-03 0.172D-02 0.255D-02-0.993D-02
 Coeff-Com: -0.423D-01-0.531D-01 0.294D+00 0.807D+00
 Coeff:      0.237D-04-0.264D-03 0.483D-03 0.172D-02 0.255D-02-0.993D-02
 Coeff:     -0.423D-01-0.531D-01 0.294D+00 0.807D+00
 Gap=     0.350 Goal=   None    Shift=    0.000
 RMSDP=9.13D-09 MaxDP=3.24D-07 DE=-5.91D-12 OVMax= 9.26D-07

 Error on total polarization charges =  0.03104
 SCF Done:  E(RwB97XD) =  -513.715329092     A.U. after   10 cycles
            NFock= 10  Conv=0.91D-08     -V/T= 2.0098
 KE= 5.087543708006D+02 PE=-2.287108388234D+03 EE= 7.190857068109D+02
 SMD-CDS (non-electrostatic) energy       (kcal/mol) =       5.56
 (included in total energy above)
 Leave Link  502 at Tue Oct 21 15:01:39 2025, MaxMem=  4294967296 cpu:             277.7 elap:              34.9
 (Enter /lrz/sys/applications/gaussian/g16.C.01/x86_64_legacy/exe/l701.exe)
 ... and contract with generalized density number  0.
 Compute integral first derivatives.
 R6Disp: Adding Grimme-D2 dispersion energy 1st derivatives to the gradient.
   1 Symmetry operations used in ECPInt.
 ECPInt:  NShTT=    3828 NPrTT=   14192 LenC2=    3691 LenP2D=   10491.
 LDataN:  DoStor=T MaxTD1= 5 Len=  102
 D1PCM: PCM CHGder 1st derivatives, ID1Alg=3 FixD1E=F DoIter=F DoCFld=F I1PDM=0.
 GePol: Maximum number of non-zero 1st derivatives   =     259
 Leave Link  701 at Tue Oct 21 15:01:41 2025, MaxMem=  4294967296 cpu:               8.4 elap:               1.1
 (Enter /lrz/sys/applications/gaussian/g16.C.01/x86_64_legacy/exe/l702.exe)
 L702 exits ... SP integral derivatives will be done elsewhere.
 Leave Link  702 at Tue Oct 21 15:01:41 2025, MaxMem=  4294967296 cpu:               0.2 elap:               0.0
 (Enter /lrz/sys/applications/gaussian/g16.C.01/x86_64_legacy/exe/l703.exe)
 Integral derivatives from FoFJK, PRISM(SPDF).
 Compute integral first derivatives, UseDBF=F ICtDFT=           0.
 Calling FoFJK, ICntrl=      2127 FMM=F ISym2X=0 I1Cent= 0 IOpClX= 0 NMat=1 NMatS=1 NMatT=0.
 FoFJK:  IHMeth= 1 ICntrl=    2127 DoSepK=T KAlg= 0 I1Cent=           0 FoldK=F
 IRaf=         1 NMat=       1 IRICut=       1 DoRegI=T DoRafI=F ISym2E= 0 IDoP0=0 IntGTp=1.
 FoFCou: FMM=F IPFlag=           0 FMFlag=      100000 FMFlg1=         800
         NFxFlg=           0 DoJE=F BraDBF=F KetDBF=F FulRan=T
         wScrn=  0.000000 ICntrl=      2527 IOpCl=  0 I1Cent=           0 NGrid=           0
         NMat0=    1 NMatS0=      1 NMatT0=    0 NMatD0=    1 NMtDS0=    0 NMtDT0=    0
 Symmetry not used in FoFCou.
 Leave Link  703 at Tue Oct 21 15:01:48 2025, MaxMem=  4294967296 cpu:              61.6 elap:               7.7
 (Enter /lrz/sys/applications/gaussian/g16.C.01/x86_64_legacy/exe/l716.exe)
 Dipole        = 1.42174331D+00 4.18635035D-04 7.98853138D-01
 ***** Axes restored to original set *****
 -------------------------------------------------------------------
 Center     Atomic                   Forces (Hartrees/Bohr)
 Number     Number              X              Y              Z
 -------------------------------------------------------------------
      1        8          -0.000884451    0.000829131    0.000133260
      2        6           0.000700345    0.000001640    0.000007722
      3        8          -0.000883241   -0.000827640    0.000140584
      4        6           0.000104171    0.000002836    0.000233920
      5        6          -0.000225850    0.000111343    0.000062152
      6        6           0.000351505   -0.000153378    0.000010497
      7        6          -0.000061871    0.000003637   -0.000021523
      8        6           0.001125316   -0.000006701    0.000125019
      9        7          -0.001749720    0.000002524   -0.000142353
     10        6           0.000350549    0.000152107    0.000010349
     11        6          -0.000226765   -0.000110218    0.000063967
     12        1           0.000581450   -0.000495538   -0.000275438
     13        1           0.000399969    0.000000438    0.000099096
     14        1           0.000579701    0.000491127   -0.000279574
     15        1           0.000252314    0.000265723   -0.000056927
     16        1          -0.000332895    0.000428456   -0.000030806
     17        1          -0.000332858   -0.000428831   -0.000026129
     18        1           0.000252332   -0.000266657   -0.000053815
 -------------------------------------------------------------------
 Cartesian Forces:  Max     0.001749720 RMS     0.000444627
 Leave Link  716 at Tue Oct 21 15:01:48 2025, MaxMem=  4294967296 cpu:               0.2 elap:               0.0
 (Enter /lrz/sys/applications/gaussian/g16.C.01/x86_64_legacy/exe/l103.exe)

 GradGradGradGradGradGradGradGradGradGradGradGradGradGradGradGradGradGrad
 Berny optimization.
 Using GEDIIS/GDIIS optimizer.
 FormGI is forming the generalized inverse of G from B-inverse, IUseBI=4.
 Internal  Forces:  Max     0.001755101 RMS     0.000296871
 Search for a local minimum.
 Step number   3 out of a maximum of   92
 All quantities printed in internal units (Hartrees-Bohrs-Radians)
 RMS Force = .29687D-03 SwitMx=.10000D-02 MixMth= 2
 Mixed Optimization -- En-DIIS/RFO-DIIS
 Swapping is turned off.
 Update second derivatives using D2CorX and points    1    2    3
 DE= -2.19D-04 DEPred=-1.49D-04 R= 1.46D+00
 TightC=F SS=  1.41D+00  RLast= 1.25D-01 DXNew= 8.4853D-01 3.7465D-01
 Trust test= 1.46D+00 RLast= 1.25D-01 DXMaxT set to 5.05D-01
 ITU=  1  1  0
     Eigenvalues ---    0.00450   0.00731   0.01509   0.01723   0.02145
     Eigenvalues ---    0.02183   0.02228   0.02237   0.02263   0.02269
     Eigenvalues ---    0.02294   0.02317   0.05032   0.05047   0.06220
     Eigenvalues ---    0.07115   0.09833   0.15935   0.16000   0.16000
     Eigenvalues ---    0.16000   0.16005   0.16349   0.20507   0.21299
     Eigenvalues ---    0.22000   0.23289   0.24004   0.24985   0.25000
     Eigenvalues ---    0.30178   0.33820   0.35969   0.35984   0.36003
     Eigenvalues ---    0.36797   0.43052   0.43374   0.44387   0.46011
     Eigenvalues ---    0.46709   0.47230   0.47831   0.47841   0.51044
     Eigenvalues ---    0.53875   0.54375   1.42549
 En-DIIS/RFO-DIIS/Sim-DIIS IScMMF=       -3 using points:     3    2
 RFO step:  Lambda=-1.82978278D-04.
 NNeg= 0 NGDIIS= 2 SimSw=  2.50D-03 Rises=F DC= -2.19D-04 SmlDif=  1.00D-05
 NRisDI= 0 DoIntr=F SqrtH=F CThrHd= 10.0 CDAdj=  3.0
 RMS Error=  0.1682799335D-01 NUsed= 2 OKEnD=T EnDIS=F
 InvSVX:  RCond= 3.65D-03 Info=           0 Equed=N FErr=  6.15D-15 BErr=  4.96D-17
 DidBck=F Rises=F RFO-DIIS coefs:    2.23734   -1.23734
 Iteration  1 RMS(Cart)=  0.01592122 RMS(Int)=  0.00049320
 Iteration  2 RMS(Cart)=  0.00044711 RMS(Int)=  0.00000149
 Iteration  3 RMS(Cart)=  0.00000030 RMS(Int)=  0.00000148
 ITry= 1 IFail=0 DXMaxC= 7.16D-02 DCOld= 1.00D+10 DXMaxT= 5.05D-01 DXLimC= 3.00D+00 Rises=F
 Variable       Old X    -DE/DX   Delta X   Delta X   Delta X     New X
                                 (Linear)    (Quad)   (Total)
    R1        2.64689  -0.00021   0.00293  -0.00310  -0.00017   2.64672
    R2        1.82898  -0.00006   0.00132  -0.00134  -0.00002   1.82897
    R3        2.64691  -0.00021   0.00294  -0.00312  -0.00018   2.64673
    R4        2.88303  -0.00048   0.00062  -0.00334  -0.00272   2.88031
    R5        2.08135  -0.00019  -0.00036  -0.00046  -0.00082   2.08053
    R6        1.82899  -0.00006   0.00132  -0.00134  -0.00002   1.82897
    R7        2.64484  -0.00045  -0.00056  -0.00026  -0.00083   2.64401
    R8        2.64487  -0.00045  -0.00057  -0.00027  -0.00083   2.64404
    R9        2.62700  -0.00033  -0.00132   0.00101  -0.00031   2.62669
   R10        2.06218  -0.00035   0.00026  -0.00084  -0.00058   2.06160
   R11        2.64978  -0.00044  -0.00402   0.00250  -0.00151   2.64826
   R12        2.06344  -0.00054   0.00018  -0.00162  -0.00143   2.06200
   R13        2.71506  -0.00062   0.00374  -0.00329   0.00045   2.71552
   R14        2.64980  -0.00044  -0.00402   0.00251  -0.00151   2.64829
   R15        2.19331  -0.00176   0.00233  -0.00301  -0.00068   2.19263
   R16        2.62697  -0.00033  -0.00132   0.00102  -0.00031   2.62667
   R17        2.06344  -0.00054   0.00018  -0.00162  -0.00144   2.06200
   R18        2.06218  -0.00036   0.00026  -0.00084  -0.00058   2.06161
    A1        1.89377   0.00017   0.00299  -0.00247   0.00052   1.89429
    A2        1.96549  -0.00017  -0.00542   0.00395  -0.00147   1.96401
    A3        1.95584   0.00013   0.00143  -0.00010   0.00132   1.95716
    A4        1.83945  -0.00003   0.00209  -0.00250  -0.00040   1.83905
    A5        1.95571   0.00013   0.00144  -0.00009   0.00135   1.95706
    A6        1.83947  -0.00003   0.00213  -0.00252  -0.00039   1.83909
    A7        1.89902  -0.00005  -0.00148   0.00084  -0.00064   1.89839
    A8        1.89375   0.00017   0.00299  -0.00248   0.00051   1.89426
    A9        2.09982  -0.00004   0.00129  -0.00124   0.00005   2.09987
   A10        2.09965  -0.00004   0.00130  -0.00122   0.00008   2.09973
   A11        2.08320   0.00007  -0.00258   0.00239  -0.00020   2.08300
   A12        2.10569  -0.00002   0.00184  -0.00151   0.00033   2.10602
   A13        2.08867   0.00010   0.00233  -0.00068   0.00166   2.09032
   A14        2.08881  -0.00007  -0.00419   0.00221  -0.00198   2.08683
   A15        2.08620  -0.00008  -0.00260   0.00156  -0.00104   2.08517
   A16        2.10315  -0.00004  -0.00035  -0.00039  -0.00074   2.10241
   A17        2.09384   0.00011   0.00295  -0.00117   0.00178   2.09561
   A18        2.09191  -0.00006  -0.00204   0.00122  -0.00082   2.09109
   A19        2.09937   0.00013   0.00410  -0.00249   0.00161   2.10098
   A20        2.09190  -0.00006  -0.00206   0.00127  -0.00079   2.09111
   A21        2.08619  -0.00008  -0.00260   0.00157  -0.00103   2.08516
   A22        2.09384   0.00011   0.00295  -0.00118   0.00177   2.09561
   A23        2.10315  -0.00004  -0.00035  -0.00040  -0.00074   2.10241
   A24        2.10570  -0.00002   0.00184  -0.00152   0.00032   2.10602
   A25        2.08866   0.00010   0.00234  -0.00068   0.00166   2.09032
   A26        2.08881  -0.00007  -0.00420   0.00223  -0.00197   2.08683
   A27        3.14153   0.00001  -0.00022   0.00045   0.00023   3.14176
   A28        3.14248  -0.00006   0.00296  -0.00497  -0.00201   3.14047
    D1       -1.23194  -0.00056  -0.06170  -0.00302  -0.06472  -1.29666
    D2        0.99201  -0.00041  -0.06304   0.00005  -0.06299   0.92902
    D3        3.05476  -0.00042  -0.06280  -0.00051  -0.06330   2.99146
    D4        1.23269   0.00056   0.06169   0.00289   0.06458   1.29728
    D5       -0.99133   0.00041   0.06304  -0.00016   0.06287  -0.92846
    D6       -3.05403   0.00042   0.06276   0.00040   0.06316  -2.99087
    D7        0.47242   0.00001   0.00238  -0.00148   0.00090   0.47332
    D8       -2.70367  -0.00000   0.00270  -0.00415  -0.00145  -2.70512
    D9        2.70160  -0.00000  -0.00262   0.00373   0.00111   2.70271
   D10       -0.47450  -0.00001  -0.00230   0.00106  -0.00124  -0.47573
   D11       -1.55460   0.00001  -0.00009   0.00112   0.00102  -1.55358
   D12        1.55248  -0.00001   0.00023  -0.00155  -0.00132   1.55116
   D13        3.11246  -0.00001   0.00110  -0.00303  -0.00192   3.11054
   D14       -0.03521   0.00003  -0.00327   0.00308  -0.00019  -0.03540
   D15        0.00505   0.00000   0.00071  -0.00031   0.00040   0.00544
   D16        3.14056   0.00004  -0.00366   0.00580   0.00213  -3.14049
   D17       -3.11242   0.00001  -0.00111   0.00304   0.00193  -3.11049
   D18        0.03525  -0.00003   0.00326  -0.00311   0.00016   0.03541
   D19       -0.00501  -0.00000  -0.00071   0.00033  -0.00039  -0.00539
   D20       -3.14052  -0.00004   0.00366  -0.00582  -0.00216   3.14050
   D21       -0.00278   0.00000  -0.00159   0.00154  -0.00004  -0.00282
   D22        3.13793   0.00001  -0.00046   0.00129   0.00083   3.13876
   D23       -3.13829  -0.00003   0.00277  -0.00456  -0.00179  -3.14008
   D24        0.00242  -0.00002   0.00390  -0.00481  -0.00091   0.00150
   D25        3.14011   0.00001   0.00286  -0.00184   0.00102   3.14113
   D26        0.00042  -0.00001   0.00246  -0.00279  -0.00033   0.00009
   D27       -0.00060  -0.00000   0.00174  -0.00159   0.00015  -0.00045
   D28       -3.14029  -0.00002   0.00134  -0.00254  -0.00120  -3.14149
   D29       -0.00038   0.00001  -0.00246   0.00280   0.00034  -0.00004
   D30        3.14030   0.00002  -0.00135   0.00257   0.00122   3.14152
   D31       -3.14007  -0.00001  -0.00286   0.00185  -0.00101  -3.14108
   D32        0.00061   0.00000  -0.00175   0.00162  -0.00013   0.00048
   D33        0.00269  -0.00000   0.00160  -0.00157   0.00002   0.00272
   D34        3.13821   0.00003  -0.00277   0.00457   0.00180   3.14002
   D35       -3.13798  -0.00001   0.00047  -0.00134  -0.00086  -3.13884
   D36       -0.00246   0.00002  -0.00389   0.00480   0.00092  -0.00154
         Item               Value     Threshold  Converged?
 Maximum Force            0.001755     0.000450     NO 
 RMS     Force            0.000297     0.000300     YES
 Maximum Displacement     0.071621     0.001800     NO 
 RMS     Displacement     0.015944     0.001200     NO 
 Predicted change in Energy=-9.366627D-05
 Lowest energy point so far.  Saving SCF results.
 GradGradGradGradGradGradGradGradGradGradGradGradGradGradGradGradGradGrad

 Leave Link  103 at Tue Oct 21 15:01:48 2025, MaxMem=  4294967296 cpu:               0.2 elap:               0.0
 (Enter /lrz/sys/applications/gaussian/g16.C.01/x86_64_legacy/exe/l202.exe)
                          Input orientation:                          
 ---------------------------------------------------------------------
 Center     Atomic      Atomic             Coordinates (Angstroms)
 Number     Number       Type             X           Y           Z
 ---------------------------------------------------------------------
      1          8           0       -3.056624   -1.163428    0.226844
      2          6           0       -2.481666   -0.000923   -0.301962
      3          8           0       -3.056150    1.166048    0.217464
      4          6           0       -0.963075   -0.000623   -0.171386
      5          6           0       -0.257871   -1.208231   -0.126724
      6          6           0        1.129674   -1.216308   -0.044789
      7          6           0        1.825395   -0.000290   -0.010216
      8          6           0        3.259854   -0.000119    0.075017
      9          7           0        4.418165    0.000207    0.142787
     10          6           0        1.130122    1.215568   -0.057625
     11          6           0       -0.257418    1.207141   -0.139410
     12          1           0       -2.740289   -1.277731    1.134365
     13          1           0       -2.745313   -0.005200   -1.370889
     14          1           0       -2.739318    1.287808    1.123843
     15          1           0       -0.801130   -2.153955   -0.152302
     16          1           0        1.676086   -2.160069   -0.007494
     17          1           0        1.676889    2.159465   -0.030321
     18          1           0       -0.800330    2.152746   -0.174911
 ---------------------------------------------------------------------
                    Distance matrix (angstroms):
                    1          2          3          4          5
     1  O    0.000000
     2  C    1.400582   0.000000
     3  O    2.329494   1.400592   0.000000
     4  C    2.427684   1.524194   2.427610   0.000000
     5  C    2.821353   2.536447   3.685923   1.399151   0.000000
     6  C    4.195435   3.819041   4.823435   2.423534   1.389986
     7  C    5.024260   4.316930   5.024108   2.793124   2.410952
     8  C    6.424502   5.753882   6.424340   4.230111   3.724865
     9  N    7.565288   6.914150   7.565061   5.390404   4.837176
    10  C    4.823835   3.818974   4.195593   2.423538   2.793940
    11  C    3.686366   2.536360   2.821693   1.399167   2.415405
    12  H    0.967847   1.939113   2.629169   2.548427   2.785242
    13  H    1.997788   1.100969   1.997826   2.148301   3.030280
    14  H    2.629419   1.939106   0.967849   2.548080   3.735198
    15  H    2.492418   2.735351   4.030417   2.159497   1.090953
    16  H    4.842184   4.694201   5.788585   3.413977   2.158797
    17  H    5.789119   4.694108   4.842514   3.413984   3.885095
    18  H    4.031039   2.735201   2.493242   2.159513   3.404812
                    6          7          8          9         10
     6  C    0.000000
     7  C    1.401400   0.000000
     8  C    2.455836   1.436989   0.000000
     9  N    3.511305   2.597281   1.160292   0.000000
    10  C    2.431910   1.401414   2.455859   3.511196   0.000000
    11  C    2.793937   2.410951   3.724869   4.837086   1.389974
    12  H    4.046084   4.877232   6.225450   7.338925   4.755782
    13  H    4.270931   4.768943   6.176787   7.321657   4.270121
    14  H    4.754514   4.876668   6.224858   7.338253   4.046437
    15  H    2.149126   3.399572   4.602420   5.654072   3.884891
    16  H    1.091165   2.164936   2.679648   3.494049   3.419871
    17  H    3.419868   2.164948   2.679678   3.493845   1.091165
    18  H    3.884890   3.399576   4.602432   5.653940   2.149117
                   11         12         13         14         15
    11  C    0.000000
    12  H    3.736541   0.000000
    13  H    3.029180   2.809921   0.000000
    14  H    2.786063   2.565560   2.809910   0.000000
    15  H    3.404813   2.486688   3.143557   4.151006   0.000000
    16  H    3.885092   4.646153   5.104025   5.715206   2.481452
    17  H    2.158788   5.716841   5.102819   4.647017   4.976047
    18  H    1.090955   4.152808   3.141664   2.488886   4.306760
                   16         17         18
    16  H    0.000000
    17  H    4.319594   0.000000
    18  H    4.976046   2.481444   0.000000
 Stoichiometry    C8H7NO2
 Framework group  C1[X(C8H7NO2)]
 Deg. of freedom    48
 Full point group                 C1      NOp   1
 RotChk:  IX=2 Diff= 4.51D-04
 Largest Abelian subgroup         C1      NOp   1
 Largest concise Abelian subgroup C1      NOp   1
                         Standard orientation:                         
 ---------------------------------------------------------------------
 Center     Atomic      Atomic             Coordinates (Angstroms)
 Number     Number       Type             X           Y           Z
 ---------------------------------------------------------------------
      1          8           0        3.004424    1.164831    0.201867
      2          6           0        2.427160   -0.000326   -0.318521
      3          8           0        3.004184   -1.164662    0.203993
      4          6           0        0.909191   -0.000127   -0.180907
      5          6           0        0.204058    1.207619   -0.138941
      6          6           0       -1.183094    1.215968   -0.050616
      7          6           0       -1.878502    0.000068   -0.006814
      8          6           0       -3.312551    0.000181    0.085067
      9          7           0       -4.470536    0.000078    0.158207
     10          6           0       -1.183312   -1.215942   -0.051441
     11          6           0        0.203832   -1.207786   -0.139697
     12          1           0        2.692285    1.283585    1.110269
     13          1           0        2.685849   -0.001303   -1.388667
     14          1           0        2.691571   -1.281974    1.112421
     15          1           0        0.747079    2.153257   -0.171706
     16          1           0       -1.729439    2.159849   -0.015450
     17          1           0       -1.729835   -2.159745   -0.016942
     18          1           0        0.746687   -2.153502   -0.173043
 ---------------------------------------------------------------------
 Rotational constants (GHZ):           3.5014156           0.5646725           0.4942250
 Leave Link  202 at Tue Oct 21 15:01:48 2025, MaxMem=  4294967296 cpu:               0.1 elap:               0.0
 (Enter /lrz/sys/applications/gaussian/g16.C.01/x86_64_legacy/exe/l301.exe)
 Standard basis: def2SVP (5D, 7F)
 Ernie: Thresh=  0.10000D-02 Tol=  0.10000D-05 Strict=F.
 There are   200 symmetry adapted cartesian basis functions of A   symmetry.
 There are   189 symmetry adapted basis functions of A   symmetry.
   189 basis functions,   324 primitive gaussians,   200 cartesian basis functions
    39 alpha electrons       39 beta electrons
       nuclear repulsion energy       545.7867733795 Hartrees.
 IExCor= 4639 DFT=T Ex+Corr=wB97XD ExCW=0 ScaHFX=  1.000000
 ScaDFX=  1.000000  1.000000  1.000000  1.000000 ScalE2=  1.000000  1.000000
 IRadAn=      5 IRanWt=     -1 IRanGd=            0 ICorTp=0 IEmpDi=121
 HFx  wShort=  0.000000 wLong=  0.200000 cFull=  0.222036 cShort=  0.000000 cLong=  0.777964
 DFx  wShort=  0.000000 wLong=  0.200000 cFull=  0.000000 cShort=  0.000000 cLong=  1.000000
 NAtoms=   18 NActive=   18 NUniq=   18 SFac= 1.00D+00 NAtFMM=   60 NAOKFM=F Big=F
 Integral buffers will be    131072 words long.
 Raffenetti 2 integral format.
 Two-electron integral symmetry is turned on.
 R6Disp:  Grimme-D2 Dispersion energy=       -0.0094877837 Hartrees.
 Nuclear repulsion after empirical dispersion term =      545.7772855958 Hartrees.
 ------------------------------------------------------------------------------
 Polarizable Continuum Model (PCM)
 =================================
 Model                : PCM.
 Atomic radii         : SMD-Coulomb.
 Polarization charges : Total charges.
 Charge compensation  : None.
 Solution method      : On-the-fly selection.
 Cavity type          : VdW (van der Waals Surface) (Alpha=1.000).
 Cavity algorithm     : GePol (No added spheres)
                        Default sphere list used, NSphG=   18.
                        Lebedev-Laikov grids with approx.  5.0 points / Ang**2.
                        Smoothing algorithm: York/Karplus (Gamma=1.0000).
                        Polarization charges: spherical gaussians, with
                                              point-specific exponents (IZeta= 3).
                        Self-potential: point-specific (ISelfS= 7).
                        Self-field    : sphere-specific E.n sum rule (ISelfD= 2).
 1st derivatives      : Analytical E(r).r(x)/FMM algorithm (CHGder, D1EAlg=3).
                        Cavity 1st derivative terms included.
 Solvent              : Water, Eps=  78.355300 Eps(inf)=   1.777849
 ------------------------------------------------------------------------------
 Spheres list:
 ISph  on   Nord     Re0    Alpha      Xe            Ye            Ze
    1   O      1    1.5200  1.000      3.004424      1.164831      0.201867
    2   C      2    1.8500  1.000      2.427160     -0.000326     -0.318521
    3   O      3    1.5200  1.000      3.004184     -1.164662      0.203993
    4   C      4    1.8500  1.000      0.909191     -0.000127     -0.180907
    5   C      5    1.8500  1.000      0.204058      1.207619     -0.138941
    6   C      6    1.8500  1.000     -1.183094      1.215968     -0.050616
    7   C      7    1.8500  1.000     -1.878502      0.000068     -0.006814
    8   C      8    1.8500  1.000     -3.312551      0.000181      0.085067
    9   N      9    1.8900  1.000     -4.470536      0.000078      0.158207
   10   C     10    1.8500  1.000     -1.183312     -1.215942     -0.051441
   11   C     11    1.8500  1.000      0.203832     -1.207786     -0.139697
   12   H     12    1.2000  1.000      2.692285      1.283585      1.110269
   13   H     13    1.2000  1.000      2.685849     -0.001303     -1.388667
   14   H     14    1.2000  1.000      2.691571     -1.281974      1.112421
   15   H     15    1.2000  1.000      0.747079      2.153257     -0.171706
   16   H     16    1.2000  1.000     -1.729439      2.159849     -0.015450
   17   H     17    1.2000  1.000     -1.729835     -2.159745     -0.016942
   18   H     18    1.2000  1.000      0.746687     -2.153502     -0.173043
 ------------------------------------------------------------------------------
 GePol: Number of generator spheres                  =      18
 GePol: Total number of spheres                      =      18
 GePol: Number of exposed spheres                    =      18 (100.00%)
 GePol: Number of points                             =    1533
 GePol: Average weight of points                     =       0.12
 GePol: Minimum weight of points                     =   0.19D-10
 GePol: Maximum weight of points                     =    0.21991
 GePol: Number of points with low weight             =      74
 GePol: Fraction of low-weight points (<1% of avg)   =       4.83%
 GePol: Cavity surface area                          =    178.928 Ang**2
 GePol: Cavity volume                                =    152.669 Ang**3
 ------------------------------------------------------------------------------
 Atomic radii for non-electrostatic terms: SMD-CDS.
 ------------------------------------------------------------------------------
 PCM non-electrostatic energy =         0.0088295792 Hartrees.
 Nuclear repulsion after PCM non-electrostatic terms =      545.7861151750 Hartrees.
 Leave Link  301 at Tue Oct 21 15:01:49 2025, MaxMem=  4294967296 cpu:               0.6 elap:               0.1
 (Enter /lrz/sys/applications/gaussian/g16.C.01/x86_64_legacy/exe/l302.exe)
 NPDir=0 NMtPBC=     1 NCelOv=     1 NCel=       1 NClECP=     1 NCelD=      1
         NCelK=      1 NCelE2=     1 NClLst=     1 CellRange=     0.0.
 One-electron integrals computed using PRISM.
 One-electron integral symmetry used in STVInt
   1 Symmetry operations used in ECPInt.
 ECPInt:  NShTT=    3828 NPrTT=   14192 LenC2=    3693 LenP2D=   10495.
 LDataN:  DoStor=T MaxTD1= 4 Len=   56
 NBasis=   189 RedAO= T EigKep=  2.81D-04  NBF=   189
 NBsUse=   189 1.00D-06 EigRej= -1.00D+00 NBFU=   189
 Precomputing XC quadrature grid using
 IXCGrd= 4 IRadAn=           5 IRanWt=          -1 IRanGd=           0 AccXCQ= 0.00D+00.
 Generated NRdTot=       0 NPtTot=           0 NUsed=           0 NTot=          32
 NSgBfM=   199   199   199   199   199 MxSgAt=    18 MxSgA2=    18.
 Leave Link  302 at Tue Oct 21 15:01:49 2025, MaxMem=  4294967296 cpu:               1.8 elap:               0.2
 (Enter /lrz/sys/applications/gaussian/g16.C.01/x86_64_legacy/exe/l303.exe)
 DipDrv:  MaxL=1.
 Leave Link  303 at Tue Oct 21 15:01:49 2025, MaxMem=  4294967296 cpu:               0.3 elap:               0.0
 (Enter /lrz/sys/applications/gaussian/g16.C.01/x86_64_legacy/exe/l401.exe)
 Initial guess from the checkpoint file:  "g16_C12-w_3.chk"
 B after Tr=    -0.000000    0.000000   -0.000000
         Rot=    1.000000    0.000008    0.000181    0.000003 Ang=   0.02 deg.
 Guess basis will be translated and rotated to current coordinates.
 JPrj=2 DoOrth=T DoCkMO=T.
 Generating alternative initial guess.
 ExpMin= 1.22D-01 ExpMax= 2.27D+03 ExpMxC= 3.41D+02 IAcc=3 IRadAn=         5 AccDes= 0.00D+00
 Harris functional with IExCor= 4639 and IRadAn=       5 diagonalized for initial guess.
 HarFok:  IExCor= 4639 AccDes= 0.00D+00 IRadAn=         5 IDoV= 1 UseB2=F ITyADJ=14
 ICtDFT=  3500011 ScaDFX=  1.000000  1.000000  1.000000  1.000000
 FoFCou: FMM=F IPFlag=           0 FMFlag=      100000 FMFlg1=           0
         NFxFlg=           0 DoJE=T BraDBF=F KetDBF=T FulRan=T
         wScrn=  0.000000 ICntrl=       500 IOpCl=  0 I1Cent=   200000004 NGrid=           0
         NMat0=    1 NMatS0=      1 NMatT0=    0 NMatD0=    1 NMtDS0=    0 NMtDT0=    0
 Petite list used in FoFCou.
 Harris En= -492.368111661493    
 Leave Link  401 at Tue Oct 21 15:01:50 2025, MaxMem=  4294967296 cpu:              10.9 elap:               1.4
 (Enter /lrz/sys/applications/gaussian/g16.C.01/x86_64_legacy/exe/l502.exe)
 Integral symmetry usage will be decided dynamically.
 Closed shell SCF:
 Using DIIS extrapolation, IDIIS=  1040.
 NGot=  4294967296 LenX=  4294883082 LenY=  4294842641
 Requested convergence on RMS density matrix=1.00D-08 within 128 cycles.
 Requested convergence on MAX density matrix=1.00D-06.
 Requested convergence on             energy=1.00D-06.
 No special actions if energy rises.
 Fock matrices will be formed incrementally for  20 cycles.

 Cycle   1  Pass 1  IDiag  1:
 FoFJK:  IHMeth= 1 ICntrl=       0 DoSepK=T KAlg= 0 I1Cent=           0 FoldK=F
 IRaf=         1 NMat=       1 IRICut=       1 DoRegI=T DoRafI=F ISym2E= 0 IDoP0=0 IntGTp=1.
 FoFCou: FMM=F IPFlag=           0 FMFlag=      100000 FMFlg1=           0
         NFxFlg=           0 DoJE=T BraDBF=F KetDBF=F FulRan=T
         wScrn=  0.000000 ICntrl=       500 IOpCl=  0 I1Cent=           0 NGrid=           0
         NMat0=    1 NMatS0=      1 NMatT0=    0 NMatD0=    1 NMtDS0=    0 NMtDT0=    0
 Symmetry not used in FoFCou.
 Inv3:  Mode=1 IEnd=     7050267.
 Iteration    1 A*A^-1 deviation from unit magnitude is 6.66D-15 for    294.
 Iteration    1 A*A^-1 deviation from orthogonality  is 4.74D-15 for    795    354.
 Iteration    1 A^-1*A deviation from unit magnitude is 6.44D-15 for    294.
 Iteration    1 A^-1*A deviation from orthogonality  is 5.75D-15 for   1279     97.
 E= -513.714523470966    
 DIIS: error= 2.39D-03 at cycle   1 NSaved=   1.
 NSaved= 1 IEnMin= 1 EnMin= -513.714523470966     IErMin= 1 ErrMin= 2.39D-03
 ErrMax= 2.39D-03  0.00D+00 EMaxC= 1.00D-01 BMatC= 7.02D-04 BMatP= 7.02D-04
 IDIUse=3 WtCom= 9.76D-01 WtEn= 2.39D-02
 Coeff-Com:  0.100D+01
 Coeff-En:   0.100D+01
 Coeff:      0.100D+01
 Gap=     0.799 Goal=   None    Shift=    0.000
 GapD=    0.799 DampG=2.000 DampE=1.000 DampFc=2.0000 IDamp=-1.
 RMSDP=2.42D-04 MaxDP=9.85D-03              OVMax= 8.17D-03

 Cycle   2  Pass 1  IDiag  1:
 RMSU=  2.42D-04    CP:  1.00D+00
 E= -513.715390577190     Delta-E=       -0.000867106224 Rises=F Damp=F
 DIIS: error= 3.63D-04 at cycle   2 NSaved=   2.
 NSaved= 2 IEnMin= 2 EnMin= -513.715390577190     IErMin= 2 ErrMin= 3.63D-04
 ErrMax= 3.63D-04  0.00D+00 EMaxC= 1.00D-01 BMatC= 2.06D-05 BMatP= 7.02D-04
 IDIUse=3 WtCom= 9.96D-01 WtEn= 3.63D-03
 Coeff-Com: -0.148D+00 0.115D+01
 Coeff-En:   0.000D+00 0.100D+01
 Coeff:     -0.147D+00 0.115D+01
 Gap=     0.350 Goal=   None    Shift=    0.000
 RMSDP=5.76D-05 MaxDP=2.00D-03 DE=-8.67D-04 OVMax= 2.74D-03

 Cycle   3  Pass 1  IDiag  1:
 RMSU=  3.88D-05    CP:  1.00D+00  1.18D+00
 E= -513.715427627857     Delta-E=       -0.000037050666 Rises=F Damp=F
 DIIS: error= 1.04D-04 at cycle   3 NSaved=   3.
 NSaved= 3 IEnMin= 3 EnMin= -513.715427627857     IErMin= 3 ErrMin= 1.04D-04
 ErrMax= 1.04D-04  0.00D+00 EMaxC= 1.00D-01 BMatC= 2.28D-06 BMatP= 2.06D-05
 IDIUse=3 WtCom= 9.99D-01 WtEn= 1.04D-03
 Coeff-Com: -0.442D-01 0.278D+00 0.766D+00
 Coeff-En:   0.000D+00 0.000D+00 0.100D+01
 Coeff:     -0.442D-01 0.278D+00 0.767D+00
 Gap=     0.350 Goal=   None    Shift=    0.000
 RMSDP=1.20D-05 MaxDP=3.59D-04 DE=-3.71D-05 OVMax= 5.31D-04

 Cycle   4  Pass 1  IDiag  1:
 RMSU=  1.06D-05    CP:  1.00D+00  1.19D+00  1.09D+00
 E= -513.715429530574     Delta-E=       -0.000001902717 Rises=F Damp=F
 DIIS: error= 5.74D-05 at cycle   4 NSaved=   4.
 NSaved= 4 IEnMin= 4 EnMin= -513.715429530574     IErMin= 4 ErrMin= 5.74D-05
 ErrMax= 5.74D-05  0.00D+00 EMaxC= 1.00D-01 BMatC= 7.42D-07 BMatP= 2.28D-06
 IDIUse=1 WtCom= 1.00D+00 WtEn= 0.00D+00
 Coeff-Com:  0.938D-02-0.990D-01 0.340D+00 0.750D+00
 Coeff:      0.938D-02-0.990D-01 0.340D+00 0.750D+00
 Gap=     0.350 Goal=   None    Shift=    0.000
 RMSDP=6.43D-06 MaxDP=1.32D-04 DE=-1.90D-06 OVMax= 2.65D-04

 Cycle   5  Pass 1  IDiag  1:
 RMSU=  3.26D-06    CP:  1.00D+00  1.20D+00  1.22D+00  8.68D-01
 E= -513.715430250110     Delta-E=       -0.000000719536 Rises=F Damp=F
 DIIS: error= 9.79D-06 at cycle   5 NSaved=   5.
 NSaved= 5 IEnMin= 5 EnMin= -513.715430250110     IErMin= 5 ErrMin= 9.79D-06
 ErrMax= 9.79D-06  0.00D+00 EMaxC= 1.00D-01 BMatC= 2.22D-08 BMatP= 7.42D-07
 IDIUse=1 WtCom= 1.00D+00 WtEn= 0.00D+00
 Coeff-Com:  0.478D-02-0.427D-01 0.431D-01 0.181D+00 0.814D+00
 Coeff:      0.478D-02-0.427D-01 0.431D-01 0.181D+00 0.814D+00
 Gap=     0.350 Goal=   None    Shift=    0.000
 RMSDP=1.71D-06 MaxDP=4.54D-05 DE=-7.20D-07 OVMax= 7.52D-05

 Cycle   6  Pass 1  IDiag  1:
 RMSU=  1.04D-06    CP:  1.00D+00  1.20D+00  1.25D+00  9.28D-01  1.14D+00
 E= -513.715430276962     Delta-E=       -0.000000026853 Rises=F Damp=F
 DIIS: error= 9.32D-06 at cycle   6 NSaved=   6.
 NSaved= 6 IEnMin= 6 EnMin= -513.715430276962     IErMin= 6 ErrMin= 9.32D-06
 ErrMax= 9.32D-06  0.00D+00 EMaxC= 1.00D-01 BMatC= 1.11D-08 BMatP= 2.22D-08
 IDIUse=1 WtCom= 1.00D+00 WtEn= 0.00D+00
 Coeff-Com:  0.148D-02-0.111D-01-0.233D-01-0.396D-02 0.456D+00 0.581D+00
 Coeff:      0.148D-02-0.111D-01-0.233D-01-0.396D-02 0.456D+00 0.581D+00
 Gap=     0.350 Goal=   None    Shift=    0.000
 RMSDP=6.69D-07 MaxDP=2.31D-05 DE=-2.69D-08 OVMax= 2.72D-05

 Cycle   7  Pass 1  IDiag  1:
 RMSU=  3.46D-07    CP:  1.00D+00  1.20D+00  1.26D+00  9.44D-01  1.27D+00
                    CP:  8.13D-01
 E= -513.715430288447     Delta-E=       -0.000000011484 Rises=F Damp=F
 DIIS: error= 1.43D-06 at cycle   7 NSaved=   7.
 NSaved= 7 IEnMin= 7 EnMin= -513.715430288447     IErMin= 7 ErrMin= 1.43D-06
 ErrMax= 1.43D-06  0.00D+00 EMaxC= 1.00D-01 BMatC= 4.56D-10 BMatP= 1.11D-08
 IDIUse=1 WtCom= 1.00D+00 WtEn= 0.00D+00
 Coeff-Com: -0.384D-03 0.428D-02-0.101D-01-0.288D-01-0.446D-01 0.126D+00
 Coeff-Com:  0.953D+00
 Coeff:     -0.384D-03 0.428D-02-0.101D-01-0.288D-01-0.446D-01 0.126D+00
 Coeff:      0.953D+00
 Gap=     0.350 Goal=   None    Shift=    0.000
 RMSDP=2.87D-07 MaxDP=9.99D-06 DE=-1.15D-08 OVMax= 1.35D-05

 Cycle   8  Pass 1  IDiag  1:
 RMSU=  1.16D-07    CP:  1.00D+00  1.20D+00  1.26D+00  9.50D-01  1.33D+00
                    CP:  9.25D-01  1.11D+00
 E= -513.715430289183     Delta-E=       -0.000000000736 Rises=F Damp=F
 DIIS: error= 3.74D-07 at cycle   8 NSaved=   8.
 NSaved= 8 IEnMin= 8 EnMin= -513.715430289183     IErMin= 8 ErrMin= 3.74D-07
 ErrMax= 3.74D-07  0.00D+00 EMaxC= 1.00D-01 BMatC= 5.59D-11 BMatP= 4.56D-10
 IDIUse=1 WtCom= 1.00D+00 WtEn= 0.00D+00
 Coeff-Com: -0.226D-03 0.226D-02-0.208D-02-0.103D-01-0.463D-01 0.144D-01
 Coeff-Com:  0.376D+00 0.666D+00
 Coeff:     -0.226D-03 0.226D-02-0.208D-02-0.103D-01-0.463D-01 0.144D-01
 Coeff:      0.376D+00 0.666D+00
 Gap=     0.350 Goal=   None    Shift=    0.000
 RMSDP=5.72D-08 MaxDP=1.36D-06 DE=-7.36D-10 OVMax= 3.14D-06

 Cycle   9  Pass 1  IDiag  1:
 RMSU=  3.51D-08    CP:  1.00D+00  1.20D+00  1.26D+00  9.51D-01  1.34D+00
                    CP:  9.50D-01  1.18D+00  8.30D-01
 E= -513.715430289257     Delta-E=       -0.000000000073 Rises=F Damp=F
 DIIS: error= 1.23D-07 at cycle   9 NSaved=   9.
 NSaved= 9 IEnMin= 9 EnMin= -513.715430289257     IErMin= 9 ErrMin= 1.23D-07
 ErrMax= 1.23D-07  0.00D+00 EMaxC= 1.00D-01 BMatC= 2.36D-12 BMatP= 5.59D-11
 IDIUse=1 WtCom= 1.00D+00 WtEn= 0.00D+00
 Coeff-Com:  0.105D-04-0.157D-03 0.833D-03 0.144D-02-0.245D-02-0.115D-01
 Coeff-Com: -0.463D-01 0.908D-01 0.967D+00
 Coeff:      0.105D-04-0.157D-03 0.833D-03 0.144D-02-0.245D-02-0.115D-01
 Coeff:     -0.463D-01 0.908D-01 0.967D+00
 Gap=     0.350 Goal=   None    Shift=    0.000
 RMSDP=2.20D-08 MaxDP=4.75D-07 DE=-7.34D-11 OVMax= 9.38D-07

 Cycle  10  Pass 1  IDiag  1:
 RMSU=  1.08D-08    CP:  1.00D+00  1.20D+00  1.26D+00  9.51D-01  1.34D+00
                    CP:  9.55D-01  1.21D+00  9.30D-01  1.17D+00
 E= -513.715430289263     Delta-E=       -0.000000000007 Rises=F Damp=F
 DIIS: error= 4.92D-08 at cycle  10 NSaved=  10.
 NSaved=10 IEnMin=10 EnMin= -513.715430289263     IErMin=10 ErrMin= 4.92D-08
 ErrMax= 4.92D-08  0.00D+00 EMaxC= 1.00D-01 BMatC= 3.49D-13 BMatP= 2.36D-12
 IDIUse=1 WtCom= 1.00D+00 WtEn= 0.00D+00
 Coeff-Com:  0.198D-04-0.218D-03 0.454D-03 0.122D-02 0.235D-02-0.503D-02
 Coeff-Com: -0.426D-01-0.130D-01 0.333D+00 0.724D+00
 Coeff:      0.198D-04-0.218D-03 0.454D-03 0.122D-02 0.235D-02-0.503D-02
 Coeff:     -0.426D-01-0.130D-01 0.333D+00 0.724D+00
 Gap=     0.350 Goal=   None    Shift=    0.000
 RMSDP=5.70D-09 MaxDP=1.90D-07 DE=-6.59D-12 OVMax= 5.08D-07

 Error on total polarization charges =  0.03105
 SCF Done:  E(RwB97XD) =  -513.715430289     A.U. after   10 cycles
            NFock= 10  Conv=0.57D-08     -V/T= 2.0097
 KE= 5.087693521924D+02 PE=-2.287552213198D+03 EE= 7.192813155414D+02
 SMD-CDS (non-electrostatic) energy       (kcal/mol) =       5.54
 (included in total energy above)
 Leave Link  502 at Tue Oct 21 15:02:25 2025, MaxMem=  4294967296 cpu:             279.1 elap:              35.1
 (Enter /lrz/sys/applications/gaussian/g16.C.01/x86_64_legacy/exe/l701.exe)
 ... and contract with generalized density number  0.
 Compute integral first derivatives.
 R6Disp: Adding Grimme-D2 dispersion energy 1st derivatives to the gradient.
   1 Symmetry operations used in ECPInt.
 ECPInt:  NShTT=    3828 NPrTT=   14192 LenC2=    3693 LenP2D=   10495.
 LDataN:  DoStor=T MaxTD1= 5 Len=  102
 D1PCM: PCM CHGder 1st derivatives, ID1Alg=3 FixD1E=F DoIter=F DoCFld=F I1PDM=0.
 GePol: Maximum number of non-zero 1st derivatives   =     259
 Leave Link  701 at Tue Oct 21 15:02:26 2025, MaxMem=  4294967296 cpu:               8.7 elap:               1.1
 (Enter /lrz/sys/applications/gaussian/g16.C.01/x86_64_legacy/exe/l702.exe)
 L702 exits ... SP integral derivatives will be done elsewhere.
 Leave Link  702 at Tue Oct 21 15:02:26 2025, MaxMem=  4294967296 cpu:               0.2 elap:               0.0
 (Enter /lrz/sys/applications/gaussian/g16.C.01/x86_64_legacy/exe/l703.exe)
 Integral derivatives from FoFJK, PRISM(SPDF).
 Compute integral first derivatives, UseDBF=F ICtDFT=           0.
 Calling FoFJK, ICntrl=      2127 FMM=F ISym2X=0 I1Cent= 0 IOpClX= 0 NMat=1 NMatS=1 NMatT=0.
 FoFJK:  IHMeth= 1 ICntrl=    2127 DoSepK=T KAlg= 0 I1Cent=           0 FoldK=F
 IRaf=         1 NMat=       1 IRICut=       1 DoRegI=T DoRafI=F ISym2E= 0 IDoP0=0 IntGTp=1.
 FoFCou: FMM=F IPFlag=           0 FMFlag=      100000 FMFlg1=         800
         NFxFlg=           0 DoJE=F BraDBF=F KetDBF=F FulRan=T
         wScrn=  0.000000 ICntrl=      2527 IOpCl=  0 I1Cent=           0 NGrid=           0
         NMat0=    1 NMatS0=      1 NMatT0=    0 NMatD0=    1 NMtDS0=    0 NMtDT0=    0
 Symmetry not used in FoFCou.
 Leave Link  703 at Tue Oct 21 15:02:34 2025, MaxMem=  4294967296 cpu:              61.5 elap:               7.7
 (Enter /lrz/sys/applications/gaussian/g16.C.01/x86_64_legacy/exe/l716.exe)
 Dipole        = 1.32751933D+00 6.64091942D-04 7.70749832D-01
 ***** Axes restored to original set *****
 -------------------------------------------------------------------
 Center     Atomic                   Forces (Hartrees/Bohr)
 Number     Number              X              Y              Z
 -------------------------------------------------------------------
      1        8           0.000019712    0.000222818    0.000357157
      2        6           0.000016942   -0.000003259   -0.000162549
      3        8           0.000023925   -0.000217159    0.000359250
      4        6           0.000100398   -0.000002021   -0.000086445
      5        6          -0.000006663   -0.000290483    0.000049391
      6        6          -0.000338430   -0.000012550    0.000006902
      7        6           0.001169985   -0.000007764    0.000058589
      8        6           0.000378381    0.000014797   -0.000039072
      9        7          -0.000976540   -0.000007066   -0.000018869
     10        6          -0.000335730    0.000014334    0.000007788
     11        6          -0.000004292    0.000290708    0.000043978
     12        1          -0.000097958   -0.000233280   -0.000140787
     13        1           0.000092592    0.000000413   -0.000187229
     14        1          -0.000099160    0.000230562   -0.000141647
     15        1           0.000011830    0.000104178   -0.000068253
     16        1           0.000016643    0.000070033    0.000012419
     17        1           0.000017034   -0.000069868    0.000014040
     18        1           0.000011328   -0.000104392   -0.000064664
 -------------------------------------------------------------------
 Cartesian Forces:  Max     0.001169985 RMS     0.000255427
 Leave Link  716 at Tue Oct 21 15:02:34 2025, MaxMem=  4294967296 cpu:               0.2 elap:               0.0
 (Enter /lrz/sys/applications/gaussian/g16.C.01/x86_64_legacy/exe/l103.exe)

 GradGradGradGradGradGradGradGradGradGradGradGradGradGradGradGradGradGrad
 Berny optimization.
 Using GEDIIS/GDIIS optimizer.
 FormGI is forming the generalized inverse of G from B-inverse, IUseBI=4.
 Internal  Forces:  Max     0.000976099 RMS     0.000161654
 Search for a local minimum.
 Step number   4 out of a maximum of   92
 All quantities printed in internal units (Hartrees-Bohrs-Radians)
 RMS Force = .16165D-03 SwitMx=.10000D-02 MixMth= 2
 Mixed Optimization -- En-DIIS/RFO-DIIS
 Swapping is turned off.
 Update second derivatives using D2CorX and points    1    2    3    4
 DE= -1.01D-04 DEPred=-9.37D-05 R= 1.08D+00
 TightC=F SS=  1.41D+00  RLast= 1.56D-01 DXNew= 8.4853D-01 4.6838D-01
 Trust test= 1.08D+00 RLast= 1.56D-01 DXMaxT set to 5.05D-01
 ITU=  1  1  1  0
     Eigenvalues ---    0.00450   0.00642   0.01510   0.01723   0.02146
     Eigenvalues ---    0.02182   0.02228   0.02240   0.02264   0.02269
     Eigenvalues ---    0.02294   0.02316   0.05032   0.05051   0.06195
     Eigenvalues ---    0.07111   0.09838   0.16000   0.16000   0.16000
     Eigenvalues ---    0.16002   0.16010   0.16597   0.20569   0.21299
     Eigenvalues ---    0.22000   0.23459   0.24073   0.24983   0.25000
     Eigenvalues ---    0.30181   0.33849   0.35969   0.35997   0.36003
     Eigenvalues ---    0.36377   0.43105   0.43375   0.44163   0.46011
     Eigenvalues ---    0.46459   0.46708   0.47841   0.48032   0.51758
     Eigenvalues ---    0.53875   0.54940   1.38705
 En-DIIS/RFO-DIIS/Sim-DIIS IScMMF=       -3 using points:     4    3    2
 RFO step:  Lambda=-9.01277083D-06.
 NNeg= 0 NGDIIS= 3 SimSw=  2.50D-01 Rises=F DC= -1.01D-04 SmlDif=  1.00D-05
 NRisDI= 0 DoIntr=F SqrtH=F CThrHd= 10.0 CDAdj=  3.0
 RMS Error=  0.2676280909D-02 NUsed= 3 OKEnD=T EnDIS=F
 InvSVX:  RCond= 1.56D-05 Info=           0 Equed=N FErr=  1.06D-13 BErr=  9.85D-17
 DidBck=F Rises=F RFO-DIIS coefs:    1.07703    0.00360   -0.08063
 Iteration  1 RMS(Cart)=  0.00239946 RMS(Int)=  0.00001163
 Iteration  2 RMS(Cart)=  0.00001048 RMS(Int)=  0.00000016
 Iteration  3 RMS(Cart)=  0.00000000 RMS(Int)=  0.00000016
 ITry= 1 IFail=0 DXMaxC= 1.19D-02 DCOld= 1.00D+10 DXMaxT= 5.05D-01 DXLimC= 3.00D+00 Rises=F
 Variable       Old X    -DE/DX   Delta X   Delta X   Delta X     New X
                                 (Linear)    (Quad)   (Total)
    R1        2.64672   0.00012   0.00018   0.00013   0.00031   2.64703
    R2        1.82897  -0.00013   0.00008  -0.00033  -0.00024   1.82872
    R3        2.64673   0.00012   0.00018   0.00013   0.00031   2.64705
    R4        2.88031   0.00003  -0.00017   0.00011  -0.00006   2.88025
    R5        2.08053   0.00016  -0.00009   0.00053   0.00044   2.08097
    R6        1.82897  -0.00013   0.00008  -0.00033  -0.00024   1.82872
    R7        2.64401   0.00005  -0.00010   0.00021   0.00011   2.64413
    R8        2.64404   0.00005  -0.00010   0.00022   0.00012   2.64416
    R9        2.62669  -0.00003  -0.00011   0.00009  -0.00002   2.62667
   R10        2.06160  -0.00009  -0.00003  -0.00019  -0.00021   2.06139
   R11        2.64826   0.00019  -0.00038   0.00072   0.00034   2.64861
   R12        2.06200  -0.00005  -0.00010  -0.00005  -0.00015   2.06186
   R13        2.71552  -0.00060   0.00028  -0.00142  -0.00114   2.71437
   R14        2.64829   0.00019  -0.00038   0.00072   0.00034   2.64863
   R15        2.19263  -0.00098   0.00010  -0.00075  -0.00065   2.19198
   R16        2.62667  -0.00003  -0.00011   0.00009  -0.00002   2.62665
   R17        2.06200  -0.00005  -0.00010  -0.00005  -0.00014   2.06186
   R18        2.06161  -0.00009  -0.00003  -0.00018  -0.00021   2.06139
    A1        1.89429   0.00043   0.00024   0.00244   0.00268   1.89697
    A2        1.96401  -0.00015  -0.00047  -0.00039  -0.00086   1.96316
    A3        1.95716   0.00009   0.00020   0.00031   0.00051   1.95767
    A4        1.83905   0.00004   0.00011   0.00024   0.00034   1.83939
    A5        1.95706   0.00009   0.00020   0.00027   0.00047   1.95753
    A6        1.83909   0.00004   0.00011   0.00023   0.00034   1.83942
    A7        1.89839  -0.00011  -0.00015  -0.00070  -0.00084   1.89755
    A8        1.89426   0.00043   0.00023   0.00244   0.00267   1.89694
    A9        2.09987  -0.00003   0.00009  -0.00017  -0.00008   2.09979
   A10        2.09973  -0.00004   0.00009  -0.00020  -0.00011   2.09962
   A11        2.08300   0.00008  -0.00018   0.00040   0.00021   2.08321
   A12        2.10602  -0.00007   0.00015  -0.00042  -0.00027   2.10575
   A13        2.09032  -0.00001   0.00028  -0.00025   0.00003   2.09035
   A14        2.08683   0.00008  -0.00043   0.00067   0.00024   2.08708
   A15        2.08517   0.00014  -0.00025   0.00078   0.00053   2.08569
   A16        2.10241  -0.00002  -0.00008   0.00003  -0.00005   2.10236
   A17        2.09561  -0.00012   0.00033  -0.00081  -0.00048   2.09514
   A18        2.09109   0.00011  -0.00020   0.00057   0.00038   2.09147
   A19        2.10098  -0.00022   0.00039  -0.00112  -0.00073   2.10025
   A20        2.09111   0.00011  -0.00020   0.00054   0.00035   2.09146
   A21        2.08516   0.00013  -0.00025   0.00077   0.00052   2.08568
   A22        2.09561  -0.00012   0.00033  -0.00080  -0.00047   2.09514
   A23        2.10241  -0.00002  -0.00008   0.00003  -0.00005   2.10236
   A24        2.10602  -0.00006   0.00014  -0.00041  -0.00026   2.10576
   A25        2.09032  -0.00002   0.00028  -0.00026   0.00002   2.09035
   A26        2.08683   0.00008  -0.00043   0.00067   0.00024   2.08707
   A27        3.14176  -0.00001   0.00000  -0.00029  -0.00029   3.14147
   A28        3.14047   0.00006   0.00004   0.00106   0.00110   3.14157
    D1       -1.29666  -0.00008  -0.00901  -0.00008  -0.00908  -1.30575
    D2        0.92902  -0.00001  -0.00896   0.00023  -0.00873   0.92029
    D3        2.99146  -0.00007  -0.00897  -0.00030  -0.00926   2.98220
    D4        1.29728   0.00008   0.00899   0.00003   0.00902   1.30630
    D5       -0.92846   0.00001   0.00895  -0.00030   0.00865  -0.91981
    D6       -2.99087   0.00007   0.00895   0.00025   0.00921  -2.98167
    D7        0.47332   0.00003   0.00022  -0.00040  -0.00017   0.47315
    D8       -2.70512   0.00004   0.00006   0.00033   0.00040  -2.70473
    D9        2.70271  -0.00004  -0.00009  -0.00044  -0.00053   2.70218
   D10       -0.47573  -0.00002  -0.00024   0.00029   0.00004  -0.47569
   D11       -1.55358  -0.00001   0.00007  -0.00044  -0.00036  -1.55395
   D12        1.55116   0.00001  -0.00009   0.00029   0.00021   1.55136
   D13        3.11054   0.00002  -0.00008   0.00112   0.00104   3.11158
   D14       -0.03540   0.00004  -0.00023   0.00209   0.00186  -0.03354
   D15        0.00544   0.00001   0.00008   0.00041   0.00048   0.00593
   D16       -3.14049   0.00003  -0.00007   0.00138   0.00130  -3.13919
   D17       -3.11049  -0.00002   0.00008  -0.00112  -0.00104  -3.11153
   D18        0.03541  -0.00004   0.00022  -0.00206  -0.00183   0.03357
   D19       -0.00539  -0.00001  -0.00008  -0.00041  -0.00048  -0.00587
   D20        3.14050  -0.00003   0.00007  -0.00135  -0.00128   3.13923
   D21       -0.00282  -0.00001  -0.00011  -0.00028  -0.00039  -0.00321
   D22        3.13876  -0.00000   0.00003  -0.00008  -0.00004   3.13872
   D23       -3.14008  -0.00003   0.00004  -0.00125  -0.00121  -3.14128
   D24        0.00150  -0.00002   0.00018  -0.00105  -0.00086   0.00064
   D25        3.14113   0.00000   0.00026   0.00001   0.00027   3.14141
   D26        0.00009   0.00001   0.00014   0.00015   0.00029   0.00038
   D27       -0.00045  -0.00000   0.00012  -0.00019  -0.00007  -0.00052
   D28       -3.14149  -0.00000  -0.00000  -0.00005  -0.00005  -3.14154
   D29       -0.00004  -0.00001  -0.00013  -0.00015  -0.00029  -0.00033
   D30        3.14152   0.00000   0.00001   0.00005   0.00005   3.14157
   D31       -3.14108  -0.00000  -0.00026  -0.00001  -0.00027  -3.14135
   D32        0.00048   0.00000  -0.00012   0.00019   0.00007   0.00054
   D33        0.00272   0.00001   0.00011   0.00028   0.00038   0.00310
   D34        3.14002   0.00003  -0.00004   0.00122   0.00118   3.14119
   D35       -3.13884   0.00000  -0.00004   0.00008   0.00005  -3.13880
   D36       -0.00154   0.00002  -0.00018   0.00102   0.00084  -0.00071
         Item               Value     Threshold  Converged?
 Maximum Force            0.000976     0.000450     NO 
 RMS     Force            0.000162     0.000300     YES
 Maximum Displacement     0.011933     0.001800     NO 
 RMS     Displacement     0.002400     0.001200     NO 
 Predicted change in Energy=-4.492082D-06
 Lowest energy point so far.  Saving SCF results.
 GradGradGradGradGradGradGradGradGradGradGradGradGradGradGradGradGradGrad

 Leave Link  103 at Tue Oct 21 15:02:34 2025, MaxMem=  4294967296 cpu:               0.3 elap:               0.1
 (Enter /lrz/sys/applications/gaussian/g16.C.01/x86_64_legacy/exe/l202.exe)
                          Input orientation:                          
 ---------------------------------------------------------------------
 Center     Atomic      Atomic             Coordinates (Angstroms)
 Number     Number       Type             X           Y           Z
 ---------------------------------------------------------------------
      1          8           0       -3.057492   -1.163234    0.227984
      2          6           0       -2.482113   -0.000914   -0.301206
      3          8           0       -3.056977    1.165851    0.218710
      4          6           0       -0.963476   -0.000620   -0.171524
      5          6           0       -0.258354   -1.208347   -0.126911
      6          6           0        1.129158   -1.216177   -0.044551
      7          6           0        1.825394   -0.000246   -0.009937
      8          6           0        3.259243   -0.000037    0.075360
      9          7           0        4.417144   -0.000009    0.144218
     10          6           0        1.129582    1.215506   -0.057450
     11          6           0       -0.257922    1.207278   -0.139661
     12          1           0       -2.736161   -1.284045    1.132765
     13          1           0       -2.745543   -0.005134   -1.370426
     14          1           0       -2.735187    1.293969    1.122324
     15          1           0       -0.801553   -2.153944   -0.153640
     16          1           0        1.675649   -2.159803   -0.007247
     17          1           0        1.676407    2.159282   -0.030183
     18          1           0       -0.800800    2.152729   -0.176335
 ---------------------------------------------------------------------
                    Distance matrix (angstroms):
                    1          2          3          4          5
     1  O    0.000000
     2  C    1.400747   0.000000
     3  O    2.329104   1.400757   0.000000
     4  C    2.428206   1.524165   2.428103   0.000000
     5  C    2.821907   2.536411   3.686267   1.399211   0.000000
     6  C    4.195845   3.818902   4.823597   2.423389   1.389976
     7  C    5.025110   4.317344   5.024899   2.793547   2.411472
     8  C    6.424754   5.753693   6.424522   4.229930   3.724838
     9  N    7.565071   6.913621   7.564871   5.389876   4.836722
    10  C    4.824051   3.818827   4.195951   2.423400   2.793968
    11  C    3.686745   2.536307   2.822208   1.399229   2.415660
    12  H    0.967718   1.940938   2.634466   2.547698   2.780655
    13  H    1.998356   1.101202   1.998387   2.147824   3.029878
    14  H    2.634686   1.940929   0.967720   2.547345   3.735890
    15  H    2.493272   2.735251   4.030709   2.159477   1.090840
    16  H    4.842634   4.694060   5.788677   3.413801   2.158693
    17  H    5.789263   4.693952   4.842910   3.413815   3.885046
    18  H    4.031345   2.735066   2.494058   2.159491   3.404926
                    6          7          8          9         10
     6  C    0.000000
     7  C    1.401582   0.000000
     8  C    2.455736   1.436384   0.000000
     9  N    3.510777   2.596331   1.159947   0.000000
    10  C    2.431718   1.401594   2.455736   3.510870   0.000000
    11  C    2.793953   2.411462   3.724821   4.836773   1.389962
    12  H    4.041209   4.874597   6.221869   7.334559   4.754823
    13  H    4.270583   4.769111   6.176389   7.321083   4.269715
    14  H    4.753482   4.874003   6.221236   7.333956   4.041592
    15  H    2.149174   3.399988   4.602371   5.653579   3.884807
    16  H    1.091088   2.164744   2.679400   3.493344   3.419564
    17  H    3.419563   2.164756   2.679397   3.493507   1.091088
    18  H    3.884795   3.399983   4.602358   5.653669   2.149161
                   11         12         13         14         15
    11  C    0.000000
    12  H    3.737303   0.000000
    13  H    3.028694   2.810991   0.000000
    14  H    2.781540   2.578035   2.810975   0.000000
    15  H    3.404929   2.480780   3.142778   4.153929   0.000000
    16  H    3.885031   4.640113   5.103704   5.714888   2.481531
    17  H    2.158686   5.716617   5.102410   4.641035   4.975886
    18  H    1.090843   4.155813   3.140740   2.483111   4.306732
                   16         17         18
    16  H    0.000000
    17  H    4.319146   0.000000
    18  H    4.975874   2.481523   0.000000
 Stoichiometry    C8H7NO2
 Framework group  C1[X(C8H7NO2)]
 Deg. of freedom    48
 Full point group                 C1      NOp   1
 RotChk:  IX=2 Diff= 3.29D-05
 Largest Abelian subgroup         C1      NOp   1
 Largest concise Abelian subgroup C1      NOp   1
                         Standard orientation:                         
 ---------------------------------------------------------------------
 Center     Atomic      Atomic             Coordinates (Angstroms)
 Number     Number       Type             X           Y           Z
 ---------------------------------------------------------------------
      1          8           0        3.004825    1.164673    0.202648
      2          6           0        2.427159   -0.000313   -0.318122
      3          8           0        3.004568   -1.164429    0.204901
      4          6           0        0.909137   -0.000127   -0.181431
      5          6           0        0.204072    1.207731   -0.139539
      6          6           0       -1.183045    1.215821   -0.050813
      7          6           0       -1.878957    0.000002   -0.006969
      8          6           0       -3.312397    0.000062    0.084948
      9          7           0       -4.469968    0.000251    0.159150
     10          6           0       -1.183215   -1.215897   -0.051677
     11          6           0        0.203894   -1.207928   -0.140334
     12          1           0        2.687658    1.289926    1.108294
     13          1           0        2.685650   -0.001357   -1.388555
     14          1           0        2.686970   -1.288108    1.110614
     15          1           0        0.747020    2.153242   -0.173454
     16          1           0       -1.729481    2.159562   -0.015656
     17          1           0       -1.729786   -2.159584   -0.017216
     18          1           0        0.746719   -2.153491   -0.174835
 ---------------------------------------------------------------------
 Rotational constants (GHZ):           3.5007135           0.5646922           0.4942373
 Leave Link  202 at Tue Oct 21 15:02:34 2025, MaxMem=  4294967296 cpu:               0.0 elap:               0.0
 (Enter /lrz/sys/applications/gaussian/g16.C.01/x86_64_legacy/exe/l301.exe)
 Standard basis: def2SVP (5D, 7F)
 Ernie: Thresh=  0.10000D-02 Tol=  0.10000D-05 Strict=F.
 There are   200 symmetry adapted cartesian basis functions of A   symmetry.
 There are   189 symmetry adapted basis functions of A   symmetry.
   189 basis functions,   324 primitive gaussians,   200 cartesian basis functions
    39 alpha electrons       39 beta electrons
       nuclear repulsion energy       545.7828467532 Hartrees.
 IExCor= 4639 DFT=T Ex+Corr=wB97XD ExCW=0 ScaHFX=  1.000000
 ScaDFX=  1.000000  1.000000  1.000000  1.000000 ScalE2=  1.000000  1.000000
 IRadAn=      5 IRanWt=     -1 IRanGd=            0 ICorTp=0 IEmpDi=121
 HFx  wShort=  0.000000 wLong=  0.200000 cFull=  0.222036 cShort=  0.000000 cLong=  0.777964
 DFx  wShort=  0.000000 wLong=  0.200000 cFull=  0.000000 cShort=  0.000000 cLong=  1.000000
 NAtoms=   18 NActive=   18 NUniq=   18 SFac= 1.00D+00 NAtFMM=   60 NAOKFM=F Big=F
 Integral buffers will be    131072 words long.
 Raffenetti 2 integral format.
 Two-electron integral symmetry is turned on.
 R6Disp:  Grimme-D2 Dispersion energy=       -0.0094885424 Hartrees.
 Nuclear repulsion after empirical dispersion term =      545.7733582108 Hartrees.
 ------------------------------------------------------------------------------
 Polarizable Continuum Model (PCM)
 =================================
 Model                : PCM.
 Atomic radii         : SMD-Coulomb.
 Polarization charges : Total charges.
 Charge compensation  : None.
 Solution method      : On-the-fly selection.
 Cavity type          : VdW (van der Waals Surface) (Alpha=1.000).
 Cavity algorithm     : GePol (No added spheres)
                        Default sphere list used, NSphG=   18.
                        Lebedev-Laikov grids with approx.  5.0 points / Ang**2.
                        Smoothing algorithm: York/Karplus (Gamma=1.0000).
                        Polarization charges: spherical gaussians, with
                                              point-specific exponents (IZeta= 3).
                        Self-potential: point-specific (ISelfS= 7).
                        Self-field    : sphere-specific E.n sum rule (ISelfD= 2).
 1st derivatives      : Analytical E(r).r(x)/FMM algorithm (CHGder, D1EAlg=3).
                        Cavity 1st derivative terms included.
 Solvent              : Water, Eps=  78.355300 Eps(inf)=   1.777849
 ------------------------------------------------------------------------------
 Spheres list:
 ISph  on   Nord     Re0    Alpha      Xe            Ye            Ze
    1   O      1    1.5200  1.000      3.004825      1.164673      0.202648
    2   C      2    1.8500  1.000      2.427159     -0.000313     -0.318122
    3   O      3    1.5200  1.000      3.004568     -1.164429      0.204901
    4   C      4    1.8500  1.000      0.909137     -0.000127     -0.181431
    5   C      5    1.8500  1.000      0.204072      1.207731     -0.139539
    6   C      6    1.8500  1.000     -1.183045      1.215821     -0.050813
    7   C      7    1.8500  1.000     -1.878957      0.000002     -0.006969
    8   C      8    1.8500  1.000     -3.312397      0.000062      0.084948
    9   N      9    1.8900  1.000     -4.469968      0.000251      0.159150
   10   C     10    1.8500  1.000     -1.183215     -1.215897     -0.051677
   11   C     11    1.8500  1.000      0.203894     -1.207928     -0.140334
   12   H     12    1.2000  1.000      2.687658      1.289926      1.108294
   13   H     13    1.2000  1.000      2.685650     -0.001357     -1.388555
   14   H     14    1.2000  1.000      2.686970     -1.288108      1.110614
   15   H     15    1.2000  1.000      0.747020      2.153242     -0.173454
   16   H     16    1.2000  1.000     -1.729481      2.159562     -0.015656
   17   H     17    1.2000  1.000     -1.729786     -2.159584     -0.017216
   18   H     18    1.2000  1.000      0.746719     -2.153491     -0.174835
 ------------------------------------------------------------------------------
 GePol: Number of generator spheres                  =      18
 GePol: Total number of spheres                      =      18
 GePol: Number of exposed spheres                    =      18 (100.00%)
 GePol: Number of points                             =    1536
 GePol: Average weight of points                     =       0.12
 GePol: Minimum weight of points                     =   0.41D-10
 GePol: Maximum weight of points                     =    0.21991
 GePol: Number of points with low weight             =      81
 GePol: Fraction of low-weight points (<1% of avg)   =       5.27%
 GePol: Cavity surface area                          =    178.915 Ang**2
 GePol: Cavity volume                                =    152.670 Ang**3
 ------------------------------------------------------------------------------
 Atomic radii for non-electrostatic terms: SMD-CDS.
 ------------------------------------------------------------------------------
 PCM non-electrostatic energy =         0.0088287135 Hartrees.
 Nuclear repulsion after PCM non-electrostatic terms =      545.7821869244 Hartrees.
 Leave Link  301 at Tue Oct 21 15:02:34 2025, MaxMem=  4294967296 cpu:               0.6 elap:               0.1
 (Enter /lrz/sys/applications/gaussian/g16.C.01/x86_64_legacy/exe/l302.exe)
 NPDir=0 NMtPBC=     1 NCelOv=     1 NCel=       1 NClECP=     1 NCelD=      1
         NCelK=      1 NCelE2=     1 NClLst=     1 CellRange=     0.0.
 One-electron integrals computed using PRISM.
 One-electron integral symmetry used in STVInt
   1 Symmetry operations used in ECPInt.
 ECPInt:  NShTT=    3828 NPrTT=   14192 LenC2=    3693 LenP2D=   10495.
 LDataN:  DoStor=T MaxTD1= 4 Len=   56
 NBasis=   189 RedAO= T EigKep=  2.81D-04  NBF=   189
 NBsUse=   189 1.00D-06 EigRej= -1.00D+00 NBFU=   189
 Precomputing XC quadrature grid using
 IXCGrd= 4 IRadAn=           5 IRanWt=          -1 IRanGd=           0 AccXCQ= 0.00D+00.
 Generated NRdTot=       0 NPtTot=           0 NUsed=           0 NTot=          32
 NSgBfM=   199   199   199   199   199 MxSgAt=    18 MxSgA2=    18.
 Leave Link  302 at Tue Oct 21 15:02:35 2025, MaxMem=  4294967296 cpu:               2.1 elap:               0.3
 (Enter /lrz/sys/applications/gaussian/g16.C.01/x86_64_legacy/exe/l303.exe)
 DipDrv:  MaxL=1.
 Leave Link  303 at Tue Oct 21 15:02:35 2025, MaxMem=  4294967296 cpu:               0.2 elap:               0.0
 (Enter /lrz/sys/applications/gaussian/g16.C.01/x86_64_legacy/exe/l401.exe)
 Initial guess from the checkpoint file:  "g16_C12-w_3.chk"
 B after Tr=     0.000000    0.000000   -0.000000
         Rot=    1.000000    0.000007    0.000017   -0.000002 Ang=   0.00 deg.
 Guess basis will be translated and rotated to current coordinates.
 JPrj=2 DoOrth=T DoCkMO=T.
 Leave Link  401 at Tue Oct 21 15:02:35 2025, MaxMem=  4294967296 cpu:               1.0 elap:               0.1
 (Enter /lrz/sys/applications/gaussian/g16.C.01/x86_64_legacy/exe/l502.exe)
 Integral symmetry usage will be decided dynamically.
 Closed shell SCF:
 Using DIIS extrapolation, IDIIS=  1040.
 NGot=  4294967296 LenX=  4294883082 LenY=  4294842641
 Requested convergence on RMS density matrix=1.00D-08 within 128 cycles.
 Requested convergence on MAX density matrix=1.00D-06.
 Requested convergence on             energy=1.00D-06.
 No special actions if energy rises.
 Fock matrices will be formed incrementally for  20 cycles.

 Cycle   1  Pass 1  IDiag  1:
 FoFJK:  IHMeth= 1 ICntrl=       0 DoSepK=T KAlg= 0 I1Cent=           0 FoldK=F
 IRaf=         1 NMat=       1 IRICut=       1 DoRegI=T DoRafI=F ISym2E= 0 IDoP0=0 IntGTp=1.
 FoFCou: FMM=F IPFlag=           0 FMFlag=      100000 FMFlg1=           0
         NFxFlg=           0 DoJE=T BraDBF=F KetDBF=F FulRan=T
         wScrn=  0.000000 ICntrl=       500 IOpCl=  0 I1Cent=           0 NGrid=           0
         NMat0=    1 NMatS0=      1 NMatT0=    0 NMatD0=    1 NMtDS0=    0 NMtDT0=    0
 Symmetry not used in FoFCou.
 Inv3:  Mode=1 IEnd=     7077888.
 Iteration    1 A*A^-1 deviation from unit magnitude is 6.22D-15 for     49.
 Iteration    1 A*A^-1 deviation from orthogonality  is 3.98D-15 for   1209    553.
 Iteration    1 A^-1*A deviation from unit magnitude is 6.00D-15 for     49.
 Iteration    1 A^-1*A deviation from orthogonality  is 3.50D-15 for   1282     97.
 E= -513.715413168556    
 DIIS: error= 3.97D-04 at cycle   1 NSaved=   1.
 NSaved= 1 IEnMin= 1 EnMin= -513.715413168556     IErMin= 1 ErrMin= 3.97D-04
 ErrMax= 3.97D-04  0.00D+00 EMaxC= 1.00D-01 BMatC= 1.71D-05 BMatP= 1.71D-05
 IDIUse=3 WtCom= 9.96D-01 WtEn= 3.97D-03
 Coeff-Com:  0.100D+01
 Coeff-En:   0.100D+01
 Coeff:      0.100D+01
 Gap=     0.799 Goal=   None    Shift=    0.000
 RMSDP=3.83D-05 MaxDP=1.35D-03              OVMax= 1.29D-03

 Cycle   2  Pass 1  IDiag  1:
 RMSU=  3.83D-05    CP:  1.00D+00
 E= -513.715433967530     Delta-E=       -0.000020798974 Rises=F Damp=F
 DIIS: error= 5.67D-05 at cycle   2 NSaved=   2.
 NSaved= 2 IEnMin= 2 EnMin= -513.715433967530     IErMin= 2 ErrMin= 5.67D-05
 ErrMax= 5.67D-05  0.00D+00 EMaxC= 1.00D-01 BMatC= 4.92D-07 BMatP= 1.71D-05
 IDIUse=1 WtCom= 1.00D+00 WtEn= 0.00D+00
 Coeff-Com: -0.145D+00 0.115D+01
 Coeff:     -0.145D+00 0.115D+01
 Gap=     0.350 Goal=   None    Shift=    0.000
 RMSDP=8.92D-06 MaxDP=2.70D-04 DE=-2.08D-05 OVMax= 4.30D-04

 Cycle   3  Pass 1  IDiag  1:
 RMSU=  6.30D-06    CP:  1.00D+00  1.16D+00
 E= -513.715434871901     Delta-E=       -0.000000904371 Rises=F Damp=F
 DIIS: error= 1.14D-05 at cycle   3 NSaved=   3.
 NSaved= 3 IEnMin= 3 EnMin= -513.715434871901     IErMin= 3 ErrMin= 1.14D-05
 ErrMax= 1.14D-05  0.00D+00 EMaxC= 1.00D-01 BMatC= 3.27D-08 BMatP= 4.92D-07
 IDIUse=1 WtCom= 1.00D+00 WtEn= 0.00D+00
 Coeff-Com: -0.294D-01 0.165D+00 0.865D+00
 Coeff:     -0.294D-01 0.165D+00 0.865D+00
 Gap=     0.350 Goal=   None    Shift=    0.000
 RMSDP=1.91D-06 MaxDP=6.17D-05 DE=-9.04D-07 OVMax= 8.13D-05

 Cycle   4  Pass 1  IDiag  1:
 RMSU=  1.68D-06    CP:  1.00D+00  1.18D+00  1.12D+00
 E= -513.715434909775     Delta-E=       -0.000000037873 Rises=F Damp=F
 DIIS: error= 8.81D-06 at cycle   4 NSaved=   4.
 NSaved= 4 IEnMin= 4 EnMin= -513.715434909775     IErMin= 4 ErrMin= 8.81D-06
 ErrMax= 8.81D-06  0.00D+00 EMaxC= 1.00D-01 BMatC= 1.47D-08 BMatP= 3.27D-08
 IDIUse=1 WtCom= 1.00D+00 WtEn= 0.00D+00
 Coeff-Com:  0.558D-02-0.741D-01 0.384D+00 0.685D+00
 Coeff:      0.558D-02-0.741D-01 0.384D+00 0.685D+00
 Gap=     0.350 Goal=   None    Shift=    0.000
 RMSDP=8.43D-07 MaxDP=2.61D-05 DE=-3.79D-08 OVMax= 3.24D-05

 Cycle   5  Pass 1  IDiag  1:
 RMSU=  5.36D-07    CP:  1.00D+00  1.18D+00  1.22D+00  9.15D-01
 E= -513.715434923868     Delta-E=       -0.000000014093 Rises=F Damp=F
 DIIS: error= 3.97D-06 at cycle   5 NSaved=   5.
 NSaved= 5 IEnMin= 5 EnMin= -513.715434923868     IErMin= 5 ErrMin= 3.97D-06
 ErrMax= 3.97D-06  0.00D+00 EMaxC= 1.00D-01 BMatC= 2.13D-09 BMatP= 1.47D-08
 IDIUse=1 WtCom= 1.00D+00 WtEn= 0.00D+00
 Coeff-Com:  0.623D-02-0.584D-01 0.101D+00 0.338D+00 0.613D+00
 Coeff:      0.623D-02-0.584D-01 0.101D+00 0.338D+00 0.613D+00
 Gap=     0.350 Goal=   None    Shift=    0.000
 RMSDP=2.97D-07 MaxDP=1.19D-05 DE=-1.41D-08 OVMax= 1.30D-05

 Cycle   6  Pass 1  IDiag  1:
 RMSU=  2.22D-07    CP:  1.00D+00  1.18D+00  1.24D+00  9.68D-01  9.34D-01
 E= -513.715434925988     Delta-E=       -0.000000002120 Rises=F Damp=F
 DIIS: error= 7.91D-07 at cycle   6 NSaved=   6.
 NSaved= 6 IEnMin= 6 EnMin= -513.715434925988     IErMin= 6 ErrMin= 7.91D-07
 ErrMax= 7.91D-07  0.00D+00 EMaxC= 1.00D-01 BMatC= 1.66D-10 BMatP= 2.13D-09
 IDIUse=1 WtCom= 1.00D+00 WtEn= 0.00D+00
 Coeff-Com:  0.151D-02-0.114D-01-0.215D-01 0.146D-01 0.216D+00 0.801D+00
 Coeff:      0.151D-02-0.114D-01-0.215D-01 0.146D-01 0.216D+00 0.801D+00
 Gap=     0.350 Goal=   None    Shift=    0.000
 RMSDP=1.32D-07 MaxDP=3.60D-06 DE=-2.12D-09 OVMax= 6.50D-06

 Cycle   7  Pass 1  IDiag  1:
 RMSU=  6.63D-08    CP:  1.00D+00  1.18D+00  1.25D+00  1.00D+00  1.07D+00
                    CP:  1.06D+00
 E= -513.715434926246     Delta-E=       -0.000000000259 Rises=F Damp=F
 DIIS: error= 2.04D-07 at cycle   7 NSaved=   7.
 NSaved= 7 IEnMin= 7 EnMin= -513.715434926246     IErMin= 7 ErrMin= 2.04D-07
 ErrMax= 2.04D-07  0.00D+00 EMaxC= 1.00D-01 BMatC= 1.46D-11 BMatP= 1.66D-10
 IDIUse=1 WtCom= 1.00D+00 WtEn= 0.00D+00
 Coeff-Com: -0.258D-03 0.340D-02-0.160D-01-0.349D-01-0.165D-01 0.225D+00
 Coeff-Com:  0.839D+00
 Coeff:     -0.258D-03 0.340D-02-0.160D-01-0.349D-01-0.165D-01 0.225D+00
 Coeff:      0.839D+00
 Gap=     0.350 Goal=   None    Shift=    0.000
 RMSDP=4.45D-08 MaxDP=1.29D-06 DE=-2.59D-10 OVMax= 1.90D-06

 Cycle   8  Pass 1  IDiag  1:
 RMSU=  2.16D-08    CP:  1.00D+00  1.18D+00  1.25D+00  1.01D+00  1.11D+00
                    CP:  1.16D+00  9.71D-01
 E= -513.715434926266     Delta-E=       -0.000000000019 Rises=F Damp=F
 DIIS: error= 8.84D-08 at cycle   8 NSaved=   8.
 NSaved= 8 IEnMin= 8 EnMin= -513.715434926266     IErMin= 8 ErrMin= 8.84D-08
 ErrMax= 8.84D-08  0.00D+00 EMaxC= 1.00D-01 BMatC= 1.83D-12 BMatP= 1.46D-11
 IDIUse=1 WtCom= 1.00D+00 WtEn= 0.00D+00
 Coeff-Com: -0.217D-03 0.226D-02-0.345D-02-0.139D-01-0.263D-01 0.100D-01
 Coeff-Com:  0.309D+00 0.722D+00
 Coeff:     -0.217D-03 0.226D-02-0.345D-02-0.139D-01-0.263D-01 0.100D-01
 Coeff:      0.309D+00 0.722D+00
 Gap=     0.350 Goal=   None    Shift=    0.000
 RMSDP=1.09D-08 MaxDP=2.82D-07 DE=-1.93D-11 OVMax= 4.48D-07

 Cycle   9  Pass 1  IDiag  1:
 RMSU=  6.58D-09    CP:  1.00D+00  1.18D+00  1.25D+00  1.01D+00  1.12D+00
                    CP:  1.18D+00  1.05D+00  9.10D-01
 E= -513.715434926265     Delta-E=        0.000000000000 Rises=F Damp=F
 DIIS: error= 1.84D-08 at cycle   9 NSaved=   9.
 NSaved= 9 IEnMin= 8 EnMin= -513.715434926266     IErMin= 9 ErrMin= 1.84D-08
 ErrMax= 1.84D-08  0.00D+00 EMaxC= 1.00D-01 BMatC= 1.18D-13 BMatP= 1.83D-12
 IDIUse=1 WtCom= 1.00D+00 WtEn= 0.00D+00
 Coeff-Com: -0.429D-04 0.399D-03 0.317D-03-0.161D-02-0.677D-02-0.126D-01
 Coeff-Com:  0.265D-01 0.218D+00 0.776D+00
 Coeff:     -0.429D-04 0.399D-03 0.317D-03-0.161D-02-0.677D-02-0.126D-01
 Coeff:      0.265D-01 0.218D+00 0.776D+00
 Gap=     0.350 Goal=   None    Shift=    0.000
 RMSDP=3.11D-09 MaxDP=7.13D-08 DE= 4.55D-13 OVMax= 1.42D-07

 Error on total polarization charges =  0.03105
 SCF Done:  E(RwB97XD) =  -513.715434926     A.U. after    9 cycles
            NFock=  9  Conv=0.31D-08     -V/T= 2.0097
 KE= 5.087698443836D+02 PE=-2.287543221570D+03 EE= 7.192757553358D+02
 SMD-CDS (non-electrostatic) energy       (kcal/mol) =       5.54
 (included in total energy above)
 Leave Link  502 at Tue Oct 21 15:03:07 2025, MaxMem=  4294967296 cpu:             254.6 elap:              32.1
 (Enter /lrz/sys/applications/gaussian/g16.C.01/x86_64_legacy/exe/l701.exe)
 ... and contract with generalized density number  0.
 Compute integral first derivatives.
 R6Disp: Adding Grimme-D2 dispersion energy 1st derivatives to the gradient.
   1 Symmetry operations used in ECPInt.
 ECPInt:  NShTT=    3828 NPrTT=   14192 LenC2=    3693 LenP2D=   10495.
 LDataN:  DoStor=T MaxTD1= 5 Len=  102
 D1PCM: PCM CHGder 1st derivatives, ID1Alg=3 FixD1E=F DoIter=F DoCFld=F I1PDM=0.
 GePol: Maximum number of non-zero 1st derivatives   =     259
 Leave Link  701 at Tue Oct 21 15:03:08 2025, MaxMem=  4294967296 cpu:               8.3 elap:               1.1
 (Enter /lrz/sys/applications/gaussian/g16.C.01/x86_64_legacy/exe/l702.exe)
 L702 exits ... SP integral derivatives will be done elsewhere.
 Leave Link  702 at Tue Oct 21 15:03:08 2025, MaxMem=  4294967296 cpu:               0.2 elap:               0.0
 (Enter /lrz/sys/applications/gaussian/g16.C.01/x86_64_legacy/exe/l703.exe)
 Integral derivatives from FoFJK, PRISM(SPDF).
 Compute integral first derivatives, UseDBF=F ICtDFT=           0.
 Calling FoFJK, ICntrl=      2127 FMM=F ISym2X=0 I1Cent= 0 IOpClX= 0 NMat=1 NMatS=1 NMatT=0.
 FoFJK:  IHMeth= 1 ICntrl=    2127 DoSepK=T KAlg= 0 I1Cent=           0 FoldK=F
 IRaf=         1 NMat=       1 IRICut=       1 DoRegI=T DoRafI=F ISym2E= 0 IDoP0=0 IntGTp=1.
 FoFCou: FMM=F IPFlag=           0 FMFlag=      100000 FMFlg1=         800
         NFxFlg=           0 DoJE=F BraDBF=F KetDBF=F FulRan=T
         wScrn=  0.000000 ICntrl=      2527 IOpCl=  0 I1Cent=           0 NGrid=           0
         NMat0=    1 NMatS0=      1 NMatT0=    0 NMatD0=    1 NMtDS0=    0 NMtDT0=    0
 Symmetry not used in FoFCou.
 Leave Link  703 at Tue Oct 21 15:03:16 2025, MaxMem=  4294967296 cpu:              62.3 elap:               7.8
 (Enter /lrz/sys/applications/gaussian/g16.C.01/x86_64_legacy/exe/l716.exe)
 Dipole        = 1.31551290D+00 5.61676107D-04 7.64966350D-01
 ***** Axes restored to original set *****
 -------------------------------------------------------------------
 Center     Atomic                   Forces (Hartrees/Bohr)
 Number     Number              X              Y              Z
 -------------------------------------------------------------------
      1        8           0.000051368    0.000085313   -0.000032175
      2        6          -0.000073853   -0.000001583    0.000170277
      3        8           0.000050565   -0.000082239   -0.000029958
      4        6           0.000026646   -0.000001631    0.000018500
      5        6           0.000045771   -0.000075724    0.000023476
      6        6          -0.000189324    0.000032470   -0.000033024
      7        6           0.000414436    0.000005921    0.000027416
      8        6          -0.000066830   -0.000012192    0.000028648
      9        7          -0.000145467    0.000005171   -0.000014831
     10        6          -0.000193604   -0.000033653   -0.000032200
     11        6           0.000045888    0.000079259    0.000022288
     12        1           0.000008599    0.000020355   -0.000069745
     13        1          -0.000018564    0.000000506    0.000002527
     14        1           0.000007605   -0.000021354   -0.000068831
     15        1          -0.000009127    0.000023043   -0.000013290
     16        1           0.000027750    0.000001634    0.000005851
     17        1           0.000027731   -0.000001725    0.000006754
     18        1          -0.000009589   -0.000023571   -0.000011683
 -------------------------------------------------------------------
 Cartesian Forces:  Max     0.000414436 RMS     0.000082229
 Leave Link  716 at Tue Oct 21 15:03:16 2025, MaxMem=  4294967296 cpu:               0.2 elap:               0.0
 (Enter /lrz/sys/applications/gaussian/g16.C.01/x86_64_legacy/exe/l103.exe)

 GradGradGradGradGradGradGradGradGradGradGradGradGradGradGradGradGradGrad
 Berny optimization.
 Using GEDIIS/GDIIS optimizer.
 FormGI is forming the generalized inverse of G from B-inverse, IUseBI=4.
 Internal  Forces:  Max     0.000211398 RMS     0.000045853
 Search for a local minimum.
 Step number   5 out of a maximum of   92
 All quantities printed in internal units (Hartrees-Bohrs-Radians)
 RMS Force = .45853D-04 SwitMx=.10000D-02 MixMth= 2
 Mixed Optimization -- En-DIIS/RFO-DIIS
 Swapping is turned off.
 Update second derivatives using D2CorX and points    1    2    3    4    5
 DE= -4.64D-06 DEPred=-4.49D-06 R= 1.03D+00
 TightC=F SS=  1.41D+00  RLast= 2.29D-02 DXNew= 8.4853D-01 6.8821D-02
 Trust test= 1.03D+00 RLast= 2.29D-02 DXMaxT set to 5.05D-01
 ITU=  1  1  1  1  0
     Eigenvalues ---    0.00450   0.00572   0.01510   0.01723   0.02146
     Eigenvalues ---    0.02176   0.02228   0.02246   0.02262   0.02269
     Eigenvalues ---    0.02294   0.02308   0.05032   0.05081   0.06193
     Eigenvalues ---    0.07111   0.09895   0.15853   0.16000   0.16000
     Eigenvalues ---    0.16000   0.16003   0.17645   0.21291   0.21322
     Eigenvalues ---    0.22000   0.23058   0.23980   0.24983   0.25002
     Eigenvalues ---    0.30245   0.33906   0.35964   0.35969   0.36003
     Eigenvalues ---    0.36568   0.41874   0.43180   0.43374   0.46011
     Eigenvalues ---    0.46708   0.47841   0.47869   0.48823   0.52289
     Eigenvalues ---    0.53875   0.55317   1.36508
 En-DIIS/RFO-DIIS/Sim-DIIS IScMMF=       -3 using points:     5    4    3    2
 RFO step:  Lambda=-6.32670944D-07.
 NNeg= 0 NGDIIS= 4 SimSw=  2.50D-01 Rises=F DC= -4.64D-06 SmlDif=  1.00D-05
 NRisDI= 0 DoIntr=F SqrtH=F CThrHd= 10.0 CDAdj=  3.0
 RMS Error=  0.6100311402D-03 NUsed= 4 OKEnD=F EnDIS=F
 InvSVX:  RCond= 3.68D-06 Info=           0 Equed=N FErr=  1.52D-13 BErr=  7.56D-17
 DidBck=F Rises=F RFO-DIIS coefs:    1.09374   -0.02677   -0.12606    0.05909
 Iteration  1 RMS(Cart)=  0.00071828 RMS(Int)=  0.00000074
 Iteration  2 RMS(Cart)=  0.00000065 RMS(Int)=  0.00000014
 ITry= 1 IFail=0 DXMaxC= 3.38D-03 DCOld= 1.00D+10 DXMaxT= 5.05D-01 DXLimC= 3.00D+00 Rises=F
 Variable       Old X    -DE/DX   Delta X   Delta X   Delta X     New X
                                 (Linear)    (Quad)   (Total)
    R1        2.64703  -0.00015  -0.00012  -0.00016  -0.00028   2.64675
    R2        1.82872  -0.00006  -0.00009  -0.00004  -0.00013   1.82859
    R3        2.64705  -0.00015  -0.00012  -0.00015  -0.00027   2.64678
    R4        2.88025  -0.00003  -0.00022   0.00014  -0.00008   2.88017
    R5        2.08097  -0.00000   0.00000   0.00004   0.00004   2.08101
    R6        1.82872  -0.00006  -0.00009  -0.00004  -0.00013   1.82860
    R7        2.64413  -0.00000  -0.00002   0.00002  -0.00000   2.64412
    R8        2.64416  -0.00000  -0.00002   0.00002   0.00000   2.64416
    R9        2.62667  -0.00006   0.00004  -0.00019  -0.00015   2.62652
   R10        2.06139  -0.00002  -0.00007   0.00002  -0.00005   2.06133
   R11        2.64861   0.00006   0.00012   0.00000   0.00012   2.64873
   R12        2.06186   0.00001  -0.00012   0.00015   0.00004   2.06189
   R13        2.71437  -0.00021  -0.00026  -0.00031  -0.00057   2.71380
   R14        2.64863   0.00006   0.00012   0.00001   0.00013   2.64876
   R15        2.19198  -0.00015  -0.00022   0.00008  -0.00014   2.19184
   R16        2.62665  -0.00006   0.00004  -0.00019  -0.00015   2.62650
   R17        2.06186   0.00001  -0.00012   0.00015   0.00004   2.06189
   R18        2.06139  -0.00002  -0.00007   0.00002  -0.00005   2.06134
    A1        1.89697  -0.00005   0.00014  -0.00021  -0.00007   1.89690
    A2        1.96316   0.00005   0.00008   0.00005   0.00013   1.96329
    A3        1.95767  -0.00002   0.00007  -0.00008  -0.00001   1.95765
    A4        1.83939  -0.00002  -0.00009  -0.00002  -0.00011   1.83928
    A5        1.95753  -0.00002   0.00007  -0.00008  -0.00001   1.95752
    A6        1.83942  -0.00002  -0.00010  -0.00002  -0.00012   1.83930
    A7        1.89755   0.00003  -0.00005   0.00017   0.00012   1.89767
    A8        1.89694  -0.00005   0.00014  -0.00020  -0.00006   1.89688
    A9        2.09979  -0.00002  -0.00007   0.00001  -0.00006   2.09973
   A10        2.09962  -0.00002  -0.00007  -0.00000  -0.00007   2.09955
   A11        2.08321   0.00004   0.00013  -0.00000   0.00013   2.08334
   A12        2.10575  -0.00003  -0.00009  -0.00005  -0.00014   2.10560
   A13        2.09035  -0.00001   0.00000  -0.00004  -0.00004   2.09031
   A14        2.08708   0.00003   0.00009   0.00009   0.00018   2.08726
   A15        2.08569   0.00005   0.00010   0.00016   0.00026   2.08596
   A16        2.10236   0.00000  -0.00004   0.00008   0.00004   2.10240
   A17        2.09514  -0.00005  -0.00007  -0.00024  -0.00031   2.09483
   A18        2.09147   0.00004   0.00008   0.00009   0.00017   2.09164
   A19        2.10025  -0.00008  -0.00016  -0.00021  -0.00036   2.09989
   A20        2.09146   0.00004   0.00008   0.00012   0.00019   2.09165
   A21        2.08568   0.00005   0.00010   0.00016   0.00027   2.08595
   A22        2.09514  -0.00005  -0.00007  -0.00024  -0.00031   2.09483
   A23        2.10236   0.00000  -0.00004   0.00008   0.00004   2.10241
   A24        2.10576  -0.00003  -0.00009  -0.00006  -0.00015   2.10561
   A25        2.09035  -0.00001   0.00000  -0.00004  -0.00004   2.09030
   A26        2.08707   0.00004   0.00009   0.00010   0.00019   2.08727
   A27        3.14147   0.00001  -0.00000   0.00022   0.00022   3.14169
   A28        3.14157  -0.00002  -0.00017  -0.00008  -0.00026   3.14131
    D1       -1.30575  -0.00001  -0.00224   0.00002  -0.00222  -1.30796
    D2        0.92029  -0.00002  -0.00203  -0.00012  -0.00214   0.91815
    D3        2.98220  -0.00000  -0.00211   0.00004  -0.00207   2.98012
    D4        1.30630   0.00001   0.00222  -0.00005   0.00218   1.30847
    D5       -0.91981   0.00002   0.00201   0.00009   0.00210  -0.91771
    D6       -2.98167   0.00000   0.00209  -0.00006   0.00204  -2.97963
    D7        0.47315  -0.00001  -0.00007  -0.00006  -0.00013   0.47302
    D8       -2.70473  -0.00001  -0.00019   0.00016  -0.00003  -2.70475
    D9        2.70218   0.00001   0.00015  -0.00013   0.00002   2.70220
   D10       -0.47569   0.00001   0.00003   0.00009   0.00012  -0.47557
   D11       -1.55395  -0.00000   0.00004  -0.00010  -0.00006  -1.55401
   D12        1.55136   0.00000  -0.00008   0.00013   0.00005   1.55141
   D13        3.11158   0.00000  -0.00008   0.00035   0.00026   3.11184
   D14       -0.03354   0.00001   0.00032   0.00014   0.00046  -0.03308
   D15        0.00593   0.00000   0.00004   0.00012   0.00016   0.00609
   D16       -3.13919   0.00001   0.00044  -0.00008   0.00036  -3.13883
   D17       -3.11153  -0.00000   0.00008  -0.00035  -0.00027  -3.11179
   D18        0.03357  -0.00001  -0.00032  -0.00013  -0.00045   0.03313
   D19       -0.00587  -0.00000  -0.00004  -0.00013  -0.00016  -0.00604
   D20        3.13923  -0.00001  -0.00044   0.00009  -0.00034   3.13888
   D21       -0.00321   0.00000   0.00004   0.00008   0.00012  -0.00309
   D22        3.13872  -0.00000   0.00007  -0.00023  -0.00016   3.13856
   D23       -3.14128  -0.00000  -0.00037   0.00029  -0.00008  -3.14136
   D24        0.00064  -0.00001  -0.00033  -0.00003  -0.00035   0.00029
   D25        3.14141  -0.00001  -0.00004  -0.00035  -0.00039   3.14102
   D26        0.00038  -0.00001  -0.00011  -0.00028  -0.00040  -0.00002
   D27       -0.00052  -0.00000  -0.00008  -0.00003  -0.00011  -0.00063
   D28       -3.14154  -0.00000  -0.00015   0.00003  -0.00012   3.14152
   D29       -0.00033   0.00001   0.00011   0.00028   0.00039   0.00007
   D30        3.14157   0.00000   0.00015  -0.00003   0.00012  -3.14150
   D31       -3.14135   0.00001   0.00004   0.00034   0.00039  -3.14097
   D32        0.00054   0.00000   0.00008   0.00003   0.00011   0.00065
   D33        0.00310  -0.00000  -0.00004  -0.00007  -0.00011   0.00299
   D34        3.14119   0.00000   0.00036  -0.00030   0.00007   3.14126
   D35       -3.13880   0.00000  -0.00008   0.00024   0.00016  -3.13863
   D36       -0.00071   0.00001   0.00033   0.00002   0.00034  -0.00036
         Item               Value     Threshold  Converged?
 Maximum Force            0.000211     0.000450     YES
 RMS     Force            0.000046     0.000300     YES
 Maximum Displacement     0.003378     0.001800     NO 
 RMS     Displacement     0.000718     0.001200     YES
 Predicted change in Energy=-3.144429D-07
 Lowest energy point so far.  Saving SCF results.
 GradGradGradGradGradGradGradGradGradGradGradGradGradGradGradGradGradGrad

 Leave Link  103 at Tue Oct 21 15:03:16 2025, MaxMem=  4294967296 cpu:               0.3 elap:               0.1
 (Enter /lrz/sys/applications/gaussian/g16.C.01/x86_64_legacy/exe/l202.exe)
                          Input orientation:                          
 ---------------------------------------------------------------------
 Center     Atomic      Atomic             Coordinates (Angstroms)
 Number     Number       Type             X           Y           Z
 ---------------------------------------------------------------------
      1          8           0       -3.057436   -1.163144    0.228272
      2          6           0       -2.482249   -0.000902   -0.300907
      3          8           0       -3.056899    1.165798    0.219005
      4          6           0       -0.963624   -0.000628   -0.171570
      5          6           0       -0.258583   -1.208405   -0.127056
      6          6           0        1.128850   -1.216134   -0.044698
      7          6           0        1.825334   -0.000276   -0.009829
      8          6           0        3.258854   -0.000093    0.075937
      9          7           0        4.416672    0.000166    0.144944
     10          6           0        1.129290    1.215412   -0.057599
     11          6           0       -0.258135    1.207312   -0.139811
     12          1           0       -2.734374   -1.285016    1.132221
     13          1           0       -2.746054   -0.005114   -1.370056
     14          1           0       -2.733406    1.294945    1.121790
     15          1           0       -0.801859   -2.153917   -0.154051
     16          1           0        1.675455   -2.159712   -0.007311
     17          1           0        1.676244    2.159132   -0.030249
     18          1           0       -0.801080    2.152681   -0.176742
 ---------------------------------------------------------------------
                    Distance matrix (angstroms):
                    1          2          3          4          5
     1  O    0.000000
     2  C    1.400599   0.000000
     3  O    2.328961   1.400614   0.000000
     4  C    2.428038   1.524123   2.427941   0.000000
     5  C    2.821681   2.536331   3.686077   1.399210   0.000000
     6  C    4.195510   3.818699   4.823238   2.423221   1.389897
     7  C    5.024977   4.317406   5.024768   2.793644   2.411645
     8  C    6.424283   5.753458   6.424057   4.229726   3.724727
     9  N    7.564557   6.913313   7.564287   5.389598   4.836594
    10  C    4.823684   3.818616   4.195610   2.423227   2.793905
    11  C    3.686548   2.536221   2.821976   1.399229   2.415751
    12  H    0.967649   1.940714   2.635238   2.546582   2.778702
    13  H    1.998161   1.101223   1.998193   2.147894   3.029929
    14  H    2.635445   1.940713   0.967651   2.546256   3.735121
    15  H    2.493076   2.735096   4.030494   2.159428   1.090811
    16  H    4.842407   4.693950   5.788386   3.413703   2.158664
    17  H    5.788962   4.693833   4.842673   3.413713   3.885002
    18  H    4.031114   2.734898   2.493847   2.159441   3.404948
                    6          7          8          9         10
     6  C    0.000000
     7  C    1.401648   0.000000
     8  C    2.455652   1.436084   0.000000
     9  N    3.510716   2.595956   1.159873   0.000000
    10  C    2.431581   1.401663   2.455673   3.510660   0.000000
    11  C    2.793898   2.411640   3.724727   4.836539   1.389882
    12  H    4.039106   4.872963   6.219770   7.332385   4.753494
    13  H    4.270600   4.769469   6.176556   7.321196   4.269722
    14  H    4.752182   4.872399   6.219173   7.331732   4.039517
    15  H    2.149193   3.400163   4.602308   5.653542   3.884716
    16  H    1.091107   2.164633   2.679186   3.493212   3.419399
    17  H    3.419397   2.164646   2.679214   3.493104   1.091107
    18  H    3.884711   3.400167   4.602320   5.653471   2.149184
                   11         12         13         14         15
    11  C    0.000000
    12  H    3.736512   0.000000
    13  H    3.028733   2.810637   0.000000
    14  H    2.779619   2.579983   2.810625   0.000000
    15  H    3.404952   2.478729   3.142598   4.153709   0.000000
    16  H    3.884994   4.637911   5.103834   5.713807   2.481663
    17  H    2.158654   5.715509   5.102526   4.638861   4.975813
    18  H    1.090814   4.155571   3.140543   2.481085   4.306658
                   16         17         18
    16  H    0.000000
    17  H    4.318906   0.000000
    18  H    4.975808   2.481660   0.000000
 Stoichiometry    C8H7NO2
 Framework group  C1[X(C8H7NO2)]
 Deg. of freedom    48
 Full point group                 C1      NOp   1
 RotChk:  IX=2 Diff= 7.29D-05
 Largest Abelian subgroup         C1      NOp   1
 Largest concise Abelian subgroup C1      NOp   1
                         Standard orientation:                         
 ---------------------------------------------------------------------
 Center     Atomic      Atomic             Coordinates (Angstroms)
 Number     Number       Type             X           Y           Z
 ---------------------------------------------------------------------
      1          8           0        3.004630    1.164566    0.202964
      2          6           0        2.427174   -0.000335   -0.317830
      3          8           0        3.004333   -1.164393    0.205214
      4          6           0        0.909155   -0.000120   -0.181561
      5          6           0        0.204179    1.207793   -0.139801
      6          6           0       -1.182864    1.215793   -0.051147
      7          6           0       -1.879035    0.000053   -0.007087
      8          6           0       -3.312149    0.000153    0.085224
      9          7           0       -4.469640    0.000120    0.159518
     10          6           0       -1.183069   -1.215788   -0.052023
     11          6           0        0.203965   -1.207957   -0.140609
     12          1           0        2.685683    1.290875    1.107764
     13          1           0        2.686095   -0.001384   -1.388181
     14          1           0        2.684981   -1.289107    1.110095
     15          1           0        0.747211    2.153214   -0.173950
     16          1           0       -1.729408    2.159490   -0.015930
     17          1           0       -1.729778   -2.159415   -0.017509
     18          1           0        0.746850   -2.153444   -0.175343
 ---------------------------------------------------------------------
 Rotational constants (GHZ):           3.5006807           0.5647681           0.4942989
 Leave Link  202 at Tue Oct 21 15:03:16 2025, MaxMem=  4294967296 cpu:               0.0 elap:               0.0
 (Enter /lrz/sys/applications/gaussian/g16.C.01/x86_64_legacy/exe/l301.exe)
 Standard basis: def2SVP (5D, 7F)
 Ernie: Thresh=  0.10000D-02 Tol=  0.10000D-05 Strict=F.
 There are   200 symmetry adapted cartesian basis functions of A   symmetry.
 There are   189 symmetry adapted basis functions of A   symmetry.
   189 basis functions,   324 primitive gaussians,   200 cartesian basis functions
    39 alpha electrons       39 beta electrons
       nuclear repulsion energy       545.8109616495 Hartrees.
 IExCor= 4639 DFT=T Ex+Corr=wB97XD ExCW=0 ScaHFX=  1.000000
 ScaDFX=  1.000000  1.000000  1.000000  1.000000 ScalE2=  1.000000  1.000000
 IRadAn=      5 IRanWt=     -1 IRanGd=            0 ICorTp=0 IEmpDi=121
 HFx  wShort=  0.000000 wLong=  0.200000 cFull=  0.222036 cShort=  0.000000 cLong=  0.777964
 DFx  wShort=  0.000000 wLong=  0.200000 cFull=  0.000000 cShort=  0.000000 cLong=  1.000000
 NAtoms=   18 NActive=   18 NUniq=   18 SFac= 1.00D+00 NAtFMM=   60 NAOKFM=F Big=F
 Integral buffers will be    131072 words long.
 Raffenetti 2 integral format.
 Two-electron integral symmetry is turned on.
 R6Disp:  Grimme-D2 Dispersion energy=       -0.0094888098 Hartrees.
 Nuclear repulsion after empirical dispersion term =      545.8014728397 Hartrees.
 ------------------------------------------------------------------------------
 Polarizable Continuum Model (PCM)
 =================================
 Model                : PCM.
 Atomic radii         : SMD-Coulomb.
 Polarization charges : Total charges.
 Charge compensation  : None.
 Solution method      : On-the-fly selection.
 Cavity type          : VdW (van der Waals Surface) (Alpha=1.000).
 Cavity algorithm     : GePol (No added spheres)
                        Default sphere list used, NSphG=   18.
                        Lebedev-Laikov grids with approx.  5.0 points / Ang**2.
                        Smoothing algorithm: York/Karplus (Gamma=1.0000).
                        Polarization charges: spherical gaussians, with
                                              point-specific exponents (IZeta= 3).
                        Self-potential: point-specific (ISelfS= 7).
                        Self-field    : sphere-specific E.n sum rule (ISelfD= 2).
 1st derivatives      : Analytical E(r).r(x)/FMM algorithm (CHGder, D1EAlg=3).
                        Cavity 1st derivative terms included.
 Solvent              : Water, Eps=  78.355300 Eps(inf)=   1.777849
 ------------------------------------------------------------------------------
 Spheres list:
 ISph  on   Nord     Re0    Alpha      Xe            Ye            Ze
    1   O      1    1.5200  1.000      3.004630      1.164566      0.202964
    2   C      2    1.8500  1.000      2.427174     -0.000335     -0.317830
    3   O      3    1.5200  1.000      3.004333     -1.164393      0.205214
    4   C      4    1.8500  1.000      0.909155     -0.000120     -0.181561
    5   C      5    1.8500  1.000      0.204179      1.207793     -0.139801
    6   C      6    1.8500  1.000     -1.182864      1.215793     -0.051147
    7   C      7    1.8500  1.000     -1.879035      0.000053     -0.007087
    8   C      8    1.8500  1.000     -3.312149      0.000153      0.085224
    9   N      9    1.8900  1.000     -4.469640      0.000120      0.159518
   10   C     10    1.8500  1.000     -1.183069     -1.215788     -0.052023
   11   C     11    1.8500  1.000      0.203965     -1.207957     -0.140609
   12   H     12    1.2000  1.000      2.685683      1.290875      1.107764
   13   H     13    1.2000  1.000      2.686095     -0.001384     -1.388181
   14   H     14    1.2000  1.000      2.684981     -1.289107      1.110095
   15   H     15    1.2000  1.000      0.747211      2.153214     -0.173950
   16   H     16    1.2000  1.000     -1.729408      2.159490     -0.015930
   17   H     17    1.2000  1.000     -1.729778     -2.159415     -0.017509
   18   H     18    1.2000  1.000      0.746850     -2.153444     -0.175343
 ------------------------------------------------------------------------------
 GePol: Number of generator spheres                  =      18
 GePol: Total number of spheres                      =      18
 GePol: Number of exposed spheres                    =      18 (100.00%)
 GePol: Number of points                             =    1536
 GePol: Average weight of points                     =       0.12
 GePol: Minimum weight of points                     =   0.11D-09
 GePol: Maximum weight of points                     =    0.21991
 GePol: Number of points with low weight             =      81
 GePol: Fraction of low-weight points (<1% of avg)   =       5.27%
 GePol: Cavity surface area                          =    178.897 Ang**2
 GePol: Cavity volume                                =    152.662 Ang**3
 ------------------------------------------------------------------------------
 Atomic radii for non-electrostatic terms: SMD-CDS.
 ------------------------------------------------------------------------------
 PCM non-electrostatic energy =         0.0088290741 Hartrees.
 Nuclear repulsion after PCM non-electrostatic terms =      545.8103019137 Hartrees.
 Leave Link  301 at Tue Oct 21 15:03:16 2025, MaxMem=  4294967296 cpu:               0.6 elap:               0.1
 (Enter /lrz/sys/applications/gaussian/g16.C.01/x86_64_legacy/exe/l302.exe)
 NPDir=0 NMtPBC=     1 NCelOv=     1 NCel=       1 NClECP=     1 NCelD=      1
         NCelK=      1 NCelE2=     1 NClLst=     1 CellRange=     0.0.
 One-electron integrals computed using PRISM.
 One-electron integral symmetry used in STVInt
   1 Symmetry operations used in ECPInt.
 ECPInt:  NShTT=    3828 NPrTT=   14192 LenC2=    3693 LenP2D=   10495.
 LDataN:  DoStor=T MaxTD1= 4 Len=   56
 NBasis=   189 RedAO= T EigKep=  2.81D-04  NBF=   189
 NBsUse=   189 1.00D-06 EigRej= -1.00D+00 NBFU=   189
 Precomputing XC quadrature grid using
 IXCGrd= 4 IRadAn=           5 IRanWt=          -1 IRanGd=           0 AccXCQ= 0.00D+00.
 Generated NRdTot=       0 NPtTot=           0 NUsed=           0 NTot=          32
 NSgBfM=   199   199   199   199   199 MxSgAt=    18 MxSgA2=    18.
 Leave Link  302 at Tue Oct 21 15:03:16 2025, MaxMem=  4294967296 cpu:               1.9 elap:               0.3
 (Enter /lrz/sys/applications/gaussian/g16.C.01/x86_64_legacy/exe/l303.exe)
 DipDrv:  MaxL=1.
 Leave Link  303 at Tue Oct 21 15:03:16 2025, MaxMem=  4294967296 cpu:               0.3 elap:               0.0
 (Enter /lrz/sys/applications/gaussian/g16.C.01/x86_64_legacy/exe/l401.exe)
 Initial guess from the checkpoint file:  "g16_C12-w_3.chk"
 B after Tr=     0.000000   -0.000000    0.000000
         Rot=    1.000000   -0.000003    0.000012    0.000002 Ang=  -0.00 deg.
 Guess basis will be translated and rotated to current coordinates.
 JPrj=2 DoOrth=T DoCkMO=T.
 Leave Link  401 at Tue Oct 21 15:03:17 2025, MaxMem=  4294967296 cpu:               1.0 elap:               0.1
 (Enter /lrz/sys/applications/gaussian/g16.C.01/x86_64_legacy/exe/l502.exe)
 Integral symmetry usage will be decided dynamically.
 Closed shell SCF:
 Using DIIS extrapolation, IDIIS=  1040.
 NGot=  4294967296 LenX=  4294883082 LenY=  4294842641
 Requested convergence on RMS density matrix=1.00D-08 within 128 cycles.
 Requested convergence on MAX density matrix=1.00D-06.
 Requested convergence on             energy=1.00D-06.
 No special actions if energy rises.
 Fock matrices will be formed incrementally for  20 cycles.

 Cycle   1  Pass 1  IDiag  1:
 FoFJK:  IHMeth= 1 ICntrl=       0 DoSepK=T KAlg= 0 I1Cent=           0 FoldK=F
 IRaf=         1 NMat=       1 IRICut=       1 DoRegI=T DoRafI=F ISym2E= 0 IDoP0=0 IntGTp=1.
 FoFCou: FMM=F IPFlag=           0 FMFlag=      100000 FMFlg1=           0
         NFxFlg=           0 DoJE=T BraDBF=F KetDBF=F FulRan=T
         wScrn=  0.000000 ICntrl=       500 IOpCl=  0 I1Cent=           0 NGrid=           0
         NMat0=    1 NMatS0=      1 NMatT0=    0 NMatD0=    1 NMtDS0=    0 NMtDT0=    0
 Symmetry not used in FoFCou.
 Inv3:  Mode=1 IEnd=     7077888.
 Iteration    1 A*A^-1 deviation from unit magnitude is 6.44D-15 for   1330.
 Iteration    1 A*A^-1 deviation from orthogonality  is 5.56D-15 for   1241    475.
 Iteration    1 A^-1*A deviation from unit magnitude is 6.22D-15 for   1330.
 Iteration    1 A^-1*A deviation from orthogonality  is 3.51D-15 for    449    203.
 E= -513.715433627392    
 DIIS: error= 9.19D-05 at cycle   1 NSaved=   1.
 NSaved= 1 IEnMin= 1 EnMin= -513.715433627392     IErMin= 1 ErrMin= 9.19D-05
 ErrMax= 9.19D-05  0.00D+00 EMaxC= 1.00D-01 BMatC= 1.24D-06 BMatP= 1.24D-06
 IDIUse=1 WtCom= 1.00D+00 WtEn= 0.00D+00
 Coeff-Com:  0.100D+01
 Coeff:      0.100D+01
 Gap=     0.799 Goal=   None    Shift=    0.000
 RMSDP=1.02D-05 MaxDP=4.07D-04              OVMax= 3.09D-04

 Cycle   2  Pass 1  IDiag  1:
 RMSU=  1.02D-05    CP:  1.00D+00
 E= -513.715435157540     Delta-E=       -0.000001530148 Rises=F Damp=F
 DIIS: error= 1.37D-05 at cycle   2 NSaved=   2.
 NSaved= 2 IEnMin= 2 EnMin= -513.715435157540     IErMin= 2 ErrMin= 1.37D-05
 ErrMax= 1.37D-05  0.00D+00 EMaxC= 1.00D-01 BMatC= 3.79D-08 BMatP= 1.24D-06
 IDIUse=1 WtCom= 1.00D+00 WtEn= 0.00D+00
 Coeff-Com: -0.134D+00 0.113D+01
 Coeff:     -0.134D+00 0.113D+01
 Gap=     0.350 Goal=   None    Shift=    0.000
 RMSDP=2.42D-06 MaxDP=8.09D-05 DE=-1.53D-06 OVMax= 1.04D-04

 Cycle   3  Pass 1  IDiag  1:
 RMSU=  1.73D-06    CP:  1.00D+00  1.17D+00
 E= -513.715435223719     Delta-E=       -0.000000066178 Rises=F Damp=F
 DIIS: error= 6.75D-06 at cycle   3 NSaved=   3.
 NSaved= 3 IEnMin= 3 EnMin= -513.715435223719     IErMin= 3 ErrMin= 6.75D-06
 ErrMax= 6.75D-06  0.00D+00 EMaxC= 1.00D-01 BMatC= 8.22D-09 BMatP= 3.79D-08
 IDIUse=1 WtCom= 1.00D+00 WtEn= 0.00D+00
 Coeff-Com: -0.573D-01 0.386D+00 0.672D+00
 Coeff:     -0.573D-01 0.386D+00 0.672D+00
 Gap=     0.350 Goal=   None    Shift=    0.000
 RMSDP=6.03D-07 MaxDP=2.37D-05 DE=-6.62D-08 OVMax= 2.67D-05

 Cycle   4  Pass 1  IDiag  1:
 RMSU=  5.85D-07    CP:  1.00D+00  1.18D+00  1.02D+00
 E= -513.715435230208     Delta-E=       -0.000000006489 Rises=F Damp=F
 DIIS: error= 4.66D-06 at cycle   4 NSaved=   4.
 NSaved= 4 IEnMin= 4 EnMin= -513.715435230208     IErMin= 4 ErrMin= 4.66D-06
 ErrMax= 4.66D-06  0.00D+00 EMaxC= 1.00D-01 BMatC= 2.57D-09 BMatP= 8.22D-09
 IDIUse=1 WtCom= 1.00D+00 WtEn= 0.00D+00
 Coeff-Com: -0.945D-03-0.394D-01 0.344D+00 0.696D+00
 Coeff:     -0.945D-03-0.394D-01 0.344D+00 0.696D+00
 Gap=     0.350 Goal=   None    Shift=    0.000
 RMSDP=3.13D-07 MaxDP=1.16D-05 DE=-6.49D-09 OVMax= 1.37D-05

 Cycle   5  Pass 1  IDiag  1:
 RMSU=  1.96D-07    CP:  1.00D+00  1.19D+00  1.15D+00  9.21D-01
 E= -513.715435232626     Delta-E=       -0.000000002418 Rises=F Damp=F
 DIIS: error= 8.76D-07 at cycle   5 NSaved=   5.
 NSaved= 5 IEnMin= 5 EnMin= -513.715435232626     IErMin= 5 ErrMin= 8.76D-07
 ErrMax= 8.76D-07  0.00D+00 EMaxC= 1.00D-01 BMatC= 2.29D-10 BMatP= 2.57D-09
 IDIUse=1 WtCom= 1.00D+00 WtEn= 0.00D+00
 Coeff-Com:  0.616D-02-0.637D-01 0.837D-01 0.310D+00 0.664D+00
 Coeff:      0.616D-02-0.637D-01 0.837D-01 0.310D+00 0.664D+00
 Gap=     0.350 Goal=   None    Shift=    0.000
 RMSDP=1.09D-07 MaxDP=3.05D-06 DE=-2.42D-09 OVMax= 3.94D-06

 Cycle   6  Pass 1  IDiag  1:
 RMSU=  7.21D-08    CP:  1.00D+00  1.19D+00  1.19D+00  9.86D-01  8.95D-01
 E= -513.715435232884     Delta-E=       -0.000000000258 Rises=F Damp=F
 DIIS: error= 2.21D-07 at cycle   6 NSaved=   6.
 NSaved= 6 IEnMin= 6 EnMin= -513.715435232884     IErMin= 6 ErrMin= 2.21D-07
 ErrMax= 2.21D-07  0.00D+00 EMaxC= 1.00D-01 BMatC= 1.11D-11 BMatP= 2.29D-10
 IDIUse=1 WtCom= 1.00D+00 WtEn= 0.00D+00
 Coeff-Com:  0.175D-02-0.135D-01-0.132D-01 0.440D-02 0.163D+00 0.858D+00
 Coeff:      0.175D-02-0.135D-01-0.132D-01 0.440D-02 0.163D+00 0.858D+00
 Gap=     0.350 Goal=   None    Shift=    0.000
 RMSDP=4.11D-08 MaxDP=1.11D-06 DE=-2.58D-10 OVMax= 1.68D-06

 Cycle   7  Pass 1  IDiag  1:
 RMSU=  2.12D-08    CP:  1.00D+00  1.19D+00  1.21D+00  1.01D+00  9.97D-01
                    CP:  1.11D+00
 E= -513.715435232892     Delta-E=       -0.000000000007 Rises=F Damp=F
 DIIS: error= 7.65D-08 at cycle   7 NSaved=   7.
 NSaved= 7 IEnMin= 7 EnMin= -513.715435232892     IErMin= 7 ErrMin= 7.65D-08
 ErrMax= 7.65D-08  0.00D+00 EMaxC= 1.00D-01 BMatC= 1.22D-12 BMatP= 1.11D-11
 IDIUse=1 WtCom= 1.00D+00 WtEn= 0.00D+00
 Coeff-Com: -0.148D-03 0.287D-02-0.109D-01-0.296D-01-0.337D-01 0.216D+00
 Coeff-Com:  0.856D+00
 Coeff:     -0.148D-03 0.287D-02-0.109D-01-0.296D-01-0.337D-01 0.216D+00
 Coeff:      0.856D+00
 Gap=     0.350 Goal=   None    Shift=    0.000
 RMSDP=1.30D-08 MaxDP=4.03D-07 DE=-7.28D-12 OVMax= 6.01D-07

 Cycle   8  Pass 1  IDiag  1:
 RMSU=  6.26D-09    CP:  1.00D+00  1.19D+00  1.21D+00  1.02D+00  1.03D+00
                    CP:  1.22D+00  1.02D+00
 E= -513.715435232888     Delta-E=        0.000000000003 Rises=F Damp=F
 DIIS: error= 2.38D-08 at cycle   8 NSaved=   8.
 NSaved= 8 IEnMin= 7 EnMin= -513.715435232892     IErMin= 8 ErrMin= 2.38D-08
 ErrMax= 2.38D-08  0.00D+00 EMaxC= 1.00D-01 BMatC= 1.86D-13 BMatP= 1.22D-12
 IDIUse=1 WtCom= 1.00D+00 WtEn= 0.00D+00
 Coeff-Com: -0.222D-03 0.242D-02-0.248D-02-0.113D-01-0.305D-01-0.397D-02
 Coeff-Com:  0.324D+00 0.722D+00
 Coeff:     -0.222D-03 0.242D-02-0.248D-02-0.113D-01-0.305D-01-0.397D-02
 Coeff:      0.324D+00 0.722D+00
 Gap=     0.350 Goal=   None    Shift=    0.000
 RMSDP=3.43D-09 MaxDP=9.14D-08 DE= 3.41D-12 OVMax= 1.41D-07

 Error on total polarization charges =  0.03105
 SCF Done:  E(RwB97XD) =  -513.715435233     A.U. after    8 cycles
            NFock=  8  Conv=0.34D-08     -V/T= 2.0097
 KE= 5.087717611123D+02 PE=-2.287599141269D+03 EE= 7.193016430099D+02
 SMD-CDS (non-electrostatic) energy       (kcal/mol) =       5.54
 (included in total energy above)
 Leave Link  502 at Tue Oct 21 15:03:45 2025, MaxMem=  4294967296 cpu:             226.9 elap:              28.6
 (Enter /lrz/sys/applications/gaussian/g16.C.01/x86_64_legacy/exe/l701.exe)
 ... and contract with generalized density number  0.
 Compute integral first derivatives.
 R6Disp: Adding Grimme-D2 dispersion energy 1st derivatives to the gradient.
   1 Symmetry operations used in ECPInt.
 ECPInt:  NShTT=    3828 NPrTT=   14192 LenC2=    3693 LenP2D=   10495.
 LDataN:  DoStor=T MaxTD1= 5 Len=  102
 D1PCM: PCM CHGder 1st derivatives, ID1Alg=3 FixD1E=F DoIter=F DoCFld=F I1PDM=0.
 GePol: Maximum number of non-zero 1st derivatives   =     259
 Leave Link  701 at Tue Oct 21 15:03:46 2025, MaxMem=  4294967296 cpu:               8.5 elap:               1.1
 (Enter /lrz/sys/applications/gaussian/g16.C.01/x86_64_legacy/exe/l702.exe)
 L702 exits ... SP integral derivatives will be done elsewhere.
 Leave Link  702 at Tue Oct 21 15:03:46 2025, MaxMem=  4294967296 cpu:               0.2 elap:               0.0
 (Enter /lrz/sys/applications/gaussian/g16.C.01/x86_64_legacy/exe/l703.exe)
 Integral derivatives from FoFJK, PRISM(SPDF).
 Compute integral first derivatives, UseDBF=F ICtDFT=           0.
 Calling FoFJK, ICntrl=      2127 FMM=F ISym2X=0 I1Cent= 0 IOpClX= 0 NMat=1 NMatS=1 NMatT=0.
 FoFJK:  IHMeth= 1 ICntrl=    2127 DoSepK=T KAlg= 0 I1Cent=           0 FoldK=F
 IRaf=         1 NMat=       1 IRICut=       1 DoRegI=T DoRafI=F ISym2E= 0 IDoP0=0 IntGTp=1.
 FoFCou: FMM=F IPFlag=           0 FMFlag=      100000 FMFlg1=         800
         NFxFlg=           0 DoJE=F BraDBF=F KetDBF=F FulRan=T
         wScrn=  0.000000 ICntrl=      2527 IOpCl=  0 I1Cent=           0 NGrid=           0
         NMat0=    1 NMatS0=      1 NMatT0=    0 NMatD0=    1 NMtDS0=    0 NMtDT0=    0
 Symmetry not used in FoFCou.
 Leave Link  703 at Tue Oct 21 15:03:54 2025, MaxMem=  4294967296 cpu:              62.3 elap:               7.8
 (Enter /lrz/sys/applications/gaussian/g16.C.01/x86_64_legacy/exe/l716.exe)
 Dipole        = 1.31244231D+00 7.35563635D-04 7.63333957D-01
 ***** Axes restored to original set *****
 -------------------------------------------------------------------
 Center     Atomic                   Forces (Hartrees/Bohr)
 Number     Number              X              Y              Z
 -------------------------------------------------------------------
      1        8           0.000005220   -0.000011266   -0.000011173
      2        6          -0.000019327   -0.000000661   -0.000003158
      3        8           0.000005451    0.000012239   -0.000011540
      4        6          -0.000003330   -0.000000949   -0.000000482
      5        6           0.000014897   -0.000010360    0.000000813
      6        6          -0.000040101   -0.000001427    0.000005184
      7        6           0.000065167   -0.000004813    0.000002375
      8        6          -0.000057358    0.000008647   -0.000001659
      9        7           0.000036797   -0.000004069    0.000008045
     10        6          -0.000038423    0.000002604    0.000005709
     11        6           0.000017153    0.000010631    0.000001601
     12        1           0.000001914    0.000004395    0.000004160
     13        1           0.000001765    0.000000587    0.000000714
     14        1           0.000001564   -0.000005318    0.000004812
     15        1          -0.000004990   -0.000000340   -0.000003417
     16        1           0.000008916   -0.000001800   -0.000000148
     17        1           0.000009273    0.000001690    0.000000738
     18        1          -0.000004587    0.000000210   -0.000002574
 -------------------------------------------------------------------
 Cartesian Forces:  Max     0.000065167 RMS     0.000016269
 Leave Link  716 at Tue Oct 21 15:03:54 2025, MaxMem=  4294967296 cpu:               0.2 elap:               0.0
 (Enter /lrz/sys/applications/gaussian/g16.C.01/x86_64_legacy/exe/l103.exe)

 GradGradGradGradGradGradGradGradGradGradGradGradGradGradGradGradGradGrad
 Berny optimization.
 Using GEDIIS/GDIIS optimizer.
 FormGI is forming the generalized inverse of G from B-inverse, IUseBI=4.
 Internal  Forces:  Max     0.000037062 RMS     0.000007446
 Search for a local minimum.
 Step number   6 out of a maximum of   92
 All quantities printed in internal units (Hartrees-Bohrs-Radians)
 RMS Force = .74456D-05 SwitMx=.10000D-02 MixMth= 2
 Mixed Optimization -- En-DIIS/RFO-DIIS
 Swapping is turned off.
 Update second derivatives using D2CorX and points    1    2    3    4    5
                                                      6
 DE= -3.07D-07 DEPred=-3.14D-07 R= 9.75D-01
 Trust test= 9.75D-01 RLast= 5.52D-03 DXMaxT set to 5.05D-01
 ITU=  0  1  1  1  1  0
     Eigenvalues ---    0.00450   0.00583   0.01507   0.01723   0.02138
     Eigenvalues ---    0.02163   0.02228   0.02244   0.02269   0.02274
     Eigenvalues ---    0.02294   0.02305   0.05043   0.05120   0.06221
     Eigenvalues ---    0.07111   0.09958   0.15299   0.16000   0.16000
     Eigenvalues ---    0.16000   0.16003   0.17798   0.21297   0.21489
     Eigenvalues ---    0.21769   0.22004   0.23915   0.24984   0.25008
     Eigenvalues ---    0.30289   0.33930   0.35922   0.35970   0.36003
     Eigenvalues ---    0.36594   0.40240   0.43240   0.43374   0.46011
     Eigenvalues ---    0.46709   0.47604   0.47841   0.50027   0.53019
     Eigenvalues ---    0.53875   0.55077   1.39331
 En-DIIS/RFO-DIIS/Sim-DIIS IScMMF=       -3 using points:     6    5    4    3    2
 RFO step:  Lambda=-1.28549077D-08.
 NNeg= 0 NGDIIS= 5 SimSw=  2.50D-01 Rises=F DC= -3.07D-07 SmlDif=  1.00D-05
 NRisDI= 0 DoIntr=F SqrtH=F CThrHd= 10.0 CDAdj=  3.0
 RMS Error=  0.8600302915D-04 NUsed= 5 OKEnD=F EnDIS=F
 InvSVX:  RCond= 1.41D-07 Info=           0 Equed=N FErr=  7.83D-14 BErr=  3.12D-17
 DidBck=F Rises=F RFO-DIIS coefs:    1.02752    0.00308   -0.03601    0.00162    0.00379
 Iteration  1 RMS(Cart)=  0.00009360 RMS(Int)=  0.00000001
 Iteration  2 RMS(Cart)=  0.00000001 RMS(Int)=  0.00000000
 ITry= 1 IFail=0 DXMaxC= 3.04D-04 DCOld= 1.00D+10 DXMaxT= 5.05D-01 DXLimC= 3.00D+00 Rises=F
 Variable       Old X    -DE/DX   Delta X   Delta X   Delta X     New X
                                 (Linear)    (Quad)   (Total)
    R1        2.64675   0.00000  -0.00001   0.00000  -0.00000   2.64675
    R2        1.82859   0.00001  -0.00001   0.00002   0.00001   1.82860
    R3        2.64678   0.00000  -0.00001   0.00000  -0.00000   2.64678
    R4        2.88017   0.00000   0.00001   0.00001   0.00001   2.88019
    R5        2.08101  -0.00000   0.00002  -0.00003  -0.00001   2.08100
    R6        1.82860   0.00001  -0.00001   0.00002   0.00001   1.82860
    R7        2.64412   0.00001   0.00001   0.00000   0.00001   2.64414
    R8        2.64416   0.00001   0.00001   0.00001   0.00002   2.64417
    R9        2.62652  -0.00001   0.00000  -0.00002  -0.00002   2.62650
   R10        2.06133   0.00000  -0.00001   0.00001   0.00000   2.06134
   R11        2.64873   0.00002   0.00003   0.00001   0.00005   2.64878
   R12        2.06189   0.00001   0.00000   0.00001   0.00002   2.06191
   R13        2.71380  -0.00002  -0.00006  -0.00001  -0.00007   2.71373
   R14        2.64876   0.00002   0.00003   0.00001   0.00004   2.64880
   R15        2.19184   0.00004  -0.00003   0.00005   0.00002   2.19186
   R16        2.62650  -0.00001   0.00000  -0.00003  -0.00002   2.62647
   R17        2.06189   0.00001   0.00000   0.00001   0.00002   2.06191
   R18        2.06134   0.00000  -0.00001   0.00001   0.00000   2.06134
    A1        1.89690  -0.00001   0.00007  -0.00011  -0.00005   1.89686
    A2        1.96329   0.00001   0.00000   0.00006   0.00006   1.96335
    A3        1.95765  -0.00001   0.00000  -0.00007  -0.00006   1.95759
    A4        1.83928   0.00000   0.00000   0.00003   0.00003   1.83931
    A5        1.95752  -0.00001   0.00000  -0.00007  -0.00006   1.95746
    A6        1.83930   0.00000   0.00000   0.00002   0.00002   1.83933
    A7        1.89767   0.00000  -0.00001   0.00004   0.00002   1.89769
    A8        1.89688  -0.00001   0.00007  -0.00012  -0.00005   1.89683
    A9        2.09973  -0.00000  -0.00001   0.00000  -0.00000   2.09972
   A10        2.09955  -0.00000  -0.00001   0.00001  -0.00000   2.09955
   A11        2.08334   0.00000   0.00002  -0.00001   0.00001   2.08335
   A12        2.10560  -0.00000  -0.00002   0.00000  -0.00002   2.10559
   A13        2.09031  -0.00000  -0.00002  -0.00001  -0.00003   2.09029
   A14        2.08726   0.00001   0.00004   0.00001   0.00005   2.08731
   A15        2.08596   0.00001   0.00004   0.00001   0.00005   2.08600
   A16        2.10240   0.00000   0.00000   0.00002   0.00003   2.10243
   A17        2.09483  -0.00001  -0.00004  -0.00003  -0.00008   2.09475
   A18        2.09164   0.00001   0.00003   0.00002   0.00004   2.09169
   A19        2.09989  -0.00001  -0.00005  -0.00002  -0.00007   2.09982
   A20        2.09165   0.00000   0.00003  -0.00000   0.00003   2.09168
   A21        2.08595   0.00001   0.00004   0.00001   0.00004   2.08599
   A22        2.09483  -0.00001  -0.00004  -0.00003  -0.00008   2.09476
   A23        2.10241   0.00000   0.00000   0.00003   0.00003   2.10244
   A24        2.10561  -0.00000  -0.00002   0.00001  -0.00001   2.10560
   A25        2.09030  -0.00000  -0.00002  -0.00001  -0.00003   2.09027
   A26        2.08727   0.00000   0.00004   0.00001   0.00004   2.08731
   A27        3.14169  -0.00001  -0.00000  -0.00017  -0.00017   3.14152
   A28        3.14131   0.00000   0.00003   0.00002   0.00005   3.14136
    D1       -1.30796   0.00001   0.00020   0.00004   0.00024  -1.30772
    D2        0.91815  -0.00000   0.00021  -0.00005   0.00016   0.91831
    D3        2.98012  -0.00000   0.00019  -0.00003   0.00017   2.98029
    D4        1.30847  -0.00001  -0.00020  -0.00007  -0.00027   1.30820
    D5       -0.91771   0.00000  -0.00021   0.00003  -0.00018  -0.91789
    D6       -2.97963   0.00000  -0.00020   0.00001  -0.00019  -2.97982
    D7        0.47302  -0.00000  -0.00002  -0.00000  -0.00002   0.47299
    D8       -2.70475  -0.00000   0.00001   0.00005   0.00006  -2.70469
    D9        2.70220   0.00000  -0.00001  -0.00003  -0.00004   2.70216
   D10       -0.47557   0.00000   0.00002   0.00002   0.00004  -0.47552
   D11       -1.55401  -0.00000  -0.00002  -0.00002  -0.00004  -1.55404
   D12        1.55141   0.00000   0.00001   0.00003   0.00005   1.55146
   D13        3.11184   0.00000   0.00005   0.00007   0.00011   3.11196
   D14       -0.03308   0.00000   0.00008   0.00005   0.00013  -0.03295
   D15        0.00609   0.00000   0.00001   0.00002   0.00003   0.00612
   D16       -3.13883   0.00000   0.00005  -0.00000   0.00005  -3.13878
   D17       -3.11179  -0.00000  -0.00005  -0.00007  -0.00011  -3.11191
   D18        0.03313  -0.00000  -0.00008  -0.00005  -0.00013   0.03299
   D19       -0.00604  -0.00000  -0.00001  -0.00002  -0.00003  -0.00607
   D20        3.13888  -0.00000  -0.00005  -0.00000  -0.00005   3.13883
   D21       -0.00309  -0.00000  -0.00000  -0.00003  -0.00003  -0.00313
   D22        3.13856   0.00000  -0.00001   0.00005   0.00004   3.13860
   D23       -3.14136  -0.00000  -0.00004  -0.00001  -0.00005  -3.14141
   D24        0.00029   0.00000  -0.00004   0.00006   0.00002   0.00031
   D25        3.14102   0.00000  -0.00002   0.00003   0.00001   3.14103
   D26       -0.00002   0.00000  -0.00001   0.00004   0.00004   0.00002
   D27       -0.00063  -0.00000  -0.00001  -0.00005  -0.00006  -0.00069
   D28        3.14152  -0.00000  -0.00000  -0.00003  -0.00004   3.14149
   D29        0.00007  -0.00000   0.00001  -0.00004  -0.00004   0.00003
   D30       -3.14150   0.00000   0.00000   0.00003   0.00004  -3.14146
   D31       -3.14097  -0.00000   0.00002  -0.00003  -0.00001  -3.14098
   D32        0.00065   0.00000   0.00001   0.00005   0.00006   0.00072
   D33        0.00299   0.00000   0.00000   0.00003   0.00003   0.00302
   D34        3.14126   0.00000   0.00004   0.00002   0.00005   3.14131
   D35       -3.13863  -0.00000   0.00001  -0.00005  -0.00004  -3.13867
   D36       -0.00036  -0.00000   0.00004  -0.00006  -0.00002  -0.00038
         Item               Value     Threshold  Converged?
 Maximum Force            0.000037     0.000450     YES
 RMS     Force            0.000007     0.000300     YES
 Maximum Displacement     0.000304     0.001800     YES
 RMS     Displacement     0.000094     0.001200     YES
 Predicted change in Energy=-9.753248D-09
 Optimization completed.
    -- Stationary point found.
                           ----------------------------
                           !   Optimized Parameters   !
                           ! (Angstroms and Degrees)  !
 --------------------------                            --------------------------
 ! Name  Definition              Value          Derivative Info.                !
 --------------------------------------------------------------------------------
 ! R1    R(1,2)                  1.4006         -DE/DX =    0.0                 !
 ! R2    R(1,12)                 0.9676         -DE/DX =    0.0                 !
 ! R3    R(2,3)                  1.4006         -DE/DX =    0.0                 !
 ! R4    R(2,4)                  1.5241         -DE/DX =    0.0                 !
 ! R5    R(2,13)                 1.1012         -DE/DX =    0.0                 !
 ! R6    R(3,14)                 0.9677         -DE/DX =    0.0                 !
 ! R7    R(4,5)                  1.3992         -DE/DX =    0.0                 !
 ! R8    R(4,11)                 1.3992         -DE/DX =    0.0                 !
 ! R9    R(5,6)                  1.3899         -DE/DX =    0.0                 !
 ! R10   R(5,15)                 1.0908         -DE/DX =    0.0                 !
 ! R11   R(6,7)                  1.4016         -DE/DX =    0.0                 !
 ! R12   R(6,16)                 1.0911         -DE/DX =    0.0                 !
 ! R13   R(7,8)                  1.4361         -DE/DX =    0.0                 !
 ! R14   R(7,10)                 1.4017         -DE/DX =    0.0                 !
 ! R15   R(8,9)                  1.1599         -DE/DX =    0.0                 !
 ! R16   R(10,11)                1.3899         -DE/DX =    0.0                 !
 ! R17   R(10,17)                1.0911         -DE/DX =    0.0                 !
 ! R18   R(11,18)                1.0908         -DE/DX =    0.0                 !
 ! A1    A(2,1,12)             108.6844         -DE/DX =    0.0                 !
 ! A2    A(1,2,3)              112.488          -DE/DX =    0.0                 !
 ! A3    A(1,2,4)              112.1652         -DE/DX =    0.0                 !
 ! A4    A(1,2,13)             105.3827         -DE/DX =    0.0                 !
 ! A5    A(3,2,4)              112.1575         -DE/DX =    0.0                 !
 ! A6    A(3,2,13)             105.3842         -DE/DX =    0.0                 !
 ! A7    A(4,2,13)             108.7283         -DE/DX =    0.0                 !
 ! A8    A(2,3,14)             108.6831         -DE/DX =    0.0                 !
 ! A9    A(2,4,5)              120.3055         -DE/DX =    0.0                 !
 ! A10   A(2,4,11)             120.2956         -DE/DX =    0.0                 !
 ! A11   A(5,4,11)             119.3668         -DE/DX =    0.0                 !
 ! A12   A(4,5,6)              120.6423         -DE/DX =    0.0                 !
 ! A13   A(4,5,15)             119.7661         -DE/DX =    0.0                 !
 ! A14   A(6,5,15)             119.5913         -DE/DX =    0.0                 !
 ! A15   A(5,6,7)              119.5165         -DE/DX =    0.0                 !
 ! A16   A(5,6,16)             120.4586         -DE/DX =    0.0                 !
 ! A17   A(7,6,16)             120.0249         -DE/DX =    0.0                 !
 ! A18   A(6,7,8)              119.8422         -DE/DX =    0.0                 !
 ! A19   A(6,7,10)             120.3149         -DE/DX =    0.0                 !
 ! A20   A(8,7,10)             119.8429         -DE/DX =    0.0                 !
 ! A21   A(7,10,11)            119.5161         -DE/DX =    0.0                 !
 ! A22   A(7,10,17)            120.0249         -DE/DX =    0.0                 !
 ! A23   A(11,10,17)           120.459          -DE/DX =    0.0                 !
 ! A24   A(4,11,10)            120.6426         -DE/DX =    0.0                 !
 ! A25   A(4,11,18)            119.7656         -DE/DX =    0.0                 !
 ! A26   A(10,11,18)           119.5916         -DE/DX =    0.0                 !
 ! A27   L(7,8,9,16,-1)        180.0056         -DE/DX =    0.0                 !
 ! A28   L(7,8,9,16,-2)        179.9838         -DE/DX =    0.0                 !
 ! D1    D(12,1,2,3)           -74.9409         -DE/DX =    0.0                 !
 ! D2    D(12,1,2,4)            52.606          -DE/DX =    0.0                 !
 ! D3    D(12,1,2,13)          170.7485         -DE/DX =    0.0                 !
 ! D4    D(1,2,3,14)            74.9701         -DE/DX =    0.0                 !
 ! D5    D(4,2,3,14)           -52.5809         -DE/DX =    0.0                 !
 ! D6    D(13,2,3,14)         -170.7202         -DE/DX =    0.0                 !
 ! D7    D(1,2,4,5)             27.1018         -DE/DX =    0.0                 !
 ! D8    D(1,2,4,11)          -154.9708         -DE/DX =    0.0                 !
 ! D9    D(3,2,4,5)            154.8247         -DE/DX =    0.0                 !
 ! D10   D(3,2,4,11)           -27.2479         -DE/DX =    0.0                 !
 ! D11   D(13,2,4,5)           -89.038          -DE/DX =    0.0                 !
 ! D12   D(13,2,4,11)           88.8893         -DE/DX =    0.0                 !
 ! D13   D(2,4,5,6)            178.2954         -DE/DX =    0.0                 !
 ! D14   D(2,4,5,15)            -1.8952         -DE/DX =    0.0                 !
 ! D15   D(11,4,5,6)             0.3489         -DE/DX =    0.0                 !
 ! D16   D(11,4,5,15)         -179.8418         -DE/DX =    0.0                 !
 ! D17   D(2,4,11,10)         -178.2927         -DE/DX =    0.0                 !
 ! D18   D(2,4,11,18)            1.898          -DE/DX =    0.0                 !
 ! D19   D(5,4,11,10)           -0.346          -DE/DX =    0.0                 !
 ! D20   D(5,4,11,18)          179.8447         -DE/DX =    0.0                 !
 ! D21   D(4,5,6,7)             -0.1771         -DE/DX =    0.0                 !
 ! D22   D(4,5,6,16)           179.8261         -DE/DX =    0.0                 !
 ! D23   D(15,5,6,7)          -179.9868         -DE/DX =    0.0                 !
 ! D24   D(15,5,6,16)            0.0164         -DE/DX =    0.0                 !
 ! D25   D(5,6,7,8)            179.9671         -DE/DX =    0.0                 !
 ! D26   D(5,6,7,10)            -0.0009         -DE/DX =    0.0                 !
 ! D27   D(16,6,7,8)            -0.036          -DE/DX =    0.0                 !
 ! D28   D(16,6,7,10)          179.9959         -DE/DX =    0.0                 !
 ! D29   D(6,7,10,11)            0.0038         -DE/DX =    0.0                 !
 ! D30   D(6,7,10,17)         -179.9945         -DE/DX =    0.0                 !
 ! D31   D(8,7,10,11)         -179.9642         -DE/DX =    0.0                 !
 ! D32   D(8,7,10,17)            0.0375         -DE/DX =    0.0                 !
 ! D33   D(7,10,11,4)            0.1713         -DE/DX =    0.0                 !
 ! D34   D(7,10,11,18)         179.9809         -DE/DX =    0.0                 !
 ! D35   D(17,10,11,4)        -179.8305         -DE/DX =    0.0                 !
 ! D36   D(17,10,11,18)         -0.0208         -DE/DX =    0.0                 !
 --------------------------------------------------------------------------------
 Lowest energy point so far.  Saving SCF results.
 Largest change from initial coordinates is atom   12       0.030 Angstoms.
 GradGradGradGradGradGradGradGradGradGradGradGradGradGradGradGradGradGrad

 Leave Link  103 at Tue Oct 21 15:03:54 2025, MaxMem=  4294967296 cpu:               0.2 elap:               0.0
 (Enter /lrz/sys/applications/gaussian/g16.C.01/x86_64_legacy/exe/l202.exe)
                          Input orientation:                          
 ---------------------------------------------------------------------
 Center     Atomic      Atomic             Coordinates (Angstroms)
 Number     Number       Type             X           Y           Z
 ---------------------------------------------------------------------
      1          8           0       -3.057436   -1.163144    0.228272
      2          6           0       -2.482249   -0.000902   -0.300907
      3          8           0       -3.056899    1.165798    0.219005
      4          6           0       -0.963624   -0.000628   -0.171570
      5          6           0       -0.258583   -1.208405   -0.127056
      6          6           0        1.128850   -1.216134   -0.044698
      7          6           0        1.825334   -0.000276   -0.009829
      8          6           0        3.258854   -0.000093    0.075937
      9          7           0        4.416672    0.000166    0.144944
     10          6           0        1.129290    1.215412   -0.057599
     11          6           0       -0.258135    1.207312   -0.139811
     12          1           0       -2.734374   -1.285016    1.132221
     13          1           0       -2.746054   -0.005114   -1.370056
     14          1           0       -2.733406    1.294945    1.121790
     15          1           0       -0.801859   -2.153917   -0.154051
     16          1           0        1.675455   -2.159712   -0.007311
     17          1           0        1.676244    2.159132   -0.030249
     18          1           0       -0.801080    2.152681   -0.176742
 ---------------------------------------------------------------------
                    Distance matrix (angstroms):
                    1          2          3          4          5
     1  O    0.000000
     2  C    1.400599   0.000000
     3  O    2.328961   1.400614   0.000000
     4  C    2.428038   1.524123   2.427941   0.000000
     5  C    2.821681   2.536331   3.686077   1.399210   0.000000
     6  C    4.195510   3.818699   4.823238   2.423221   1.389897
     7  C    5.024977   4.317406   5.024768   2.793644   2.411645
     8  C    6.424283   5.753458   6.424057   4.229726   3.724727
     9  N    7.564557   6.913313   7.564287   5.389598   4.836594
    10  C    4.823684   3.818616   4.195610   2.423227   2.793905
    11  C    3.686548   2.536221   2.821976   1.399229   2.415751
    12  H    0.967649   1.940714   2.635238   2.546582   2.778702
    13  H    1.998161   1.101223   1.998193   2.147894   3.029929
    14  H    2.635445   1.940713   0.967651   2.546256   3.735121
    15  H    2.493076   2.735096   4.030494   2.159428   1.090811
    16  H    4.842407   4.693950   5.788386   3.413703   2.158664
    17  H    5.788962   4.693833   4.842673   3.413713   3.885002
    18  H    4.031114   2.734898   2.493847   2.159441   3.404948
                    6          7          8          9         10
     6  C    0.000000
     7  C    1.401648   0.000000
     8  C    2.455652   1.436084   0.000000
     9  N    3.510716   2.595956   1.159873   0.000000
    10  C    2.431581   1.401663   2.455673   3.510660   0.000000
    11  C    2.793898   2.411640   3.724727   4.836539   1.389882
    12  H    4.039106   4.872963   6.219770   7.332385   4.753494
    13  H    4.270600   4.769469   6.176556   7.321196   4.269722
    14  H    4.752182   4.872399   6.219173   7.331732   4.039517
    15  H    2.149193   3.400163   4.602308   5.653542   3.884716
    16  H    1.091107   2.164633   2.679186   3.493212   3.419399
    17  H    3.419397   2.164646   2.679214   3.493104   1.091107
    18  H    3.884711   3.400167   4.602320   5.653471   2.149184
                   11         12         13         14         15
    11  C    0.000000
    12  H    3.736512   0.000000
    13  H    3.028733   2.810637   0.000000
    14  H    2.779619   2.579983   2.810625   0.000000
    15  H    3.404952   2.478729   3.142598   4.153709   0.000000
    16  H    3.884994   4.637911   5.103834   5.713807   2.481663
    17  H    2.158654   5.715509   5.102526   4.638861   4.975813
    18  H    1.090814   4.155571   3.140543   2.481085   4.306658
                   16         17         18
    16  H    0.000000
    17  H    4.318906   0.000000
    18  H    4.975808   2.481660   0.000000
 Stoichiometry    C8H7NO2
 Framework group  C1[X(C8H7NO2)]
 Deg. of freedom    48
 Full point group                 C1      NOp   1
 RotChk:  IX=2 Diff= 1.08D-16
 Largest Abelian subgroup         C1      NOp   1
 Largest concise Abelian subgroup C1      NOp   1
                         Standard orientation:                         
 ---------------------------------------------------------------------
 Center     Atomic      Atomic             Coordinates (Angstroms)
 Number     Number       Type             X           Y           Z
 ---------------------------------------------------------------------
      1          8           0        3.004630    1.164566    0.202964
      2          6           0        2.427174   -0.000335   -0.317830
      3          8           0        3.004333   -1.164393    0.205214
      4          6           0        0.909155   -0.000120   -0.181561
      5          6           0        0.204179    1.207793   -0.139801
      6          6           0       -1.182864    1.215793   -0.051147
      7          6           0       -1.879035    0.000053   -0.007087
      8          6           0       -3.312149    0.000153    0.085224
      9          7           0       -4.469640    0.000120    0.159518
     10          6           0       -1.183069   -1.215788   -0.052023
     11          6           0        0.203965   -1.207957   -0.140609
     12          1           0        2.685683    1.290875    1.107764
     13          1           0        2.686095   -0.001384   -1.388181
     14          1           0        2.684981   -1.289107    1.110095
     15          1           0        0.747211    2.153214   -0.173950
     16          1           0       -1.729408    2.159490   -0.015930
     17          1           0       -1.729778   -2.159415   -0.017509
     18          1           0        0.746850   -2.153444   -0.175343
 ---------------------------------------------------------------------
 Rotational constants (GHZ):           3.5006807           0.5647681           0.4942989
 Leave Link  202 at Tue Oct 21 15:03:54 2025, MaxMem=  4294967296 cpu:               0.1 elap:               0.0
 (Enter /lrz/sys/applications/gaussian/g16.C.01/x86_64_legacy/exe/l601.exe)
 Copying SCF densities to generalized density rwf, IOpCl= 0 IROHF=0.

 **********************************************************************

            Population analysis using the SCF Density.

 **********************************************************************

 Orbital symmetries:
       Occupied  (A) (A) (A) (A) (A) (A) (A) (A) (A) (A) (A) (A)
                 (A) (A) (A) (A) (A) (A) (A) (A) (A) (A) (A) (A)
                 (A) (A) (A) (A) (A) (A) (A) (A) (A) (A) (A) (A)
                 (A) (A) (A)
       Virtual   (A) (A) (A) (A) (A) (A) (A) (A) (A) (A) (A) (A)
                 (A) (A) (A) (A) (A) (A) (A) (A) (A) (A) (A) (A)
                 (A) (A) (A) (A) (A) (A) (A) (A) (A) (A) (A) (A)
                 (A) (A) (A) (A) (A) (A) (A) (A) (A) (A) (A) (A)
                 (A) (A) (A) (A) (A) (A) (A) (A) (A) (A) (A) (A)
                 (A) (A) (A) (A) (A) (A) (A) (A) (A) (A) (A) (A)
                 (A) (A) (A) (A) (A) (A) (A) (A) (A) (A) (A) (A)
                 (A) (A) (A) (A) (A) (A) (A) (A) (A) (A) (A) (A)
                 (A) (A) (A) (A) (A) (A) (A) (A) (A) (A) (A) (A)
                 (A) (A) (A) (A) (A) (A) (A) (A) (A) (A) (A) (A)
                 (A) (A) (A) (A) (A) (A) (A) (A) (A) (A) (A) (A)
                 (A) (A) (A) (A) (A) (A) (A) (A) (A) (A) (A) (A)
                 (A) (A) (A) (A) (A) (A)
 The electronic state is 1-A.
 Alpha  occ. eigenvalues --  -19.26678 -19.26674 -14.45593 -10.40210 -10.35488
 Alpha  occ. eigenvalues --  -10.34759 -10.32491 -10.32490 -10.32287 -10.31473
 Alpha  occ. eigenvalues --  -10.31472  -1.16110  -1.09046  -1.01098  -0.97260
 Alpha  occ. eigenvalues --   -0.88350  -0.85639  -0.78541  -0.72292  -0.71477
 Alpha  occ. eigenvalues --   -0.64937  -0.62445  -0.61539  -0.56758  -0.56653
 Alpha  occ. eigenvalues --   -0.53770  -0.52036  -0.49946  -0.49454  -0.47110
 Alpha  occ. eigenvalues --   -0.46485  -0.44908  -0.44724  -0.43312  -0.42552
 Alpha  occ. eigenvalues --   -0.39089  -0.38291  -0.34981  -0.34053
 Alpha virt. eigenvalues --    0.00944   0.04546   0.10384   0.14054   0.15252
 Alpha virt. eigenvalues --    0.16574   0.18687   0.19665   0.20298   0.21531
 Alpha virt. eigenvalues --    0.24522   0.26117   0.26441   0.29295   0.30807
 Alpha virt. eigenvalues --    0.32796   0.35281   0.36364   0.36697   0.38960
 Alpha virt. eigenvalues --    0.43420   0.43783   0.47932   0.48484   0.51086
 Alpha virt. eigenvalues --    0.53098   0.54104   0.56251   0.57431   0.57629
 Alpha virt. eigenvalues --    0.59081   0.60845   0.62995   0.64389   0.66748
 Alpha virt. eigenvalues --    0.68289   0.69868   0.70323   0.71384   0.71977
 Alpha virt. eigenvalues --    0.73082   0.73132   0.73526   0.75020   0.75033
 Alpha virt. eigenvalues --    0.76381   0.77337   0.79167   0.80088   0.80723
 Alpha virt. eigenvalues --    0.82426   0.87972   0.89558   0.92690   0.93394
 Alpha virt. eigenvalues --    0.94546   0.98006   0.99526   1.06359   1.06603
 Alpha virt. eigenvalues --    1.07799   1.09797   1.10418   1.15856   1.19461
 Alpha virt. eigenvalues --    1.23072   1.23376   1.28801   1.31206   1.31972
 Alpha virt. eigenvalues --    1.32009   1.33224   1.35651   1.37010   1.38830
 Alpha virt. eigenvalues --    1.41102   1.43251   1.45577   1.55736   1.57418
 Alpha virt. eigenvalues --    1.60497   1.65972   1.66697   1.68699   1.73487
 Alpha virt. eigenvalues --    1.73694   1.76830   1.77339   1.77922   1.80505
 Alpha virt. eigenvalues --    1.83498   1.83504   1.84305   1.85751   1.87557
 Alpha virt. eigenvalues --    1.87757   1.95004   1.97326   1.98253   2.02221
 Alpha virt. eigenvalues --    2.03179   2.04431   2.04731   2.05599   2.08086
 Alpha virt. eigenvalues --    2.12187   2.16049   2.17025   2.20239   2.23271
 Alpha virt. eigenvalues --    2.25801   2.28649   2.31212   2.31611   2.33900
 Alpha virt. eigenvalues --    2.35133   2.35767   2.39543   2.40229   2.41698
 Alpha virt. eigenvalues --    2.42547   2.43673   2.55154   2.62066   2.70467
 Alpha virt. eigenvalues --    2.70959   2.71775   2.72329   2.80638   2.85894
 Alpha virt. eigenvalues --    2.86264   2.92689   2.95299   2.97475   3.02280
 Alpha virt. eigenvalues --    3.03982   3.07434   3.08052   3.08492   3.11957
 Alpha virt. eigenvalues --    3.22579   3.22935   3.26284   3.35523   3.44678
 Alpha virt. eigenvalues --    3.50596   3.52541   3.74389   3.83696   3.86073
          Condensed to atoms (all electrons):
               1          2          3          4          5          6
     1  O    7.797976   0.364804  -0.062332  -0.079798   0.007233   0.001274
     2  C    0.364804   4.378602   0.364751   0.315047  -0.068865   0.008189
     3  O   -0.062332   0.364751   7.798091  -0.079825   0.006768  -0.000079
     4  C   -0.079798   0.315047  -0.079825   5.676705   0.237754   0.066828
     5  C    0.007233  -0.068865   0.006768   0.237754   5.105869   0.324582
     6  C    0.001274   0.008189  -0.000079   0.066828   0.324582   5.004546
     7  C   -0.000009  -0.000008  -0.000009  -0.163145   0.081119   0.284593
     8  C    0.000000   0.000071   0.000000   0.000499   0.013479  -0.086136
     9  N    0.000000   0.000000   0.000000   0.000011   0.000021  -0.001753
    10  C   -0.000079   0.008164   0.001270   0.066853  -0.116127   0.066805
    11  C    0.006775  -0.068807   0.007258   0.237449   0.046214  -0.116121
    12  H    0.332706  -0.031456  -0.000159   0.000526  -0.001327  -0.000208
    13  H   -0.029323   0.380427  -0.029325  -0.017523  -0.005311  -0.000337
    14  H   -0.000155  -0.031482   0.332729   0.000542  -0.000001  -0.000117
    15  H    0.018334  -0.014504   0.000478  -0.079235   0.457356  -0.051002
    16  H   -0.000017  -0.000156   0.000001   0.014107  -0.055891   0.462704
    17  H    0.000001  -0.000155  -0.000017   0.014106  -0.001968   0.011412
    18  H    0.000477  -0.014480   0.018305  -0.079261   0.010959  -0.001345
               7          8          9         10         11         12
     1  O   -0.000009   0.000000   0.000000  -0.000079   0.006775   0.332706
     2  C   -0.000008   0.000071   0.000000   0.008164  -0.068807  -0.031456
     3  O   -0.000009   0.000000   0.000000   0.001270   0.007258  -0.000159
     4  C   -0.163145   0.000499   0.000011   0.066853   0.237449   0.000526
     5  C    0.081119   0.013479   0.000021  -0.116127   0.046214  -0.001327
     6  C    0.284593  -0.086136  -0.001753   0.066805  -0.116121  -0.000208
     7  C    5.414068   0.311168  -0.032895   0.284593   0.081105  -0.000047
     8  C    0.311168   4.969177   0.929856  -0.086146   0.013484  -0.000002
     9  N   -0.032895   0.929856   6.165080  -0.001754   0.000021  -0.000000
    10  C    0.284593  -0.086146  -0.001754   5.004438   0.324732  -0.000116
    11  C    0.081105   0.013484   0.000021   0.324732   5.105888  -0.000005
    12  H   -0.000047  -0.000002  -0.000000  -0.000116  -0.000005   0.468770
    13  H   -0.000003  -0.000000  -0.000000  -0.000337  -0.005336   0.007952
    14  H   -0.000047  -0.000002  -0.000000  -0.000207  -0.001338   0.003560
    15  H    0.013477  -0.000293  -0.000001  -0.001344   0.010960   0.000090
    16  H   -0.063491  -0.017881  -0.000275   0.011411  -0.001967   0.000019
    17  H   -0.063489  -0.017880  -0.000275   0.462710  -0.055898   0.000001
    18  H    0.013480  -0.000293  -0.000001  -0.051021   0.457406  -0.000072
              13         14         15         16         17         18
     1  O   -0.029323  -0.000155   0.018334  -0.000017   0.000001   0.000477
     2  C    0.380427  -0.031482  -0.014504  -0.000156  -0.000155  -0.014480
     3  O   -0.029325   0.332729   0.000478   0.000001  -0.000017   0.018305
     4  C   -0.017523   0.000542  -0.079235   0.014107   0.014106  -0.079261
     5  C   -0.005311  -0.000001   0.457356  -0.055891  -0.001968   0.010959
     6  C   -0.000337  -0.000117  -0.051002   0.462704   0.011412  -0.001345
     7  C   -0.000003  -0.000047   0.013477  -0.063491  -0.063489   0.013480
     8  C   -0.000000  -0.000002  -0.000293  -0.017881  -0.017880  -0.000293
     9  N   -0.000000  -0.000000  -0.000001  -0.000275  -0.000275  -0.000001
    10  C   -0.000337  -0.000207  -0.001344   0.011411   0.462710  -0.051021
    11  C   -0.005336  -0.001338   0.010960  -0.001967  -0.055898   0.457406
    12  H    0.007952   0.003560   0.000090   0.000019   0.000001  -0.000072
    13  H    0.625005   0.007952   0.000173   0.000010   0.000010   0.000173
    14  H    0.007952   0.468772  -0.000072   0.000001   0.000019   0.000088
    15  H    0.000173  -0.000072   0.610312  -0.010104   0.000017  -0.000133
    16  H    0.000010   0.000001  -0.010104   0.601505  -0.000084   0.000017
    17  H    0.000010   0.000019   0.000017  -0.000084   0.601503  -0.010104
    18  H    0.000173   0.000088  -0.000133   0.000017  -0.010104   0.610306
 Mulliken charges:
               1
     1  O   -0.357866
     2  C    0.409859
     3  O   -0.357903
     4  C   -0.131638
     5  C   -0.041865
     6  C    0.026166
     7  C   -0.160460
     8  C   -0.029102
     9  N   -0.058034
    10  C    0.026156
    11  C   -0.041819
    12  H    0.219770
    13  H    0.065796
    14  H    0.219760
    15  H    0.045493
    16  H    0.060092
    17  H    0.060095
    18  H    0.045501
 Sum of Mulliken charges =  -0.00000
 Mulliken charges with hydrogens summed into heavy atoms:
               1
     1  O   -0.138096
     2  C    0.475655
     3  O   -0.138144
     4  C   -0.131638
     5  C    0.003628
     6  C    0.086258
     7  C   -0.160460
     8  C   -0.029102
     9  N   -0.058034
    10  C    0.086250
    11  C    0.003682
 Electronic spatial extent (au):  <R**2>=           2100.8647
 Charge=             -0.0000 electrons
 Dipole moment (field-independent basis, Debye):
    X=              3.3359    Y=              0.0019    Z=              1.9402  Tot=              3.8591
 Quadrupole moment (field-independent basis, Debye-Ang):
   XX=           -102.3981   YY=            -56.5626   ZZ=            -59.1423
   XY=              0.0072   XZ=              6.5363   YZ=              0.0117
 Traceless Quadrupole moment (field-independent basis, Debye-Ang):
   XX=            -29.6971   YY=             16.1384   ZZ=             13.5587
   XY=              0.0072   XZ=              6.5363   YZ=              0.0117
 Octapole moment (field-independent basis, Debye-Ang**2):
  XXX=            132.8597  YYY=              0.0189  ZZZ=              8.5679  XYY=             -4.5934
  XXY=              0.0124  XXZ=              7.9008  XZZ=             28.1578  YZZ=             -0.0081
  YYZ=              6.8129  XYZ=              0.0235
 Hexadecapole moment (field-independent basis, Debye-Ang**3):
 XXXX=          -3220.9969 YYYY=           -369.7948 ZZZZ=            -78.0084 XXXY=              0.0771
 XXXZ=             69.5586 YYYX=              0.0594 YYYZ=              0.0423 ZZZX=             20.9898
 ZZZY=             -0.0250 XXYY=           -448.7775 XXZZ=           -341.1221 YYZZ=            -79.0868
 XXYZ=              0.0904 YYXZ=             19.1518 ZZXY=             -0.0171
 N-N= 5.458103019137D+02 E-N=-2.287599143414D+03  KE= 5.087717611123D+02
 No NMR shielding tensors so no spin-rotation constants.
 Leave Link  601 at Tue Oct 21 15:03:54 2025, MaxMem=  4294967296 cpu:               0.9 elap:               0.1
 (Enter /lrz/sys/applications/gaussian/g16.C.01/x86_64_legacy/exe/l9999.exe)
 Unable to Open any file for archive entry.
 1\1\GINC-CM4R13C06S02\FOpt\RwB97XD\def2SVP\C8H7N1O2\GO29TIZ2\21-Oct-20
 25\0\\#p opt freq wb97xd scrf=(smd,solvent=water) def2svp\\g16_C12-w_3
 \\0,1\O,-3.0574358413,-1.1631441923,0.2282722788\C,-2.4822487773,-0.00
 09019735,-0.3009066182\O,-3.0568986313,1.1657979124,0.2190047746\C,-0.
 9636238851,-0.0006276727,-0.1715701785\C,-0.2585834949,-1.2084052103,-
 0.1270563157\C,1.1288495487,-1.2161342802,-0.0446979677\C,1.8253340039
 ,-0.0002763598,-0.0098293359\C,3.2588541865,-0.0000934652,0.075937319\
 N,4.416672295,0.0001662887,0.144943953\C,1.1292897155,1.2154122458,-0.
 0575986817\C,-0.2581349841,1.2073120061,-0.1398112036\H,-2.7343735271,
 -1.2850164861,1.1322210782\H,-2.7460543878,-0.0051142776,-1.370056332\
 H,-2.7334057831,1.2949450556,1.1217902793\H,-0.8018587712,-2.153917062
 2,-0.1540509563\H,1.6754554442,-2.159712402,-0.00731088\H,1.6762442495
 ,2.1591323529,-0.0302486947\H,-0.8010796601,2.1526810203,-0.1767416185
 \\Version=EM64L-G16RevC.01\State=1-A\HF=-513.7154352\RMSD=3.434e-09\RM
 SF=1.627e-05\Dipole=-1.3089431,0.0031979,0.7693125\Quadrupole=-22.1227
 457,11.9983803,10.1243654,-0.0146487,-4.7125392,-0.0175421\PG=C01 [X(C
 8H7N1O2)]\\@
 The archive entry for this job was punched.


 I HAVE NOT FAILED, I HAVE ONLY DISCOVERED 10,000
 WAYS THAT DIDN'T WORK.  -- THOMAS A. EDISON
 Leave Link 9999 at Tue Oct 21 15:03:55 2025, MaxMem=  4294967296 cpu:               0.9 elap:               0.1
 Job cpu time:       0 days  0 hours 36 minutes 41.3 seconds.
 Elapsed time:       0 days  0 hours  4 minutes 38.1 seconds.
 File lengths (MBytes):  RWF=    304 Int=      0 D2E=      0 Chk=     12 Scr=     32
 Normal termination of Gaussian 16 at Tue Oct 21 15:03:55 2025.
 (Enter /lrz/sys/applications/gaussian/g16.C.01/x86_64_legacy/exe/l1.exe)
 Link1:  Proceeding to internal job step number  2.
 --------------------------------------------------------------------
 #P Geom=AllCheck Guess=TCheck SCRF=Check GenChk RwB97XD/def2SVP Freq
 --------------------------------------------------------------------
 1/10=4,29=7,30=1,38=1,40=1/1,3;
 2/12=2,40=1/2;
 3/5=43,7=101,11=2,14=-4,25=1,30=1,70=2,71=2,74=-58,116=1,140=1/1,2,3;
 4/5=101/1;
 5/5=2,38=6,98=1/2;
 8/6=4,10=90,11=11/1;
 11/6=1,8=1,9=11,15=111,16=1/1,2,10;
 10/6=1/2;
 6/7=2,8=2,9=2,10=2,28=1/1;
 7/8=1,10=1,25=1/1,2,3,16;
 1/10=4,30=1/3;
 99//99;
 Leave Link    1 at Tue Oct 21 15:03:55 2025, MaxMem=  4294967296 cpu:               0.2 elap:               0.0
 (Enter /lrz/sys/applications/gaussian/g16.C.01/x86_64_legacy/exe/l101.exe)
 Structure from the checkpoint file:  "g16_C12-w_3.chk"
 -----------
 g16_C12-w_3
 -----------
 Charge =  0 Multiplicity = 1
 Redundant internal coordinates found in file.  (old form).
 O,0,-3.0574358413,-1.1631441923,0.2282722788
 C,0,-2.4822487773,-0.0009019735,-0.3009066182
 O,0,-3.0568986313,1.1657979124,0.2190047746
 C,0,-0.9636238851,-0.0006276727,-0.1715701785
 C,0,-0.2585834949,-1.2084052103,-0.1270563157
 C,0,1.1288495487,-1.2161342802,-0.0446979677
 C,0,1.8253340039,-0.0002763598,-0.0098293359
 C,0,3.2588541865,-0.0000934652,0.075937319
 N,0,4.416672295,0.0001662887,0.144943953
 C,0,1.1292897155,1.2154122458,-0.0575986817
 C,0,-0.2581349841,1.2073120061,-0.1398112036
 H,0,-2.7343735271,-1.2850164861,1.1322210782
 H,0,-2.7460543878,-0.0051142776,-1.370056332
 H,0,-2.7334057831,1.2949450556,1.1217902793
 H,0,-0.8018587712,-2.1539170622,-0.1540509563
 H,0,1.6754554442,-2.159712402,-0.00731088
 H,0,1.6762442495,2.1591323529,-0.0302486947
 H,0,-0.8010796601,2.1526810203,-0.1767416185
 Recover connectivity data from disk.
 ITRead=  0  0  0  0  0  0  0  0  0  0  0  0  0  0  0  0  0  0
 MicOpt= -1 -1 -1 -1 -1 -1 -1 -1 -1 -1 -1 -1 -1 -1 -1 -1 -1 -1
 NAtoms=     18 NQM=       18 NQMF=       0 NMMI=      0 NMMIF=      0
                NMic=       0 NMicF=      0.
                    Isotopes and Nuclear Properties:
 (Nuclear quadrupole moments (NQMom) in fm**2, nuclear magnetic moments (NMagM)
  in nuclear magnetons)

  Atom         1           2           3           4           5           6           7           8           9          10
 IAtWgt=          16          12          16          12          12          12          12          12          14          12
 AtmWgt=  15.9949146  12.0000000  15.9949146  12.0000000  12.0000000  12.0000000  12.0000000  12.0000000  14.0030740  12.0000000
 NucSpn=           0           0           0           0           0           0           0           0           2           0
 AtZEff=   5.6000000   3.6000000   5.6000000   3.6000000   3.6000000   3.6000000   3.6000000   3.6000000   4.5500000   3.6000000
 NQMom=    0.0000000   0.0000000   0.0000000   0.0000000   0.0000000   0.0000000   0.0000000   0.0000000   2.0440000   0.0000000
 NMagM=    0.0000000   0.0000000   0.0000000   0.0000000   0.0000000   0.0000000   0.0000000   0.0000000   0.4037610   0.0000000
 AtZNuc=   8.0000000   6.0000000   8.0000000   6.0000000   6.0000000   6.0000000   6.0000000   6.0000000   7.0000000   6.0000000

  Atom        11          12          13          14          15          16          17          18
 IAtWgt=          12           1           1           1           1           1           1           1
 AtmWgt=  12.0000000   1.0078250   1.0078250   1.0078250   1.0078250   1.0078250   1.0078250   1.0078250
 NucSpn=           0           1           1           1           1           1           1           1
 AtZEff=   3.6000000   1.0000000   1.0000000   1.0000000   1.0000000   1.0000000   1.0000000   1.0000000
 NQMom=    0.0000000   0.0000000   0.0000000   0.0000000   0.0000000   0.0000000   0.0000000   0.0000000
 NMagM=    0.0000000   2.7928460   2.7928460   2.7928460   2.7928460   2.7928460   2.7928460   2.7928460
 AtZNuc=   6.0000000   1.0000000   1.0000000   1.0000000   1.0000000   1.0000000   1.0000000   1.0000000
 Leave Link  101 at Tue Oct 21 15:03:55 2025, MaxMem=  4294967296 cpu:               3.0 elap:               0.4
 (Enter /lrz/sys/applications/gaussian/g16.C.01/x86_64_legacy/exe/l103.exe)

 GradGradGradGradGradGradGradGradGradGradGradGradGradGradGradGradGradGrad
 Berny optimization.
 Initialization pass.
                           ----------------------------
                           !    Initial Parameters    !
                           ! (Angstroms and Degrees)  !
 --------------------------                            --------------------------
 ! Name  Definition              Value          Derivative Info.                !
 --------------------------------------------------------------------------------
 ! R1    R(1,2)                  1.4006         calculate D2E/DX2 analytically  !
 ! R2    R(1,12)                 0.9676         calculate D2E/DX2 analytically  !
 ! R3    R(2,3)                  1.4006         calculate D2E/DX2 analytically  !
 ! R4    R(2,4)                  1.5241         calculate D2E/DX2 analytically  !
 ! R5    R(2,13)                 1.1012         calculate D2E/DX2 analytically  !
 ! R6    R(3,14)                 0.9677         calculate D2E/DX2 analytically  !
 ! R7    R(4,5)                  1.3992         calculate D2E/DX2 analytically  !
 ! R8    R(4,11)                 1.3992         calculate D2E/DX2 analytically  !
 ! R9    R(5,6)                  1.3899         calculate D2E/DX2 analytically  !
 ! R10   R(5,15)                 1.0908         calculate D2E/DX2 analytically  !
 ! R11   R(6,7)                  1.4016         calculate D2E/DX2 analytically  !
 ! R12   R(6,16)                 1.0911         calculate D2E/DX2 analytically  !
 ! R13   R(7,8)                  1.4361         calculate D2E/DX2 analytically  !
 ! R14   R(7,10)                 1.4017         calculate D2E/DX2 analytically  !
 ! R15   R(8,9)                  1.1599         calculate D2E/DX2 analytically  !
 ! R16   R(10,11)                1.3899         calculate D2E/DX2 analytically  !
 ! R17   R(10,17)                1.0911         calculate D2E/DX2 analytically  !
 ! R18   R(11,18)                1.0908         calculate D2E/DX2 analytically  !
 ! A1    A(2,1,12)             108.6844         calculate D2E/DX2 analytically  !
 ! A2    A(1,2,3)              112.488          calculate D2E/DX2 analytically  !
 ! A3    A(1,2,4)              112.1652         calculate D2E/DX2 analytically  !
 ! A4    A(1,2,13)             105.3827         calculate D2E/DX2 analytically  !
 ! A5    A(3,2,4)              112.1575         calculate D2E/DX2 analytically  !
 ! A6    A(3,2,13)             105.3842         calculate D2E/DX2 analytically  !
 ! A7    A(4,2,13)             108.7283         calculate D2E/DX2 analytically  !
 ! A8    A(2,3,14)             108.6831         calculate D2E/DX2 analytically  !
 ! A9    A(2,4,5)              120.3055         calculate D2E/DX2 analytically  !
 ! A10   A(2,4,11)             120.2956         calculate D2E/DX2 analytically  !
 ! A11   A(5,4,11)             119.3668         calculate D2E/DX2 analytically  !
 ! A12   A(4,5,6)              120.6423         calculate D2E/DX2 analytically  !
 ! A13   A(4,5,15)             119.7661         calculate D2E/DX2 analytically  !
 ! A14   A(6,5,15)             119.5913         calculate D2E/DX2 analytically  !
 ! A15   A(5,6,7)              119.5165         calculate D2E/DX2 analytically  !
 ! A16   A(5,6,16)             120.4586         calculate D2E/DX2 analytically  !
 ! A17   A(7,6,16)             120.0249         calculate D2E/DX2 analytically  !
 ! A18   A(6,7,8)              119.8422         calculate D2E/DX2 analytically  !
 ! A19   A(6,7,10)             120.3149         calculate D2E/DX2 analytically  !
 ! A20   A(8,7,10)             119.8429         calculate D2E/DX2 analytically  !
 ! A21   A(7,10,11)            119.5161         calculate D2E/DX2 analytically  !
 ! A22   A(7,10,17)            120.0249         calculate D2E/DX2 analytically  !
 ! A23   A(11,10,17)           120.459          calculate D2E/DX2 analytically  !
 ! A24   A(4,11,10)            120.6426         calculate D2E/DX2 analytically  !
 ! A25   A(4,11,18)            119.7656         calculate D2E/DX2 analytically  !
 ! A26   A(10,11,18)           119.5916         calculate D2E/DX2 analytically  !
 ! A27   L(7,8,9,16,-1)        180.0056         calculate D2E/DX2 analytically  !
 ! A28   L(7,8,9,16,-2)        179.9838         calculate D2E/DX2 analytically  !
 ! D1    D(12,1,2,3)           -74.9409         calculate D2E/DX2 analytically  !
 ! D2    D(12,1,2,4)            52.606          calculate D2E/DX2 analytically  !
 ! D3    D(12,1,2,13)          170.7485         calculate D2E/DX2 analytically  !
 ! D4    D(1,2,3,14)            74.9701         calculate D2E/DX2 analytically  !
 ! D5    D(4,2,3,14)           -52.5809         calculate D2E/DX2 analytically  !
 ! D6    D(13,2,3,14)         -170.7202         calculate D2E/DX2 analytically  !
 ! D7    D(1,2,4,5)             27.1018         calculate D2E/DX2 analytically  !
 ! D8    D(1,2,4,11)          -154.9708         calculate D2E/DX2 analytically  !
 ! D9    D(3,2,4,5)            154.8247         calculate D2E/DX2 analytically  !
 ! D10   D(3,2,4,11)           -27.2479         calculate D2E/DX2 analytically  !
 ! D11   D(13,2,4,5)           -89.038          calculate D2E/DX2 analytically  !
 ! D12   D(13,2,4,11)           88.8893         calculate D2E/DX2 analytically  !
 ! D13   D(2,4,5,6)            178.2954         calculate D2E/DX2 analytically  !
 ! D14   D(2,4,5,15)            -1.8952         calculate D2E/DX2 analytically  !
 ! D15   D(11,4,5,6)             0.3489         calculate D2E/DX2 analytically  !
 ! D16   D(11,4,5,15)         -179.8418         calculate D2E/DX2 analytically  !
 ! D17   D(2,4,11,10)         -178.2927         calculate D2E/DX2 analytically  !
 ! D18   D(2,4,11,18)            1.898          calculate D2E/DX2 analytically  !
 ! D19   D(5,4,11,10)           -0.346          calculate D2E/DX2 analytically  !
 ! D20   D(5,4,11,18)          179.8447         calculate D2E/DX2 analytically  !
 ! D21   D(4,5,6,7)             -0.1771         calculate D2E/DX2 analytically  !
 ! D22   D(4,5,6,16)           179.8261         calculate D2E/DX2 analytically  !
 ! D23   D(15,5,6,7)          -179.9868         calculate D2E/DX2 analytically  !
 ! D24   D(15,5,6,16)            0.0164         calculate D2E/DX2 analytically  !
 ! D25   D(5,6,7,8)            179.9671         calculate D2E/DX2 analytically  !
 ! D26   D(5,6,7,10)            -0.0009         calculate D2E/DX2 analytically  !
 ! D27   D(16,6,7,8)            -0.036          calculate D2E/DX2 analytically  !
 ! D28   D(16,6,7,10)          179.9959         calculate D2E/DX2 analytically  !
 ! D29   D(6,7,10,11)            0.0038         calculate D2E/DX2 analytically  !
 ! D30   D(6,7,10,17)         -179.9945         calculate D2E/DX2 analytically  !
 ! D31   D(8,7,10,11)         -179.9642         calculate D2E/DX2 analytically  !
 ! D32   D(8,7,10,17)            0.0375         calculate D2E/DX2 analytically  !
 ! D33   D(7,10,11,4)            0.1713         calculate D2E/DX2 analytically  !
 ! D34   D(7,10,11,18)         179.9809         calculate D2E/DX2 analytically  !
 ! D35   D(17,10,11,4)        -179.8305         calculate D2E/DX2 analytically  !
 ! D36   D(17,10,11,18)         -0.0208         calculate D2E/DX2 analytically  !
 --------------------------------------------------------------------------------
 Trust Radius=3.00D-01 FncErr=1.00D-07 GrdErr=1.00D-07 EigMax=2.50D+02 EigMin=1.00D-04
 Number of steps in this run=      2 maximum allowed number of steps=      2.
 GradGradGradGradGradGradGradGradGradGradGradGradGradGradGradGradGradGrad

 Leave Link  103 at Tue Oct 21 15:03:55 2025, MaxMem=  4294967296 cpu:               0.1 elap:               0.0
 (Enter /lrz/sys/applications/gaussian/g16.C.01/x86_64_legacy/exe/l202.exe)
                          Input orientation:                          
 ---------------------------------------------------------------------
 Center     Atomic      Atomic             Coordinates (Angstroms)
 Number     Number       Type             X           Y           Z
 ---------------------------------------------------------------------
      1          8           0       -3.057436   -1.163144    0.228272
      2          6           0       -2.482249   -0.000902   -0.300907
      3          8           0       -3.056899    1.165798    0.219005
      4          6           0       -0.963624   -0.000628   -0.171570
      5          6           0       -0.258583   -1.208405   -0.127056
      6          6           0        1.128850   -1.216134   -0.044698
      7          6           0        1.825334   -0.000276   -0.009829
      8          6           0        3.258854   -0.000093    0.075937
      9          7           0        4.416672    0.000166    0.144944
     10          6           0        1.129290    1.215412   -0.057599
     11          6           0       -0.258135    1.207312   -0.139811
     12          1           0       -2.734374   -1.285016    1.132221
     13          1           0       -2.746054   -0.005114   -1.370056
     14          1           0       -2.733406    1.294945    1.121790
     15          1           0       -0.801859   -2.153917   -0.154051
     16          1           0        1.675455   -2.159712   -0.007311
     17          1           0        1.676244    2.159132   -0.030249
     18          1           0       -0.801080    2.152681   -0.176742
 ---------------------------------------------------------------------
                    Distance matrix (angstroms):
                    1          2          3          4          5
     1  O    0.000000
     2  C    1.400599   0.000000
     3  O    2.328961   1.400614   0.000000
     4  C    2.428038   1.524123   2.427941   0.000000
     5  C    2.821681   2.536331   3.686077   1.399210   0.000000
     6  C    4.195510   3.818699   4.823238   2.423221   1.389897
     7  C    5.024977   4.317406   5.024768   2.793644   2.411645
     8  C    6.424283   5.753458   6.424057   4.229726   3.724727
     9  N    7.564557   6.913313   7.564287   5.389598   4.836594
    10  C    4.823684   3.818616   4.195610   2.423227   2.793905
    11  C    3.686548   2.536221   2.821976   1.399229   2.415751
    12  H    0.967649   1.940714   2.635238   2.546582   2.778702
    13  H    1.998161   1.101223   1.998193   2.147894   3.029929
    14  H    2.635445   1.940713   0.967651   2.546256   3.735121
    15  H    2.493076   2.735096   4.030494   2.159428   1.090811
    16  H    4.842407   4.693950   5.788386   3.413703   2.158664
    17  H    5.788962   4.693833   4.842673   3.413713   3.885002
    18  H    4.031114   2.734898   2.493847   2.159441   3.404948
                    6          7          8          9         10
     6  C    0.000000
     7  C    1.401648   0.000000
     8  C    2.455652   1.436084   0.000000
     9  N    3.510716   2.595956   1.159873   0.000000
    10  C    2.431581   1.401663   2.455673   3.510660   0.000000
    11  C    2.793898   2.411640   3.724727   4.836539   1.389882
    12  H    4.039106   4.872963   6.219770   7.332385   4.753494
    13  H    4.270600   4.769469   6.176556   7.321196   4.269722
    14  H    4.752182   4.872399   6.219173   7.331732   4.039517
    15  H    2.149193   3.400163   4.602308   5.653542   3.884716
    16  H    1.091107   2.164633   2.679186   3.493212   3.419399
    17  H    3.419397   2.164646   2.679214   3.493104   1.091107
    18  H    3.884711   3.400167   4.602320   5.653471   2.149184
                   11         12         13         14         15
    11  C    0.000000
    12  H    3.736512   0.000000
    13  H    3.028733   2.810637   0.000000
    14  H    2.779619   2.579983   2.810625   0.000000
    15  H    3.404952   2.478729   3.142598   4.153709   0.000000
    16  H    3.884994   4.637911   5.103834   5.713807   2.481663
    17  H    2.158654   5.715509   5.102526   4.638861   4.975813
    18  H    1.090814   4.155571   3.140543   2.481085   4.306658
                   16         17         18
    16  H    0.000000
    17  H    4.318906   0.000000
    18  H    4.975808   2.481660   0.000000
 Stoichiometry    C8H7NO2
 Framework group  C1[X(C8H7NO2)]
 Deg. of freedom    48
 Full point group                 C1      NOp   1
 RotChk:  IX=2 Diff= 5.36D-16
 Largest Abelian subgroup         C1      NOp   1
 Largest concise Abelian subgroup C1      NOp   1
                         Standard orientation:                         
 ---------------------------------------------------------------------
 Center     Atomic      Atomic             Coordinates (Angstroms)
 Number     Number       Type             X           Y           Z
 ---------------------------------------------------------------------
      1          8           0        3.004630    1.164566    0.202964
      2          6           0        2.427174   -0.000335   -0.317830
      3          8           0        3.004333   -1.164393    0.205214
      4          6           0        0.909155   -0.000120   -0.181561
      5          6           0        0.204179    1.207793   -0.139801
      6          6           0       -1.182864    1.215793   -0.051147
      7          6           0       -1.879035    0.000053   -0.007087
      8          6           0       -3.312149    0.000153    0.085224
      9          7           0       -4.469640    0.000120    0.159518
     10          6           0       -1.183069   -1.215788   -0.052023
     11          6           0        0.203965   -1.207957   -0.140609
     12          1           0        2.685683    1.290875    1.107764
     13          1           0        2.686095   -0.001384   -1.388181
     14          1           0        2.684981   -1.289107    1.110095
     15          1           0        0.747211    2.153214   -0.173950
     16          1           0       -1.729408    2.159490   -0.015930
     17          1           0       -1.729778   -2.159415   -0.017509
     18          1           0        0.746850   -2.153444   -0.175343
 ---------------------------------------------------------------------
 Rotational constants (GHZ):           3.5006807           0.5647681           0.4942989
 Leave Link  202 at Tue Oct 21 15:03:55 2025, MaxMem=  4294967296 cpu:               0.0 elap:               0.0
 (Enter /lrz/sys/applications/gaussian/g16.C.01/x86_64_legacy/exe/l301.exe)
 Standard basis: def2SVP (5D, 7F)
 Ernie: Thresh=  0.10000D-02 Tol=  0.10000D-05 Strict=F.
 There are   200 symmetry adapted cartesian basis functions of A   symmetry.
 There are   189 symmetry adapted basis functions of A   symmetry.
   189 basis functions,   324 primitive gaussians,   200 cartesian basis functions
    39 alpha electrons       39 beta electrons
       nuclear repulsion energy       545.8109616495 Hartrees.
 IExCor= 4639 DFT=T Ex+Corr=wB97XD ExCW=0 ScaHFX=  1.000000
 ScaDFX=  1.000000  1.000000  1.000000  1.000000 ScalE2=  1.000000  1.000000
 IRadAn=      5 IRanWt=     -1 IRanGd=            0 ICorTp=0 IEmpDi=121
 HFx  wShort=  0.000000 wLong=  0.200000 cFull=  0.222036 cShort=  0.000000 cLong=  0.777964
 DFx  wShort=  0.000000 wLong=  0.200000 cFull=  0.000000 cShort=  0.000000 cLong=  1.000000
 NAtoms=   18 NActive=   18 NUniq=   18 SFac= 1.00D+00 NAtFMM=   60 NAOKFM=F Big=F
 Integral buffers will be    131072 words long.
 Raffenetti 2 integral format.
 Two-electron integral symmetry is turned on.
 R6Disp:  Grimme-D2 Dispersion energy=       -0.0094888098 Hartrees.
 Nuclear repulsion after empirical dispersion term =      545.8014728397 Hartrees.
 Force inversion solution in PCM.
 ------------------------------------------------------------------------------
 Polarizable Continuum Model (PCM)
 =================================
 Model                : PCM.
 Atomic radii         : SMD-Coulomb.
 Polarization charges : Total charges.
 Charge compensation  : None.
 Solution method      : Matrix inversion.
 Cavity type          : VdW (van der Waals Surface) (Alpha=1.000).
 Cavity algorithm     : GePol (No added spheres)
                        Default sphere list used, NSphG=   18.
                        Lebedev-Laikov grids with approx.  5.0 points / Ang**2.
                        Smoothing algorithm: York/Karplus (Gamma=1.0000).
                        Polarization charges: spherical gaussians, with
                                              point-specific exponents (IZeta= 3).
                        Self-potential: point-specific (ISelfS= 7).
                        Self-field    : sphere-specific E.n sum rule (ISelfD= 2).
 1st derivatives      : Analytical E(r).r(x)/FMM algorithm (CHGder, D1EAlg=3).
                        Cavity 1st derivative terms included.
 2nd derivatives      : Analytical E(r).r(xy)/FMM algorithm (CHGder, D2EAlg=3).
                        Cavity 2nd derivative terms included.
 Solvent              : Water, Eps=  78.355300 Eps(inf)=   1.777849
 ------------------------------------------------------------------------------
 Spheres list:
 ISph  on   Nord     Re0    Alpha      Xe            Ye            Ze
    1   O      1    1.5200  1.000      3.004630      1.164566      0.202964
    2   C      2    1.8500  1.000      2.427174     -0.000335     -0.317830
    3   O      3    1.5200  1.000      3.004333     -1.164393      0.205214
    4   C      4    1.8500  1.000      0.909155     -0.000120     -0.181561
    5   C      5    1.8500  1.000      0.204179      1.207793     -0.139801
    6   C      6    1.8500  1.000     -1.182864      1.215793     -0.051147
    7   C      7    1.8500  1.000     -1.879035      0.000053     -0.007087
    8   C      8    1.8500  1.000     -3.312149      0.000153      0.085224
    9   N      9    1.8900  1.000     -4.469640      0.000120      0.159518
   10   C     10    1.8500  1.000     -1.183069     -1.215788     -0.052023
   11   C     11    1.8500  1.000      0.203965     -1.207957     -0.140609
   12   H     12    1.2000  1.000      2.685683      1.290875      1.107764
   13   H     13    1.2000  1.000      2.686095     -0.001384     -1.388181
   14   H     14    1.2000  1.000      2.684981     -1.289107      1.110095
   15   H     15    1.2000  1.000      0.747211      2.153214     -0.173950
   16   H     16    1.2000  1.000     -1.729408      2.159490     -0.015930
   17   H     17    1.2000  1.000     -1.729778     -2.159415     -0.017509
   18   H     18    1.2000  1.000      0.746850     -2.153444     -0.175343
 ------------------------------------------------------------------------------
 GePol: Number of generator spheres                  =      18
 GePol: Total number of spheres                      =      18
 GePol: Number of exposed spheres                    =      18 (100.00%)
 GePol: Number of points                             =    1536
 GePol: Average weight of points                     =       0.12
 GePol: Minimum weight of points                     =   0.11D-09
 GePol: Maximum weight of points                     =    0.21991
 GePol: Number of points with low weight             =      81
 GePol: Fraction of low-weight points (<1% of avg)   =       5.27%
 GePol: Cavity surface area                          =    178.897 Ang**2
 GePol: Cavity volume                                =    152.662 Ang**3
 ------------------------------------------------------------------------------
 Atomic radii for non-electrostatic terms: SMD-CDS.
 ------------------------------------------------------------------------------
 PCM non-electrostatic energy =         0.0088290741 Hartrees.
 Nuclear repulsion after PCM non-electrostatic terms =      545.8103019137 Hartrees.
 Leave Link  301 at Tue Oct 21 15:03:55 2025, MaxMem=  4294967296 cpu:               0.6 elap:               0.1
 (Enter /lrz/sys/applications/gaussian/g16.C.01/x86_64_legacy/exe/l302.exe)
 NPDir=0 NMtPBC=     1 NCelOv=     1 NCel=       1 NClECP=     1 NCelD=      1
         NCelK=      1 NCelE2=     1 NClLst=     1 CellRange=     0.0.
 One-electron integrals computed using PRISM.
 One-electron integral symmetry used in STVInt
   1 Symmetry operations used in ECPInt.
 ECPInt:  NShTT=    3828 NPrTT=   14192 LenC2=    3693 LenP2D=   10495.
 LDataN:  DoStor=T MaxTD1= 4 Len=   56
 NBasis=   189 RedAO= T EigKep=  2.81D-04  NBF=   189
 NBsUse=   189 1.00D-06 EigRej= -1.00D+00 NBFU=   189
 Precomputing XC quadrature grid using
 IXCGrd= 4 IRadAn=           5 IRanWt=          -1 IRanGd=           0 AccXCQ= 0.00D+00.
 Generated NRdTot=       0 NPtTot=           0 NUsed=           0 NTot=          32
 NSgBfM=   199   199   199   199   199 MxSgAt=    18 MxSgA2=    18.
 Leave Link  302 at Tue Oct 21 15:03:55 2025, MaxMem=  4294967296 cpu:               1.9 elap:               0.2
 (Enter /lrz/sys/applications/gaussian/g16.C.01/x86_64_legacy/exe/l303.exe)
 DipDrv:  MaxL=1.
 Leave Link  303 at Tue Oct 21 15:03:55 2025, MaxMem=  4294967296 cpu:               0.2 elap:               0.0
 (Enter /lrz/sys/applications/gaussian/g16.C.01/x86_64_legacy/exe/l401.exe)
 Initial guess from the checkpoint file:  "g16_C12-w_3.chk"
 B after Tr=     0.000000    0.000000   -0.000000
         Rot=    1.000000   -0.000000    0.000000    0.000000 Ang=   0.00 deg.
 Guess basis will be translated and rotated to current coordinates.
 JPrj=2 DoOrth=T DoCkMO=T.
 Leave Link  401 at Tue Oct 21 15:03:56 2025, MaxMem=  4294967296 cpu:               1.1 elap:               0.2
 (Enter /lrz/sys/applications/gaussian/g16.C.01/x86_64_legacy/exe/l502.exe)
 Integral symmetry usage will be decided dynamically.
 Closed shell SCF:
 Using DIIS extrapolation, IDIIS=  1040.
 NGot=  4294967296 LenX=  4294883082 LenY=  4294842641
 Requested convergence on RMS density matrix=1.00D-08 within 128 cycles.
 Requested convergence on MAX density matrix=1.00D-06.
 Requested convergence on             energy=1.00D-06.
 No special actions if energy rises.
 Fock matrices will be formed incrementally for  20 cycles.

 Cycle   1  Pass 1  IDiag  1:
 FoFJK:  IHMeth= 1 ICntrl=       0 DoSepK=T KAlg= 0 I1Cent=           0 FoldK=F
 IRaf=         1 NMat=       1 IRICut=       1 DoRegI=T DoRafI=F ISym2E= 0 IDoP0=0 IntGTp=1.
 FoFCou: FMM=F IPFlag=           0 FMFlag=      100000 FMFlg1=           0
         NFxFlg=           0 DoJE=T BraDBF=F KetDBF=F FulRan=T
         wScrn=  0.000000 ICntrl=       500 IOpCl=  0 I1Cent=           0 NGrid=           0
         NMat0=    1 NMatS0=      1 NMatT0=    0 NMatD0=    1 NMtDS0=    0 NMtDT0=    0
 Symmetry not used in FoFCou.
 Inv3:  Mode=1 IEnd=     7077888.
 Iteration    1 A*A^-1 deviation from unit magnitude is 6.44D-15 for   1330.
 Iteration    1 A*A^-1 deviation from orthogonality  is 5.76D-15 for   1241    475.
 Iteration    1 A^-1*A deviation from unit magnitude is 6.44D-15 for   1330.
 Iteration    1 A^-1*A deviation from orthogonality  is 3.27D-15 for   1333   1099.
 E= -513.715435232894    
 DIIS: error= 8.18D-09 at cycle   1 NSaved=   1.
 NSaved= 1 IEnMin= 1 EnMin= -513.715435232894     IErMin= 1 ErrMin= 8.18D-09
 ErrMax= 8.18D-09  0.00D+00 EMaxC= 1.00D-01 BMatC= 8.69D-15 BMatP= 8.69D-15
 IDIUse=1 WtCom= 1.00D+00 WtEn= 0.00D+00
 Coeff-Com:  0.100D+01
 Coeff:      0.100D+01
 Gap=     0.350 Goal=   None    Shift=    0.000
 RMSDP=1.18D-09 MaxDP=2.63D-08              OVMax= 6.42D-08

 Error on total polarization charges =  0.03105
 SCF Done:  E(RwB97XD) =  -513.715435233     A.U. after    1 cycles
            NFock=  1  Conv=0.12D-08     -V/T= 2.0097
 KE= 5.087717597007D+02 PE=-2.287599142003D+03 EE= 7.193016451556D+02
 SMD-CDS (non-electrostatic) energy       (kcal/mol) =       5.54
 (included in total energy above)
 Leave Link  502 at Tue Oct 21 15:04:02 2025, MaxMem=  4294967296 cpu:              50.8 elap:               6.5
 (Enter /lrz/sys/applications/gaussian/g16.C.01/x86_64_legacy/exe/l801.exe)
 DoSCS=F DFT=T ScalE2(SS,OS)=  1.000000  1.000000
 Range of M.O.s used for correlation:     1   189
 NBasis=   189 NAE=    39 NBE=    39 NFC=     0 NFV=     0
 NROrb=    189 NOA=    39 NOB=    39 NVA=   150 NVB=   150

 **** Warning!!: The largest alpha MO coefficient is  0.15628008D+02

 Leave Link  801 at Tue Oct 21 15:04:02 2025, MaxMem=  4294967296 cpu:               0.2 elap:               0.0
 (Enter /lrz/sys/applications/gaussian/g16.C.01/x86_64_legacy/exe/l1101.exe)
 Using compressed storage, NAtomX=    18.
 Will process     19 centers per pass.
   1 Symmetry operations used in ECPInt.
 ECPInt:  NShTT=    3828 NPrTT=   14192 LenC2=    3693 LenP2D=   10495.
 LDataN:  DoStor=T MaxTD1= 5 Len=  102
 R6Disp: Adding Grimme-D2 dispersion energy 1st derivatives to the gradient.
 Leave Link 1101 at Tue Oct 21 15:04:02 2025, MaxMem=  4294967296 cpu:               1.4 elap:               0.2
 (Enter /lrz/sys/applications/gaussian/g16.C.01/x86_64_legacy/exe/l1102.exe)
 Symmetrizing basis deriv contribution to polar:
 IMax=3 JMax=2 DiffMx= 0.00D+00
 Leave Link 1102 at Tue Oct 21 15:04:02 2025, MaxMem=  4294967296 cpu:               0.2 elap:               0.0
 (Enter /lrz/sys/applications/gaussian/g16.C.01/x86_64_legacy/exe/l1110.exe)
 Forming Gx(P) for the SCF density, NAtomX=    18.
 Integral derivatives from FoFJK, PRISM(SPDF).
 Do as many integral derivatives as possible in FoFJK.
 G2DrvN: MDV=    4294965306.
 G2DrvN: will do    19 centers at a time, making    1 passes.
 Calling FoFCou, ICntrl=  3107 FMM=F I1Cent=   0 AccDes= 0.00D+00.
 FoFJK:  IHMeth= 1 ICntrl=    3107 DoSepK=T KAlg= 0 I1Cent=           0 FoldK=F
 IRaf=         1 NMat=       1 IRICut=       1 DoRegI=T DoRafI=F ISym2E= 0 IDoP0=0 IntGTp=1.
 FoFCou: FMM=F IPFlag=           0 FMFlag=      100000 FMFlg1=           0
         NFxFlg=           0 DoJE=F BraDBF=F KetDBF=F FulRan=T
         wScrn=  0.000000 ICntrl=      3507 IOpCl=  0 I1Cent=           0 NGrid=           0
         NMat0=    1 NMatS0=      1 NMatT0=    0 NMatD0=    1 NMtDS0=    0 NMtDT0=    0
 Symmetry not used in FoFCou.
 NEqPCM:  Using equilibrium solvation (IEInf=0, Eps=  78.3553, EpsInf=   1.7778)
 G2PCM: DoFxE=T DoFxN=T DoGrad=T DoDP/DQ/DG/TGxP=FFFF NFrqRd=   0 IEInf=0 SqF1=F DoCFld=F IF1Alg=4.
 GePol: Maximum number of non-zero 1st derivatives   =     259
 End of G2Drv F.D. properties file   721 does not exist.
 End of G2Drv F.D. properties file   722 does not exist.
 End of G2Drv F.D. properties file   788 does not exist.
 Leave Link 1110 at Tue Oct 21 15:05:07 2025, MaxMem=  4294967296 cpu:             515.5 elap:              64.5
 (Enter /lrz/sys/applications/gaussian/g16.C.01/x86_64_legacy/exe/l1002.exe)
 Minotr:  Closed shell wavefunction.
          IDoAtm=111111111111111111
 NEqPCM:  Using equilibrium solvation (IEInf=0, Eps=  78.3553, EpsInf=   1.7778)
          Direct CPHF calculation.
          Differentiating once with respect to electric field.
                with respect to dipole field.
          Differentiating once with respect to nuclear coordinates.
          Requested convergence is 1.0D-08 RMS, and 1.0D-07 maximum.
          Secondary convergence is 1.0D-12 RMS, and 1.0D-12 maximum.
          NewPWx=T KeepS1=F KeepF1=F KeepIn=T MapXYZ=F SortEE=F KeepMc=T.
         5344 words used for storage of precomputed grid.
 Keep R1 ints in memory in canonical form, NReq=334067564.
 FoFCou: FMM=F IPFlag=           0 FMFlag=           0 FMFlg1=           0
         NFxFlg=           0 DoJE=F BraDBF=F KetDBF=F FulRan=T
         wScrn=  0.000000 ICntrl=       600 IOpCl=  0 I1Cent=           0 NGrid=           0
         NMat0=    1 NMatS0=  17955 NMatT0=    0 NMatD0=    1 NMtDS0=    0 NMtDT0=    0
 Symmetry not used in FoFCou.
 Two-electron integral symmetry not used.
          MDV=    4294967296 using IRadAn=       1.
          Solving linear equations simultaneously, MaxMat=       0.
          There are    57 degrees of freedom in the 1st order CPHF.  IDoFFX=6 NUNeed=     3.
     54 vectors produced by pass  0 Test12= 1.03D-14 1.75D-09 XBig12= 7.30D+01 5.86D+00.
 AX will form    54 AO Fock derivatives at one time.
     54 vectors produced by pass  1 Test12= 1.03D-14 1.75D-09 XBig12= 9.50D+00 9.84D-01.
     54 vectors produced by pass  2 Test12= 1.03D-14 1.75D-09 XBig12= 4.51D-01 1.13D-01.
     54 vectors produced by pass  3 Test12= 1.03D-14 1.75D-09 XBig12= 7.61D-03 2.52D-02.
     54 vectors produced by pass  4 Test12= 1.03D-14 1.75D-09 XBig12= 7.05D-05 1.23D-03.
     54 vectors produced by pass  5 Test12= 1.03D-14 1.75D-09 XBig12= 3.58D-07 8.17D-05.
     47 vectors produced by pass  6 Test12= 1.03D-14 1.75D-09 XBig12= 1.44D-09 4.65D-06.
     23 vectors produced by pass  7 Test12= 1.03D-14 1.75D-09 XBig12= 6.29D-12 3.39D-07.
      3 vectors produced by pass  8 Test12= 1.03D-14 1.75D-09 XBig12= 2.21D-14 2.09D-08.
 InvSVY:  IOpt=1 It=  1 EMax= 7.79D-15
 Solved reduced A of dimension   397 with    57 vectors.
 FullF1:  Do perturbations      1 to       3.
 Isotropic polarizability for W=    0.000000      128.36 Bohr**3.
 End of Minotr F.D. properties file   721 does not exist.
 End of Minotr F.D. properties file   722 does not exist.
 End of Minotr F.D. properties file   788 does not exist.
 Leave Link 1002 at Tue Oct 21 15:06:26 2025, MaxMem=  4294967296 cpu:             632.9 elap:              79.2
 (Enter /lrz/sys/applications/gaussian/g16.C.01/x86_64_legacy/exe/l601.exe)
 Copying SCF densities to generalized density rwf, IOpCl= 0 IROHF=0.

 **********************************************************************

            Population analysis using the SCF Density.

 **********************************************************************

 Orbital symmetries:
       Occupied  (A) (A) (A) (A) (A) (A) (A) (A) (A) (A) (A) (A)
                 (A) (A) (A) (A) (A) (A) (A) (A) (A) (A) (A) (A)
                 (A) (A) (A) (A) (A) (A) (A) (A) (A) (A) (A) (A)
                 (A) (A) (A)
       Virtual   (A) (A) (A) (A) (A) (A) (A) (A) (A) (A) (A) (A)
                 (A) (A) (A) (A) (A) (A) (A) (A) (A) (A) (A) (A)
                 (A) (A) (A) (A) (A) (A) (A) (A) (A) (A) (A) (A)
                 (A) (A) (A) (A) (A) (A) (A) (A) (A) (A) (A) (A)
                 (A) (A) (A) (A) (A) (A) (A) (A) (A) (A) (A) (A)
                 (A) (A) (A) (A) (A) (A) (A) (A) (A) (A) (A) (A)
                 (A) (A) (A) (A) (A) (A) (A) (A) (A) (A) (A) (A)
                 (A) (A) (A) (A) (A) (A) (A) (A) (A) (A) (A) (A)
                 (A) (A) (A) (A) (A) (A) (A) (A) (A) (A) (A) (A)
                 (A) (A) (A) (A) (A) (A) (A) (A) (A) (A) (A) (A)
                 (A) (A) (A) (A) (A) (A) (A) (A) (A) (A) (A) (A)
                 (A) (A) (A) (A) (A) (A) (A) (A) (A) (A) (A) (A)
                 (A) (A) (A) (A) (A) (A)
 The electronic state is 1-A.
 Alpha  occ. eigenvalues --  -19.26678 -19.26674 -14.45593 -10.40210 -10.35488
 Alpha  occ. eigenvalues --  -10.34759 -10.32491 -10.32490 -10.32287 -10.31473
 Alpha  occ. eigenvalues --  -10.31472  -1.16110  -1.09046  -1.01098  -0.97260
 Alpha  occ. eigenvalues --   -0.88350  -0.85639  -0.78541  -0.72292  -0.71477
 Alpha  occ. eigenvalues --   -0.64937  -0.62445  -0.61539  -0.56758  -0.56653
 Alpha  occ. eigenvalues --   -0.53770  -0.52036  -0.49946  -0.49454  -0.47110
 Alpha  occ. eigenvalues --   -0.46485  -0.44908  -0.44724  -0.43312  -0.42552
 Alpha  occ. eigenvalues --   -0.39089  -0.38291  -0.34981  -0.34053
 Alpha virt. eigenvalues --    0.00944   0.04546   0.10384   0.14054   0.15252
 Alpha virt. eigenvalues --    0.16574   0.18687   0.19665   0.20298   0.21531
 Alpha virt. eigenvalues --    0.24522   0.26117   0.26441   0.29295   0.30807
 Alpha virt. eigenvalues --    0.32796   0.35281   0.36364   0.36697   0.38960
 Alpha virt. eigenvalues --    0.43420   0.43783   0.47932   0.48484   0.51086
 Alpha virt. eigenvalues --    0.53098   0.54104   0.56251   0.57431   0.57629
 Alpha virt. eigenvalues --    0.59081   0.60845   0.62995   0.64389   0.66748
 Alpha virt. eigenvalues --    0.68289   0.69868   0.70323   0.71384   0.71977
 Alpha virt. eigenvalues --    0.73082   0.73132   0.73526   0.75020   0.75033
 Alpha virt. eigenvalues --    0.76381   0.77337   0.79167   0.80088   0.80723
 Alpha virt. eigenvalues --    0.82426   0.87972   0.89558   0.92690   0.93394
 Alpha virt. eigenvalues --    0.94546   0.98006   0.99526   1.06359   1.06603
 Alpha virt. eigenvalues --    1.07799   1.09797   1.10418   1.15856   1.19461
 Alpha virt. eigenvalues --    1.23072   1.23376   1.28801   1.31206   1.31972
 Alpha virt. eigenvalues --    1.32009   1.33224   1.35651   1.37010   1.38830
 Alpha virt. eigenvalues --    1.41102   1.43251   1.45577   1.55736   1.57418
 Alpha virt. eigenvalues --    1.60497   1.65972   1.66697   1.68699   1.73487
 Alpha virt. eigenvalues --    1.73694   1.76830   1.77339   1.77922   1.80505
 Alpha virt. eigenvalues --    1.83498   1.83504   1.84305   1.85751   1.87557
 Alpha virt. eigenvalues --    1.87757   1.95004   1.97326   1.98253   2.02221
 Alpha virt. eigenvalues --    2.03179   2.04431   2.04731   2.05599   2.08086
 Alpha virt. eigenvalues --    2.12187   2.16049   2.17025   2.20239   2.23271
 Alpha virt. eigenvalues --    2.25801   2.28649   2.31212   2.31611   2.33900
 Alpha virt. eigenvalues --    2.35133   2.35767   2.39543   2.40229   2.41698
 Alpha virt. eigenvalues --    2.42547   2.43673   2.55154   2.62066   2.70467
 Alpha virt. eigenvalues --    2.70959   2.71775   2.72329   2.80638   2.85894
 Alpha virt. eigenvalues --    2.86264   2.92689   2.95299   2.97475   3.02280
 Alpha virt. eigenvalues --    3.03982   3.07434   3.08052   3.08492   3.11957
 Alpha virt. eigenvalues --    3.22579   3.22935   3.26284   3.35523   3.44678
 Alpha virt. eigenvalues --    3.50596   3.52541   3.74389   3.83696   3.86073
          Condensed to atoms (all electrons):
               1          2          3          4          5          6
     1  O    7.797976   0.364804  -0.062332  -0.079798   0.007233   0.001274
     2  C    0.364804   4.378602   0.364751   0.315047  -0.068865   0.008189
     3  O   -0.062332   0.364751   7.798091  -0.079825   0.006768  -0.000079
     4  C   -0.079798   0.315047  -0.079825   5.676705   0.237754   0.066828
     5  C    0.007233  -0.068865   0.006768   0.237754   5.105869   0.324582
     6  C    0.001274   0.008189  -0.000079   0.066828   0.324582   5.004546
     7  C   -0.000009  -0.000008  -0.000009  -0.163145   0.081119   0.284593
     8  C    0.000000   0.000071   0.000000   0.000499   0.013479  -0.086136
     9  N    0.000000   0.000000   0.000000   0.000011   0.000021  -0.001753
    10  C   -0.000079   0.008164   0.001270   0.066853  -0.116127   0.066805
    11  C    0.006775  -0.068807   0.007258   0.237449   0.046214  -0.116121
    12  H    0.332706  -0.031456  -0.000159   0.000526  -0.001327  -0.000208
    13  H   -0.029323   0.380427  -0.029325  -0.017523  -0.005311  -0.000337
    14  H   -0.000155  -0.031482   0.332729   0.000542  -0.000001  -0.000117
    15  H    0.018334  -0.014504   0.000478  -0.079235   0.457356  -0.051002
    16  H   -0.000017  -0.000156   0.000001   0.014107  -0.055891   0.462704
    17  H    0.000001  -0.000155  -0.000017   0.014106  -0.001968   0.011412
    18  H    0.000477  -0.014480   0.018305  -0.079261   0.010959  -0.001345
               7          8          9         10         11         12
     1  O   -0.000009   0.000000   0.000000  -0.000079   0.006775   0.332706
     2  C   -0.000008   0.000071   0.000000   0.008164  -0.068807  -0.031456
     3  O   -0.000009   0.000000   0.000000   0.001270   0.007258  -0.000159
     4  C   -0.163145   0.000499   0.000011   0.066853   0.237449   0.000526
     5  C    0.081119   0.013479   0.000021  -0.116127   0.046214  -0.001327
     6  C    0.284593  -0.086136  -0.001753   0.066805  -0.116121  -0.000208
     7  C    5.414068   0.311168  -0.032895   0.284593   0.081105  -0.000047
     8  C    0.311168   4.969177   0.929856  -0.086146   0.013484  -0.000002
     9  N   -0.032895   0.929856   6.165080  -0.001754   0.000021  -0.000000
    10  C    0.284593  -0.086146  -0.001754   5.004437   0.324732  -0.000116
    11  C    0.081105   0.013484   0.000021   0.324732   5.105888  -0.000005
    12  H   -0.000047  -0.000002  -0.000000  -0.000116  -0.000005   0.468770
    13  H   -0.000003  -0.000000  -0.000000  -0.000337  -0.005336   0.007952
    14  H   -0.000047  -0.000002  -0.000000  -0.000207  -0.001338   0.003560
    15  H    0.013477  -0.000293  -0.000001  -0.001344   0.010960   0.000090
    16  H   -0.063491  -0.017881  -0.000275   0.011411  -0.001967   0.000019
    17  H   -0.063489  -0.017880  -0.000275   0.462710  -0.055898   0.000001
    18  H    0.013480  -0.000293  -0.000001  -0.051021   0.457406  -0.000072
              13         14         15         16         17         18
     1  O   -0.029323  -0.000155   0.018334  -0.000017   0.000001   0.000477
     2  C    0.380427  -0.031482  -0.014504  -0.000156  -0.000155  -0.014480
     3  O   -0.029325   0.332729   0.000478   0.000001  -0.000017   0.018305
     4  C   -0.017523   0.000542  -0.079235   0.014107   0.014106  -0.079261
     5  C   -0.005311  -0.000001   0.457356  -0.055891  -0.001968   0.010959
     6  C   -0.000337  -0.000117  -0.051002   0.462704   0.011412  -0.001345
     7  C   -0.000003  -0.000047   0.013477  -0.063491  -0.063489   0.013480
     8  C   -0.000000  -0.000002  -0.000293  -0.017881  -0.017880  -0.000293
     9  N   -0.000000  -0.000000  -0.000001  -0.000275  -0.000275  -0.000001
    10  C   -0.000337  -0.000207  -0.001344   0.011411   0.462710  -0.051021
    11  C   -0.005336  -0.001338   0.010960  -0.001967  -0.055898   0.457406
    12  H    0.007952   0.003560   0.000090   0.000019   0.000001  -0.000072
    13  H    0.625005   0.007952   0.000173   0.000010   0.000010   0.000173
    14  H    0.007952   0.468772  -0.000072   0.000001   0.000019   0.000088
    15  H    0.000173  -0.000072   0.610312  -0.010104   0.000017  -0.000133
    16  H    0.000010   0.000001  -0.010104   0.601505  -0.000084   0.000017
    17  H    0.000010   0.000019   0.000017  -0.000084   0.601503  -0.010104
    18  H    0.000173   0.000088  -0.000133   0.000017  -0.010104   0.610306
 Mulliken charges:
               1
     1  O   -0.357866
     2  C    0.409859
     3  O   -0.357903
     4  C   -0.131638
     5  C   -0.041865
     6  C    0.026166
     7  C   -0.160460
     8  C   -0.029101
     9  N   -0.058034
    10  C    0.026156
    11  C   -0.041819
    12  H    0.219770
    13  H    0.065796
    14  H    0.219759
    15  H    0.045493
    16  H    0.060092
    17  H    0.060095
    18  H    0.045501
 Sum of Mulliken charges =  -0.00000
 Mulliken charges with hydrogens summed into heavy atoms:
               1
     1  O   -0.138096
     2  C    0.475655
     3  O   -0.138143
     4  C   -0.131638
     5  C    0.003628
     6  C    0.086259
     7  C   -0.160460
     8  C   -0.029101
     9  N   -0.058034
    10  C    0.086251
    11  C    0.003682
 APT charges:
               1
     1  O   -0.955865
     2  C    1.329942
     3  O   -0.955910
     4  C   -0.029238
     5  C   -0.167774
     6  C    0.012740
     7  C   -0.073994
     8  C    0.497177
     9  N   -0.609427
    10  C    0.012704
    11  C   -0.167751
    12  H    0.397323
    13  H   -0.070304
    14  H    0.397335
    15  H    0.100283
    16  H    0.091247
    17  H    0.091244
    18  H    0.100266
 Sum of APT charges =  -0.00000
 APT charges with hydrogens summed into heavy atoms:
               1
     1  O   -0.558542
     2  C    1.259638
     3  O   -0.558575
     4  C   -0.029238
     5  C   -0.067491
     6  C    0.103987
     7  C   -0.073994
     8  C    0.497177
     9  N   -0.609427
    10  C    0.103948
    11  C   -0.067485
 Electronic spatial extent (au):  <R**2>=           2100.8647
 Charge=             -0.0000 electrons
 Dipole moment (field-independent basis, Debye):
    X=              3.3359    Y=              0.0019    Z=              1.9402  Tot=              3.8591
 Quadrupole moment (field-independent basis, Debye-Ang):
   XX=           -102.3981   YY=            -56.5626   ZZ=            -59.1423
   XY=              0.0072   XZ=              6.5363   YZ=              0.0117
 Traceless Quadrupole moment (field-independent basis, Debye-Ang):
   XX=            -29.6971   YY=             16.1384   ZZ=             13.5587
   XY=              0.0072   XZ=              6.5363   YZ=              0.0117
 Octapole moment (field-independent basis, Debye-Ang**2):
  XXX=            132.8598  YYY=              0.0189  ZZZ=              8.5679  XYY=             -4.5934
  XXY=              0.0124  XXZ=              7.9008  XZZ=             28.1578  YZZ=             -0.0081
  YYZ=              6.8129  XYZ=              0.0235
 Hexadecapole moment (field-independent basis, Debye-Ang**3):
 XXXX=          -3220.9970 YYYY=           -369.7948 ZZZZ=            -78.0084 XXXY=              0.0771
 XXXZ=             69.5586 YYYX=              0.0594 YYYZ=              0.0423 ZZZX=             20.9898
 ZZZY=             -0.0250 XXYY=           -448.7775 XXZZ=           -341.1222 YYZZ=            -79.0868
 XXYZ=              0.0904 YYXZ=             19.1518 ZZXY=             -0.0171
 N-N= 5.458103019137D+02 E-N=-2.287599140490D+03  KE= 5.087717597007D+02
  Exact polarizability:     181.961      -0.003     132.204      -6.278       0.025      70.924
 Approx polarizability:     144.572      -0.002     108.098      -5.547       0.018      62.691
 No NMR shielding tensors so no spin-rotation constants.
 Leave Link  601 at Tue Oct 21 15:06:26 2025, MaxMem=  4294967296 cpu:               1.3 elap:               0.2
 (Enter /lrz/sys/applications/gaussian/g16.C.01/x86_64_legacy/exe/l701.exe)
 ... and contract with generalized density number  0.
 Compute integral second derivatives.
 R6Disp: Adding Grimme-D2 dispersion energy 2nd derivatives to the Hessian.
   1 Symmetry operations used in ECPInt.
 ECPInt:  NShTT=    3828 NPrTT=   14192 LenC2=    3693 LenP2D=   10495.
 LDataN:  DoStor=T MaxTD1= 6 Len=  172
 D2PCM: PCM CHGder 2nd derivatives, FixD1E=F FixD2E=F DoIter=F DoCFld=F I1PDM=0
 GePol: Maximum number of non-zero 2nd derivatives   =     259
 Leave Link  701 at Tue Oct 21 15:06:34 2025, MaxMem=  4294967296 cpu:              63.5 elap:               8.0
 (Enter /lrz/sys/applications/gaussian/g16.C.01/x86_64_legacy/exe/l702.exe)
 L702 exits ... SP integral derivatives will be done elsewhere.
 Leave Link  702 at Tue Oct 21 15:06:34 2025, MaxMem=  4294967296 cpu:               0.2 elap:               0.0
 (Enter /lrz/sys/applications/gaussian/g16.C.01/x86_64_legacy/exe/l703.exe)
 Integral derivatives from FoFJK, PRISM(SPDF).
 Compute integral second derivatives, UseDBF=F ICtDFT=           0.
 Calling FoFJK, ICntrl=    100127 FMM=F ISym2X=0 I1Cent= 0 IOpClX= 0 NMat=1 NMatS=1 NMatT=0.
 FoFJK:  IHMeth= 1 ICntrl=  100127 DoSepK=T KAlg= 0 I1Cent=           0 FoldK=F
 IRaf=         1 NMat=       1 IRICut=       1 DoRegI=T DoRafI=F ISym2E= 0 IDoP0=0 IntGTp=1.
 FoFCou: FMM=F IPFlag=           0 FMFlag=      100000 FMFlg1=         800
         NFxFlg=           0 DoJE=F BraDBF=F KetDBF=F FulRan=T
         wScrn=  0.000000 ICntrl=    100527 IOpCl=  0 I1Cent=           0 NGrid=           0
         NMat0=    1 NMatS0=      1 NMatT0=    0 NMatD0=    1 NMtDS0=    0 NMtDT0=    0
 Symmetry not used in FoFCou.
 Leave Link  703 at Tue Oct 21 15:08:08 2025, MaxMem=  4294967296 cpu:             746.0 elap:              93.3
 (Enter /lrz/sys/applications/gaussian/g16.C.01/x86_64_legacy/exe/l716.exe)
 Dipole        = 1.31244228D+00 7.35587006D-04 7.63334009D-01
 Polarizability= 1.81960809D+02-2.98970043D-03 1.32203763D+02
                -6.27813630D+00 2.48875141D-02 7.09242399D+01
 Full mass-weighted force constant matrix:
 Low frequencies ---  -37.9318  -14.8905  -12.0986   -0.0006   -0.0004    0.0003
 Low frequencies ---   30.7890   74.9439  133.0276
 Diagonal vibrational polarizability:
       80.7862507     158.5810102      63.6861050
 Harmonic frequencies (cm**-1), IR intensities (KM/Mole), Raman scattering
 activities (A**4/AMU), depolarization ratios for plane and unpolarized
 incident light, reduced masses (AMU), force constants (mDyne/A),
 and normal coordinates:
                      1                      2                      3
                      A                      A                      A
 Frequencies --     23.4423                74.8708               133.0040
 Red. masses --      4.5686                 7.8768                 9.7088
 Frc consts  --      0.0015                 0.0260                 0.1012
 IR Inten    --      2.0090                11.1855                14.9225
  Atom  AN      X      Y      Z        X      Y      Z        X      Y      Z
     1   8     0.03   0.04  -0.27    -0.07  -0.00   0.21    -0.20   0.15   0.04
     2   6     0.00  -0.06   0.00     0.04   0.00   0.08     0.00   0.06   0.00
     3   8    -0.03   0.04   0.27    -0.07   0.00   0.21     0.20   0.15  -0.04
     4   6     0.00  -0.02  -0.00     0.01   0.00  -0.18     0.00  -0.14  -0.00
     5   6     0.02  -0.02   0.16     0.01   0.00  -0.23    -0.04  -0.16   0.02
     6   6     0.02  -0.01   0.17     0.01   0.00  -0.21    -0.03  -0.21   0.02
     7   6     0.00  -0.00  -0.00     0.02   0.00  -0.15    -0.00  -0.23  -0.00
     8   6     0.00   0.00   0.00     0.03  -0.00   0.12     0.00   0.02   0.00
     9   7     0.00   0.01   0.00     0.05  -0.00   0.43     0.00   0.58   0.00
    10   6    -0.02  -0.01  -0.17     0.01  -0.00  -0.21     0.03  -0.21  -0.02
    11   6    -0.02  -0.02  -0.16     0.01   0.00  -0.23     0.04  -0.16  -0.02
    12   1     0.07   0.24  -0.28    -0.27  -0.01   0.14    -0.24   0.07   0.04
    13   1     0.00  -0.31   0.00     0.25   0.00   0.13     0.00   0.14   0.00
    14   1    -0.07   0.24   0.28    -0.27   0.01   0.14     0.24   0.07  -0.04
    15   1     0.03  -0.02   0.28     0.01   0.00  -0.23    -0.07  -0.15   0.03
    16   1     0.03  -0.01   0.31     0.01   0.00  -0.19    -0.06  -0.23   0.04
    17   1    -0.03  -0.01  -0.31     0.01   0.00  -0.19     0.06  -0.23  -0.04
    18   1    -0.03  -0.02  -0.28     0.01  -0.00  -0.23     0.07  -0.15  -0.03
                      4                      5                      6
                      A                      A                      A
 Frequencies --    203.8714               228.6576               312.4928
 Red. masses --      5.4210                 5.5437                 4.7146
 Frc consts  --      0.1328                 0.1708                 0.2713
 IR Inten    --      6.9041                 0.2863                16.1022
  Atom  AN      X      Y      Z        X      Y      Z        X      Y      Z
     1   8    -0.12   0.00   0.07    -0.25   0.06   0.02     0.21  -0.04   0.05
     2   6     0.01   0.00  -0.08     0.00  -0.06  -0.00     0.13   0.00   0.03
     3   8    -0.12  -0.00   0.07     0.25   0.06  -0.02     0.21   0.04   0.05
     4   6     0.01   0.00  -0.26     0.00  -0.18  -0.00     0.04  -0.00  -0.06
     5   6     0.03   0.00  -0.15     0.12  -0.11   0.01    -0.05  -0.04  -0.13
     6   6     0.05   0.00   0.15     0.13   0.09   0.01    -0.07  -0.03  -0.01
     7   6     0.07  -0.00   0.28    -0.00   0.18   0.00    -0.14  -0.00   0.13
     8   6     0.07  -0.00   0.16    -0.00   0.15   0.00    -0.17   0.00   0.14
     9   7     0.04   0.00  -0.24    -0.00  -0.19  -0.00    -0.19   0.00  -0.07
    10   6     0.05  -0.00   0.15    -0.13   0.09  -0.01    -0.07   0.03  -0.01
    11   6     0.03  -0.00  -0.15    -0.12  -0.11  -0.01    -0.05   0.04  -0.13
    12   1    -0.41   0.03  -0.04    -0.36   0.03  -0.02     0.48  -0.22   0.17
    13   1     0.24  -0.00  -0.02     0.00  -0.01  -0.00     0.13   0.00   0.03
    14   1    -0.41  -0.03  -0.04     0.36   0.03   0.02     0.47   0.21   0.16
    15   1     0.03   0.00  -0.23     0.25  -0.18  -0.00    -0.11  -0.01  -0.18
    16   1     0.05   0.00   0.23     0.26   0.17   0.02    -0.02  -0.00  -0.02
    17   1     0.05  -0.00   0.23    -0.26   0.17  -0.02    -0.02   0.00  -0.02
    18   1     0.03  -0.00  -0.23    -0.25  -0.18   0.00    -0.11   0.00  -0.18
                      7                      8                      9
                      A                      A                      A
 Frequencies --    339.3353               391.4243               420.7121
 Red. masses --      1.1269                 1.3609                 2.8619
 Frc consts  --      0.0765                 0.1228                 0.2984
 IR Inten    --    102.4782               280.0281                 0.3717
  Atom  AN      X      Y      Z        X      Y      Z        X      Y      Z
     1   8     0.01  -0.04   0.02    -0.05  -0.01  -0.00     0.01   0.01   0.00
     2   6     0.00  -0.02  -0.00    -0.07  -0.00   0.00     0.00   0.01   0.00
     3   8    -0.01  -0.04  -0.02    -0.05   0.01  -0.00    -0.01   0.01  -0.00
     4   6     0.00   0.03  -0.00    -0.05   0.00   0.02     0.00  -0.00  -0.00
     5   6    -0.01   0.03  -0.00    -0.01   0.02  -0.02    -0.01  -0.00  -0.21
     6   6    -0.02   0.00   0.01     0.00   0.02  -0.02     0.02  -0.00   0.20
     7   6    -0.00  -0.01   0.00     0.04   0.00   0.02    -0.00  -0.00  -0.00
     8   6    -0.00  -0.02   0.00     0.07  -0.00   0.03    -0.00   0.00  -0.00
     9   7    -0.00   0.01  -0.00     0.07   0.00  -0.02    -0.00  -0.00   0.00
    10   6     0.02   0.00  -0.01     0.00  -0.02  -0.02    -0.02  -0.00  -0.20
    11   6     0.01   0.03   0.00    -0.01  -0.02  -0.02     0.01  -0.00   0.21
    12   1    -0.55   0.36  -0.23     0.49  -0.42   0.25     0.06  -0.04   0.03
    13   1     0.00  -0.06  -0.00    -0.11   0.00  -0.01     0.00   0.02   0.00
    14   1     0.55   0.36   0.23     0.49   0.42   0.25    -0.06  -0.04  -0.03
    15   1    -0.04   0.04  -0.03     0.03  -0.00  -0.03    -0.02  -0.01  -0.44
    16   1    -0.03  -0.01   0.02    -0.03   0.00  -0.03     0.03  -0.00   0.46
    17   1     0.03  -0.01  -0.02    -0.03  -0.00  -0.03    -0.03  -0.00  -0.46
    18   1     0.04   0.04   0.03     0.03   0.01  -0.03     0.02  -0.01   0.44
                     10                     11                     12
                      A                      A                      A
 Frequencies --    429.7736               480.6503               539.0485
 Red. masses --      3.4430                 5.3414                 7.3998
 Frc consts  --      0.3747                 0.7270                 1.2668
 IR Inten    --     20.9077                25.8076                84.6182
  Atom  AN      X      Y      Z        X      Y      Z        X      Y      Z
     1   8     0.02   0.03  -0.04     0.24   0.10   0.06     0.19  -0.20   0.05
     2   6    -0.07  -0.00   0.13    -0.00   0.20   0.00    -0.11  -0.00  -0.02
     3   8     0.02  -0.04  -0.04    -0.24   0.10  -0.06     0.19   0.20   0.05
     4   6    -0.04   0.00   0.24    -0.00  -0.14   0.00    -0.22   0.00  -0.07
     5   6    -0.02   0.02  -0.05     0.06  -0.18   0.00    -0.17   0.07  -0.06
     6   6    -0.02   0.02  -0.13     0.09  -0.07  -0.01    -0.14   0.09   0.09
     7   6     0.04  -0.00   0.12     0.00   0.00   0.00     0.07  -0.00   0.02
     8   6     0.07  -0.00   0.23     0.00   0.19   0.00     0.21  -0.00  -0.17
     9   7     0.06   0.00  -0.10     0.00  -0.06  -0.00     0.25   0.00   0.04
    10   6    -0.02  -0.02  -0.13    -0.09  -0.07   0.01    -0.14  -0.09   0.09
    11   6    -0.02  -0.02  -0.05    -0.06  -0.18  -0.00    -0.17  -0.07  -0.06
    12   1    -0.15   0.38  -0.15    -0.05   0.43  -0.08    -0.24   0.16  -0.15
    13   1    -0.26  -0.00   0.09    -0.00   0.27  -0.00    -0.18  -0.00  -0.04
    14   1    -0.14  -0.38  -0.15     0.05   0.43   0.08    -0.24  -0.16  -0.15
    15   1    -0.01   0.01  -0.24     0.14  -0.22  -0.01    -0.12   0.04  -0.08
    16   1    -0.06   0.00  -0.33     0.17  -0.03  -0.03    -0.27   0.01   0.16
    17   1    -0.06  -0.00  -0.33    -0.17  -0.03   0.03    -0.27  -0.01   0.16
    18   1    -0.01  -0.01  -0.24    -0.14  -0.22   0.00    -0.12  -0.04  -0.08
                     13                     14                     15
                      A                      A                      A
 Frequencies --    579.0379               579.8023               623.9093
 Red. masses --      6.7791                 4.8706                 3.3004
 Frc consts  --      1.3392                 0.9647                 0.7569
 IR Inten    --      0.0718                16.4059               109.1420
  Atom  AN      X      Y      Z        X      Y      Z        X      Y      Z
     1   8    -0.06  -0.02  -0.02     0.02  -0.12   0.04    -0.02  -0.18   0.03
     2   6     0.00  -0.04   0.01    -0.01  -0.00  -0.15    -0.08  -0.00  -0.16
     3   8     0.06  -0.03   0.01     0.02   0.12   0.04    -0.02   0.18   0.03
     4   6     0.00   0.15   0.00    -0.01   0.00  -0.10     0.03   0.00   0.13
     5   6     0.01   0.14  -0.01     0.00   0.01   0.14     0.07  -0.00   0.03
     6   6     0.03  -0.23   0.00    -0.01  -0.00  -0.10     0.07  -0.02  -0.04
     7   6     0.00  -0.17   0.01    -0.01  -0.00  -0.23     0.01  -0.00   0.15
     8   6    -0.00   0.54  -0.01     0.03   0.01   0.38    -0.08  -0.00  -0.08
     9   7    -0.00  -0.15   0.00     0.00  -0.00  -0.13    -0.08  -0.00   0.04
    10   6    -0.03  -0.23   0.01    -0.01  -0.01  -0.10     0.07   0.02  -0.04
    11   6    -0.01   0.14  -0.00     0.00   0.00   0.14     0.07   0.00   0.03
    12   1     0.00  -0.10   0.02    -0.21  -0.17  -0.04    -0.25  -0.26  -0.04
    13   1    -0.00  -0.08   0.01     0.05  -0.00  -0.13    -0.15   0.00  -0.18
    14   1     0.01  -0.11  -0.01    -0.22   0.17  -0.04    -0.26   0.26  -0.04
    15   1    -0.18   0.25  -0.01     0.02   0.01   0.48     0.07  -0.01  -0.27
    16   1    -0.15  -0.33   0.01    -0.01  -0.01   0.14     0.08   0.00  -0.40
    17   1     0.15  -0.33  -0.01    -0.00  -0.01   0.14     0.08  -0.01  -0.40
    18   1     0.18   0.25  -0.03     0.03   0.00   0.48     0.07   0.01  -0.27
                     16                     17                     18
                      A                      A                      A
 Frequencies --    659.5612               708.9478               790.1904
 Red. masses --      7.4483                 3.3373                 3.6051
 Frc consts  --      1.9091                 0.9883                 1.3263
 IR Inten    --      0.3091                21.2784                14.9926
  Atom  AN      X      Y      Z        X      Y      Z        X      Y      Z
     1   8    -0.01  -0.03  -0.01    -0.01   0.07   0.02    -0.03  -0.01   0.01
     2   6    -0.00  -0.01  -0.00     0.19  -0.00  -0.13     0.08  -0.00  -0.10
     3   8     0.01  -0.03   0.01    -0.01  -0.07   0.02    -0.03   0.01   0.01
     4   6    -0.00  -0.08  -0.00     0.05   0.00  -0.06     0.11  -0.00   0.23
     5   6    -0.30  -0.20   0.02    -0.09  -0.05   0.12    -0.05  -0.12  -0.07
     6   6    -0.29   0.15   0.02    -0.10  -0.02  -0.08    -0.03  -0.09   0.11
     7   6     0.00   0.08   0.00    -0.02  -0.00   0.16    -0.07   0.00  -0.21
     8   6    -0.00   0.29   0.00     0.09   0.00  -0.04     0.07   0.00   0.06
     9   7    -0.00  -0.06  -0.00     0.11  -0.00   0.01     0.08   0.00  -0.02
    10   6     0.29   0.15  -0.02    -0.10   0.02  -0.08    -0.03   0.09   0.11
    11   6     0.30  -0.20  -0.02    -0.09   0.05   0.12    -0.05   0.12  -0.07
    12   1     0.01  -0.05  -0.00    -0.07  -0.17   0.03    -0.12  -0.19   0.00
    13   1    -0.00  -0.04  -0.00     0.40  -0.00  -0.08     0.03   0.00  -0.11
    14   1    -0.01  -0.05   0.00    -0.07   0.17   0.03    -0.12   0.19   0.00
    15   1    -0.24  -0.24   0.02    -0.18   0.00   0.00    -0.21  -0.05  -0.50
    16   1    -0.23   0.18   0.02    -0.15  -0.03  -0.47     0.04  -0.06   0.16
    17   1     0.23   0.18  -0.02    -0.15   0.03  -0.47     0.04   0.06   0.16
    18   1     0.25  -0.24  -0.02    -0.18  -0.00   0.00    -0.21   0.05  -0.50
                     19                     20                     21
                      A                      A                      A
 Frequencies --    839.3659               878.2295               903.8469
 Red. masses --      3.4893                 1.2458                 1.9829
 Frc consts  --      1.4484                 0.5661                 0.9544
 IR Inten    --     26.7672                 0.0003                16.8745
  Atom  AN      X      Y      Z        X      Y      Z        X      Y      Z
     1   8    -0.01  -0.06  -0.02     0.00   0.00   0.00    -0.01   0.01   0.01
     2   6    -0.12   0.00   0.09    -0.00  -0.00   0.00     0.09  -0.00  -0.09
     3   8    -0.01   0.06  -0.02    -0.00   0.00  -0.00    -0.01  -0.01   0.01
     4   6     0.06   0.00  -0.05    -0.00   0.00  -0.00     0.03  -0.00   0.17
     5   6    -0.03  -0.18  -0.03    -0.00   0.00  -0.07    -0.01   0.03  -0.08
     6   6     0.03  -0.19  -0.07    -0.00  -0.00  -0.08    -0.03   0.06  -0.07
     7   6    -0.07  -0.00   0.13     0.00  -0.00   0.00     0.02  -0.00   0.09
     8   6     0.05  -0.00  -0.05    -0.00  -0.00  -0.00    -0.01   0.00  -0.04
     9   7     0.08  -0.00   0.01    -0.00   0.00   0.00    -0.01  -0.00   0.01
    10   6     0.03   0.19  -0.07     0.00  -0.00   0.08    -0.03  -0.06  -0.07
    11   6    -0.03   0.18  -0.03     0.00   0.00   0.07    -0.01  -0.03  -0.08
    12   1     0.07   0.11  -0.02    -0.01   0.01  -0.00    -0.14  -0.15  -0.01
    13   1    -0.25   0.00   0.06    -0.00  -0.00   0.00     0.04   0.00  -0.10
    14   1     0.07  -0.11  -0.02     0.01   0.01   0.00    -0.14   0.15  -0.01
    15   1    -0.14  -0.11   0.47     0.04  -0.00   0.48     0.04   0.03   0.38
    16   1     0.20  -0.11   0.19     0.03   0.00   0.51    -0.03   0.04   0.51
    17   1     0.20   0.11   0.19    -0.03   0.00  -0.51    -0.03  -0.04   0.51
    18   1    -0.14   0.11   0.47    -0.04  -0.00  -0.48     0.04  -0.03   0.38
                     22                     23                     24
                      A                      A                      A
 Frequencies --   1020.9044              1031.9795              1034.1934
 Red. masses --      1.4275                 1.3724                 2.5523
 Frc consts  --      0.8766                 0.8611                 1.6084
 IR Inten    --      0.6886                 0.0086                21.4664
  Atom  AN      X      Y      Z        X      Y      Z        X      Y      Z
     1   8    -0.00  -0.00  -0.00     0.00   0.00   0.00     0.01   0.02   0.01
     2   6     0.02  -0.00  -0.01     0.00  -0.00  -0.00     0.01   0.00  -0.02
     3   8    -0.00   0.00  -0.00    -0.00   0.00  -0.00     0.01  -0.02   0.01
     4   6     0.02  -0.00   0.04    -0.00   0.00   0.00    -0.03  -0.00   0.02
     5   6    -0.01  -0.02  -0.09    -0.01   0.00  -0.09     0.02   0.18  -0.02
     6   6    -0.00   0.03   0.09     0.01  -0.00   0.09     0.03  -0.18   0.01
     7   6     0.00   0.00  -0.04    -0.00  -0.00  -0.00    -0.04  -0.00  -0.00
     8   6    -0.00  -0.00   0.02     0.00   0.00   0.00     0.01   0.00   0.00
     9   7    -0.00   0.00  -0.00     0.00  -0.00  -0.00     0.02  -0.00  -0.00
    10   6    -0.00  -0.03   0.09    -0.01   0.00  -0.09     0.03   0.18   0.02
    11   6    -0.01   0.02  -0.09     0.01  -0.00   0.09     0.02  -0.18  -0.03
    12   1    -0.03  -0.03  -0.01    -0.00   0.01  -0.00    -0.03  -0.05   0.00
    13   1    -0.02   0.00  -0.02    -0.00  -0.00  -0.00    -0.01   0.00  -0.03
    14   1    -0.03   0.03  -0.01     0.00   0.01   0.00    -0.03   0.05   0.00
    15   1     0.07  -0.05   0.48     0.04  -0.00   0.51    -0.28   0.37   0.13
    16   1    -0.01   0.05  -0.48    -0.04  -0.01  -0.47    -0.25  -0.35  -0.07
    17   1    -0.01  -0.05  -0.48     0.03   0.00   0.47    -0.25   0.35  -0.10
    18   1     0.07   0.05   0.49    -0.05  -0.01  -0.51    -0.28  -0.37   0.16
                     25                     26                     27
                      A                      A                      A
 Frequencies --   1125.2676              1139.7362              1180.4620
 Red. masses --      1.2419                 3.7846                 1.1172
 Frc consts  --      0.9265                 2.8966                 0.9172
 IR Inten    --     14.5872               100.5739                 4.4312
  Atom  AN      X      Y      Z        X      Y      Z        X      Y      Z
     1   8    -0.00  -0.01  -0.00    -0.10  -0.16  -0.07     0.01   0.02   0.01
     2   6    -0.00   0.01  -0.00     0.11   0.00   0.18    -0.02   0.00  -0.01
     3   8     0.00  -0.01   0.00    -0.10   0.16  -0.07     0.01  -0.02   0.01
     4   6    -0.00   0.03   0.00     0.26   0.00  -0.02     0.01   0.00  -0.01
     5   6    -0.06  -0.03   0.00     0.03   0.05   0.00    -0.03   0.03   0.00
     6   6     0.06  -0.03  -0.00    -0.07   0.07   0.01     0.03   0.03  -0.00
     7   6    -0.00   0.04   0.00    -0.01   0.00  -0.00    -0.03   0.00   0.00
     8   6     0.00  -0.01  -0.00     0.01  -0.00  -0.00     0.01  -0.00  -0.00
     9   7     0.00   0.00  -0.00     0.01   0.00  -0.00     0.01   0.00  -0.00
    10   6    -0.06  -0.03   0.00    -0.07  -0.07   0.01     0.03  -0.03  -0.00
    11   6     0.06  -0.03  -0.00     0.03  -0.05  -0.00    -0.03  -0.03   0.00
    12   1    -0.01  -0.03  -0.00     0.20   0.22  -0.03    -0.03  -0.05   0.00
    13   1    -0.00  -0.01  -0.00     0.35   0.00   0.23    -0.13   0.00  -0.04
    14   1     0.00  -0.03   0.00     0.20  -0.22  -0.03    -0.03   0.05   0.00
    15   1    -0.47   0.20   0.04    -0.32   0.26   0.01    -0.40   0.24   0.03
    16   1     0.44   0.18  -0.03    -0.19   0.02   0.01     0.44   0.27  -0.03
    17   1    -0.44   0.18   0.03    -0.19  -0.02   0.01     0.43  -0.27  -0.03
    18   1     0.47   0.20  -0.04    -0.32  -0.26   0.01    -0.40  -0.24   0.03
                     28                     29                     30
                      A                      A                      A
 Frequencies --   1213.3641              1234.7489              1242.5408
 Red. masses --      1.2835                 2.0301                 2.6694
 Frc consts  --      1.1133                 1.8236                 2.4282
 IR Inten    --    352.9072                63.3845                13.8023
  Atom  AN      X      Y      Z        X      Y      Z        X      Y      Z
     1   8    -0.05  -0.07  -0.01     0.02   0.04   0.02    -0.02  -0.04  -0.02
     2   6     0.00   0.06   0.00    -0.06  -0.00   0.00     0.06   0.00  -0.02
     3   8     0.05  -0.07   0.01     0.02  -0.04   0.02    -0.02   0.04  -0.02
     4   6     0.00  -0.01  -0.00     0.12   0.00  -0.05    -0.17  -0.00   0.06
     5   6    -0.00   0.01   0.00    -0.02  -0.06   0.01    -0.10  -0.05  -0.00
     6   6     0.01   0.00  -0.00     0.00   0.04   0.00     0.09  -0.04  -0.01
     7   6     0.00  -0.01  -0.00     0.22  -0.00  -0.01     0.23  -0.00  -0.01
     8   6    -0.00   0.00  -0.00    -0.03   0.00   0.00    -0.03   0.00   0.00
     9   7    -0.00  -0.00  -0.00    -0.08   0.00   0.00    -0.09  -0.00   0.01
    10   6    -0.01   0.00   0.00     0.00  -0.04   0.00     0.09   0.04  -0.01
    11   6     0.01   0.01  -0.00    -0.02   0.06   0.01    -0.10   0.05  -0.00
    12   1     0.35   0.51   0.04    -0.10  -0.13   0.00     0.14   0.17   0.00
    13   1    -0.00   0.45  -0.00    -0.56  -0.00  -0.12     0.78   0.00   0.16
    14   1    -0.35   0.51  -0.05    -0.10   0.13   0.00     0.14  -0.17   0.01
    15   1    -0.01   0.01  -0.00    -0.32   0.10   0.00    -0.22   0.01   0.04
    16   1    -0.01  -0.00   0.00    -0.35  -0.17   0.02     0.09  -0.05   0.00
    17   1     0.01  -0.00  -0.00    -0.35   0.17   0.02     0.09   0.05   0.00
    18   1     0.01   0.01   0.00    -0.32  -0.10   0.00    -0.22  -0.01   0.05
                     31                     32                     33
                      A                      A                      A
 Frequencies --   1284.0682              1311.7951              1340.8151
 Red. masses --      2.8496                 1.3569                 2.2380
 Frc consts  --      2.7682                 1.3757                 2.3705
 IR Inten    --    105.9780                12.7460                50.1001
  Atom  AN      X      Y      Z        X      Y      Z        X      Y      Z
     1   8    -0.03  -0.10  -0.07    -0.00  -0.02  -0.02    -0.02  -0.03  -0.06
     2   6    -0.00   0.32  -0.00    -0.00   0.08  -0.00     0.21   0.00   0.19
     3   8     0.03  -0.10   0.07     0.00  -0.02   0.02    -0.02   0.03  -0.06
     4   6     0.00   0.12   0.00     0.00  -0.07  -0.00    -0.10   0.00  -0.03
     5   6     0.00  -0.03  -0.00     0.05  -0.03  -0.01    -0.04   0.01   0.01
     6   6    -0.02  -0.03   0.00     0.02   0.01  -0.00     0.03  -0.03   0.00
     7   6    -0.00   0.02   0.00     0.00   0.11   0.00     0.02   0.00  -0.00
     8   6     0.00  -0.00  -0.00    -0.00  -0.01  -0.00    -0.00  -0.00   0.00
     9   7     0.00   0.00  -0.00    -0.00   0.00   0.00    -0.01   0.00   0.00
    10   6     0.02  -0.03  -0.00    -0.02   0.01   0.00     0.03   0.03   0.00
    11   6    -0.00  -0.03   0.00    -0.05  -0.03   0.01    -0.04  -0.01   0.01
    12   1    -0.26  -0.39  -0.11    -0.07  -0.11  -0.03    -0.32  -0.46  -0.10
    13   1     0.00   0.27  -0.00    -0.00   0.12  -0.00    -0.46  -0.00   0.04
    14   1     0.26  -0.39   0.11     0.07  -0.11   0.03    -0.32   0.45  -0.10
    15   1     0.29  -0.20  -0.01    -0.39   0.22   0.04     0.09  -0.06  -0.04
    16   1     0.16   0.07  -0.01    -0.44  -0.26   0.03     0.11   0.01  -0.01
    17   1    -0.17   0.07   0.01     0.44  -0.26  -0.03     0.11  -0.01  -0.01
    18   1    -0.29  -0.20   0.01     0.39   0.22  -0.04     0.09   0.06  -0.04
                     34                     35                     36
                      A                      A                      A
 Frequencies --   1360.6956              1431.5410              1438.9332
 Red. masses --      6.3545                 1.6266                 1.4440
 Frc consts  --      6.9319                 1.9640                 1.7616
 IR Inten    --      7.9775                11.9367               250.8850
  Atom  AN      X      Y      Z        X      Y      Z        X      Y      Z
     1   8    -0.02   0.02   0.04     0.02   0.02  -0.02     0.04   0.03  -0.04
     2   6    -0.00  -0.10  -0.00     0.00  -0.09  -0.00    -0.15   0.00   0.08
     3   8     0.02   0.02  -0.04    -0.02   0.02   0.02     0.04  -0.03  -0.04
     4   6     0.00   0.36   0.00    -0.00  -0.04  -0.00     0.03  -0.00   0.01
     5   6     0.16  -0.15  -0.01     0.10   0.01  -0.01     0.02  -0.01  -0.00
     6   6    -0.18  -0.17   0.01    -0.11  -0.00   0.01    -0.01   0.01   0.00
     7   6    -0.00   0.36   0.00     0.00  -0.04  -0.00    -0.02  -0.00   0.00
     8   6     0.00  -0.03  -0.00    -0.00   0.01   0.00     0.00   0.00  -0.00
     9   7     0.00   0.01  -0.00    -0.00  -0.00   0.00     0.01  -0.00  -0.00
    10   6     0.18  -0.17  -0.01     0.11  -0.00  -0.01    -0.01  -0.01   0.00
    11   6    -0.16  -0.15   0.01    -0.10   0.01   0.01     0.02   0.01  -0.00
    12   1     0.22   0.30   0.08    -0.12  -0.14  -0.05    -0.26  -0.41  -0.07
    13   1     0.00  -0.46   0.00    -0.00   0.84  -0.00     0.63   0.00   0.28
    14   1    -0.22   0.29  -0.08     0.12  -0.14   0.05    -0.26   0.40  -0.07
    15   1     0.00  -0.07  -0.00    -0.10   0.13   0.01    -0.05   0.03   0.01
    16   1     0.08  -0.03  -0.01     0.16   0.17  -0.01    -0.06  -0.01   0.01
    17   1    -0.08  -0.03   0.01    -0.16   0.17   0.01    -0.06   0.01   0.01
    18   1    -0.00  -0.07   0.00     0.10   0.13  -0.01    -0.05  -0.02   0.01
                     37                     38                     39
                      A                      A                      A
 Frequencies --   1455.8857              1552.9811              1653.0293
 Red. masses --      2.2209                 2.9786                 7.6185
 Frc consts  --      2.7735                 4.2324                12.2654
 IR Inten    --    103.0211                 3.0723                 0.8768
  Atom  AN      X      Y      Z        X      Y      Z        X      Y      Z
     1   8     0.02   0.02  -0.02     0.00   0.00  -0.00    -0.01   0.00   0.00
     2   6    -0.00  -0.15   0.00    -0.06  -0.00   0.00    -0.00  -0.07  -0.00
     3   8    -0.01   0.02   0.02     0.00  -0.00  -0.00     0.01   0.00  -0.00
     4   6    -0.00   0.11   0.00     0.19   0.00  -0.01    -0.00   0.42   0.00
     5   6    -0.13  -0.02   0.01    -0.10   0.11   0.01     0.11  -0.24  -0.01
     6   6     0.11  -0.04  -0.01    -0.11  -0.12   0.01     0.12   0.23  -0.01
     7   6    -0.00   0.13   0.00     0.20  -0.00  -0.01    -0.00  -0.38  -0.00
     8   6     0.00  -0.02  -0.00    -0.00   0.00   0.00     0.00   0.03   0.00
     9   7     0.00   0.00  -0.00    -0.04  -0.00   0.00     0.00  -0.01  -0.00
    10   6    -0.11  -0.04   0.01    -0.11   0.12   0.01    -0.12   0.23   0.01
    11   6     0.13  -0.02  -0.01    -0.10  -0.11   0.01    -0.11  -0.24   0.01
    12   1    -0.09  -0.09  -0.04    -0.01  -0.02  -0.00     0.01   0.01   0.00
    13   1     0.00   0.76  -0.00     0.04   0.00   0.03     0.00   0.12  -0.00
    14   1     0.09  -0.09   0.04    -0.01   0.02  -0.00    -0.01   0.01  -0.00
    15   1     0.18  -0.21  -0.02     0.41  -0.16  -0.03    -0.30  -0.04   0.02
    16   1    -0.14  -0.21   0.01     0.43   0.18  -0.03    -0.31   0.02   0.02
    17   1     0.14  -0.21  -0.01     0.43  -0.18  -0.03     0.31   0.02  -0.02
    18   1    -0.18  -0.21   0.02     0.41   0.16  -0.03     0.30  -0.04  -0.02
                     40                     41                     42
                      A                      A                      A
 Frequencies --   1703.6135              2355.1861              3110.3852
 Red. masses --      6.8125                12.6710                 1.0881
 Frc consts  --     11.6493                41.4105                 6.2024
 IR Inten    --     12.2324               177.5461                29.2963
  Atom  AN      X      Y      Z        X      Y      Z        X      Y      Z
     1   8    -0.00  -0.00  -0.00     0.00   0.00   0.00    -0.00  -0.00   0.00
     2   6     0.05  -0.00  -0.00    -0.00  -0.00  -0.00     0.02  -0.00  -0.08
     3   8    -0.00   0.00  -0.00     0.00  -0.00   0.00    -0.00   0.00   0.00
     4   6    -0.23   0.00   0.02    -0.00   0.00   0.00     0.00   0.00   0.00
     5   6     0.32  -0.09  -0.02     0.01  -0.00  -0.00    -0.00   0.00  -0.00
     6   6    -0.31  -0.09   0.02    -0.01  -0.00   0.00     0.00  -0.00  -0.00
     7   6     0.20  -0.00  -0.01    -0.13   0.00   0.01    -0.00   0.00  -0.00
     8   6    -0.00   0.00   0.00     0.80   0.00  -0.05     0.00  -0.00   0.00
     9   7    -0.03   0.00   0.00    -0.58  -0.00   0.04    -0.00  -0.00  -0.00
    10   6    -0.31   0.09   0.02    -0.01   0.00   0.00     0.00   0.00  -0.00
    11   6     0.32   0.09  -0.02     0.01   0.00  -0.00    -0.00  -0.00  -0.00
    12   1     0.01   0.01   0.00    -0.00  -0.00  -0.00     0.01   0.00  -0.01
    13   1    -0.02  -0.00  -0.02     0.01   0.00   0.00    -0.24   0.00   0.97
    14   1     0.01  -0.01   0.00    -0.00   0.00  -0.00     0.01  -0.01  -0.01
    15   1    -0.23   0.24   0.02     0.00   0.00  -0.00     0.00   0.00   0.00
    16   1     0.24   0.25  -0.02    -0.01   0.00   0.00     0.00   0.00   0.00
    17   1     0.24  -0.25  -0.02    -0.01  -0.00   0.00     0.00  -0.00   0.00
    18   1    -0.23  -0.24   0.02     0.00  -0.00  -0.00     0.00  -0.00   0.00
                     43                     44                     45
                      A                      A                      A
 Frequencies --   3230.7923              3231.7674              3242.5266
 Red. masses --      1.0911                 1.0909                 1.0979
 Frc consts  --      6.7103                 6.7127                 6.8008
 IR Inten    --      0.1886                 0.0089                 1.2512
  Atom  AN      X      Y      Z        X      Y      Z        X      Y      Z
     1   8    -0.00   0.00   0.00     0.00  -0.00  -0.00    -0.00   0.00   0.00
     2   6    -0.00   0.00   0.00     0.00   0.00  -0.00     0.00  -0.00  -0.00
     3   8    -0.00  -0.00   0.00    -0.00  -0.00   0.00     0.00   0.00  -0.00
     4   6    -0.00  -0.00   0.00    -0.00  -0.00  -0.00     0.00   0.00   0.00
     5   6    -0.02  -0.04   0.00     0.02   0.04  -0.00    -0.03  -0.04   0.00
     6   6    -0.02   0.04   0.00     0.02  -0.04  -0.00     0.02  -0.03  -0.00
     7   6    -0.00   0.00   0.00     0.00   0.00   0.00    -0.00   0.00   0.00
     8   6     0.00  -0.00  -0.00    -0.00  -0.00  -0.00     0.00  -0.00  -0.00
     9   7     0.00   0.00  -0.00    -0.00   0.00   0.00     0.00   0.00  -0.00
    10   6    -0.02  -0.04   0.00    -0.02  -0.04   0.00    -0.02  -0.04   0.00
    11   6    -0.02   0.04   0.00    -0.02   0.04   0.00     0.03  -0.04  -0.00
    12   1     0.00  -0.00   0.00    -0.00   0.00  -0.00     0.00  -0.00   0.00
    13   1     0.00  -0.00  -0.00     0.00  -0.00   0.00    -0.00   0.00   0.00
    14   1     0.00   0.00   0.00     0.00   0.00   0.00    -0.00  -0.00  -0.00
    15   1     0.23   0.40  -0.01    -0.22  -0.40   0.01     0.27   0.46  -0.02
    16   1     0.26  -0.46  -0.02    -0.27   0.47   0.02    -0.23   0.39   0.01
    17   1     0.26   0.46  -0.02     0.27   0.46  -0.02     0.23   0.40  -0.01
    18   1     0.23  -0.40  -0.01     0.22  -0.40  -0.01    -0.27   0.47   0.02
                     46                     47                     48
                      A                      A                      A
 Frequencies --   3243.8986              3830.7196              3831.3085
 Red. masses --      1.0988                 1.0666                 1.0665
 Frc consts  --      6.8124                 9.2216                 9.2237
 IR Inten    --      0.1091               204.3072                23.3923
  Atom  AN      X      Y      Z        X      Y      Z        X      Y      Z
     1   8     0.00   0.00  -0.00     0.01  -0.01  -0.04     0.01  -0.01  -0.04
     2   6    -0.00  -0.00   0.00     0.00  -0.00  -0.00     0.00   0.00  -0.00
     3   8     0.00  -0.00  -0.00     0.01   0.01  -0.04    -0.01  -0.01   0.04
     4   6    -0.00   0.00   0.00    -0.00  -0.00   0.00    -0.00   0.00   0.00
     5   6    -0.03  -0.04   0.00     0.00   0.00  -0.00    -0.00  -0.00   0.00
     6   6     0.02  -0.04  -0.00    -0.00  -0.00  -0.00     0.00   0.00   0.00
     7   6     0.00   0.00  -0.00     0.00   0.00  -0.00     0.00  -0.00  -0.00
     8   6    -0.00  -0.00   0.00    -0.00  -0.00   0.00    -0.00   0.00   0.00
     9   7    -0.00   0.00   0.00     0.00   0.00  -0.00     0.00  -0.00  -0.00
    10   6     0.02   0.04  -0.00    -0.00   0.00  -0.00    -0.00   0.00  -0.00
    11   6    -0.03   0.04   0.00     0.00  -0.00  -0.00     0.00  -0.00  -0.00
    12   1    -0.00  -0.00   0.00    -0.21   0.09   0.62    -0.24   0.11   0.70
    13   1     0.00  -0.00  -0.00    -0.00  -0.00   0.02    -0.00   0.00   0.00
    14   1    -0.00   0.00   0.00    -0.24  -0.11   0.70     0.21   0.09  -0.62
    15   1     0.27   0.47  -0.02    -0.00  -0.00   0.00    -0.00   0.00  -0.00
    16   1    -0.23   0.40   0.01     0.00  -0.00  -0.00    -0.00  -0.00   0.00
    17   1    -0.23  -0.40   0.01     0.00   0.00   0.00     0.00  -0.00  -0.00
    18   1     0.26  -0.46  -0.02    -0.00   0.00   0.00     0.00   0.00   0.00

 -------------------
 - Thermochemistry -
 -------------------
 Temperature   298.150 Kelvin.  Pressure   1.00000 Atm.
 Atom     1 has atomic number  8 and mass  15.99491
 Atom     2 has atomic number  6 and mass  12.00000
 Atom     3 has atomic number  8 and mass  15.99491
 Atom     4 has atomic number  6 and mass  12.00000
 Atom     5 has atomic number  6 and mass  12.00000
 Atom     6 has atomic number  6 and mass  12.00000
 Atom     7 has atomic number  6 and mass  12.00000
 Atom     8 has atomic number  6 and mass  12.00000
 Atom     9 has atomic number  7 and mass  14.00307
 Atom    10 has atomic number  6 and mass  12.00000
 Atom    11 has atomic number  6 and mass  12.00000
 Atom    12 has atomic number  1 and mass   1.00783
 Atom    13 has atomic number  1 and mass   1.00783
 Atom    14 has atomic number  1 and mass   1.00783
 Atom    15 has atomic number  1 and mass   1.00783
 Atom    16 has atomic number  1 and mass   1.00783
 Atom    17 has atomic number  1 and mass   1.00783
 Atom    18 has atomic number  1 and mass   1.00783
 Molecular mass:   149.04768 amu.
 Principal axes and moments of inertia in atomic units:
                           1         2         3
     Eigenvalues --   515.540083195.544003651.11297
           X            1.00000   0.00000   0.00232
           Y           -0.00000   1.00000   0.00006
           Z           -0.00232  -0.00006   1.00000
 This molecule is an asymmetric top.
 Rotational symmetry number  1.
 Warning -- assumption of classical behavior for rotation
           may cause significant error
 Rotational temperatures (Kelvin)      0.16801     0.02710     0.02372
 Rotational constants (GHZ):           3.50068     0.56477     0.49430
 Zero-point vibrational energy     364701.4 (Joules/Mol)
                                   87.16573 (Kcal/Mol)
 Warning -- explicit consideration of  14 degrees of freedom as
           vibrations may cause significant error
 Vibrational temperatures:     33.73   107.72   191.36   293.33   328.99
          (Kelvin)            449.61   488.23   563.17   605.31   618.35
                              691.55   775.57   833.11   834.21   897.67
                              948.96  1020.02  1136.91  1207.66  1263.58
                             1300.43  1468.85  1484.79  1487.97  1619.01
                             1639.83  1698.42  1745.76  1776.53  1787.74
                             1847.49  1887.38  1929.13  1957.74  2059.67
                             2070.30  2094.69  2234.39  2378.34  2451.12
                             3388.59  4475.15  4648.39  4649.79  4665.27
                             4667.25  5511.55  5512.40
 
 Zero-point correction=                           0.138907 (Hartree/Particle)
 Thermal correction to Energy=                    0.148528
 Thermal correction to Enthalpy=                  0.149472
 Thermal correction to Gibbs Free Energy=         0.102769
 Sum of electronic and zero-point Energies=           -513.576528
 Sum of electronic and thermal Energies=              -513.566907
 Sum of electronic and thermal Enthalpies=            -513.565963
 Sum of electronic and thermal Free Energies=         -513.612666
 
                     E (Thermal)             CV                S
                      KCal/Mol        Cal/Mol-Kelvin    Cal/Mol-Kelvin
 Total                   93.203             35.912             98.295
 Electronic               0.000              0.000              0.000
 Translational            0.889              2.981             40.908
 Rotational               0.889              2.981             30.176
 Vibrational             91.425             29.951             27.211
 Vibration     1          0.593              1.985              6.319
 Vibration     2          0.599              1.966              4.021
 Vibration     3          0.613              1.920              2.902
 Vibration     4          0.640              1.834              2.098
 Vibration     5          0.651              1.797              1.889
 Vibration     6          0.701              1.650              1.349
 Vibration     7          0.719              1.597              1.215
 Vibration     8          0.759              1.489              0.995
 Vibration     9          0.783              1.425              0.890
 Vibration    10          0.791              1.405              0.859
 Vibration    11          0.837              1.293              0.708
 Vibration    12          0.894              1.164              0.567
 Vibration    13          0.936              1.077              0.487
 Vibration    14          0.936              1.075              0.486
                       Q            Log10(Q)             Ln(Q)
 Total Bot       0.536622D-47        -47.270331       -108.843960
 Total V=0       0.419367D+17         16.622594         38.274937
 Vib (Bot)       0.854605D-61        -61.068235       -140.614807
 Vib (Bot)    1  0.883506D+01          0.946210          2.178728
 Vib (Bot)    2  0.275277D+01          0.439769          1.012607
 Vib (Bot)    3  0.153161D+01          0.185148          0.426318
 Vib (Bot)    4  0.976584D+00         -0.010291         -0.023695
 Vib (Bot)    5  0.861872D+00         -0.064557         -0.148649
 Vib (Bot)    6  0.604232D+00         -0.218796         -0.503796
 Vib (Bot)    7  0.547431D+00         -0.261670         -0.602519
 Vib (Bot)    8  0.458192D+00         -0.338952         -0.780466
 Vib (Bot)    9  0.417134D+00         -0.379724         -0.874347
 Vib (Bot)   10  0.405491D+00         -0.392019         -0.902657
 Vib (Bot)   11  0.347764D+00         -0.458715         -1.056230
 Vib (Bot)   12  0.294180D+00         -0.531387         -1.223564
 Vib (Bot)   13  0.263417D+00         -0.579355         -1.334015
 Vib (Bot)   14  0.262869D+00         -0.580261         -1.336100
 Vib (V=0)       0.667868D+03          2.824690          6.504090
 Vib (V=0)    1  0.934920D+01          0.970774          2.235291
 Vib (V=0)    2  0.329781D+01          0.518225          1.193258
 Vib (V=0)    3  0.211116D+01          0.324520          0.747236
 Vib (V=0)    4  0.159714D+01          0.203343          0.468214
 Vib (V=0)    5  0.149640D+01          0.175049          0.403065
 Vib (V=0)    6  0.128428D+01          0.108660          0.250199
 Vib (V=0)    7  0.124140D+01          0.093913          0.216244
 Vib (V=0)    8  0.117819D+01          0.071215          0.163979
 Vib (V=0)    9  0.115115D+01          0.061133          0.140765
 Vib (V=0)   10  0.114376D+01          0.058334          0.134318
 Vib (V=0)   11  0.110905D+01          0.044951          0.103502
 Vib (V=0)   12  0.108012D+01          0.033473          0.077074
 Vib (V=0)   13  0.106514D+01          0.027409          0.063111
 Vib (V=0)   14  0.106489D+01          0.027305          0.062871
 Electronic      0.100000D+01          0.000000          0.000000
 Translational   0.715223D+08          7.854442         18.085520
 Rotational      0.877934D+06          5.943462         13.685327
 
                                                             g16_C12-w_3
                                                             IR Spectrum
 
     33               3333   3                        2                     1 1  1 1111111111111 111                                 
     88               2222   1                        3                     7 6  5 4443332222111 000  98 87  76655 5 444333  22 1    
     33               4433   1                        5                     0 5  5 5336418431842 332  07 39  06287 3 832931  20 3 7 2
     11               4321   0                        5                     4 3  3 6921124353005 421  48 90  90409 9 101192  94 3 5 3
 
     XX               XX X   X                        X                     X X  X XXXXXXXXXXXXX X X  X  XX  XXXXX X XXXXXX  XX X X X
      X                      X                        X                            XX  X X XX X          X     X   X    XX           
      X                                               X                            XX  X X XX X                X   X    XX           
      X                                               X                            XX    X XX X                X   X    XX           
      X                                               X                            XX    X  X X                X   X    XX           
      X                                               X                            XX    X  X X                X        XX           
      X                                               X                             X       X                           X            
      X                                               X                             X       X                           X            
      X                                               X                             X       X                           X            
      X                                               X                             X       X                           X            
      X                                                                             X       X                           X            
      X                                                                             X       X                           X            
                                                                                    X       X                           X            
                                                                                    X       X                           X            
                                                                                            X                           X            
                                                                                            X                           X            
                                                                                            X                                        
                                                                                            X                                        
                                                                                            X                                        
                                                                                            X                                        
 
 ***** Axes restored to original set *****
 -------------------------------------------------------------------
 Center     Atomic                   Forces (Hartrees/Bohr)
 Number     Number              X              Y              Z
 -------------------------------------------------------------------
      1        8           0.000005225   -0.000011264   -0.000011169
      2        6          -0.000019348   -0.000000656   -0.000003135
      3        8           0.000005459    0.000012234   -0.000011535
      4        6          -0.000003319   -0.000000953   -0.000000480
      5        6           0.000014915   -0.000010359    0.000000811
      6        6          -0.000040097   -0.000001423    0.000005185
      7        6           0.000065157   -0.000004817    0.000002377
      8        6          -0.000057321    0.000008646   -0.000001658
      9        7           0.000036750   -0.000004067    0.000008042
     10        6          -0.000038423    0.000002603    0.000005710
     11        6           0.000017175    0.000010632    0.000001599
     12        1           0.000001911    0.000004398    0.000004150
     13        1           0.000001766    0.000000587    0.000000707
     14        1           0.000001560   -0.000005322    0.000004800
     15        1          -0.000004995   -0.000000343   -0.000003418
     16        1           0.000008910   -0.000001790   -0.000000150
     17        1           0.000009267    0.000001681    0.000000737
     18        1          -0.000004592    0.000000213   -0.000002575
 -------------------------------------------------------------------
 Cartesian Forces:  Max     0.000065157 RMS     0.000016265
 FormGI is forming the generalized inverse of G from B-inverse, IUseBI=4.
 Leave Link  716 at Tue Oct 21 15:08:08 2025, MaxMem=  4294967296 cpu:               0.3 elap:               0.1
 (Enter /lrz/sys/applications/gaussian/g16.C.01/x86_64_legacy/exe/l103.exe)

 GradGradGradGradGradGradGradGradGradGradGradGradGradGradGradGradGradGrad
 Berny optimization.
 Red2BG is reusing G-inverse.
 Internal  Forces:  Max     0.000037016 RMS     0.000007442
 Search for a local minimum.
 Step number   1 out of a maximum of    2
 All quantities printed in internal units (Hartrees-Bohrs-Radians)
 Second derivative matrix not updated -- analytic derivatives used.
 ITU=  0
     Eigenvalues ---    0.00020   0.00438   0.00560   0.01493   0.01829
     Eigenvalues ---    0.01842   0.02174   0.02475   0.02637   0.02743
     Eigenvalues ---    0.02982   0.03096   0.06785   0.07776   0.07852
     Eigenvalues ---    0.08413   0.10054   0.10974   0.11176   0.11575
     Eigenvalues ---    0.12330   0.15629   0.16547   0.17751   0.18991
     Eigenvalues ---    0.19196   0.19732   0.21311   0.22705   0.25835
     Eigenvalues ---    0.29849   0.32346   0.34103   0.36740   0.36788
     Eigenvalues ---    0.37023   0.37176   0.37599   0.42328   0.43494
     Eigenvalues ---    0.44344   0.48781   0.49165   0.51995   0.52845
     Eigenvalues ---    0.52967   0.53140   1.24534
 Angle between quadratic step and forces=  74.56 degrees.
 Linear search not attempted -- first point.
 Iteration  1 RMS(Cart)=  0.00020428 RMS(Int)=  0.00000002
 Iteration  2 RMS(Cart)=  0.00000003 RMS(Int)=  0.00000000
 ITry= 1 IFail=0 DXMaxC= 7.56D-04 DCOld= 1.00D+10 DXMaxT= 3.00D-01 DXLimC= 3.00D+00 Rises=F
 Variable       Old X    -DE/DX   Delta X   Delta X   Delta X     New X
                                 (Linear)    (Quad)   (Total)
    R1        2.64675   0.00000   0.00000   0.00001   0.00001   2.64675
    R2        1.82859   0.00001   0.00000   0.00002   0.00002   1.82861
    R3        2.64678   0.00000   0.00000   0.00000   0.00000   2.64678
    R4        2.88017   0.00000   0.00000   0.00003   0.00003   2.88021
    R5        2.08101  -0.00000   0.00000  -0.00001  -0.00001   2.08100
    R6        1.82860   0.00001   0.00000   0.00002   0.00002   1.82861
    R7        2.64412   0.00001   0.00000   0.00002   0.00002   2.64414
    R8        2.64416   0.00001   0.00000   0.00001   0.00001   2.64417
    R9        2.62652  -0.00001   0.00000  -0.00003  -0.00003   2.62649
   R10        2.06133   0.00000   0.00000   0.00001   0.00001   2.06134
   R11        2.64873   0.00002   0.00000   0.00005   0.00005   2.64878
   R12        2.06189   0.00001   0.00000   0.00002   0.00002   2.06191
   R13        2.71380  -0.00002   0.00000  -0.00007  -0.00007   2.71373
   R14        2.64876   0.00002   0.00000   0.00004   0.00004   2.64880
   R15        2.19184   0.00004   0.00000   0.00003   0.00003   2.19187
   R16        2.62650  -0.00001   0.00000  -0.00003  -0.00003   2.62647
   R17        2.06189   0.00001   0.00000   0.00002   0.00002   2.06191
   R18        2.06134   0.00000   0.00000   0.00001   0.00001   2.06134
    A1        1.89690  -0.00001   0.00000  -0.00006  -0.00006   1.89684
    A2        1.96329   0.00001   0.00000   0.00005   0.00005   1.96334
    A3        1.95765  -0.00001   0.00000  -0.00008  -0.00008   1.95758
    A4        1.83928   0.00000   0.00000   0.00003   0.00003   1.83930
    A5        1.95752  -0.00001   0.00000  -0.00004  -0.00004   1.95747
    A6        1.83930   0.00000   0.00000   0.00001   0.00001   1.83932
    A7        1.89767   0.00000   0.00000   0.00004   0.00004   1.89770
    A8        1.89688  -0.00001   0.00000  -0.00006  -0.00006   1.89682
    A9        2.09973  -0.00000   0.00000  -0.00002  -0.00002   2.09971
   A10        2.09955  -0.00000   0.00000   0.00002   0.00002   2.09957
   A11        2.08334   0.00000   0.00000   0.00000   0.00000   2.08335
   A12        2.10560  -0.00000   0.00000  -0.00001  -0.00001   2.10559
   A13        2.09031  -0.00000   0.00000  -0.00003  -0.00003   2.09028
   A14        2.08726   0.00001   0.00000   0.00005   0.00005   2.08731
   A15        2.08596   0.00001   0.00000   0.00005   0.00005   2.08600
   A16        2.10240   0.00000   0.00000   0.00004   0.00004   2.10244
   A17        2.09483  -0.00001   0.00000  -0.00009  -0.00009   2.09474
   A18        2.09164   0.00001   0.00000   0.00004   0.00004   2.09168
   A19        2.09989  -0.00001   0.00000  -0.00007  -0.00007   2.09982
   A20        2.09165   0.00000   0.00000   0.00003   0.00003   2.09168
   A21        2.08595   0.00001   0.00000   0.00004   0.00004   2.08599
   A22        2.09483  -0.00001   0.00000  -0.00009  -0.00009   2.09474
   A23        2.10241   0.00000   0.00000   0.00004   0.00004   2.10245
   A24        2.10561  -0.00000   0.00000  -0.00001  -0.00001   2.10560
   A25        2.09030  -0.00000   0.00000  -0.00004  -0.00004   2.09027
   A26        2.08727   0.00000   0.00000   0.00005   0.00005   2.08731
   A27        3.14169  -0.00001   0.00000  -0.00009  -0.00009   3.14160
   A28        3.14131   0.00000   0.00000   0.00004   0.00004   3.14135
    D1       -1.30796   0.00001   0.00000   0.00027   0.00027  -1.30770
    D2        0.91815  -0.00000   0.00000   0.00019   0.00019   0.91834
    D3        2.98012  -0.00000   0.00000   0.00021   0.00021   2.98033
    D4        1.30847  -0.00001   0.00000  -0.00047  -0.00047   1.30801
    D5       -0.91771   0.00000   0.00000  -0.00037  -0.00037  -0.91808
    D6       -2.97963   0.00000   0.00000  -0.00040  -0.00040  -2.98003
    D7        0.47302  -0.00000   0.00000   0.00027   0.00027   0.47328
    D8       -2.70475  -0.00000   0.00000   0.00036   0.00036  -2.70439
    D9        2.70220   0.00000   0.00000   0.00024   0.00024   2.70244
   D10       -0.47557   0.00000   0.00000   0.00033   0.00033  -0.47523
   D11       -1.55401  -0.00000   0.00000   0.00026   0.00026  -1.55375
   D12        1.55141   0.00000   0.00000   0.00035   0.00035   1.55176
   D13        3.11184   0.00000   0.00000   0.00013   0.00013   3.11197
   D14       -0.03308   0.00000   0.00000   0.00014   0.00014  -0.03294
   D15        0.00609   0.00000   0.00000   0.00004   0.00004   0.00613
   D16       -3.13883   0.00000   0.00000   0.00005   0.00005  -3.13878
   D17       -3.11179  -0.00000   0.00000  -0.00014  -0.00014  -3.11193
   D18        0.03313  -0.00000   0.00000  -0.00015  -0.00015   0.03298
   D19       -0.00604  -0.00000   0.00000  -0.00005  -0.00005  -0.00609
   D20        3.13888  -0.00000   0.00000  -0.00006  -0.00006   3.13882
   D21       -0.00309  -0.00000   0.00000  -0.00002  -0.00002  -0.00311
   D22        3.13856   0.00000   0.00000   0.00004   0.00004   3.13860
   D23       -3.14136  -0.00000   0.00000  -0.00002  -0.00002  -3.14139
   D24        0.00029   0.00000   0.00000   0.00003   0.00003   0.00032
   D25        3.14102   0.00000   0.00000  -0.00003  -0.00003   3.14099
   D26       -0.00002   0.00000   0.00000   0.00000   0.00000  -0.00001
   D27       -0.00063  -0.00000   0.00000  -0.00008  -0.00008  -0.00071
   D28        3.14152  -0.00000   0.00000  -0.00005  -0.00005   3.14147
   D29        0.00007  -0.00000   0.00000  -0.00001  -0.00001   0.00005
   D30       -3.14150   0.00000   0.00000   0.00005   0.00005  -3.14145
   D31       -3.14097  -0.00000   0.00000   0.00001   0.00001  -3.14095
   D32        0.00065   0.00000   0.00000   0.00008   0.00008   0.00073
   D33        0.00299   0.00000   0.00000   0.00004   0.00004   0.00303
   D34        3.14126   0.00000   0.00000   0.00005   0.00005   3.14131
   D35       -3.13863  -0.00000   0.00000  -0.00002  -0.00002  -3.13866
   D36       -0.00036  -0.00000   0.00000  -0.00001  -0.00001  -0.00038
         Item               Value     Threshold  Converged?
 Maximum Force            0.000037     0.000450     YES
 RMS     Force            0.000007     0.000300     YES
 Maximum Displacement     0.000756     0.001800     YES
 RMS     Displacement     0.000204     0.001200     YES
 Predicted change in Energy=-1.069221D-08
 Optimization completed.
    -- Stationary point found.
                           ----------------------------
                           !   Optimized Parameters   !
                           ! (Angstroms and Degrees)  !
 --------------------------                            --------------------------
 ! Name  Definition              Value          Derivative Info.                !
 --------------------------------------------------------------------------------
 ! R1    R(1,2)                  1.4006         -DE/DX =    0.0                 !
 ! R2    R(1,12)                 0.9676         -DE/DX =    0.0                 !
 ! R3    R(2,3)                  1.4006         -DE/DX =    0.0                 !
 ! R4    R(2,4)                  1.5241         -DE/DX =    0.0                 !
 ! R5    R(2,13)                 1.1012         -DE/DX =    0.0                 !
 ! R6    R(3,14)                 0.9677         -DE/DX =    0.0                 !
 ! R7    R(4,5)                  1.3992         -DE/DX =    0.0                 !
 ! R8    R(4,11)                 1.3992         -DE/DX =    0.0                 !
 ! R9    R(5,6)                  1.3899         -DE/DX =    0.0                 !
 ! R10   R(5,15)                 1.0908         -DE/DX =    0.0                 !
 ! R11   R(6,7)                  1.4016         -DE/DX =    0.0                 !
 ! R12   R(6,16)                 1.0911         -DE/DX =    0.0                 !
 ! R13   R(7,8)                  1.4361         -DE/DX =    0.0                 !
 ! R14   R(7,10)                 1.4017         -DE/DX =    0.0                 !
 ! R15   R(8,9)                  1.1599         -DE/DX =    0.0                 !
 ! R16   R(10,11)                1.3899         -DE/DX =    0.0                 !
 ! R17   R(10,17)                1.0911         -DE/DX =    0.0                 !
 ! R18   R(11,18)                1.0908         -DE/DX =    0.0                 !
 ! A1    A(2,1,12)             108.6844         -DE/DX =    0.0                 !
 ! A2    A(1,2,3)              112.488          -DE/DX =    0.0                 !
 ! A3    A(1,2,4)              112.1652         -DE/DX =    0.0                 !
 ! A4    A(1,2,13)             105.3827         -DE/DX =    0.0                 !
 ! A5    A(3,2,4)              112.1575         -DE/DX =    0.0                 !
 ! A6    A(3,2,13)             105.3842         -DE/DX =    0.0                 !
 ! A7    A(4,2,13)             108.7283         -DE/DX =    0.0                 !
 ! A8    A(2,3,14)             108.6831         -DE/DX =    0.0                 !
 ! A9    A(2,4,5)              120.3055         -DE/DX =    0.0                 !
 ! A10   A(2,4,11)             120.2956         -DE/DX =    0.0                 !
 ! A11   A(5,4,11)             119.3668         -DE/DX =    0.0                 !
 ! A12   A(4,5,6)              120.6423         -DE/DX =    0.0                 !
 ! A13   A(4,5,15)             119.7661         -DE/DX =    0.0                 !
 ! A14   A(6,5,15)             119.5913         -DE/DX =    0.0                 !
 ! A15   A(5,6,7)              119.5165         -DE/DX =    0.0                 !
 ! A16   A(5,6,16)             120.4586         -DE/DX =    0.0                 !
 ! A17   A(7,6,16)             120.0249         -DE/DX =    0.0                 !
 ! A18   A(6,7,8)              119.8422         -DE/DX =    0.0                 !
 ! A19   A(6,7,10)             120.3149         -DE/DX =    0.0                 !
 ! A20   A(8,7,10)             119.8429         -DE/DX =    0.0                 !
 ! A21   A(7,10,11)            119.5161         -DE/DX =    0.0                 !
 ! A22   A(7,10,17)            120.0249         -DE/DX =    0.0                 !
 ! A23   A(11,10,17)           120.459          -DE/DX =    0.0                 !
 ! A24   A(4,11,10)            120.6426         -DE/DX =    0.0                 !
 ! A25   A(4,11,18)            119.7656         -DE/DX =    0.0                 !
 ! A26   A(10,11,18)           119.5916         -DE/DX =    0.0                 !
 ! A27   L(7,8,9,16,-1)        180.0056         -DE/DX =    0.0                 !
 ! A28   L(7,8,9,16,-2)        179.9838         -DE/DX =    0.0                 !
 ! D1    D(12,1,2,3)           -74.9409         -DE/DX =    0.0                 !
 ! D2    D(12,1,2,4)            52.606          -DE/DX =    0.0                 !
 ! D3    D(12,1,2,13)          170.7485         -DE/DX =    0.0                 !
 ! D4    D(1,2,3,14)            74.9701         -DE/DX =    0.0                 !
 ! D5    D(4,2,3,14)           -52.5809         -DE/DX =    0.0                 !
 ! D6    D(13,2,3,14)         -170.7202         -DE/DX =    0.0                 !
 ! D7    D(1,2,4,5)             27.1018         -DE/DX =    0.0                 !
 ! D8    D(1,2,4,11)          -154.9708         -DE/DX =    0.0                 !
 ! D9    D(3,2,4,5)            154.8247         -DE/DX =    0.0                 !
 ! D10   D(3,2,4,11)           -27.2479         -DE/DX =    0.0                 !
 ! D11   D(13,2,4,5)           -89.038          -DE/DX =    0.0                 !
 ! D12   D(13,2,4,11)           88.8893         -DE/DX =    0.0                 !
 ! D13   D(2,4,5,6)            178.2954         -DE/DX =    0.0                 !
 ! D14   D(2,4,5,15)            -1.8952         -DE/DX =    0.0                 !
 ! D15   D(11,4,5,6)             0.3489         -DE/DX =    0.0                 !
 ! D16   D(11,4,5,15)         -179.8418         -DE/DX =    0.0                 !
 ! D17   D(2,4,11,10)         -178.2927         -DE/DX =    0.0                 !
 ! D18   D(2,4,11,18)            1.898          -DE/DX =    0.0                 !
 ! D19   D(5,4,11,10)           -0.346          -DE/DX =    0.0                 !
 ! D20   D(5,4,11,18)          179.8447         -DE/DX =    0.0                 !
 ! D21   D(4,5,6,7)             -0.1771         -DE/DX =    0.0                 !
 ! D22   D(4,5,6,16)           179.8261         -DE/DX =    0.0                 !
 ! D23   D(15,5,6,7)          -179.9868         -DE/DX =    0.0                 !
 ! D24   D(15,5,6,16)            0.0164         -DE/DX =    0.0                 !
 ! D25   D(5,6,7,8)            179.9671         -DE/DX =    0.0                 !
 ! D26   D(5,6,7,10)            -0.0009         -DE/DX =    0.0                 !
 ! D27   D(16,6,7,8)            -0.036          -DE/DX =    0.0                 !
 ! D28   D(16,6,7,10)          179.9959         -DE/DX =    0.0                 !
 ! D29   D(6,7,10,11)            0.0038         -DE/DX =    0.0                 !
 ! D30   D(6,7,10,17)         -179.9945         -DE/DX =    0.0                 !
 ! D31   D(8,7,10,11)         -179.9642         -DE/DX =    0.0                 !
 ! D32   D(8,7,10,17)            0.0375         -DE/DX =    0.0                 !
 ! D33   D(7,10,11,4)            0.1713         -DE/DX =    0.0                 !
 ! D34   D(7,10,11,18)         179.9809         -DE/DX =    0.0                 !
 ! D35   D(17,10,11,4)        -179.8305         -DE/DX =    0.0                 !
 ! D36   D(17,10,11,18)         -0.0208         -DE/DX =    0.0                 !
 --------------------------------------------------------------------------------
 GradGradGradGradGradGradGradGradGradGradGradGradGradGradGradGradGradGrad

 Leave Link  103 at Tue Oct 21 15:08:08 2025, MaxMem=  4294967296 cpu:               0.8 elap:               0.1
 (Enter /lrz/sys/applications/gaussian/g16.C.01/x86_64_legacy/exe/l9999.exe)

 ----------------------------------------------------------------------

 Electric dipole moment (input orientation):
 (Debye = 10**-18 statcoulomb cm , SI units = C m)
                  (au)            (Debye)         (10**-30 SI)
   Tot        0.151828D+01      0.385909D+01      0.128725D+02
   x         -0.130894D+01     -0.332700D+01     -0.110977D+02
   y          0.319791D-02      0.812827D-02      0.271130D-01
   z          0.769313D+00      0.195540D+01      0.652250D+01

 Dipole polarizability, Alpha (input orientation).
 (esu units = cm**3 , SI units = C**2 m**2 J**-1)
 Alpha(0;0):
               (au)            (10**-24 esu)      (10**-40 SI)
   iso        0.128363D+03      0.190214D+02      0.211642D+02
   aniso      0.969447D+02      0.143657D+02      0.159840D+02
   xx         0.182016D+03      0.269720D+02      0.300104D+02
   yx         0.205172D-01      0.304034D-02      0.338284D-02
   yy         0.132202D+03      0.195903D+02      0.217972D+02
   zx         0.577083D+01      0.855148D+00      0.951481D+00
   zy        -0.328738D+00     -0.487140D-01     -0.542016D-01
   zz         0.708710D+02      0.105020D+02      0.116850D+02

 ----------------------------------------------------------------------

 Dipole orientation:
     8         -2.55833427         -2.20588931          5.19503378
     6         -2.86705289         -0.00616004          3.75588080
     8         -2.56761413          2.19519858          5.19455453
     6         -1.20221539         -0.00269786          1.40562389
     6         -0.45734955         -2.28363137          0.29480786
     6          1.00531450         -2.29540512         -1.88672945
     6          1.73179383          0.00367403         -2.98319521
     6          3.24415834          0.00694308         -5.23652135
     7          4.46522565          0.00979617         -7.05672929
     6          0.99025628          2.29959069         -1.89012108
     6         -0.47219826          2.28145091          0.29147926
     1         -0.77658297         -2.43905607          5.53377587
     1         -4.86149204         -0.01046544          3.16191397
     1         -0.78677410          2.43639402          5.53248045
     1         -1.02368303         -4.07151441          1.15028515
     1          1.58746588         -4.07740803         -2.74520096
     1          1.56068759          4.08409480         -2.75125939
     1         -1.05009583          4.06684463          1.14443042

 Electric dipole moment (dipole orientation):
 (Debye = 10**-18 statcoulomb cm , SI units = C m)
                  (au)            (Debye)         (10**-30 SI)
   Tot        0.151828D+01      0.385909D+01      0.128725D+02
   x          0.000000D+00      0.000000D+00      0.000000D+00
   y          0.000000D+00      0.000000D+00      0.000000D+00
   z          0.151828D+01      0.385909D+01      0.128725D+02

 Dipole polarizability, Alpha (dipole orientation).
 (esu units = cm**3 , SI units = C**2 m**2 J**-1)
 Alpha(0;0):
               (au)            (10**-24 esu)      (10**-40 SI)
   iso        0.128363D+03      0.190214D+02      0.211642D+02
   aniso      0.969447D+02      0.143657D+02      0.159840D+02
   xx         0.104448D+03      0.154776D+02      0.172212D+02
   yx        -0.131389D+00     -0.194699D-01     -0.216631D-01
   yy         0.132203D+03      0.195905D+02      0.217974D+02
   zx        -0.513605D+02     -0.761084D+01     -0.846820D+01
   zy        -0.156557D+00     -0.231993D-01     -0.258127D-01
   zz         0.148437D+03      0.219961D+02      0.244740D+02

 ----------------------------------------------------------------------
 Unable to Open any file for archive entry.
 1\1\GINC-CM4R13C06S02\Freq\RwB97XD\def2SVP\C8H7N1O2\GO29TIZ2\21-Oct-20
 25\0\\#P Geom=AllCheck Guess=TCheck SCRF=Check GenChk RwB97XD/def2SVP 
 Freq\\g16_C12-w_3\\0,1\O,-3.0574358413,-1.1631441923,0.2282722788\C,-2
 .4822487773,-0.0009019735,-0.3009066182\O,-3.0568986313,1.1657979124,0
 .2190047746\C,-0.9636238851,-0.0006276727,-0.1715701785\C,-0.258583494
 9,-1.2084052103,-0.1270563157\C,1.1288495487,-1.2161342802,-0.04469796
 77\C,1.8253340039,-0.0002763598,-0.0098293359\C,3.2588541865,-0.000093
 4652,0.075937319\N,4.416672295,0.0001662887,0.144943953\C,1.1292897155
 ,1.2154122458,-0.0575986817\C,-0.2581349841,1.2073120061,-0.1398112036
 \H,-2.7343735271,-1.2850164861,1.1322210782\H,-2.7460543878,-0.0051142
 776,-1.370056332\H,-2.7334057831,1.2949450556,1.1217902793\H,-0.801858
 7712,-2.1539170622,-0.1540509563\H,1.6754554442,-2.159712402,-0.007310
 88\H,1.6762442495,2.1591323529,-0.0302486947\H,-0.8010796601,2.1526810
 203,-0.1767416185\\Version=EM64L-G16RevC.01\State=1-A\HF=-513.7154352\
 RMSD=1.176e-09\RMSF=1.626e-05\ZeroPoint=0.1389074\Thermal=0.1485278\ET
 ot=-513.5669075\HTot=-513.5659633\GTot=-513.6126664\Dipole=-1.3089431,
 0.0031979,0.7693126\DipoleDeriv=-1.0386599,-0.2056092,0.1807021,-0.169
 3952,-1.1890553,0.1562072,0.2856208,0.3041347,-0.6398806,1.4248825,-0.
 0008188,-0.2655146,-0.0016408,1.7221862,-0.0033977,-0.4703026,-0.00336
 35,0.8427581,-1.0385173,0.2067785,0.178977,0.1716111,-1.192949,-0.1518
 017,0.2841454,-0.2997705,-0.6362638,-0.0274513,0.0005767,0.1446204,0.0
 004549,0.0633294,-0.0010817,0.1387036,-0.0011571,-0.1235915,-0.2648416
 ,0.2570688,-0.0037428,0.1598231,-0.0893994,0.0300094,-0.0118644,0.0190
 039,-0.1490808,0.1401074,-0.1606585,0.0146693,0.1414993,-0.0104369,0.0
 059199,0.0144675,-0.0142696,-0.0914498,-0.3770141,-0.0000294,-0.014768
 ,-0.0000341,0.1665488,-0.0009583,-0.0215181,-0.0009178,-0.0115157,1.13
 55579,0.0000678,0.0462464,0.000034,0.1129594,0.0006897,0.0492966,0.000
 6956,0.2430139,-0.9851836,-0.0000215,-0.0284495,-0.0000797,-0.406975,-
 0.0001498,-0.0318323,-0.0001476,-0.4361214,0.140036,0.1607509,0.012925
 8,-0.1413633,-0.0103499,-0.0067844,0.0159387,0.0133857,-0.0915739,-0.2
 650796,-0.2569427,-0.0009727,-0.1599258,-0.0895886,-0.0306078,-0.01015
 96,-0.019627,-0.1485851,0.459704,-0.0319462,-0.0898301,-0.0386563,0.38
 86705,-0.0549677,-0.1137025,-0.0235324,0.3435948,-0.1490112,-0.0002457
 ,-0.0635391,0.0001163,0.0334893,-0.0004876,0.0148942,-0.0005269,-0.095
 3901,0.459615,0.0311708,-0.0900018,0.0377663,0.3892421,0.054528,-0.114
 1911,0.0232801,0.3431492,0.1123847,-0.07458,-0.0069813,-0.0644998,0.02
 91145,-0.0041205,-0.0116203,-0.0013306,0.1593485,0.0805506,0.0698351,-
 0.0036292,0.0647221,0.0270815,0.0041737,-0.0031038,0.0058636,0.1661092
 ,0.0805023,-0.069903,-0.0028861,-0.0647703,0.0270303,-0.0026956,-0.002
 399,-0.0043941,0.1662006,0.1124183,0.0745064,-0.0078255,0.0643382,0.02
 91018,0.005525,-0.0123731,0.0026734,0.1592782\Polar=182.0158272,0.0205
 172,132.2020131,5.7708268,-0.3287383,70.8709722\Quadrupole=-22.1227452
 ,11.99838,10.1243652,-0.014649,-4.7125394,-0.0175421\PG=C01 [X(C8H7N1O
 2)]\NImag=0\\0.22219221,0.11933930,0.35180001,0.12134604,-0.16142195,0
 .58195585,-0.12642310,-0.10580964,0.04435594,0.53707600,-0.07630990,-0
 .21528329,0.08808290,0.00008657,0.58724359,0.01955345,0.06830931,-0.14
 234684,0.01185664,0.00042278,0.68809433,0.01551953,-0.00438975,-0.0064
 0201,-0.12635481,0.07644441,0.01893267,0.22220912,0.00429455,-0.078719
 44,-0.00356946,0.10615025,-0.21664172,-0.06777493,-0.11827903,0.354550
 06,-0.00643231,0.00434287,0.01860222,0.04347668,-0.08754275,-0.1410908
 4,0.12251405,0.16332279,0.57917810,-0.02266223,-0.01257906,0.00091295,
 -0.19525972,-0.00002933,-0.00960342,-0.02265141,0.01259637,0.00080873,
 0.64894441,-0.04123386,-0.01434314,0.00447600,-0.00009205,-0.08745076,
 0.00001995,0.04139681,-0.01446624,-0.00433201,0.00013907,0.72231615,0.
 01885063,0.00820587,0.00367754,-0.02593055,0.00003422,-0.08726817,0.01
 851160,-0.00807163,0.00377135,0.02960603,-0.00280947,0.18766264,-0.002
 26424,0.00349887,-0.00082607,-0.01355340,0.02445842,-0.00168212,-0.006
 90077,0.00366950,0.00261641,-0.18305213,0.05214738,-0.00797882,0.72701
 939,-0.00009800,-0.00293762,0.00103917,0.00830313,0.00717296,0.0006118
 4,-0.00408226,0.00173306,-0.00011679,0.12193776,-0.29107750,0.00723119
 ,0.03705991,0.73784256,0.00015698,-0.00121809,0.00084197,-0.00123203,0
 .00404875,0.00409321,0.00018148,-0.00062175,0.00056979,-0.00777102,0.0
 0425499,-0.07134632,0.03647338,-0.00081625,0.14707363,0.00088837,-0.00
 025116,0.00079919,0.00181154,0.00304732,0.00089526,-0.00102876,-0.0002
 1750,-0.00090246,-0.02496383,0.08430060,-0.00277425,-0.36910994,-0.036
 20014,-0.01898630,0.72291248,-0.00076431,0.00117803,0.00011845,-0.0015
 3930,-0.00466450,0.00015756,0.00245809,-0.00117042,-0.00109227,0.03093
 753,0.04003142,0.00255865,0.03711596,-0.13276254,0.00188001,-0.0405601
 4,0.74168740,-0.00038130,-0.00054043,0.00022644,0.00048995,0.00059639,
 0.00790013,-0.00129785,0.00041940,-0.00033060,-0.00179360,0.00444777,0
 .00743473,-0.01847681,-0.00176291,-0.07044472,0.03481241,-0.00567682,0
 .14825104,-0.00136805,-0.00025887,0.00039374,0.00181050,-0.00000743,-0
 .00200534,-0.00136901,0.00026337,0.00039203,0.00115670,-0.00000756,0.0
 0184321,-0.02979169,-0.02565754,-0.00216772,-0.16602485,-0.11745190,-0
 .00534831,0.70310309,-0.00061956,0.00037826,-0.00088609,0.00000612,-0.
 00190070,0.00000526,0.00062243,0.00038375,0.00088272,-0.00001954,-0.07
 730630,0.00036530,-0.08067840,0.03728062,-0.00383223,-0.05755720,-0.29
 476734,-0.00217693,0.00018961,0.68395999,-0.00004416,0.00007069,0.0000
 2749,0.00024093,0.00000537,-0.00092271,-0.00005091,-0.00007506,0.00001
 847,0.00020987,0.00036780,-0.00800189,-0.00175399,-0.00185554,0.009541
 21,-0.00563422,-0.00576221,-0.06902501,0.03337001,-0.00283560,0.151008
 43,0.00116004,0.00052322,-0.00037882,-0.00217773,0.00000558,0.00147707
 ,0.00116098,-0.00052650,-0.00037410,0.00035107,-0.00000330,-0.00075554
 ,0.00546590,-0.00589874,-0.00013275,-0.03617730,-0.01415941,-0.0021083
 2,-0.30192778,-0.00003199,-0.01444266,1.58217063,-0.00008759,0.0001581
 0,-0.00004792,-0.00000071,-0.00014295,-0.00000585,0.00008876,0.0001573
 2,0.00004589,-0.00000041,-0.00340655,0.00001191,-0.00449242,-0.0044914
 8,-0.00013200,-0.03078416,0.00773419,-0.00173339,-0.00003793,-0.088243
 28,0.00012671,0.00030517,0.12424574,0.00015771,0.00010557,-0.00006619,
 -0.00022828,-0.00000490,-0.00116317,0.00015677,-0.00010850,-0.00006513
 ,0.00016348,0.00001253,-0.00115864,-0.00017606,-0.00026726,0.00819340,
 -0.00206928,-0.00071952,0.00169852,-0.01432324,0.00012800,-0.06500412,
 0.08871409,-0.00013697,0.10098671,-0.00089696,-0.00033944,0.00027060,0
 .00156483,-0.00000353,-0.00086441,-0.00089734,0.00034209,0.00026769,-0
 .00002132,0.00000182,0.00054337,-0.00256004,0.00053709,-0.00006900,0.0
 0420094,0.00853082,0.00012486,-0.02170738,-0.00001157,-0.00245744,-1.2
 2088160,-0.00025690,-0.07026722,1.24040165,0.00001476,-0.00003333,0.00
 000943,0.00000041,0.00003076,0.00000089,-0.00001526,-0.00003310,-0.000
 00889,0.00000003,0.00061439,-0.00000190,0.00063184,0.00083629,0.000013
 04,0.00289629,-0.00191011,0.00019387,-0.00000435,0.02252270,-0.0000177
 8,-0.00026373,-0.03972711,-0.00002498,0.00026778,0.01899279,-0.0000667
 7,-0.00003201,0.00002783,0.00011265,0.00000068,0.00017200,-0.00006659,
 0.00003276,0.00002750,-0.00004647,-0.00000199,0.00026310,-0.00005199,0
 .00001744,-0.00147879,0.00016701,0.00052531,0.00114134,-0.00243324,-0.
 00001838,0.01909006,-0.07027846,-0.00002456,-0.04564278,0.07260838,0.0
 0002929,0.02579388,-0.00102792,0.00021175,-0.00090536,0.00182241,-0.00
 304755,0.00092890,0.00089206,0.00025852,0.00079753,-0.02501835,-0.0842
 9683,-0.00188516,-0.05962117,0.03170897,-0.00230088,0.07059788,0.02664
 183,0.00343651,-0.16594570,0.05743094,-0.00624427,-0.03615440,0.030776
 50,-0.00239500,0.00419795,-0.00289570,0.00019750,0.72296375,-0.0024763
 2,-0.00116729,0.00109845,0.00153617,-0.00466788,-0.00002437,0.00075658
 ,0.00117980,-0.00012983,-0.03092286,0.04000100,-0.00290055,0.03485081,
 -0.01973218,0.00162509,-0.02665217,-0.05832624,-0.00119691,0.11732446,
 -0.29469159,0.00816083,0.01415349,0.00774242,0.00065666,-0.00853045,-0
 .00191397,-0.00049271,0.04095950,0.74169007,-0.00126582,-0.00040656,-0
 .00033935,0.00047169,-0.00046918,0.00790118,-0.00038942,0.00053220,0.0
 0022080,-0.00146911,-0.00479171,0.00751479,-0.00344792,0.00193467,-0.0
 0714540,0.00371762,0.00193774,0.01154726,-0.00659334,0.00457558,-0.069
 13000,-0.00225827,0.00167287,0.00167348,0.00021576,-0.00016153,0.00114
 846,0.03435721,-0.00064411,0.14819564,-0.00691181,-0.00364790,0.002645
 11,-0.01357935,-0.02447410,-0.00141678,-0.00226965,-0.00349861,-0.0007
 8654,-0.18308570,-0.05225754,-0.00742525,0.07388989,-0.02529878,0.0028
 3180,-0.05964245,-0.03487001,-0.00308090,-0.02975569,0.08067777,-0.002
 60615,0.00547105,0.00448693,-0.00022433,-0.00256109,-0.00063157,-0.000
 04525,-0.36914953,-0.03722433,-0.01806962,0.72704065,0.00408528,0.0017
 4220,0.00010603,-0.00830832,0.00712895,-0.00063897,0.00010334,-0.00292
 436,-0.00099834,-0.12203914,-0.29108694,-0.00490792,0.02528501,-0.0564
 0110,0.00141897,-0.03172093,-0.01974550,-0.00180043,0.02565799,0.03730
 054,0.00156128,0.00589399,-0.00448932,0.00040189,-0.00053696,0.0008359
 4,-0.00004200,0.03608219,-0.13276084,0.00243078,-0.03667242,0.73779119
 ,0.00013523,0.00060982,0.00056926,-0.00114586,-0.00407930,0.00412910,0
 .00015776,0.00126061,0.00084615,-0.00648246,-0.00193047,-0.07125912,0.
 00256230,-0.00072068,0.00933219,-0.00196520,-0.00148923,-0.00711098,-0
 .00243880,0.00353859,0.00948357,-0.00019539,0.00026657,0.00818540,-0.0
 0006298,-0.00003760,-0.00147763,-0.01935514,-0.00121167,-0.07044215,0.
 03683441,-0.00543662,0.14711515,-0.08211257,0.00837721,-0.18131198,0.0
 0342849,-0.00491229,0.02202981,-0.00009190,-0.00050961,-0.00076236,0.0
 0138718,0.00013119,0.00280548,0.00027614,-0.00008850,-0.00048163,-0.00
 075269,-0.00014940,-0.00038128,0.00044687,0.00062488,0.00009134,-0.000
 34864,0.00006559,0.00001803,0.00025931,-0.00001293,0.00000671,0.000568
 15,-0.00006353,-0.00008914,-0.00015506,-0.00058058,-0.00005006,0.07715
 370,-0.00752634,-0.03616575,0.03327928,0.00982094,-0.01148286,0.039182
 08,0.00029439,0.00220155,-0.00095711,0.00013767,0.00082432,-0.00006902
 ,0.00023174,0.00057680,-0.00004407,-0.00022181,-0.00014356,0.00008509,
 0.00016180,0.00013799,-0.00003340,-0.00013418,0.00000307,-0.00002404,0
 .00008941,-0.00000241,0.00000871,0.00013309,-0.00003022,0.00013100,0.0
 0005679,-0.00032388,-0.00015076,-0.00038522,0.04834198,-0.15170404,0.0
 6981511,-0.44843112,-0.00465910,0.00419148,-0.01778760,0.00032810,-0.0
 0231254,0.00157202,-0.00040912,-0.00220413,0.00180641,-0.00052666,0.00
 022156,0.00009834,0.00027225,0.00003686,-0.00007155,-0.00029750,-0.000
 23549,-0.00005510,0.00024650,-0.00004005,0.00003834,-0.00019350,0.0000
 0803,-0.00001649,-0.00027230,-0.00026985,-0.00019235,-0.00062831,0.000
 33025,0.00009764,0.15628379,-0.07240366,0.46209831,0.00564879,-0.00592
 114,0.01981598,-0.07392171,-0.00032734,-0.08217786,0.00565517,0.006068
 54,0.01974561,-0.01010311,-0.00010501,-0.02794007,-0.00120975,-0.00061
 831,0.00036492,0.00020901,-0.00004397,0.00129124,-0.00130661,0.0000006
 4,-0.00018396,0.00096398,-0.00000099,-0.00013914,-0.00063277,0.0000000
 8,-0.00000198,0.00021301,0.00005847,0.00128825,-0.00120469,0.00061878,
 0.00036148,0.00004022,-0.00261940,0.00158598,0.07571258,0.00321965,-0.
 01161911,0.03688002,-0.00024761,-0.04435798,-0.00099248,-0.00324292,-0
 .01199589,-0.03692204,-0.00001046,0.00381154,-0.00000562,0.00026520,-0
 .00031226,-0.00004402,-0.00056662,-0.00010409,0.00004237,0.00000283,0.
 00048377,-0.00000281,-0.00000145,0.00002210,0.00000007,0.00000084,-0.0
 0000207,0.,0.00056279,-0.00010640,-0.00004393,-0.00026489,-0.00030504,
 0.00004697,-0.00334283,-0.00246596,0.00294502,0.00026757,0.06944362,-0
 .00142507,0.00948937,-0.01607308,-0.06288457,-0.00099825,-0.29623367,-
 0.00140710,-0.00952211,-0.01569984,-0.00315821,-0.00001166,0.00048486,
 0.00020536,-0.00068313,0.00013782,-0.00053808,0.00011391,-0.00008016,0
 .00060616,-0.00000413,-0.00004723,-0.00031213,-0.00000021,-0.00000709,
 0.00016954,0.00000005,0.00000430,-0.00054659,-0.00011188,-0.00007777,0
 .00021228,0.00068682,0.00013398,0.00162905,0.00159871,0.00096283,0.065
 83087,0.00101382,0.32557962,-0.00009159,0.00050291,-0.00076637,0.00344
 592,0.00507339,0.02192470,-0.08227475,-0.00988857,-0.18140813,0.001385
 41,-0.00010591,0.00281806,-0.00015456,0.00058091,-0.00005565,0.0005683
 0,0.00006241,-0.00008989,0.00044623,-0.00062392,0.00009794,-0.00034867
 ,-0.00006507,0.00001864,0.00025924,0.00001290,0.00000659,-0.00075275,0
 .00014687,-0.00038174,0.00024640,0.00007550,-0.00046581,0.00026152,-0.
 00004575,-0.00045575,0.00004273,0.00335766,0.00160404,0.07732351,-0.00
 028873,0.00222079,0.00094981,-0.00990085,-0.01174809,-0.03924407,0.006
 28079,-0.03703927,-0.03657582,-0.00013918,0.00084413,0.00007303,-0.000
 06264,-0.00032431,0.00015496,-0.00013402,-0.00002920,-0.00013238,-0.00
 016426,0.00013895,0.00003150,0.00013596,0.00000356,0.00002439,-0.00009
 082,-0.00000254,-0.00000884,0.00022250,-0.00014361,-0.00008442,-0.0002
 3998,0.00056942,0.00004132,0.00004037,-0.00123234,0.00046242,0.0026299
 8,-0.00250303,-0.00157069,0.00171130,0.04947740,0.00033239,0.00230893,
 0.00154483,-0.00462423,-0.00426614,-0.01739301,-0.15193349,-0.07311254
 ,-0.44741139,-0.00040571,0.00222025,0.00178020,-0.00062600,-0.00032783
 ,0.00009968,-0.00027272,0.00026733,-0.00019515,-0.00029744,0.00023618,
 -0.00005805,0.00024682,0.00004033,0.00003783,-0.00019366,-0.00000813,-
 0.00001637,0.00027365,-0.00003860,-0.00007005,-0.00051624,-0.00022173,
 0.00010028,-0.00045620,-0.00045194,0.00002316,0.00156441,-0.00291895,0
 .00099769,0.15647861,0.07572776,0.46071136,-0.00110735,0.00074460,-0.0
 0033236,-0.00072316,0.00036596,0.00011303,0.00044762,-0.00056456,0.000
 05122,0.01208525,0.01311078,0.00064757,-0.12773203,-0.12646087,-0.0052
 7843,-0.00980313,-0.02658281,-0.00070305,-0.00438645,0.00102425,-0.000
 66225,-0.00027841,-0.00127525,-0.00002043,-0.00040890,0.00024280,-0.00
 002024,-0.00045039,0.00057535,0.00004619,-0.00169765,0.00298214,-0.000
 58812,-0.00054749,0.00003927,0.00057002,0.00005889,-0.00005804,0.00005
 534,0.00003343,0.00007241,0.00003904,0.13250697,-0.00148391,0.00234787
 ,-0.00010478,-0.00203588,-0.00177540,0.00061057,0.00017255,0.00042395,
 0.00000786,-0.01400228,-0.01585634,-0.00082625,-0.12708603,-0.28033759
 ,-0.00623228,0.00404975,0.00529922,0.00029268,0.00102765,0.00157247,0.
 00012076,0.00027026,0.00029508,0.00000440,-0.00002187,-0.00010270,0.00
 000072,0.00085174,0.00009514,0.00003660,0.00345362,-0.00280234,0.00031
 644,0.00071360,-0.00022868,-0.00050684,0.00015685,0.00001085,-0.000048
 81,-0.00009516,-0.00000332,0.00004857,0.13497727,0.29134182,0.00040077
 ,0.00035213,-0.00031995,-0.00011791,-0.00034135,-0.00378124,0.00042539
 ,-0.00007378,0.00010424,0.00041491,0.00135774,0.00475416,-0.00533289,-
 0.00608681,-0.04079801,-0.00077740,-0.00167498,0.00443844,-0.00076091,
 0.00005789,0.00740449,-0.00004039,-0.00008782,0.00048110,-0.00002328,0
 .00001713,-0.00016098,0.00000489,0.00007042,-0.00098504,-0.00037033,0.
 00021701,0.00678104,0.00058229,-0.00016586,-0.00021307,-0.00061482,-0.
 00002823,-0.00006663,0.00003887,0.00001470,0.00007941,0.00570844,0.006
 36782,0.02789123,-0.00020333,-0.00019532,0.00014567,0.00087668,0.00119
 212,-0.00004512,-0.00078691,0.00037239,0.00018904,-0.00528889,-0.00122
 292,-0.00085646,-0.00851202,0.02665597,-0.00099890,-0.13164438,0.12823
 330,-0.00606825,0.01050326,-0.01626845,0.00044665,0.00091388,-0.000343
 95,0.00032664,0.00004613,0.00002744,-0.00003524,-0.00159254,-0.0027210
 4,-0.00044920,-0.00049090,-0.00060761,0.00002877,0.00007772,0.00000527
 ,-0.00007135,-0.00011247,-0.00002908,-0.00004756,0.00007564,-0.0000351
 9,-0.00010841,0.00138426,-0.00008920,0.00038059,0.13417934,0.00009473,
 0.00001132,-0.00000416,-0.00023178,0.00015520,0.00002168,-0.00000878,0
 .00000916,-0.00000509,-0.00096261,0.00120501,-0.00005319,-0.00389587,0
 .00538606,-0.00025800,0.12757388,-0.28020468,0.00872157,0.01442276,-0.
 01441120,0.00094668,0.00100680,-0.00007753,0.00004873,-0.00028014,-0.0
 0000144,-0.00001292,-0.00385510,-0.00219788,-0.00017702,-0.00045732,0.
 00035232,-0.00003287,-0.00002011,-0.00001125,0.00002127,0.00005275,-0.
 00000578,-0.00001588,-0.00001644,0.00000502,0.00001139,0.00012528,0.00
 053312,-0.00001394,-0.13434996,0.29001831,0.00008855,0.00005006,-0.000
 00220,-0.00002009,-0.00010647,-0.00026430,-0.00012720,0.00010804,0.000
 00204,-0.00061790,-0.00001936,0.00756344,-0.00071414,0.00161959,0.0054
 1572,-0.00622458,0.00871877,-0.04084557,0.00032856,-0.00088866,0.00413
 316,0.00031040,-0.00000293,-0.00433524,-0.00002115,0.00000648,0.000642
 84,-0.00049290,-0.00008954,0.00645408,0.00007607,-0.00009119,-0.000968
 49,0.00004484,0.00001329,0.00002876,-0.00008978,0.00002043,0.00002660,
 0.00000361,-0.00001570,-0.00003808,0.00030606,-0.00004830,-0.00463575,
 0.00708918,-0.00924744,0.02735292,-0.00078766,-0.00037070,0.00019207,0
 .00087633,-0.00119285,-0.00003234,-0.00020326,0.00019667,0.00014387,-0
 .00528779,0.00121665,-0.00086860,-0.00049045,0.00060808,0.00002218,-0.
 00159021,0.00271599,-0.00047777,0.01050375,0.01626288,0.00027352,0.000
 91517,0.00034731,0.00032141,0.00004623,-0.00002785,-0.00003490,-0.1317
 4733,-0.12835006,-0.00469910,-0.00852050,-0.02666066,-0.00071561,0.000
 07565,0.00003436,-0.00010858,-0.00011189,0.00002864,-0.00004779,0.0000
 7762,-0.00000582,-0.00007147,0.00005938,-0.00009966,0.00006353,0.00051
 507,0.00072367,0.00000370,0.13428563,0.00000788,0.00000831,0.00000497,
 0.00023124,0.00015644,-0.00002612,-0.00009375,0.00001090,0.00000410,0.
 00095841,0.00120533,0.00012126,0.00045855,0.00035311,0.00001869,0.0038
 4942,-0.00219665,0.00026907,-0.01442735,-0.01441060,-0.00074975,-0.001
 00466,-0.00007903,-0.00009342,0.00028004,-0.00000129,0.00001978,-0.127
 69247,-0.28027541,-0.00617208,0.00389309,0.00537988,0.00025839,0.00001
 647,0.00000506,-0.00001175,-0.00005371,-0.00000579,0.00001622,0.000020
 52,-0.00001156,-0.00002089,-0.00007767,-0.00000830,-0.00001206,-0.0007
 2408,-0.00075761,-0.00003463,0.13448040,0.29009397,-0.00012687,-0.0001
 0832,0.00000201,-0.00002298,0.00010265,-0.00026420,0.00009013,-0.00005
 009,-0.00000206,-0.00062707,0.00008673,0.00756363,0.00007144,0.0000765
 2,-0.00096926,-0.00053436,0.00018128,0.00644952,0.00048215,0.00108513,
 0.00413064,0.00031951,-0.00004232,-0.00433251,-0.00002402,0.00000035,0
 .00064251,-0.00486271,-0.00616882,-0.04069885,-0.00075609,-0.00161869,
 0.00543041,0.00000352,0.00001538,-0.00003812,-0.00008942,-0.00001991,0
 .00002660,0.00004459,-0.00001285,0.00002896,0.00005768,-0.00001731,-0.
 00093287,0.00001139,0.00004694,0.00040332,0.00565644,0.00644939,0.0271
 9685,0.00044787,0.00056510,0.00004569,-0.00071971,-0.00036945,0.000115
 85,-0.00105588,-0.00072787,-0.00033696,0.01208446,-0.01311933,0.000788
 74,-0.00169912,-0.00298868,-0.00055642,-0.00045097,-0.00057469,0.00005
 235,-0.00438719,-0.00102888,-0.00065026,-0.00027816,0.00127514,-0.0000
 3381,-0.00040887,-0.00024293,-0.00001770,-0.00979511,0.02657908,-0.000
 98404,-0.12762390,0.12634239,-0.00661452,0.00003341,-0.00007204,0.0000
 3960,0.00005862,0.00005870,0.00005445,-0.00054361,-0.00003180,0.000570
 65,0.00055916,-0.00075930,0.00001825,0.00005949,0.00007825,0.00005678,
 0.00138427,-0.00012233,0.00030667,0.13233524,-0.00016764,0.00042408,-0
 .00001016,0.00203132,-0.00177178,-0.00063511,0.00149360,0.00234090,0.0
 0007472,0.01399802,-0.01585953,0.00104413,-0.00345784,-0.00280489,-0.0
 0021582,-0.00085140,0.00009454,-0.00004801,-0.00103327,0.00157197,-0.0
 0005948,-0.00027053,0.00029564,-0.00000268,0.00002179,-0.00010283,-0.0
 0000127,-0.00405267,0.00530508,-0.00030091,0.12696925,-0.28026112,0.00
 875048,0.00009572,-0.00000388,-0.00004771,-0.00016379,0.00001154,0.000
 04786,-0.00070355,-0.00022200,0.00050603,0.00075909,-0.00080485,0.0000
 3001,0.00010030,-0.00000816,0.00000759,0.00009296,0.00053323,-0.000006
 05,-0.13486136,0.29126203,0.00042461,0.00006764,0.00010327,-0.00013887
 ,0.00032314,-0.00377418,0.00037663,-0.00038340,-0.00031282,0.00026810,
 -0.00114296,0.00475728,-0.00033543,-0.00011479,0.00678554,0.00001511,-
 0.00008083,-0.00098368,-0.00075003,0.00000286,0.00740658,-0.00003756,0
 .00008974,0.00048010,-0.00002352,-0.00001774,-0.00016077,-0.00073590,0
 .00166740,0.00442528,-0.00667389,0.00860284,-0.04094580,0.00003780,-0.
 00001366,0.00007960,-0.00061170,0.00002930,-0.00006883,0.00058770,0.00
 016488,-0.00022130,0.00001029,-0.00002184,-0.00004058,0.00006256,0.000
 00224,-0.00093325,0.00037945,-0.00004118,-0.00463657,0.00714466,-0.009
 13363,0.02804013\\-0.00000523,0.00001126,0.00001117,0.00001935,0.00000
 066,0.00000313,-0.00000546,-0.00001223,0.00001154,0.00000332,0.0000009
 5,0.00000048,-0.00001491,0.00001036,-0.00000081,0.00004010,0.00000142,
 -0.00000518,-0.00006516,0.00000482,-0.00000238,0.00005732,-0.00000865,
 0.00000166,-0.00003675,0.00000407,-0.00000804,0.00003842,-0.00000260,-
 0.00000571,-0.00001717,-0.00001063,-0.00000160,-0.00000191,-0.00000440
 ,-0.00000415,-0.00000177,-0.00000059,-0.00000071,-0.00000156,0.0000053
 2,-0.00000480,0.00000500,0.00000034,0.00000342,-0.00000891,0.00000179,
 0.00000015,-0.00000927,-0.00000168,-0.00000074,0.00000459,-0.00000021,
 0.00000257\\\@
 The archive entry for this job was punched.


 NOT WHAT WE DID SHALL BE THE TEST
 WHEN ACT AND WILL ARE DONE,
 BUT WHAT OUR LORD INFERS WE WOULD-
 HAD WE DIVINER BEEN.
           EMILY DICKINSON  POEMS NO. CLXXV
 Job cpu time:       0 days  0 hours 33 minutes 40.7 seconds.
 Elapsed time:       0 days  0 hours  4 minutes 13.3 seconds.
 File lengths (MBytes):  RWF=   1360 Int=      0 D2E=      0 Chk=     16 Scr=     32
 Normal termination of Gaussian 16 at Tue Oct 21 15:08:08 2025.
