 Entering Gaussian System, Link 0=g16
 Input=../../g16_C12-a_10.com
 Output=../../g16_C12-a_10.log
 Initial command:
 /lrz/sys/applications/gaussian/g16.C.01/x86_64_legacy/exe/l1.exe "/dss/lxclscratch/0D/go29tiz2/Gau-63464.inp" -scrdir="/dss/lxclscratch/0D/go29tiz2/"
 Entering Link 1 = /lrz/sys/applications/gaussian/g16.C.01/x86_64_legacy/exe/l1.exe PID=     63508.
  
 Copyright (c) 1988-2019, Gaussian, Inc.  All Rights Reserved.
  
 This is part of the Gaussian(R) 16 program.  It is based on
 the Gaussian(R) 09 system (copyright 2009, Gaussian, Inc.),
 the Gaussian(R) 03 system (copyright 2003, Gaussian, Inc.),
 the Gaussian(R) 98 system (copyright 1998, Gaussian, Inc.),
 the Gaussian(R) 94 system (copyright 1995, Gaussian, Inc.),
 the Gaussian 92(TM) system (copyright 1992, Gaussian, Inc.),
 the Gaussian 90(TM) system (copyright 1990, Gaussian, Inc.),
 the Gaussian 88(TM) system (copyright 1988, Gaussian, Inc.),
 the Gaussian 86(TM) system (copyright 1986, Carnegie Mellon
 University), and the Gaussian 82(TM) system (copyright 1983,
 Carnegie Mellon University). Gaussian is a federally registered
 trademark of Gaussian, Inc.
  
 This software contains proprietary and confidential information,
 including trade secrets, belonging to Gaussian, Inc.
  
 This software is provided under written license and may be
 used, copied, transmitted, or stored only in accord with that
 written license.
  
 The following legend is applicable only to US Government
 contracts under FAR:
  
                    RESTRICTED RIGHTS LEGEND
  
 Use, reproduction and disclosure by the US Government is
 subject to restrictions as set forth in subparagraphs (a)
 and (c) of the Commercial Computer Software - Restricted
 Rights clause in FAR 52.227-19.
  
 Gaussian, Inc.
 340 Quinnipiac St., Bldg. 40, Wallingford CT 06492
  
  
 ---------------------------------------------------------------
 Warning -- This program may not be used in any manner that
 competes with the business of Gaussian, Inc. or will provide
 assistance to any competitor of Gaussian, Inc.  The licensee
 of this program is prohibited from giving any competitor of
 Gaussian, Inc. access to this program.  By using this program,
 the user acknowledges that Gaussian, Inc. is engaged in the
 business of creating and licensing software in the field of
 computational chemistry and represents and warrants to the
 licensee that it is not a competitor of Gaussian, Inc. and that
 it will not use this program in any manner prohibited above.
 ---------------------------------------------------------------
  

 Cite this work as:
 Gaussian 16, Revision C.01,
 M. J. Frisch, G. W. Trucks, H. B. Schlegel, G. E. Scuseria, 
 M. A. Robb, J. R. Cheeseman, G. Scalmani, V. Barone, 
 G. A. Petersson, H. Nakatsuji, X. Li, M. Caricato, A. V. Marenich, 
 J. Bloino, B. G. Janesko, R. Gomperts, B. Mennucci, H. P. Hratchian, 
 J. V. Ortiz, A. F. Izmaylov, J. L. Sonnenberg, D. Williams-Young, 
 F. Ding, F. Lipparini, F. Egidi, J. Goings, B. Peng, A. Petrone, 
 T. Henderson, D. Ranasinghe, V. G. Zakrzewski, J. Gao, N. Rega, 
 G. Zheng, W. Liang, M. Hada, M. Ehara, K. Toyota, R. Fukuda, 
 J. Hasegawa, M. Ishida, T. Nakajima, Y. Honda, O. Kitao, H. Nakai, 
 T. Vreven, K. Throssell, J. A. Montgomery, Jr., J. E. Peralta, 
 F. Ogliaro, M. J. Bearpark, J. J. Heyd, E. N. Brothers, K. N. Kudin, 
 V. N. Staroverov, T. A. Keith, R. Kobayashi, J. Normand, 
 K. Raghavachari, A. P. Rendell, J. C. Burant, S. S. Iyengar, 
 J. Tomasi, M. Cossi, J. M. Millam, M. Klene, C. Adamo, R. Cammi, 
 J. W. Ochterski, R. L. Martin, K. Morokuma, O. Farkas, 
 J. B. Foresman, and D. J. Fox, Gaussian, Inc., Wallingford CT, 2019.
 
 ******************************************
 Gaussian 16:  EM64L-G16RevC.01  3-Jul-2019
                21-Oct-2025 
 ******************************************
 %chk=g16_C12-a_10.chk
 %nprocshared=8
 Will use up to    8 processors via shared memory.
 %mem=32GB
 ---------------------------------------------------
 #p opt freq wb97xd scrf=(smd,solvent=water) def2svp
 ---------------------------------------------------
 1/18=20,19=15,26=3,38=1/1,3;
 2/9=110,12=2,17=6,18=5,40=1/2;
 3/5=43,7=101,11=2,25=1,30=1,70=32201,71=1,72=1,74=-58/1,2,3;
 4//1;
 5/5=2,38=5,53=1/2;
 6/7=2,8=2,9=2,10=2,28=1/1;
 7//1,2,3,16;
 1/18=20,19=15,26=3/3(2);
 2/9=110/2;
 99//99;
 2/9=110/2;
 3/5=43,7=101,11=2,25=1,30=1,70=32205,71=1,72=1,74=-58/1,2,3;
 4/5=5,16=3,69=1/1;
 5/5=2,38=5,53=1/2;
 7//1,2,3,16;
 1/18=20,19=15,26=3/3(-5);
 2/9=110/2;
 6/7=2,8=2,9=2,10=2,19=2,28=1/1;
 99/9=1/99;
 Leave Link    1 at Tue Oct 21 14:58:29 2025, MaxMem=  4294967296 cpu:               3.8 elap:               0.5
 (Enter /lrz/sys/applications/gaussian/g16.C.01/x86_64_legacy/exe/l101.exe)
 ------------
 g16_C12-a_10
 ------------
 Symbolic Z-matrix:
 Charge =  0 Multiplicity = 1
 O                     3.02846  -0.39866   1.06779 
 C                     2.47128  -0.23027  -0.21766 
 N                     2.98477   1.02772  -0.7154 
 C                     0.95614  -0.16768  -0.16495 
 C                     0.34753   0.95782   0.38076 
 C                    -1.02697   1.03616   0.46705 
 C                    -1.80863  -0.02429   0.00268 
 C                    -3.21667   0.04709   0.08574 
 N                    -4.3611    0.1026    0.15322 
 C                    -1.20266  -1.1558   -0.54451 
 C                     0.17507  -1.22125  -0.62362 
 H                     2.50868  -1.04121   1.56286 
 H                     2.77066  -1.10017  -0.84927 
 H                     3.96366   1.11034  -0.46726 
 H                     2.89407   1.08072  -1.72251 
 H                     0.9741    1.76544   0.72478 
 H                    -1.50556   1.90791   0.8881 
 H                    -1.81488  -1.97048  -0.90238 
 H                     0.64534  -2.09672  -1.04904 
 
 ITRead=  0  0  0  0  0  0  0  0  0  0  0  0  0  0  0  0  0  0  0
 MicOpt= -1 -1 -1 -1 -1 -1 -1 -1 -1 -1 -1 -1 -1 -1 -1 -1 -1 -1 -1
 NAtoms=     19 NQM=       19 NQMF=       0 NMMI=      0 NMMIF=      0
                NMic=       0 NMicF=      0.
                    Isotopes and Nuclear Properties:
 (Nuclear quadrupole moments (NQMom) in fm**2, nuclear magnetic moments (NMagM)
  in nuclear magnetons)

  Atom         1           2           3           4           5           6           7           8           9          10
 IAtWgt=          16          12          14          12          12          12          12          12          14          12
 AtmWgt=  15.9949146  12.0000000  14.0030740  12.0000000  12.0000000  12.0000000  12.0000000  12.0000000  14.0030740  12.0000000
 NucSpn=           0           0           2           0           0           0           0           0           2           0
 AtZEff=  -0.0000000  -0.0000000  -0.0000000  -0.0000000  -0.0000000  -0.0000000  -0.0000000  -0.0000000  -0.0000000  -0.0000000
 NQMom=    0.0000000   0.0000000   2.0440000   0.0000000   0.0000000   0.0000000   0.0000000   0.0000000   2.0440000   0.0000000
 NMagM=    0.0000000   0.0000000   0.4037610   0.0000000   0.0000000   0.0000000   0.0000000   0.0000000   0.4037610   0.0000000
 AtZNuc=   8.0000000   6.0000000   7.0000000   6.0000000   6.0000000   6.0000000   6.0000000   6.0000000   7.0000000   6.0000000

  Atom        11          12          13          14          15          16          17          18          19
 IAtWgt=          12           1           1           1           1           1           1           1           1
 AtmWgt=  12.0000000   1.0078250   1.0078250   1.0078250   1.0078250   1.0078250   1.0078250   1.0078250   1.0078250
 NucSpn=           0           1           1           1           1           1           1           1           1
 AtZEff=  -0.0000000  -0.0000000  -0.0000000  -0.0000000  -0.0000000  -0.0000000  -0.0000000  -0.0000000  -0.0000000
 NQMom=    0.0000000   0.0000000   0.0000000   0.0000000   0.0000000   0.0000000   0.0000000   0.0000000   0.0000000
 NMagM=    0.0000000   2.7928460   2.7928460   2.7928460   2.7928460   2.7928460   2.7928460   2.7928460   2.7928460
 AtZNuc=   6.0000000   1.0000000   1.0000000   1.0000000   1.0000000   1.0000000   1.0000000   1.0000000   1.0000000
 Leave Link  101 at Tue Oct 21 14:58:30 2025, MaxMem=  4294967296 cpu:               3.4 elap:               0.4
 (Enter /lrz/sys/applications/gaussian/g16.C.01/x86_64_legacy/exe/l103.exe)

 GradGradGradGradGradGradGradGradGradGradGradGradGradGradGradGradGradGrad
 Berny optimization.
 Initialization pass.
                           ----------------------------
                           !    Initial Parameters    !
                           ! (Angstroms and Degrees)  !
 --------------------------                            --------------------------
 ! Name  Definition              Value          Derivative Info.                !
 --------------------------------------------------------------------------------
 ! R1    R(1,2)                  1.4111         estimate D2E/DX2                !
 ! R2    R(1,12)                 0.9634         estimate D2E/DX2                !
 ! R3    R(2,3)                  1.447          estimate D2E/DX2                !
 ! R4    R(2,4)                  1.5173         estimate D2E/DX2                !
 ! R5    R(2,13)                 1.1159         estimate D2E/DX2                !
 ! R6    R(3,14)                 1.0132         estimate D2E/DX2                !
 ! R7    R(3,15)                 1.0126         estimate D2E/DX2                !
 ! R8    R(4,5)                  1.391          estimate D2E/DX2                !
 ! R9    R(4,11)                 1.3894         estimate D2E/DX2                !
 ! R10   R(5,6)                  1.3794         estimate D2E/DX2                !
 ! R11   R(5,16)                 1.0785         estimate D2E/DX2                !
 ! R12   R(6,7)                  1.3969         estimate D2E/DX2                !
 ! R13   R(6,17)                 1.0799         estimate D2E/DX2                !
 ! R14   R(7,8)                  1.4123         estimate D2E/DX2                !
 ! R15   R(7,10)                 1.3953         estimate D2E/DX2                !
 ! R16   R(8,9)                  1.1478         estimate D2E/DX2                !
 ! R17   R(10,11)                1.3816         estimate D2E/DX2                !
 ! R18   R(10,18)                1.0801         estimate D2E/DX2                !
 ! R19   R(11,19)                1.081          estimate D2E/DX2                !
 ! A1    A(2,1,12)             109.5526         estimate D2E/DX2                !
 ! A2    A(1,2,3)              106.0791         estimate D2E/DX2                !
 ! A3    A(1,2,4)              111.565          estimate D2E/DX2                !
 ! A4    A(1,2,13)             108.4599         estimate D2E/DX2                !
 ! A5    A(3,2,4)              109.2946         estimate D2E/DX2                !
 ! A6    A(3,2,13)             112.8181         estimate D2E/DX2                !
 ! A7    A(4,2,13)             108.6455         estimate D2E/DX2                !
 ! A8    A(2,3,14)             109.237          estimate D2E/DX2                !
 ! A9    A(2,3,15)             110.8442         estimate D2E/DX2                !
 ! A10   A(14,3,15)            109.0167         estimate D2E/DX2                !
 ! A11   A(2,4,5)              118.9398         estimate D2E/DX2                !
 ! A12   A(2,4,11)             121.2383         estimate D2E/DX2                !
 ! A13   A(5,4,11)             119.8075         estimate D2E/DX2                !
 ! A14   A(4,5,6)              120.4279         estimate D2E/DX2                !
 ! A15   A(4,5,16)             118.4794         estimate D2E/DX2                !
 ! A16   A(6,5,16)             121.0909         estimate D2E/DX2                !
 ! A17   A(5,6,7)              119.5826         estimate D2E/DX2                !
 ! A18   A(5,6,17)             120.7844         estimate D2E/DX2                !
 ! A19   A(7,6,17)             119.633          estimate D2E/DX2                !
 ! A20   A(6,7,8)              119.9988         estimate D2E/DX2                !
 ! A21   A(6,7,10)             120.1976         estimate D2E/DX2                !
 ! A22   A(8,7,10)             119.8036         estimate D2E/DX2                !
 ! A23   A(7,10,11)            119.6008         estimate D2E/DX2                !
 ! A24   A(7,10,18)            119.6983         estimate D2E/DX2                !
 ! A25   A(11,10,18)           120.7009         estimate D2E/DX2                !
 ! A26   A(4,11,10)            120.3834         estimate D2E/DX2                !
 ! A27   A(4,11,19)            119.9648         estimate D2E/DX2                !
 ! A28   A(10,11,19)           119.6513         estimate D2E/DX2                !
 ! A29   L(7,8,9,18,-1)        179.8861         estimate D2E/DX2                !
 ! A30   L(7,8,9,18,-2)        179.9364         estimate D2E/DX2                !
 ! D1    D(12,1,2,3)           160.8455         estimate D2E/DX2                !
 ! D2    D(12,1,2,4)            41.9196         estimate D2E/DX2                !
 ! D3    D(12,1,2,13)          -77.7077         estimate D2E/DX2                !
 ! D4    D(1,2,3,14)            40.8656         estimate D2E/DX2                !
 ! D5    D(1,2,3,15)           161.0079         estimate D2E/DX2                !
 ! D6    D(4,2,3,14)           161.2762         estimate D2E/DX2                !
 ! D7    D(4,2,3,15)           -78.5815         estimate D2E/DX2                !
 ! D8    D(13,2,3,14)          -77.7402         estimate D2E/DX2                !
 ! D9    D(13,2,3,15)           42.402          estimate D2E/DX2                !
 ! D10   D(1,2,4,5)             70.929          estimate D2E/DX2                !
 ! D11   D(1,2,4,11)          -107.6877         estimate D2E/DX2                !
 ! D12   D(3,2,4,5)            -46.0649         estimate D2E/DX2                !
 ! D13   D(3,2,4,11)           135.3185         estimate D2E/DX2                !
 ! D14   D(13,2,4,5)          -169.5536         estimate D2E/DX2                !
 ! D15   D(13,2,4,11)           11.8298         estimate D2E/DX2                !
 ! D16   D(2,4,5,6)           -178.7738         estimate D2E/DX2                !
 ! D17   D(2,4,5,16)             1.7189         estimate D2E/DX2                !
 ! D18   D(11,4,5,6)            -0.137          estimate D2E/DX2                !
 ! D19   D(11,4,5,16)         -179.6443         estimate D2E/DX2                !
 ! D20   D(2,4,11,10)          178.7995         estimate D2E/DX2                !
 ! D21   D(2,4,11,19)           -1.4542         estimate D2E/DX2                !
 ! D22   D(5,4,11,10)            0.1948         estimate D2E/DX2                !
 ! D23   D(5,4,11,19)          179.941          estimate D2E/DX2                !
 ! D24   D(4,5,6,7)              0.0278         estimate D2E/DX2                !
 ! D25   D(4,5,6,17)          -179.8942         estimate D2E/DX2                !
 ! D26   D(16,5,6,7)           179.5221         estimate D2E/DX2                !
 ! D27   D(16,5,6,17)           -0.3999         estimate D2E/DX2                !
 ! D28   D(5,6,7,8)           -179.9483         estimate D2E/DX2                !
 ! D29   D(5,6,7,10)             0.0247         estimate D2E/DX2                !
 ! D30   D(17,6,7,8)            -0.0254         estimate D2E/DX2                !
 ! D31   D(17,6,7,10)          179.9477         estimate D2E/DX2                !
 ! D32   D(6,7,10,11)            0.0323         estimate D2E/DX2                !
 ! D33   D(6,7,10,18)         -179.9146         estimate D2E/DX2                !
 ! D34   D(8,7,10,11)         -179.9946         estimate D2E/DX2                !
 ! D35   D(8,7,10,18)            0.0585         estimate D2E/DX2                !
 ! D36   D(7,10,11,4)           -0.1423         estimate D2E/DX2                !
 ! D37   D(7,10,11,19)        -179.8893         estimate D2E/DX2                !
 ! D38   D(18,10,11,4)         179.8041         estimate D2E/DX2                !
 ! D39   D(18,10,11,19)          0.0571         estimate D2E/DX2                !
 --------------------------------------------------------------------------------
 Trust Radius=3.00D-01 FncErr=1.00D-07 GrdErr=1.00D-06 EigMax=2.50D+02 EigMin=1.00D-04
 Number of steps in this run=     98 maximum allowed number of steps=    114.
 GradGradGradGradGradGradGradGradGradGradGradGradGradGradGradGradGradGrad

 Leave Link  103 at Tue Oct 21 14:58:30 2025, MaxMem=  4294967296 cpu:               0.2 elap:               0.1
 (Enter /lrz/sys/applications/gaussian/g16.C.01/x86_64_legacy/exe/l202.exe)
                          Input orientation:                          
 ---------------------------------------------------------------------
 Center     Atomic      Atomic             Coordinates (Angstroms)
 Number     Number       Type             X           Y           Z
 ---------------------------------------------------------------------
      1          8           0        3.028455   -0.398658    1.067794
      2          6           0        2.471278   -0.230271   -0.217664
      3          7           0        2.984765    1.027721   -0.715397
      4          6           0        0.956137   -0.167684   -0.164954
      5          6           0        0.347526    0.957818    0.380758
      6          6           0       -1.026967    1.036157    0.467053
      7          6           0       -1.808630   -0.024291    0.002679
      8          6           0       -3.216674    0.047090    0.085742
      9          7           0       -4.361096    0.102601    0.153225
     10          6           0       -1.202662   -1.155801   -0.544511
     11          6           0        0.175070   -1.221246   -0.623617
     12          1           0        2.508677   -1.041210    1.562856
     13          1           0        2.770664   -1.100172   -0.849266
     14          1           0        3.963664    1.110337   -0.467260
     15          1           0        2.894066    1.080723   -1.722513
     16          1           0        0.974097    1.765438    0.724784
     17          1           0       -1.505557    1.907910    0.888102
     18          1           0       -1.814884   -1.970481   -0.902384
     19          1           0        0.645340   -2.096721   -1.049043
 ---------------------------------------------------------------------
                    Distance matrix (angstroms):
                    1          2          3          4          5
     1  O    0.000000
     2  C    1.411100   0.000000
     3  N    2.283908   1.447049   0.000000
     4  C    2.422297   1.517349   2.418122   0.000000
     5  C    3.082114   2.505989   2.856828   1.391029   0.000000
     6  C    4.343505   3.782908   4.182374   2.404447   1.379426
     7  C    4.967094   4.290523   4.959738   2.773553   2.399269
     8  C    6.337567   5.702787   6.329400   4.185848   3.690526
     9  N    7.462786   6.850525   7.454665   5.333597   4.791064
    10  C    4.590768   3.802797   4.725623   2.404340   2.779674
    11  C    3.417503   2.533653   3.600092   1.389399   2.405583
    12  H    0.963395   1.956852   3.114092   2.481684   3.172387
    13  H    2.057595   1.115921   2.142822   2.151820   3.408794
    14  H    2.346928   2.021570   1.013232   3.281760   3.717371
    15  H    3.161082   2.040105   1.012580   2.782100   3.305105
    16  H    3.003558   2.666949   2.580917   2.128125   1.078515
    17  H    5.090168   4.648628   4.848601   3.387765   2.143360
    18  H    5.459869   4.676361   5.662226   3.387098   3.859715
    19  H    3.611600   2.740233   3.917444   2.144619   3.385739
                    6          7          8          9         10
     6  C    0.000000
     7  C    1.396851   0.000000
     8  C    2.432790   1.412297   0.000000
     9  N    3.476555   2.560048   1.147753   0.000000
    10  C    2.420498   1.395324   2.429076   3.470751   0.000000
    11  C    2.780346   2.400003   3.689958   4.788826   1.381552
    12  H    4.244645   4.701852   6.012146   7.105571   4.269445
    13  H    4.551769   4.780509   6.167550   7.301620   3.985385
    14  H    5.077877   5.901492   7.279667   8.408458   5.642009
    15  H    4.491179   5.129591   6.455953   7.557281   4.813825
    16  H    2.145351   3.386464   4.574238   5.617472   3.857852
    17  H    1.079946   2.146911   2.652236   3.457353   3.395651
    18  H    3.396475   2.146353   2.648018   3.448938   1.080089
    19  H    3.861357   3.379800   4.560571   5.598827   2.134243
                   11         12         13         14         15
    11  C    0.000000
    12  H    3.202935   0.000000
    13  H    2.608196   2.427024   0.000000
    14  H    4.451311   3.296591   2.540773   0.000000
    15  H    3.728213   3.929984   2.352465   1.649417   0.000000
    16  H    3.372968   3.306747   3.730551   3.284454   3.185024
    17  H    3.860235   5.026596   5.509362   5.690826   5.182300
    18  H    2.144524   5.063016   4.667710   6.562956   5.670685
    19  H    1.081017   3.377594   2.355850   4.651340   3.950504
                   16         17         18         19
    16  H    0.000000
    17  H    2.489106   0.000000
    18  H    4.937933   4.282924   0.000000
    19  H    4.262724   4.941250   2.467822   0.000000
 Stoichiometry    C8H8N2O
 Framework group  C1[X(C8H8N2O)]
 Deg. of freedom    51
 Full point group                 C1      NOp   1
 Largest Abelian subgroup         C1      NOp   1
 Largest concise Abelian subgroup C1      NOp   1
                         Standard orientation:                         
 ---------------------------------------------------------------------
 Center     Atomic      Atomic             Coordinates (Angstroms)
 Number     Number       Type             X           Y           Z
 ---------------------------------------------------------------------
      1          8           0       -2.943837    0.127915    1.188135
      2          6           0       -2.400086    0.326388   -0.098779
      3          7           0       -2.946323   -0.723841   -0.931002
      4          6           0       -0.886470    0.220671   -0.087074
      5          6           0       -0.300276   -1.026471    0.102593
      6          6           0        1.072612   -1.154118    0.143835
      7          6           0        1.875355   -0.020791   -0.005722
      8          6           0        3.281922   -0.141522    0.033972
      9          7           0        4.425201   -0.237241    0.066931
     10          6           0        1.291931    1.232475   -0.195109
     11          6           0       -0.084443    1.345770   -0.233140
     12          1           0       -2.405657    0.589657    1.840275
     13          1           0       -2.683723    1.347394   -0.448602
     14          1           0       -3.925051   -0.854758   -0.703860
     15          1           0       -2.864204   -0.485811   -1.911775
     16          1           0       -0.942961   -1.886183    0.207697
     17          1           0        1.533825   -2.119762    0.289082
     18          1           0        1.920336    2.103230   -0.311239
     19          1           0       -0.537283    2.316072   -0.381619
 ---------------------------------------------------------------------
 Rotational constants (GHZ):           3.4896559           0.5568642           0.5247152
 Leave Link  202 at Tue Oct 21 14:58:30 2025, MaxMem=  4294967296 cpu:               0.0 elap:               0.0
 (Enter /lrz/sys/applications/gaussian/g16.C.01/x86_64_legacy/exe/l301.exe)
 Standard basis: def2SVP (5D, 7F)
 Ernie: Thresh=  0.10000D-02 Tol=  0.10000D-05 Strict=F.
 There are   205 symmetry adapted cartesian basis functions of A   symmetry.
 There are   194 symmetry adapted basis functions of A   symmetry.
   194 basis functions,   331 primitive gaussians,   205 cartesian basis functions
    39 alpha electrons       39 beta electrons
       nuclear repulsion energy       548.3988724266 Hartrees.
 IExCor= 4639 DFT=T Ex+Corr=wB97XD ExCW=0 ScaHFX=  1.000000
 ScaDFX=  1.000000  1.000000  1.000000  1.000000 ScalE2=  1.000000  1.000000
 IRadAn=      5 IRanWt=     -1 IRanGd=            0 ICorTp=0 IEmpDi=121
 HFx  wShort=  0.000000 wLong=  0.200000 cFull=  0.222036 cShort=  0.000000 cLong=  0.777964
 DFx  wShort=  0.000000 wLong=  0.200000 cFull=  0.000000 cShort=  0.000000 cLong=  1.000000
 NAtoms=   19 NActive=   19 NUniq=   19 SFac= 1.00D+00 NAtFMM=   60 NAOKFM=F Big=F
 Integral buffers will be    131072 words long.
 Raffenetti 2 integral format.
 Two-electron integral symmetry is turned on.
 R6Disp:  Grimme-D2 Dispersion energy=       -0.0102614406 Hartrees.
 Nuclear repulsion after empirical dispersion term =      548.3886109860 Hartrees.
 ------------------------------------------------------------------------------
 Polarizable Continuum Model (PCM)
 =================================
 Model                : PCM.
 Atomic radii         : SMD-Coulomb.
 Polarization charges : Total charges.
 Charge compensation  : None.
 Solution method      : On-the-fly selection.
 Cavity type          : VdW (van der Waals Surface) (Alpha=1.000).
 Cavity algorithm     : GePol (No added spheres)
                        Default sphere list used, NSphG=   19.
                        Lebedev-Laikov grids with approx.  5.0 points / Ang**2.
                        Smoothing algorithm: York/Karplus (Gamma=1.0000).
                        Polarization charges: spherical gaussians, with
                                              point-specific exponents (IZeta= 3).
                        Self-potential: point-specific (ISelfS= 7).
                        Self-field    : sphere-specific E.n sum rule (ISelfD= 2).
 1st derivatives      : Analytical E(r).r(x)/FMM algorithm (CHGder, D1EAlg=3).
                        Cavity 1st derivative terms included.
 Solvent              : Water, Eps=  78.355300 Eps(inf)=   1.777849
 ------------------------------------------------------------------------------
 Spheres list:
 ISph  on   Nord     Re0    Alpha      Xe            Ye            Ze
    1   O      1    1.5200  1.000     -2.943837      0.127915      1.188135
    2   C      2    1.8500  1.000     -2.400086      0.326388     -0.098779
    3   N      3    1.8900  1.000     -2.946323     -0.723841     -0.931002
    4   C      4    1.8500  1.000     -0.886470      0.220671     -0.087074
    5   C      5    1.8500  1.000     -0.300276     -1.026471      0.102593
    6   C      6    1.8500  1.000      1.072612     -1.154118      0.143835
    7   C      7    1.8500  1.000      1.875355     -0.020791     -0.005722
    8   C      8    1.8500  1.000      3.281922     -0.141522      0.033972
    9   N      9    1.8900  1.000      4.425201     -0.237241      0.066931
   10   C     10    1.8500  1.000      1.291931      1.232475     -0.195109
   11   C     11    1.8500  1.000     -0.084443      1.345770     -0.233140
   12   H     12    1.2000  1.000     -2.405657      0.589657      1.840275
   13   H     13    1.2000  1.000     -2.683723      1.347394     -0.448602
   14   H     14    1.2000  1.000     -3.925051     -0.854758     -0.703860
   15   H     15    1.2000  1.000     -2.864204     -0.485811     -1.911775
   16   H     16    1.2000  1.000     -0.942961     -1.886183      0.207697
   17   H     17    1.2000  1.000      1.533825     -2.119762      0.289082
   18   H     18    1.2000  1.000      1.920336      2.103230     -0.311239
   19   H     19    1.2000  1.000     -0.537283      2.316072     -0.381619
 ------------------------------------------------------------------------------
 GePol: Number of generator spheres                  =      19
 GePol: Total number of spheres                      =      19
 GePol: Number of exposed spheres                    =      19 (100.00%)
 GePol: Number of points                             =    1607
 GePol: Average weight of points                     =       0.12
 GePol: Minimum weight of points                     =   0.56D-09
 GePol: Maximum weight of points                     =    0.21991
 GePol: Number of points with low weight             =      63
 GePol: Fraction of low-weight points (<1% of avg)   =       3.92%
 GePol: Cavity surface area                          =    185.334 Ang**2
 GePol: Cavity volume                                =    160.493 Ang**3
 ------------------------------------------------------------------------------
 Atomic radii for non-electrostatic terms: SMD-CDS.
 ------------------------------------------------------------------------------
 PCM non-electrostatic energy =         0.0077269941 Hartrees.
 Nuclear repulsion after PCM non-electrostatic terms =      548.3963379801 Hartrees.
 Leave Link  301 at Tue Oct 21 14:58:30 2025, MaxMem=  4294967296 cpu:               0.8 elap:               0.1
 (Enter /lrz/sys/applications/gaussian/g16.C.01/x86_64_legacy/exe/l302.exe)
 NPDir=0 NMtPBC=     1 NCelOv=     1 NCel=       1 NClECP=     1 NCelD=      1
         NCelK=      1 NCelE2=     1 NClLst=     1 CellRange=     0.0.
 One-electron integrals computed using PRISM.
 One-electron integral symmetry used in STVInt
   1 Symmetry operations used in ECPInt.
 ECPInt:  NShTT=    4095 NPrTT=   15045 LenC2=    3952 LenP2D=   11151.
 LDataN:  DoStor=T MaxTD1= 4 Len=   56
 NBasis=   194 RedAO= T EigKep=  2.63D-04  NBF=   194
 NBsUse=   194 1.00D-06 EigRej= -1.00D+00 NBFU=   194
 Precomputing XC quadrature grid using
 IXCGrd= 4 IRadAn=           5 IRanWt=          -1 IRanGd=           0 AccXCQ= 0.00D+00.
 Generated NRdTot=       0 NPtTot=           0 NUsed=           0 NTot=          32
 NSgBfM=   204   204   204   204   204 MxSgAt=    19 MxSgA2=    19.
 Leave Link  302 at Tue Oct 21 14:58:30 2025, MaxMem=  4294967296 cpu:               1.7 elap:               0.2
 (Enter /lrz/sys/applications/gaussian/g16.C.01/x86_64_legacy/exe/l303.exe)
 DipDrv:  MaxL=1.
 Leave Link  303 at Tue Oct 21 14:58:30 2025, MaxMem=  4294967296 cpu:               0.2 elap:               0.0
 (Enter /lrz/sys/applications/gaussian/g16.C.01/x86_64_legacy/exe/l401.exe)
 ExpMin= 1.22D-01 ExpMax= 2.27D+03 ExpMxC= 3.41D+02 IAcc=3 IRadAn=         5 AccDes= 0.00D+00
 Harris functional with IExCor= 4639 and IRadAn=       5 diagonalized for initial guess.
 HarFok:  IExCor= 4639 AccDes= 0.00D+00 IRadAn=         5 IDoV= 1 UseB2=F ITyADJ=14
 ICtDFT=  3500011 ScaDFX=  1.000000  1.000000  1.000000  1.000000
 FoFCou: FMM=F IPFlag=           0 FMFlag=      100000 FMFlg1=           0
         NFxFlg=           0 DoJE=T BraDBF=F KetDBF=T FulRan=T
         wScrn=  0.000000 ICntrl=       500 IOpCl=  0 I1Cent=   200000004 NGrid=           0
         NMat0=    1 NMatS0=      1 NMatT0=    0 NMatD0=    1 NMtDS0=    0 NMtDT0=    0
 Petite list used in FoFCou.
 Harris En= -472.792231191552    
 JPrj=0 DoOrth=F DoCkMO=F.
 Leave Link  401 at Tue Oct 21 14:58:32 2025, MaxMem=  4294967296 cpu:              10.1 elap:               1.3
 (Enter /lrz/sys/applications/gaussian/g16.C.01/x86_64_legacy/exe/l502.exe)
 Integral symmetry usage will be decided dynamically.
 Closed shell SCF:
 Using DIIS extrapolation, IDIIS=  1040.
 NGot=  4294967296 LenX=  4294878900 LenY=  4294836434
 Requested convergence on RMS density matrix=1.00D-08 within 128 cycles.
 Requested convergence on MAX density matrix=1.00D-06.
 Requested convergence on             energy=1.00D-06.
 No special actions if energy rises.
 Fock matrices will be formed incrementally for  20 cycles.

 Cycle   1  Pass 1  IDiag  1:
 FoFJK:  IHMeth= 1 ICntrl=       0 DoSepK=T KAlg= 0 I1Cent=           0 FoldK=F
 IRaf=         1 NMat=       1 IRICut=       1 DoRegI=T DoRafI=F ISym2E= 0 IDoP0=0 IntGTp=1.
 FoFCou: FMM=F IPFlag=           0 FMFlag=      100000 FMFlg1=           0
         NFxFlg=           0 DoJE=T BraDBF=F KetDBF=F FulRan=T
         wScrn=  0.000000 ICntrl=       500 IOpCl=  0 I1Cent=           0 NGrid=           0
         NMat0=    1 NMatS0=      1 NMatT0=    0 NMatD0=    1 NMtDS0=    0 NMtDT0=    0
 Symmetry not used in FoFCou.
 Inv3:  Mode=1 IEnd=     7747347.
 Iteration    1 A*A^-1 deviation from unit magnitude is 6.22D-15 for    609.
 Iteration    1 A*A^-1 deviation from orthogonality  is 2.90D-15 for   1287    419.
 Iteration    1 A^-1*A deviation from unit magnitude is 6.44D-15 for    233.
 Iteration    1 A^-1*A deviation from orthogonality  is 2.85D-15 for   1480   1144.
 E= -493.796056856266    
 DIIS: error= 2.57D-02 at cycle   1 NSaved=   1.
 NSaved= 1 IEnMin= 1 EnMin= -493.796056856266     IErMin= 1 ErrMin= 2.57D-02
 ErrMax= 2.57D-02  0.00D+00 EMaxC= 1.00D-01 BMatC= 1.94D-01 BMatP= 1.94D-01
 IDIUse=3 WtCom= 7.43D-01 WtEn= 2.57D-01
 Coeff-Com:  0.100D+01
 Coeff-En:   0.100D+01
 Coeff:      0.100D+01
 Gap=     0.358 Goal=   None    Shift=    0.000
 GapD=    0.358 DampG=1.000 DampE=0.500 DampFc=0.5000 IDamp=-1.
 Damping current iteration by 5.00D-01
 RMSDP=3.54D-03 MaxDP=8.32D-02              OVMax= 4.74D-02

 Cycle   2  Pass 1  IDiag  1:
 RMSU=  1.72D-03    CP:  9.83D-01
 E= -493.826910677098     Delta-E=       -0.030853820832 Rises=F Damp=T
 DIIS: error= 1.39D-02 at cycle   2 NSaved=   2.
 NSaved= 2 IEnMin= 2 EnMin= -493.826910677098     IErMin= 2 ErrMin= 1.39D-02
 ErrMax= 1.39D-02  0.00D+00 EMaxC= 1.00D-01 BMatC= 4.23D-02 BMatP= 1.94D-01
 IDIUse=3 WtCom= 8.61D-01 WtEn= 1.39D-01
 Coeff-Com: -0.653D+00 0.165D+01
 Coeff-En:   0.000D+00 0.100D+01
 Coeff:     -0.562D+00 0.156D+01
 Gap=     0.342 Goal=   None    Shift=    0.000
 RMSDP=1.72D-03 MaxDP=4.54D-02 DE=-3.09D-02 OVMax= 3.47D-02

 Cycle   3  Pass 1  IDiag  1:
 RMSU=  1.00D-03    CP:  9.66D-01  1.77D+00
 E= -493.853301579891     Delta-E=       -0.026390902793 Rises=F Damp=F
 DIIS: error= 5.51D-03 at cycle   3 NSaved=   3.
 NSaved= 3 IEnMin= 3 EnMin= -493.853301579891     IErMin= 3 ErrMin= 5.51D-03
 ErrMax= 5.51D-03  0.00D+00 EMaxC= 1.00D-01 BMatC= 6.52D-03 BMatP= 4.23D-02
 IDIUse=3 WtCom= 9.45D-01 WtEn= 5.51D-02
 Coeff-Com: -0.348D+00 0.698D+00 0.650D+00
 Coeff-En:   0.000D+00 0.000D+00 0.100D+01
 Coeff:     -0.329D+00 0.659D+00 0.669D+00
 Gap=     0.335 Goal=   None    Shift=    0.000
 RMSDP=4.54D-04 MaxDP=1.72D-02 DE=-2.64D-02 OVMax= 1.59D-02

 Cycle   4  Pass 1  IDiag  1:
 RMSU=  2.22D-04    CP:  9.63D-01  1.94D+00  7.45D-01
 E= -493.858323768717     Delta-E=       -0.005022188826 Rises=F Damp=F
 DIIS: error= 8.00D-04 at cycle   4 NSaved=   4.
 NSaved= 4 IEnMin= 4 EnMin= -493.858323768717     IErMin= 4 ErrMin= 8.00D-04
 ErrMax= 8.00D-04  0.00D+00 EMaxC= 1.00D-01 BMatC= 1.66D-04 BMatP= 6.52D-03
 IDIUse=3 WtCom= 9.92D-01 WtEn= 8.00D-03
 Coeff-Com: -0.118D+00 0.232D+00 0.279D+00 0.607D+00
 Coeff-En:   0.000D+00 0.000D+00 0.000D+00 0.100D+01
 Coeff:     -0.117D+00 0.230D+00 0.277D+00 0.611D+00
 Gap=     0.333 Goal=   None    Shift=    0.000
 RMSDP=7.31D-05 MaxDP=2.37D-03 DE=-5.02D-03 OVMax= 1.87D-03

 Cycle   5  Pass 1  IDiag  1:
 RMSU=  6.11D-05    CP:  9.63D-01  1.95D+00  7.75D-01  9.28D-01
 E= -493.858447508291     Delta-E=       -0.000123739574 Rises=F Damp=F
 DIIS: error= 1.71D-04 at cycle   5 NSaved=   5.
 NSaved= 5 IEnMin= 5 EnMin= -493.858447508291     IErMin= 5 ErrMin= 1.71D-04
 ErrMax= 1.71D-04  0.00D+00 EMaxC= 1.00D-01 BMatC= 7.30D-06 BMatP= 1.66D-04
 IDIUse=3 WtCom= 9.98D-01 WtEn= 1.71D-03
 Coeff-Com:  0.191D-01-0.397D-01-0.159D-01 0.147D+00 0.890D+00
 Coeff-En:   0.000D+00 0.000D+00 0.000D+00 0.000D+00 0.100D+01
 Coeff:      0.190D-01-0.396D-01-0.159D-01 0.146D+00 0.890D+00
 Gap=     0.333 Goal=   None    Shift=    0.000
 RMSDP=3.71D-05 MaxDP=5.88D-04 DE=-1.24D-04 OVMax= 9.02D-04

 Cycle   6  Pass 1  IDiag  1:
 RMSU=  1.84D-05    CP:  9.63D-01  1.96D+00  7.90D-01  1.02D+00  1.11D+00
 E= -493.858457255173     Delta-E=       -0.000009746882 Rises=F Damp=F
 DIIS: error= 1.22D-04 at cycle   6 NSaved=   6.
 NSaved= 6 IEnMin= 6 EnMin= -493.858457255173     IErMin= 6 ErrMin= 1.22D-04
 ErrMax= 1.22D-04  0.00D+00 EMaxC= 1.00D-01 BMatC= 1.46D-06 BMatP= 7.30D-06
 IDIUse=3 WtCom= 9.99D-01 WtEn= 1.22D-03
 Coeff-Com:  0.176D-01-0.355D-01-0.280D-01 0.131D-01 0.380D+00 0.653D+00
 Coeff-En:   0.000D+00 0.000D+00 0.000D+00 0.000D+00 0.000D+00 0.100D+01
 Coeff:      0.176D-01-0.355D-01-0.280D-01 0.131D-01 0.379D+00 0.653D+00
 Gap=     0.333 Goal=   None    Shift=    0.000
 RMSDP=1.01D-05 MaxDP=3.49D-04 DE=-9.75D-06 OVMax= 3.67D-04

 Cycle   7  Pass 1  IDiag  1:
 RMSU=  6.63D-06    CP:  9.63D-01  1.96D+00  7.92D-01  1.05D+00  1.18D+00
                    CP:  1.04D+00
 E= -493.858458659751     Delta-E=       -0.000001404578 Rises=F Damp=F
 DIIS: error= 4.38D-05 at cycle   7 NSaved=   7.
 NSaved= 7 IEnMin= 7 EnMin= -493.858458659751     IErMin= 7 ErrMin= 4.38D-05
 ErrMax= 4.38D-05  0.00D+00 EMaxC= 1.00D-01 BMatC= 2.53D-07 BMatP= 1.46D-06
 IDIUse=1 WtCom= 1.00D+00 WtEn= 0.00D+00
 Coeff-Com:  0.563D-02-0.111D-01-0.108D-01-0.169D-01 0.414D-01 0.314D+00
 Coeff-Com:  0.678D+00
 Coeff:      0.563D-02-0.111D-01-0.108D-01-0.169D-01 0.414D-01 0.314D+00
 Coeff:      0.678D+00
 Gap=     0.333 Goal=   None    Shift=    0.000
 RMSDP=4.38D-06 MaxDP=1.31D-04 DE=-1.40D-06 OVMax= 2.02D-04

 Cycle   8  Pass 1  IDiag  1:
 RMSU=  2.62D-06    CP:  9.63D-01  1.96D+00  7.93D-01  1.05D+00  1.21D+00
                    CP:  1.15D+00  9.86D-01
 E= -493.858458955063     Delta-E=       -0.000000295313 Rises=F Damp=F
 DIIS: error= 9.25D-06 at cycle   8 NSaved=   8.
 NSaved= 8 IEnMin= 8 EnMin= -493.858458955063     IErMin= 8 ErrMin= 9.25D-06
 ErrMax= 9.25D-06  0.00D+00 EMaxC= 1.00D-01 BMatC= 1.61D-08 BMatP= 2.53D-07
 IDIUse=1 WtCom= 1.00D+00 WtEn= 0.00D+00
 Coeff-Com: -0.469D-03 0.980D-03 0.496D-03-0.463D-02-0.302D-01-0.502D-02
 Coeff-Com:  0.181D+00 0.858D+00
 Coeff:     -0.469D-03 0.980D-03 0.496D-03-0.463D-02-0.302D-01-0.502D-02
 Coeff:      0.181D+00 0.858D+00
 Gap=     0.333 Goal=   None    Shift=    0.000
 RMSDP=1.73D-06 MaxDP=4.86D-05 DE=-2.95D-07 OVMax= 8.33D-05

 Cycle   9  Pass 1  IDiag  1:
 RMSU=  7.59D-07    CP:  9.63D-01  1.96D+00  7.93D-01  1.05D+00  1.22D+00
                    CP:  1.21D+00  1.12D+00  1.11D+00
 E= -493.858458986353     Delta-E=       -0.000000031289 Rises=F Damp=F
 DIIS: error= 3.19D-06 at cycle   9 NSaved=   9.
 NSaved= 9 IEnMin= 9 EnMin= -493.858458986353     IErMin= 9 ErrMin= 3.19D-06
 ErrMax= 3.19D-06  0.00D+00 EMaxC= 1.00D-01 BMatC= 2.11D-09 BMatP= 1.61D-08
 IDIUse=1 WtCom= 1.00D+00 WtEn= 0.00D+00
 Coeff-Com: -0.995D-03 0.197D-02 0.190D-02 0.185D-02-0.143D-01-0.524D-01
 Coeff-Com: -0.502D-01 0.229D+00 0.883D+00
 Coeff:     -0.995D-03 0.197D-02 0.190D-02 0.185D-02-0.143D-01-0.524D-01
 Coeff:     -0.502D-01 0.229D+00 0.883D+00
 Gap=     0.333 Goal=   None    Shift=    0.000
 RMSDP=7.65D-07 MaxDP=2.15D-05 DE=-3.13D-08 OVMax= 3.39D-05

 Cycle  10  Pass 1  IDiag  1:
 RMSU=  3.37D-07    CP:  9.63D-01  1.96D+00  7.93D-01  1.06D+00  1.23D+00
                    CP:  1.23D+00  1.17D+00  1.26D+00  1.24D+00
 E= -493.858458991470     Delta-E=       -0.000000005118 Rises=F Damp=F
 DIIS: error= 9.69D-07 at cycle  10 NSaved=  10.
 NSaved=10 IEnMin=10 EnMin= -493.858458991470     IErMin=10 ErrMin= 9.69D-07
 ErrMax= 9.69D-07  0.00D+00 EMaxC= 1.00D-01 BMatC= 1.84D-10 BMatP= 2.11D-09
 IDIUse=1 WtCom= 1.00D+00 WtEn= 0.00D+00
 Coeff-Com: -0.194D-03 0.381D-03 0.423D-03 0.102D-02-0.665D-03-0.132D-01
 Coeff-Com: -0.321D-01-0.276D-01 0.193D+00 0.879D+00
 Coeff:     -0.194D-03 0.381D-03 0.423D-03 0.102D-02-0.665D-03-0.132D-01
 Coeff:     -0.321D-01-0.276D-01 0.193D+00 0.879D+00
 Gap=     0.333 Goal=   None    Shift=    0.000
 RMSDP=2.26D-07 MaxDP=5.60D-06 DE=-5.12D-09 OVMax= 1.58D-05

 Cycle  11  Pass 1  IDiag  1:
 RMSU=  8.97D-08    CP:  9.63D-01  1.96D+00  7.93D-01  1.06D+00  1.23D+00
                    CP:  1.23D+00  1.18D+00  1.30D+00  1.43D+00  1.14D+00
 E= -493.858458992087     Delta-E=       -0.000000000617 Rises=F Damp=F
 DIIS: error= 5.17D-07 at cycle  11 NSaved=  11.
 NSaved=11 IEnMin=11 EnMin= -493.858458992087     IErMin=11 ErrMin= 5.17D-07
 ErrMax= 5.17D-07  0.00D+00 EMaxC= 1.00D-01 BMatC= 2.63D-11 BMatP= 1.84D-10
 IDIUse=1 WtCom= 1.00D+00 WtEn= 0.00D+00
 Coeff-Com:  0.131D-03-0.261D-03-0.245D-03-0.148D-03 0.194D-02 0.592D-02
 Coeff-Com:  0.369D-02-0.308D-01-0.125D+00 0.895D-01 0.106D+01
 Coeff:      0.131D-03-0.261D-03-0.245D-03-0.148D-03 0.194D-02 0.592D-02
 Coeff:      0.369D-02-0.308D-01-0.125D+00 0.895D-01 0.106D+01
 Gap=     0.333 Goal=   None    Shift=    0.000
 RMSDP=9.66D-08 MaxDP=2.02D-06 DE=-6.17D-10 OVMax= 6.25D-06

 Cycle  12  Pass 1  IDiag  1:
 RMSU=  4.03D-08    CP:  9.63D-01  1.96D+00  7.93D-01  1.06D+00  1.23D+00
                    CP:  1.23D+00  1.18D+00  1.31D+00  1.49D+00  1.31D+00
                    CP:  1.28D+00
 E= -493.858458992180     Delta-E=       -0.000000000093 Rises=F Damp=F
 DIIS: error= 1.35D-07 at cycle  12 NSaved=  12.
 NSaved=12 IEnMin=12 EnMin= -493.858458992180     IErMin=12 ErrMin= 1.35D-07
 ErrMax= 1.35D-07  0.00D+00 EMaxC= 1.00D-01 BMatC= 4.60D-12 BMatP= 2.63D-11
 IDIUse=1 WtCom= 1.00D+00 WtEn= 0.00D+00
 Coeff-Com:  0.723D-04-0.143D-03-0.140D-03-0.146D-03 0.894D-03 0.366D-02
 Coeff-Com:  0.501D-02-0.754D-02-0.691D-01-0.460D-01 0.409D+00 0.705D+00
 Coeff:      0.723D-04-0.143D-03-0.140D-03-0.146D-03 0.894D-03 0.366D-02
 Coeff:      0.501D-02-0.754D-02-0.691D-01-0.460D-01 0.409D+00 0.705D+00
 Gap=     0.333 Goal=   None    Shift=    0.000
 RMSDP=2.16D-08 MaxDP=5.60D-07 DE=-9.28D-11 OVMax= 1.45D-06

 Cycle  13  Pass 1  IDiag  1:
 RMSU=  1.35D-08    CP:  9.63D-01  1.96D+00  7.93D-01  1.06D+00  1.23D+00
                    CP:  1.23D+00  1.18D+00  1.31D+00  1.50D+00  1.33D+00
                    CP:  1.41D+00  1.04D+00
 E= -493.858458992180     Delta-E=       -0.000000000000 Rises=F Damp=F
 DIIS: error= 7.01D-08 at cycle  13 NSaved=  13.
 NSaved=13 IEnMin=13 EnMin= -493.858458992180     IErMin=13 ErrMin= 7.01D-08
 ErrMax= 7.01D-08  0.00D+00 EMaxC= 1.00D-01 BMatC= 2.82D-13 BMatP= 4.60D-12
 IDIUse=1 WtCom= 1.00D+00 WtEn= 0.00D+00
 Coeff-Com: -0.114D-04 0.227D-04 0.193D-04 0.408D-05-0.182D-03-0.461D-03
 Coeff-Com:  0.288D-04 0.375D-02 0.871D-02-0.152D-01-0.113D+00 0.705D-01
 Coeff-Com:  0.105D+01
 Coeff:     -0.114D-04 0.227D-04 0.193D-04 0.408D-05-0.182D-03-0.461D-03
 Coeff:      0.288D-04 0.375D-02 0.871D-02-0.152D-01-0.113D+00 0.705D-01
 Coeff:      0.105D+01
 Gap=     0.333 Goal=   None    Shift=    0.000
 RMSDP=1.06D-08 MaxDP=2.42D-07 DE=-2.27D-13 OVMax= 6.05D-07

 Cycle  14  Pass 1  IDiag  1:
 RMSU=  4.09D-09    CP:  9.63D-01  1.96D+00  7.93D-01  1.06D+00  1.23D+00
                    CP:  1.23D+00  1.18D+00  1.31D+00  1.50D+00  1.34D+00
                    CP:  1.46D+00  1.21D+00  1.24D+00
 E= -493.858458992178     Delta-E=        0.000000000002 Rises=F Damp=F
 DIIS: error= 6.72D-09 at cycle  14 NSaved=  14.
 NSaved=14 IEnMin=13 EnMin= -493.858458992180     IErMin=14 ErrMin= 6.72D-09
 ErrMax= 6.72D-09  0.00D+00 EMaxC= 1.00D-01 BMatC= 1.92D-14 BMatP= 2.82D-13
 IDIUse=1 WtCom= 1.00D+00 WtEn= 0.00D+00
 Coeff-Com: -0.643D-05 0.128D-04 0.119D-04 0.937D-05-0.837D-04-0.315D-03
 Coeff-Com: -0.363D-03 0.900D-03 0.562D-02 0.213D-02-0.423D-01-0.424D-01
 Coeff-Com:  0.119D+00 0.958D+00
 Coeff:     -0.643D-05 0.128D-04 0.119D-04 0.937D-05-0.837D-04-0.315D-03
 Coeff:     -0.363D-03 0.900D-03 0.562D-02 0.213D-02-0.423D-01-0.424D-01
 Coeff:      0.119D+00 0.958D+00
 Gap=     0.333 Goal=   None    Shift=    0.000
 RMSDP=2.88D-09 MaxDP=7.75D-08 DE= 2.27D-12 OVMax= 1.36D-07

 Error on total polarization charges =  0.02932
 SCF Done:  E(RwB97XD) =  -493.858458992     A.U. after   14 cycles
            NFock= 14  Conv=0.29D-08     -V/T= 2.0095
 KE= 4.892080959479D+02 PE=-2.245043934990D+03 EE= 7.135810420700D+02
 SMD-CDS (non-electrostatic) energy       (kcal/mol) =       4.85
 (included in total energy above)
 Leave Link  502 at Tue Oct 21 14:59:23 2025, MaxMem=  4294967296 cpu:             409.0 elap:              51.4
 (Enter /lrz/sys/applications/gaussian/g16.C.01/x86_64_legacy/exe/l601.exe)
 Copying SCF densities to generalized density rwf, IOpCl= 0 IROHF=0.

 **********************************************************************

            Population analysis using the SCF Density.

 **********************************************************************

 Orbital symmetries:
       Occupied  (A) (A) (A) (A) (A) (A) (A) (A) (A) (A) (A) (A)
                 (A) (A) (A) (A) (A) (A) (A) (A) (A) (A) (A) (A)
                 (A) (A) (A) (A) (A) (A) (A) (A) (A) (A) (A) (A)
                 (A) (A) (A)
       Virtual   (A) (A) (A) (A) (A) (A) (A) (A) (A) (A) (A) (A)
                 (A) (A) (A) (A) (A) (A) (A) (A) (A) (A) (A) (A)
                 (A) (A) (A) (A) (A) (A) (A) (A) (A) (A) (A) (A)
                 (A) (A) (A) (A) (A) (A) (A) (A) (A) (A) (A) (A)
                 (A) (A) (A) (A) (A) (A) (A) (A) (A) (A) (A) (A)
                 (A) (A) (A) (A) (A) (A) (A) (A) (A) (A) (A) (A)
                 (A) (A) (A) (A) (A) (A) (A) (A) (A) (A) (A) (A)
                 (A) (A) (A) (A) (A) (A) (A) (A) (A) (A) (A) (A)
                 (A) (A) (A) (A) (A) (A) (A) (A) (A) (A) (A) (A)
                 (A) (A) (A) (A) (A) (A) (A) (A) (A) (A) (A) (A)
                 (A) (A) (A) (A) (A) (A) (A) (A) (A) (A) (A) (A)
                 (A) (A) (A) (A) (A) (A) (A) (A) (A) (A) (A) (A)
                 (A) (A) (A) (A) (A) (A) (A) (A) (A) (A) (A)
 The electronic state is 1-A.
 Alpha  occ. eigenvalues --  -19.26005 -14.45111 -14.41943 -10.37469 -10.34901
 Alpha  occ. eigenvalues --  -10.34100 -10.31974 -10.31910 -10.31293 -10.30957
 Alpha  occ. eigenvalues --  -10.30674  -1.12541  -1.01445  -0.97812  -0.96012
 Alpha  occ. eigenvalues --   -0.87999  -0.85698  -0.77094  -0.71702  -0.70012
 Alpha  occ. eigenvalues --   -0.64981  -0.62864  -0.59043  -0.55506  -0.53801
 Alpha  occ. eigenvalues --   -0.53226  -0.52116  -0.51661  -0.50254  -0.49123
 Alpha  occ. eigenvalues --   -0.46466  -0.45004  -0.44233  -0.42899  -0.42356
 Alpha  occ. eigenvalues --   -0.38104  -0.34871  -0.33853  -0.32076
 Alpha virt. eigenvalues --    0.01224   0.05083   0.11005   0.14984   0.15275
 Alpha virt. eigenvalues --    0.16143   0.18431   0.19246   0.21301   0.22197
 Alpha virt. eigenvalues --    0.23726   0.24586   0.26155   0.27015   0.29847
 Alpha virt. eigenvalues --    0.31917   0.33395   0.34648   0.36820   0.37942
 Alpha virt. eigenvalues --    0.38685   0.43202   0.45410   0.48220   0.49759
 Alpha virt. eigenvalues --    0.52097   0.53157   0.54844   0.56111   0.57481
 Alpha virt. eigenvalues --    0.58893   0.59718   0.61458   0.62720   0.64221
 Alpha virt. eigenvalues --    0.66395   0.67968   0.68577   0.70393   0.71486
 Alpha virt. eigenvalues --    0.71936   0.72739   0.73372   0.74160   0.75069
 Alpha virt. eigenvalues --    0.75440   0.76684   0.77646   0.79512   0.80916
 Alpha virt. eigenvalues --    0.81656   0.82932   0.87424   0.89787   0.90526
 Alpha virt. eigenvalues --    0.92447   0.93673   0.94544   0.95201   0.97940
 Alpha virt. eigenvalues --    1.00174   1.00478   1.04765   1.10453   1.11412
 Alpha virt. eigenvalues --    1.13347   1.16161   1.17074   1.18988   1.21062
 Alpha virt. eigenvalues --    1.28929   1.30964   1.31502   1.32793   1.33704
 Alpha virt. eigenvalues --    1.36226   1.38567   1.38965   1.40655   1.42667
 Alpha virt. eigenvalues --    1.52355   1.56773   1.58907   1.62856   1.66264
 Alpha virt. eigenvalues --    1.68391   1.69384   1.72159   1.76606   1.78690
 Alpha virt. eigenvalues --    1.80280   1.80423   1.82637   1.83391   1.84864
 Alpha virt. eigenvalues --    1.86771   1.88242   1.88667   1.89868   1.91321
 Alpha virt. eigenvalues --    1.95486   1.98545   1.99323   2.01208   2.03028
 Alpha virt. eigenvalues --    2.04565   2.05439   2.06786   2.08132   2.12489
 Alpha virt. eigenvalues --    2.15927   2.20742   2.21498   2.22014   2.26827
 Alpha virt. eigenvalues --    2.27534   2.29770   2.31975   2.33598   2.35144
 Alpha virt. eigenvalues --    2.36144   2.38869   2.41056   2.43066   2.44395
 Alpha virt. eigenvalues --    2.45899   2.47899   2.56376   2.60913   2.71494
 Alpha virt. eigenvalues --    2.73071   2.73617   2.77017   2.81570   2.82594
 Alpha virt. eigenvalues --    2.84891   2.93802   2.95824   2.97241   2.98975
 Alpha virt. eigenvalues --    3.00856   3.05891   3.09415   3.11409   3.13378
 Alpha virt. eigenvalues --    3.16006   3.20942   3.27441   3.31514   3.42684
 Alpha virt. eigenvalues --    3.43932   3.52688   3.54514   3.79019   3.86182
          Condensed to atoms (all electrons):
               1          2          3          4          5          6
     1  O    7.803253   0.361330  -0.066022  -0.050305   0.003700   0.000100
     2  C    0.361330   4.510207   0.296617   0.272552  -0.025030   0.005658
     3  N   -0.066022   0.296617   6.445653  -0.074731  -0.011665   0.000592
     4  C   -0.050305   0.272552  -0.074731   5.735626   0.105642   0.102094
     5  C    0.003700  -0.025030  -0.011665   0.105642   5.195590   0.291177
     6  C    0.000100   0.005658   0.000592   0.102094   0.291177   5.044104
     7  C    0.000003   0.000343  -0.000003  -0.173861   0.101580   0.248038
     8  C   -0.000000   0.000048  -0.000000   0.001929   0.014222  -0.089461
     9  N   -0.000000   0.000000  -0.000000   0.000027   0.000009  -0.001599
    10  C   -0.000238   0.010223  -0.000481   0.093652  -0.120366   0.081857
    11  C    0.000272  -0.078100   0.007754   0.266843   0.028999  -0.128765
    12  H    0.340768  -0.027796   0.006234   0.000243  -0.001296  -0.000102
    13  H   -0.037088   0.432976  -0.042882  -0.076350   0.018213  -0.000406
    14  H    0.002714  -0.006170   0.342765   0.008224   0.000928   0.000008
    15  H    0.004004  -0.023117   0.363364   0.007157  -0.001819  -0.000080
    16  H    0.003162  -0.006691   0.026557  -0.100879   0.473766  -0.068294
    17  H   -0.000003  -0.000241  -0.000029   0.015159  -0.064343   0.473484
    18  H    0.000002  -0.000180   0.000002   0.015019  -0.002191   0.012497
    19  H    0.000031  -0.012452   0.000200  -0.073118   0.013287  -0.001459
               7          8          9         10         11         12
     1  O    0.000003  -0.000000  -0.000000  -0.000238   0.000272   0.340768
     2  C    0.000343   0.000048   0.000000   0.010223  -0.078100  -0.027796
     3  N   -0.000003  -0.000000  -0.000000  -0.000481   0.007754   0.006234
     4  C   -0.173861   0.001929   0.000027   0.093652   0.266843   0.000243
     5  C    0.101580   0.014222   0.000009  -0.120366   0.028999  -0.001296
     6  C    0.248038  -0.089461  -0.001599   0.081857  -0.128765  -0.000102
     7  C    5.468274   0.304306  -0.037445   0.261584   0.098346  -0.000001
     8  C    0.304306   4.973250   0.941979  -0.091382   0.013636  -0.000001
     9  N   -0.037445   0.941979   6.147679  -0.001864   0.000006   0.000000
    10  C    0.261584  -0.091382  -0.001864   5.042996   0.282964  -0.000297
    11  C    0.098346   0.013636   0.000006   0.282964   5.134224   0.003066
    12  H   -0.000001  -0.000001   0.000000  -0.000297   0.003066   0.457546
    13  H   -0.000053  -0.000000  -0.000000   0.000854  -0.015914   0.000652
    14  H    0.000002   0.000000   0.000000   0.000028  -0.000501  -0.000625
    15  H   -0.000000  -0.000000  -0.000000  -0.000084   0.000829  -0.000379
    16  H    0.014613  -0.000540  -0.000003  -0.001387   0.012141   0.000319
    17  H   -0.066767  -0.019631  -0.000269   0.012485  -0.002050   0.000001
    18  H   -0.066997  -0.019800  -0.000305   0.470399  -0.060717   0.000000
    19  H    0.014258  -0.000418  -0.000002  -0.066665   0.467691   0.000211
              13         14         15         16         17         18
     1  O   -0.037088   0.002714   0.004004   0.003162  -0.000003   0.000002
     2  C    0.432976  -0.006170  -0.023117  -0.006691  -0.000241  -0.000180
     3  N   -0.042882   0.342765   0.363364   0.026557  -0.000029   0.000002
     4  C   -0.076350   0.008224   0.007157  -0.100879   0.015159   0.015019
     5  C    0.018213   0.000928  -0.001819   0.473766  -0.064343  -0.002191
     6  C   -0.000406   0.000008  -0.000080  -0.068294   0.473484   0.012497
     7  C   -0.000053   0.000002  -0.000000   0.014613  -0.066767  -0.066997
     8  C   -0.000000   0.000000  -0.000000  -0.000540  -0.019631  -0.019800
     9  N   -0.000000   0.000000  -0.000000  -0.000003  -0.000269  -0.000305
    10  C    0.000854   0.000028  -0.000084  -0.001387   0.012485   0.470399
    11  C   -0.015914  -0.000501   0.000829   0.012141  -0.002050  -0.060717
    12  H    0.000652  -0.000625  -0.000379   0.000319   0.000001   0.000000
    13  H    0.698762  -0.002208  -0.006056   0.001512   0.000001   0.000009
    14  H   -0.002208   0.539810  -0.019600  -0.001169  -0.000001  -0.000000
    15  H   -0.006056  -0.019600   0.534604  -0.000246   0.000003  -0.000000
    16  H    0.001512  -0.001169  -0.000246   0.634167  -0.010374   0.000020
    17  H    0.000001  -0.000001   0.000003  -0.010374   0.614197  -0.000093
    18  H    0.000009  -0.000000  -0.000000   0.000020  -0.000093   0.613687
    19  H    0.007393  -0.000034   0.000020  -0.000077   0.000017  -0.010420
              19
     1  O    0.000031
     2  C   -0.012452
     3  N    0.000200
     4  C   -0.073118
     5  C    0.013287
     6  C   -0.001459
     7  C    0.014258
     8  C   -0.000418
     9  N   -0.000002
    10  C   -0.066665
    11  C    0.467691
    12  H    0.000211
    13  H    0.007393
    14  H   -0.000034
    15  H    0.000020
    16  H   -0.000077
    17  H    0.000017
    18  H   -0.010420
    19  H    0.619596
 Mulliken charges:
               1
     1  O   -0.365683
     2  C    0.289820
     3  N   -0.293926
     4  C   -0.074924
     5  C   -0.020404
     6  C    0.030556
     7  C   -0.166222
     8  C   -0.028139
     9  N   -0.048212
    10  C    0.025722
    11  C   -0.030725
    12  H    0.221456
    13  H    0.020587
    14  H    0.135829
    15  H    0.141400
    16  H    0.023402
    17  H    0.048453
    18  H    0.049067
    19  H    0.041943
 Sum of Mulliken charges =   0.00000
 Mulliken charges with hydrogens summed into heavy atoms:
               1
     1  O   -0.144227
     2  C    0.310408
     3  N   -0.016697
     4  C   -0.074924
     5  C    0.002998
     6  C    0.079009
     7  C   -0.166222
     8  C   -0.028139
     9  N   -0.048212
    10  C    0.074789
    11  C    0.011217
 Electronic spatial extent (au):  <R**2>=           2084.0229
 Charge=              0.0000 electrons
 Dipole moment (field-independent basis, Debye):
    X=             -5.3755    Y=              2.7602    Z=             -0.8796  Tot=              6.1064
 Quadrupole moment (field-independent basis, Debye-Ang):
   XX=            -90.3701   YY=            -56.9378   ZZ=            -60.3247
   XY=             -2.0991   XZ=              4.5701   YZ=             -0.0320
 Traceless Quadrupole moment (field-independent basis, Debye-Ang):
   XX=            -21.1592   YY=             12.2731   ZZ=              8.8862
   XY=             -2.0991   XZ=              4.5701   YZ=             -0.0320
 Octapole moment (field-independent basis, Debye-Ang**2):
  XXX=           -187.2940  YYY=              6.8537  ZZZ=              3.8619  XYY=             -0.9592
  XXY=             15.8357  XXZ=            -25.4635  XZZ=            -20.6954  YZZ=              3.3974
  YYZ=              2.8513  XYZ=             -4.5132
 Hexadecapole moment (field-independent basis, Debye-Ang**3):
 XXXX=          -2923.5517 YYYY=           -309.1654 ZZZZ=           -135.3075 XXXY=             61.0639
 XXXZ=             74.4790 YYYX=             -7.5963 YYYZ=             -7.9421 ZZZX=             -1.2614
 ZZZY=             14.1436 XXYY=           -411.6747 XXZZ=           -373.8898 YYZZ=            -87.9969
 XXYZ=              9.7263 YYXZ=             -7.6898 ZZXY=             -6.5931
 N-N= 5.483963379801D+02 E-N=-2.245043933792D+03  KE= 4.892080959479D+02
 No NMR shielding tensors so no spin-rotation constants.
 Leave Link  601 at Tue Oct 21 14:59:23 2025, MaxMem=  4294967296 cpu:               0.9 elap:               0.1
 (Enter /lrz/sys/applications/gaussian/g16.C.01/x86_64_legacy/exe/l701.exe)
 ... and contract with generalized density number  0.
 Compute integral first derivatives.
 R6Disp: Adding Grimme-D2 dispersion energy 1st derivatives to the gradient.
   1 Symmetry operations used in ECPInt.
 ECPInt:  NShTT=    4095 NPrTT=   15045 LenC2=    3952 LenP2D=   11151.
 LDataN:  DoStor=T MaxTD1= 5 Len=  102
 D1PCM: PCM CHGder 1st derivatives, ID1Alg=3 FixD1E=F DoIter=F DoCFld=F I1PDM=0.
 GePol: Maximum number of non-zero 1st derivatives   =     256
 Leave Link  701 at Tue Oct 21 14:59:24 2025, MaxMem=  4294967296 cpu:               9.6 elap:               1.2
 (Enter /lrz/sys/applications/gaussian/g16.C.01/x86_64_legacy/exe/l702.exe)
 L702 exits ... SP integral derivatives will be done elsewhere.
 Leave Link  702 at Tue Oct 21 14:59:25 2025, MaxMem=  4294967296 cpu:               0.2 elap:               0.0
 (Enter /lrz/sys/applications/gaussian/g16.C.01/x86_64_legacy/exe/l703.exe)
 Integral derivatives from FoFJK, PRISM(SPDF).
 Compute integral first derivatives, UseDBF=F ICtDFT=           0.
 Calling FoFJK, ICntrl=      2127 FMM=F ISym2X=0 I1Cent= 0 IOpClX= 0 NMat=1 NMatS=1 NMatT=0.
 FoFJK:  IHMeth= 1 ICntrl=    2127 DoSepK=T KAlg= 0 I1Cent=           0 FoldK=F
 IRaf=         1 NMat=       1 IRICut=       1 DoRegI=T DoRafI=F ISym2E= 0 IDoP0=0 IntGTp=1.
 FoFCou: FMM=F IPFlag=           0 FMFlag=      100000 FMFlg1=         800
         NFxFlg=           0 DoJE=F BraDBF=F KetDBF=F FulRan=T
         wScrn=  0.000000 ICntrl=      2527 IOpCl=  0 I1Cent=           0 NGrid=           0
         NMat0=    1 NMatS0=      1 NMatT0=    0 NMatD0=    1 NMtDS0=    0 NMtDT0=    0
 Symmetry not used in FoFCou.
 Leave Link  703 at Tue Oct 21 14:59:33 2025, MaxMem=  4294967296 cpu:              68.1 elap:               8.5
 (Enter /lrz/sys/applications/gaussian/g16.C.01/x86_64_legacy/exe/l716.exe)
 Dipole        =-2.11487894D+00 1.08596105D+00-3.46069100D-01
 ***** Axes restored to original set *****
 -------------------------------------------------------------------
 Center     Atomic                   Forces (Hartrees/Bohr)
 Number     Number              X              Y              Z
 -------------------------------------------------------------------
      1        8          -0.000132775    0.004821985    0.001596137
      2        6           0.003210981   -0.001027502   -0.004875174
      3        7          -0.002878218    0.000779217    0.008529853
      4        6           0.006436614   -0.002743773   -0.000821768
      5        6          -0.000836906   -0.002412857    0.000349193
      6        6          -0.000847253    0.000563928    0.000677438
      7        6           0.011893897   -0.001744610   -0.001234787
      8        6           0.011872707   -0.000556318   -0.000769211
      9        7          -0.030801094    0.001569539    0.001839188
     10        6          -0.003371549    0.000629192    0.000557772
     11        6           0.002409408    0.001336525    0.000710155
     12        1          -0.000936240   -0.002073665   -0.001462149
     13        1          -0.002368505    0.002910250    0.001632083
     14        1           0.005639462   -0.002242222   -0.002619660
     15        1           0.000836846   -0.001288873   -0.004281127
     16        1           0.003640591    0.007489599    0.002904370
     17        1          -0.003418989    0.006839678    0.003362343
     18        1          -0.004330515   -0.006259512   -0.002814234
     19        1           0.003981539   -0.006590580   -0.003280422
 -------------------------------------------------------------------
 Cartesian Forces:  Max     0.030801094 RMS     0.005673726
 Leave Link  716 at Tue Oct 21 14:59:33 2025, MaxMem=  4294967296 cpu:               0.2 elap:               0.0
 (Enter /lrz/sys/applications/gaussian/g16.C.01/x86_64_legacy/exe/l103.exe)

 GradGradGradGradGradGradGradGradGradGradGradGradGradGradGradGradGradGrad
 Berny optimization.
 FormGI is forming the generalized inverse of G from B-inverse, IUseBI=4.
 Internal  Forces:  Max     0.030895545 RMS     0.005148393
 Search for a local minimum.
 Step number   1 out of a maximum of   98
 All quantities printed in internal units (Hartrees-Bohrs-Radians)
 RMS Force = .51484D-02 SwitMx=.10000D-02 MixMth= 1
 Mixed Optimization -- RFO/linear search
 Second derivative matrix not updated -- first step.
 ITU=  0
     Eigenvalues ---    0.00536   0.01069   0.01545   0.01547   0.02140
     Eigenvalues ---    0.02175   0.02227   0.02233   0.02262   0.02270
     Eigenvalues ---    0.02290   0.02301   0.04382   0.05029   0.05029
     Eigenvalues ---    0.06145   0.06727   0.08250   0.15999   0.16000
     Eigenvalues ---    0.16000   0.16000   0.16000   0.16000   0.16000
     Eigenvalues ---    0.17857   0.19807   0.22000   0.22975   0.23998
     Eigenvalues ---    0.24993   0.25000   0.30623   0.31981   0.35872
     Eigenvalues ---    0.35984   0.36001   0.36174   0.38634   0.42649
     Eigenvalues ---    0.43337   0.43642   0.43829   0.45436   0.45543
     Eigenvalues ---    0.46703   0.46823   0.47850   0.49032   0.54750
     Eigenvalues ---    1.36155
 RFO step:  Lambda=-5.42259686D-03 EMin= 5.36454638D-03
 Linear search not attempted -- first point.
 Iteration  1 RMS(Cart)=  0.05737339 RMS(Int)=  0.00160195
 Iteration  2 RMS(Cart)=  0.00206396 RMS(Int)=  0.00021454
 Iteration  3 RMS(Cart)=  0.00000592 RMS(Int)=  0.00021450
 Iteration  4 RMS(Cart)=  0.00000001 RMS(Int)=  0.00021450
 ITry= 1 IFail=0 DXMaxC= 2.31D-01 DCOld= 1.00D+10 DXMaxT= 3.00D-01 DXLimC= 3.00D+00 Rises=F
 Variable       Old X    -DE/DX   Delta X   Delta X   Delta X     New X
                                 (Linear)    (Quad)   (Total)
    R1        2.66659  -0.00063   0.00000  -0.00141  -0.00141   2.66518
    R2        1.82055   0.00113   0.00000   0.00205   0.00205   1.82260
    R3        2.73453  -0.00167   0.00000  -0.00425  -0.00425   2.73027
    R4        2.86737   0.00334   0.00000   0.01071   0.01071   2.87809
    R5        2.10879  -0.00383   0.00000  -0.01178  -0.01178   2.09701
    R6        1.91473   0.00462   0.00000   0.01005   0.01005   1.92479
    R7        1.91350   0.00412   0.00000   0.00893   0.00893   1.92243
    R8        2.62866   0.00934   0.00000   0.01966   0.01967   2.64833
    R9        2.62558   0.00695   0.00000   0.01452   0.01453   2.64012
   R10        2.60674   0.00883   0.00000   0.01778   0.01778   2.62452
   R11        2.03810   0.00865   0.00000   0.02356   0.02356   2.06165
   R12        2.63967   0.00822   0.00000   0.01756   0.01754   2.65721
   R13        2.04080   0.00835   0.00000   0.02284   0.02284   2.06364
   R14        2.66885   0.01899   0.00000   0.04297   0.04297   2.71182
   R15        2.63678   0.00667   0.00000   0.01413   0.01411   2.65089
   R16        2.16894   0.03090   0.00000   0.02260   0.02260   2.19154
   R17        2.61076   0.01027   0.00000   0.02077   0.02077   2.63153
   R18        2.04107   0.00811   0.00000   0.02220   0.02220   2.06328
   R19        2.04283   0.00836   0.00000   0.02296   0.02296   2.06579
    A1        1.91205  -0.00354   0.00000  -0.02140  -0.02140   1.89065
    A2        1.85143  -0.00266   0.00000  -0.00617  -0.00618   1.84525
    A3        1.94718  -0.00318   0.00000  -0.01247  -0.01265   1.93453
    A4        1.89298   0.00270   0.00000   0.00982   0.00961   1.90259
    A5        1.90755   0.00865   0.00000   0.04599   0.04610   1.95366
    A6        1.96905  -0.00236   0.00000  -0.01345  -0.01325   1.95580
    A7        1.89622  -0.00327   0.00000  -0.02388  -0.02383   1.87240
    A8        1.90655  -0.00159   0.00000  -0.02291  -0.02355   1.88300
    A9        1.93460  -0.00210   0.00000  -0.02558  -0.02620   1.90840
   A10        1.90270  -0.00085   0.00000  -0.03079  -0.03215   1.87055
   A11        2.07589   0.00499   0.00000   0.01930   0.01916   2.09505
   A12        2.11601  -0.00359   0.00000  -0.01429  -0.01441   2.10160
   A13        2.09104  -0.00141   0.00000  -0.00556  -0.00562   2.08542
   A14        2.10186   0.00051   0.00000   0.00242   0.00245   2.10431
   A15        2.06785   0.00147   0.00000   0.00919   0.00918   2.07703
   A16        2.11343  -0.00198   0.00000  -0.01162  -0.01164   2.10180
   A17        2.08711   0.00003   0.00000   0.00005   0.00005   2.08716
   A18        2.10809  -0.00033   0.00000  -0.00191  -0.00191   2.10617
   A19        2.08799   0.00030   0.00000   0.00186   0.00186   2.08985
   A20        2.09437  -0.00013   0.00000  -0.00037  -0.00037   2.09401
   A21        2.09784   0.00008   0.00000   0.00001  -0.00001   2.09783
   A22        2.09097   0.00006   0.00000   0.00037   0.00038   2.09134
   A23        2.08743  -0.00037   0.00000  -0.00198  -0.00198   2.08544
   A24        2.08913   0.00052   0.00000   0.00303   0.00303   2.09216
   A25        2.10663  -0.00015   0.00000  -0.00104  -0.00104   2.10559
   A26        2.10109   0.00115   0.00000   0.00504   0.00507   2.10616
   A27        2.09378  -0.00097   0.00000  -0.00493  -0.00494   2.08884
   A28        2.08831  -0.00018   0.00000  -0.00012  -0.00013   2.08818
   A29        3.13961   0.00015   0.00000   0.00271   0.00271   3.14232
   A30        3.14048   0.00002   0.00000   0.00029   0.00029   3.14077
    D1        2.80728   0.00416   0.00000   0.06052   0.06048   2.86777
    D2        0.73163  -0.00292   0.00000   0.01562   0.01562   0.74725
    D3       -1.35626   0.00131   0.00000   0.04640   0.04644  -1.30981
    D4        0.71324   0.00290   0.00000   0.08805   0.08761   0.80085
    D5        2.81012  -0.00049   0.00000   0.01919   0.01953   2.82964
    D6        2.81480   0.00226   0.00000   0.09449   0.09417   2.90897
    D7       -1.37151  -0.00113   0.00000   0.02564   0.02608  -1.34543
    D8       -1.35682   0.00261   0.00000   0.08750   0.08711  -1.26972
    D9        0.74006  -0.00078   0.00000   0.01864   0.01902   0.75907
   D10        1.23794  -0.00040   0.00000  -0.04437  -0.04452   1.19343
   D11       -1.87950   0.00018   0.00000  -0.01757  -0.01765  -1.89715
   D12       -0.80398  -0.00062   0.00000  -0.05798  -0.05808  -0.86206
   D13        2.36175  -0.00005   0.00000  -0.03118  -0.03121   2.33054
   D14       -2.95927  -0.00111   0.00000  -0.05526  -0.05512  -3.01439
   D15        0.20647  -0.00053   0.00000  -0.02846  -0.02825   0.17822
   D16       -3.12019   0.00055   0.00000   0.02176   0.02197  -3.09822
   D17        0.03000   0.00057   0.00000   0.02288   0.02306   0.05306
   D18       -0.00239  -0.00005   0.00000  -0.00478  -0.00478  -0.00717
   D19       -3.13538  -0.00003   0.00000  -0.00366  -0.00369  -3.13908
   D20        3.12064  -0.00037   0.00000  -0.01891  -0.01864   3.10200
   D21       -0.02538  -0.00037   0.00000  -0.01909  -0.01887  -0.04425
   D22        0.00340   0.00012   0.00000   0.00779   0.00774   0.01114
   D23        3.14056   0.00012   0.00000   0.00760   0.00751  -3.13511
   D24        0.00049  -0.00006   0.00000  -0.00109  -0.00104  -0.00056
   D25       -3.13975  -0.00001   0.00000   0.00042   0.00041  -3.13933
   D26        3.13325  -0.00006   0.00000  -0.00213  -0.00204   3.13122
   D27       -0.00698  -0.00001   0.00000  -0.00062  -0.00058  -0.00756
   D28       -3.14069   0.00008   0.00000   0.00297   0.00294  -3.13775
   D29        0.00043   0.00009   0.00000   0.00403   0.00401   0.00444
   D30       -0.00044   0.00004   0.00000   0.00147   0.00149   0.00105
   D31        3.14068   0.00005   0.00000   0.00254   0.00256  -3.13995
   D32        0.00056  -0.00002   0.00000  -0.00108  -0.00111  -0.00054
   D33       -3.14010  -0.00004   0.00000  -0.00257  -0.00255   3.14053
   D34       -3.14150  -0.00001   0.00000  -0.00001  -0.00004  -3.14154
   D35        0.00102  -0.00003   0.00000  -0.00150  -0.00149  -0.00046
   D36       -0.00248  -0.00009   0.00000  -0.00486  -0.00482  -0.00730
   D37       -3.13966  -0.00009   0.00000  -0.00466  -0.00457   3.13895
   D38        3.13817  -0.00007   0.00000  -0.00335  -0.00336   3.13482
   D39        0.00100  -0.00007   0.00000  -0.00315  -0.00311  -0.00211
         Item               Value     Threshold  Converged?
 Maximum Force            0.030896     0.000450     NO 
 RMS     Force            0.005148     0.000300     NO 
 Maximum Displacement     0.231052     0.001800     NO 
 RMS     Displacement     0.057586     0.001200     NO 
 Predicted change in Energy=-2.855389D-03
 Lowest energy point so far.  Saving SCF results.
 GradGradGradGradGradGradGradGradGradGradGradGradGradGradGradGradGradGrad

 Leave Link  103 at Tue Oct 21 14:59:33 2025, MaxMem=  4294967296 cpu:               0.9 elap:               0.2
 (Enter /lrz/sys/applications/gaussian/g16.C.01/x86_64_legacy/exe/l202.exe)
                          Input orientation:                          
 ---------------------------------------------------------------------
 Center     Atomic      Atomic             Coordinates (Angstroms)
 Number     Number       Type             X           Y           Z
 ---------------------------------------------------------------------
      1          8           0        3.013973   -0.355565    1.083302
      2          6           0        2.480915   -0.203826   -0.213586
      3          7           0        3.065132    1.009238   -0.737616
      4          6           0        0.960337   -0.129976   -0.169183
      5          6           0        0.328430    0.982067    0.403602
      6          6           0       -1.056194    1.037638    0.496317
      7          6           0       -1.828060   -0.032297    0.009824
      8          6           0       -3.259544    0.018388    0.097051
      9          7           0       -4.416308    0.059772    0.168599
     10          6           0       -1.203021   -1.151080   -0.560684
     11          6           0        0.186535   -1.192906   -0.641700
     12          1           0        2.475963   -0.999442    1.558897
     13          1           0        2.750172   -1.092406   -0.821316
     14          1           0        4.063368    0.988070   -0.536300
     15          1           0        2.963014    1.022542   -1.749696
     16          1           0        0.940148    1.808715    0.767871
     17          1           0       -1.550491    1.904236    0.940402
     18          1           0       -1.807488   -1.979316   -0.935857
     19          1           0        0.676387   -2.064594   -1.083540
 ---------------------------------------------------------------------
                    Distance matrix (angstroms):
                    1          2          3          4          5
     1  O    0.000000
     2  C    1.410353   0.000000
     3  N    2.276191   1.444798   0.000000
     4  C    2.415994   1.523017   2.459896   0.000000
     5  C    3.076263   2.533862   2.965241   1.401438   0.000000
     6  C    4.341869   3.815277   4.302177   2.423347   1.388837
     7  C    4.970125   4.318171   5.058339   2.795844   2.415460
     8  C    6.361568   5.753150   6.456003   4.230873   3.727761
     9  N    7.497883   6.912831   7.595700   5.390586   4.839255
    10  C    4.595494   3.819574   4.787004   2.424055   2.797410
    11  C    3.416310   2.534904   3.625598   1.397090   2.417291
    12  H    0.964480   1.942865   3.107392   2.457510   3.142131
    13  H    2.059149   1.109688   2.126761   2.134258   3.415947
    14  H    2.351530   2.007216   1.018553   3.318674   3.851391
    15  H    3.150818   2.023865   1.017306   2.799470   3.402846
    16  H    3.014026   2.718003   2.724190   2.153370   1.090980
    17  H    5.095238   4.693383   4.992068   3.416644   2.160762
    18  H    5.473578   4.697280   5.719544   3.415948   3.889227
    19  H    3.616669   2.734154   3.908224   2.158569   3.408051
                    6          7          8          9         10
     6  C    0.000000
     7  C    1.406135   0.000000
     8  C    2.460291   1.435034   0.000000
     9  N    3.514824   2.594747   1.159713   0.000000
    10  C    2.435014   1.402792   2.455515   3.510445   0.000000
    11  C    2.795494   2.414558   3.726721   4.838590   1.392544
    12  H    4.213657   4.675427   6.005748   7.110433   4.248593
    13  H    4.556497   4.772299   6.180125   7.325700   3.962210
    14  H    5.222898   6.004025   7.413936   8.559411   5.684312
    15  H    4.604219   5.211812   6.568030   7.685127   4.847084
    16  H    2.157240   3.409830   4.614399   5.666529   3.888266
    17  H    1.092031   2.166375   2.681142   3.494372   3.421834
    18  H    3.423095   2.164628   2.676973   3.490507   1.091838
    19  H    3.888654   3.405573   4.606968   5.658296   2.154080
                   11         12         13         14         15
    11  C    0.000000
    12  H    3.181436   0.000000
    13  H    2.571886   2.397758   0.000000
    14  H    4.449449   3.295437   2.476710   0.000000
    15  H    3.720846   3.907994   2.319525   1.638382   0.000000
    16  H    3.400669   3.296998   3.770703   3.482646   3.323883
    17  H    3.887492   5.002621   5.529848   5.876684   5.327826
    18  H    2.163585   5.052911   4.644567   6.590294   5.694837
    19  H    1.093168   3.369792   2.305320   4.592370   3.899082
                   16         17         18         19
    16  H    0.000000
    17  H    2.498434   0.000000
    18  H    4.980097   4.320691   0.000000
    19  H    4.301141   4.980656   2.489722   0.000000
 Stoichiometry    C8H8N2O
 Framework group  C1[X(C8H8N2O)]
 Deg. of freedom    51
 Full point group                 C1      NOp   1
 RotChk:  IX=0 Diff= 7.53D-02
 Largest Abelian subgroup         C1      NOp   1
 Largest concise Abelian subgroup C1      NOp   1
                         Standard orientation:                         
 ---------------------------------------------------------------------
 Center     Atomic      Atomic             Coordinates (Angstroms)
 Number     Number       Type             X           Y           Z
 ---------------------------------------------------------------------
      1          8           0       -2.926637    0.037801    1.211783
      2          6           0       -2.414212    0.321403   -0.071216
      3          7           0       -3.040668   -0.628274   -0.961783
      4          6           0       -0.896081    0.200556   -0.087211
      5          6           0       -0.290640   -1.054504    0.062096
      6          6           0        1.092743   -1.171264    0.100669
      7          6           0        1.890146   -0.018582   -0.011968
      8          6           0        3.320442   -0.130008    0.022083
      9          7           0        4.476247   -0.220809    0.050453
     10          6           0        1.291797    1.241883   -0.157001
     11          6           0       -0.096782    1.341871   -0.189109
     12          1           0       -2.363916    0.469580    1.865337
     13          1           0       -2.664277    1.369427   -0.336776
     14          1           0       -4.035297   -0.652658   -0.743680
     15          1           0       -2.951357   -0.300578   -1.920715
     16          1           0       -0.922221   -1.940788    0.138536
     17          1           0        1.566387   -2.148586    0.214839
     18          1           0        1.916046    2.133526   -0.243008
     19          1           0       -0.565804    2.323115   -0.299541
 ---------------------------------------------------------------------
 Rotational constants (GHZ):           3.4907000           0.5448482           0.5150885
 Leave Link  202 at Tue Oct 21 14:59:33 2025, MaxMem=  4294967296 cpu:               0.1 elap:               0.0
 (Enter /lrz/sys/applications/gaussian/g16.C.01/x86_64_legacy/exe/l301.exe)
 Standard basis: def2SVP (5D, 7F)
 Ernie: Thresh=  0.10000D-02 Tol=  0.10000D-05 Strict=F.
 There are   205 symmetry adapted cartesian basis functions of A   symmetry.
 There are   194 symmetry adapted basis functions of A   symmetry.
   194 basis functions,   331 primitive gaussians,   205 cartesian basis functions
    39 alpha electrons       39 beta electrons
       nuclear repulsion energy       544.5548386410 Hartrees.
 IExCor= 4639 DFT=T Ex+Corr=wB97XD ExCW=0 ScaHFX=  1.000000
 ScaDFX=  1.000000  1.000000  1.000000  1.000000 ScalE2=  1.000000  1.000000
 IRadAn=      5 IRanWt=     -1 IRanGd=            0 ICorTp=0 IEmpDi=121
 HFx  wShort=  0.000000 wLong=  0.200000 cFull=  0.222036 cShort=  0.000000 cLong=  0.777964
 DFx  wShort=  0.000000 wLong=  0.200000 cFull=  0.000000 cShort=  0.000000 cLong=  1.000000
 NAtoms=   19 NActive=   19 NUniq=   19 SFac= 1.00D+00 NAtFMM=   60 NAOKFM=F Big=F
 Integral buffers will be    131072 words long.
 Raffenetti 2 integral format.
 Two-electron integral symmetry is turned on.
 R6Disp:  Grimme-D2 Dispersion energy=       -0.0101933098 Hartrees.
 Nuclear repulsion after empirical dispersion term =      544.5446453312 Hartrees.
 ------------------------------------------------------------------------------
 Polarizable Continuum Model (PCM)
 =================================
 Model                : PCM.
 Atomic radii         : SMD-Coulomb.
 Polarization charges : Total charges.
 Charge compensation  : None.
 Solution method      : On-the-fly selection.
 Cavity type          : VdW (van der Waals Surface) (Alpha=1.000).
 Cavity algorithm     : GePol (No added spheres)
                        Default sphere list used, NSphG=   19.
                        Lebedev-Laikov grids with approx.  5.0 points / Ang**2.
                        Smoothing algorithm: York/Karplus (Gamma=1.0000).
                        Polarization charges: spherical gaussians, with
                                              point-specific exponents (IZeta= 3).
                        Self-potential: point-specific (ISelfS= 7).
                        Self-field    : sphere-specific E.n sum rule (ISelfD= 2).
 1st derivatives      : Analytical E(r).r(x)/FMM algorithm (CHGder, D1EAlg=3).
                        Cavity 1st derivative terms included.
 Solvent              : Water, Eps=  78.355300 Eps(inf)=   1.777849
 ------------------------------------------------------------------------------
 Spheres list:
 ISph  on   Nord     Re0    Alpha      Xe            Ye            Ze
    1   O      1    1.5200  1.000     -2.926637      0.037801      1.211783
    2   C      2    1.8500  1.000     -2.414212      0.321403     -0.071216
    3   N      3    1.8900  1.000     -3.040668     -0.628274     -0.961783
    4   C      4    1.8500  1.000     -0.896081      0.200556     -0.087211
    5   C      5    1.8500  1.000     -0.290640     -1.054504      0.062096
    6   C      6    1.8500  1.000      1.092743     -1.171264      0.100669
    7   C      7    1.8500  1.000      1.890146     -0.018582     -0.011968
    8   C      8    1.8500  1.000      3.320442     -0.130008      0.022083
    9   N      9    1.8900  1.000      4.476247     -0.220809      0.050453
   10   C     10    1.8500  1.000      1.291797      1.241883     -0.157001
   11   C     11    1.8500  1.000     -0.096782      1.341871     -0.189109
   12   H     12    1.2000  1.000     -2.363916      0.469580      1.865337
   13   H     13    1.2000  1.000     -2.664277      1.369427     -0.336776
   14   H     14    1.2000  1.000     -4.035297     -0.652658     -0.743680
   15   H     15    1.2000  1.000     -2.951357     -0.300578     -1.920715
   16   H     16    1.2000  1.000     -0.922221     -1.940788      0.138536
   17   H     17    1.2000  1.000      1.566387     -2.148586      0.214839
   18   H     18    1.2000  1.000      1.916046      2.133526     -0.243008
   19   H     19    1.2000  1.000     -0.565804      2.323115     -0.299541
 ------------------------------------------------------------------------------
 GePol: Number of generator spheres                  =      19
 GePol: Total number of spheres                      =      19
 GePol: Number of exposed spheres                    =      19 (100.00%)
 GePol: Number of points                             =    1606
 GePol: Average weight of points                     =       0.12
 GePol: Minimum weight of points                     =   0.42D-10
 GePol: Maximum weight of points                     =    0.21991
 GePol: Number of points with low weight             =      64
 GePol: Fraction of low-weight points (<1% of avg)   =       3.99%
 GePol: Cavity surface area                          =    187.682 Ang**2
 GePol: Cavity volume                                =    161.957 Ang**3
 ------------------------------------------------------------------------------
 Atomic radii for non-electrostatic terms: SMD-CDS.
 ------------------------------------------------------------------------------
 PCM non-electrostatic energy =         0.0075249979 Hartrees.
 Nuclear repulsion after PCM non-electrostatic terms =      544.5521703291 Hartrees.
 Leave Link  301 at Tue Oct 21 14:59:33 2025, MaxMem=  4294967296 cpu:               0.5 elap:               0.1
 (Enter /lrz/sys/applications/gaussian/g16.C.01/x86_64_legacy/exe/l302.exe)
 NPDir=0 NMtPBC=     1 NCelOv=     1 NCel=       1 NClECP=     1 NCelD=      1
         NCelK=      1 NCelE2=     1 NClLst=     1 CellRange=     0.0.
 One-electron integrals computed using PRISM.
 One-electron integral symmetry used in STVInt
   1 Symmetry operations used in ECPInt.
 ECPInt:  NShTT=    4095 NPrTT=   15045 LenC2=    3948 LenP2D=   11126.
 LDataN:  DoStor=T MaxTD1= 4 Len=   56
 NBasis=   194 RedAO= T EigKep=  2.80D-04  NBF=   194
 NBsUse=   194 1.00D-06 EigRej= -1.00D+00 NBFU=   194
 Precomputing XC quadrature grid using
 IXCGrd= 4 IRadAn=           5 IRanWt=          -1 IRanGd=           0 AccXCQ= 0.00D+00.
 Generated NRdTot=       0 NPtTot=           0 NUsed=           0 NTot=          32
 NSgBfM=   204   204   204   204   204 MxSgAt=    19 MxSgA2=    19.
 Leave Link  302 at Tue Oct 21 14:59:34 2025, MaxMem=  4294967296 cpu:               1.9 elap:               0.3
 (Enter /lrz/sys/applications/gaussian/g16.C.01/x86_64_legacy/exe/l303.exe)
 DipDrv:  MaxL=1.
 Leave Link  303 at Tue Oct 21 14:59:34 2025, MaxMem=  4294967296 cpu:               0.2 elap:               0.0
 (Enter /lrz/sys/applications/gaussian/g16.C.01/x86_64_legacy/exe/l401.exe)
 Initial guess from the checkpoint file:  "g16_C12-a_10.chk"
 B after Tr=    -0.000000   -0.000000    0.000000
         Rot=    0.999655   -0.026142   -0.002483   -0.000031 Ang=  -3.01 deg.
 Guess basis will be translated and rotated to current coordinates.
 JPrj=2 DoOrth=T DoCkMO=T.
 Generating alternative initial guess.
 ExpMin= 1.22D-01 ExpMax= 2.27D+03 ExpMxC= 3.41D+02 IAcc=3 IRadAn=         5 AccDes= 0.00D+00
 Harris functional with IExCor= 4639 and IRadAn=       5 diagonalized for initial guess.
 HarFok:  IExCor= 4639 AccDes= 0.00D+00 IRadAn=         5 IDoV= 1 UseB2=F ITyADJ=14
 ICtDFT=  3500011 ScaDFX=  1.000000  1.000000  1.000000  1.000000
 FoFCou: FMM=F IPFlag=           0 FMFlag=      100000 FMFlg1=           0
         NFxFlg=           0 DoJE=T BraDBF=F KetDBF=T FulRan=T
         wScrn=  0.000000 ICntrl=       500 IOpCl=  0 I1Cent=   200000004 NGrid=           0
         NMat0=    1 NMatS0=      1 NMatT0=    0 NMatD0=    1 NMtDS0=    0 NMtDT0=    0
 Petite list used in FoFCou.
 Harris En= -472.806274218925    
 Leave Link  401 at Tue Oct 21 14:59:35 2025, MaxMem=  4294967296 cpu:              11.8 elap:               1.5
 (Enter /lrz/sys/applications/gaussian/g16.C.01/x86_64_legacy/exe/l502.exe)
 Integral symmetry usage will be decided dynamically.
 Closed shell SCF:
 Using DIIS extrapolation, IDIIS=  1040.
 NGot=  4294967296 LenX=  4294878900 LenY=  4294836434
 Requested convergence on RMS density matrix=1.00D-08 within 128 cycles.
 Requested convergence on MAX density matrix=1.00D-06.
 Requested convergence on             energy=1.00D-06.
 No special actions if energy rises.
 Fock matrices will be formed incrementally for  20 cycles.

 Cycle   1  Pass 1  IDiag  1:
 FoFJK:  IHMeth= 1 ICntrl=       0 DoSepK=T KAlg= 0 I1Cent=           0 FoldK=F
 IRaf=         1 NMat=       1 IRICut=       1 DoRegI=T DoRafI=F ISym2E= 0 IDoP0=0 IntGTp=1.
 FoFCou: FMM=F IPFlag=           0 FMFlag=      100000 FMFlg1=           0
         NFxFlg=           0 DoJE=T BraDBF=F KetDBF=F FulRan=T
         wScrn=  0.000000 ICntrl=       500 IOpCl=  0 I1Cent=           0 NGrid=           0
         NMat0=    1 NMatS0=      1 NMatT0=    0 NMatD0=    1 NMtDS0=    0 NMtDT0=    0
 Symmetry not used in FoFCou.
 Inv3:  Mode=1 IEnd=     7737708.
 Iteration    1 A*A^-1 deviation from unit magnitude is 6.33D-15 for    139.
 Iteration    1 A*A^-1 deviation from orthogonality  is 3.90D-15 for    744    372.
 Iteration    1 A^-1*A deviation from unit magnitude is 6.00D-15 for   1206.
 Iteration    1 A^-1*A deviation from orthogonality  is 3.30D-15 for    679    188.
 E= -493.856479749503    
 DIIS: error= 2.52D-03 at cycle   1 NSaved=   1.
 NSaved= 1 IEnMin= 1 EnMin= -493.856479749503     IErMin= 1 ErrMin= 2.52D-03
 ErrMax= 2.52D-03  0.00D+00 EMaxC= 1.00D-01 BMatC= 3.26D-03 BMatP= 3.26D-03
 IDIUse=3 WtCom= 9.75D-01 WtEn= 2.52D-02
 Coeff-Com:  0.100D+01
 Coeff-En:   0.100D+01
 Coeff:      0.100D+01
 Gap=     0.782 Goal=   None    Shift=    0.000
 GapD=    0.782 DampG=2.000 DampE=1.000 DampFc=2.0000 IDamp=-1.
 RMSDP=8.10D-04 MaxDP=2.11D-02              OVMax= 1.80D-02

 Cycle   2  Pass 1  IDiag  1:
 RMSU=  7.86D-04    CP:  9.92D-01
 E= -493.860968085435     Delta-E=       -0.004488335931 Rises=F Damp=F
 DIIS: error= 4.84D-04 at cycle   2 NSaved=   2.
 NSaved= 2 IEnMin= 2 EnMin= -493.860968085435     IErMin= 2 ErrMin= 4.84D-04
 ErrMax= 4.84D-04  0.00D+00 EMaxC= 1.00D-01 BMatC= 1.31D-04 BMatP= 3.26D-03
 IDIUse=3 WtCom= 9.95D-01 WtEn= 4.84D-03
 Coeff-Com: -0.110D+00 0.111D+01
 Coeff-En:   0.000D+00 0.100D+01
 Coeff:     -0.109D+00 0.111D+01
 Gap=     0.335 Goal=   None    Shift=    0.000
 RMSDP=1.46D-04 MaxDP=4.52D-03 DE=-4.49D-03 OVMax= 6.07D-03

 Cycle   3  Pass 1  IDiag  1:
 RMSU=  1.20D-04    CP:  9.92D-01  1.11D+00
 E= -493.861209300993     Delta-E=       -0.000241215558 Rises=F Damp=F
 DIIS: error= 4.17D-04 at cycle   3 NSaved=   3.
 NSaved= 3 IEnMin= 3 EnMin= -493.861209300993     IErMin= 3 ErrMin= 4.17D-04
 ErrMax= 4.17D-04  0.00D+00 EMaxC= 1.00D-01 BMatC= 4.05D-05 BMatP= 1.31D-04
 IDIUse=3 WtCom= 9.96D-01 WtEn= 4.17D-03
 Coeff-Com: -0.654D-01 0.400D+00 0.665D+00
 Coeff-En:   0.000D+00 0.000D+00 0.100D+01
 Coeff:     -0.651D-01 0.399D+00 0.666D+00
 Gap=     0.335 Goal=   None    Shift=    0.000
 RMSDP=4.49D-05 MaxDP=1.25D-03 DE=-2.41D-04 OVMax= 1.53D-03

 Cycle   4  Pass 1  IDiag  1:
 RMSU=  4.33D-05    CP:  9.92D-01  1.12D+00  1.00D+00
 E= -493.861247239711     Delta-E=       -0.000037938718 Rises=F Damp=F
 DIIS: error= 2.10D-04 at cycle   4 NSaved=   4.
 NSaved= 4 IEnMin= 4 EnMin= -493.861247239711     IErMin= 4 ErrMin= 2.10D-04
 ErrMax= 2.10D-04  0.00D+00 EMaxC= 1.00D-01 BMatC= 8.18D-06 BMatP= 4.05D-05
 IDIUse=3 WtCom= 9.98D-01 WtEn= 2.10D-03
 Coeff-Com: -0.160D-01 0.376D-01 0.304D+00 0.674D+00
 Coeff-En:   0.000D+00 0.000D+00 0.000D+00 0.100D+01
 Coeff:     -0.160D-01 0.375D-01 0.303D+00 0.675D+00
 Gap=     0.335 Goal=   None    Shift=    0.000
 RMSDP=1.84D-05 MaxDP=6.91D-04 DE=-3.79D-05 OVMax= 8.02D-04

 Cycle   5  Pass 1  IDiag  1:
 RMSU=  1.40D-05    CP:  9.92D-01  1.12D+00  1.10D+00  1.01D+00
 E= -493.861254989248     Delta-E=       -0.000007749537 Rises=F Damp=F
 DIIS: error= 1.05D-04 at cycle   5 NSaved=   5.
 NSaved= 5 IEnMin= 5 EnMin= -493.861254989248     IErMin= 5 ErrMin= 1.05D-04
 ErrMax= 1.05D-04  0.00D+00 EMaxC= 1.00D-01 BMatC= 1.17D-06 BMatP= 8.18D-06
 IDIUse=3 WtCom= 9.99D-01 WtEn= 1.05D-03
 Coeff-Com:  0.352D-02-0.510D-01 0.330D-01 0.307D+00 0.708D+00
 Coeff-En:   0.000D+00 0.000D+00 0.000D+00 0.000D+00 0.100D+01
 Coeff:      0.352D-02-0.510D-01 0.330D-01 0.307D+00 0.708D+00
 Gap=     0.335 Goal=   None    Shift=    0.000
 RMSDP=8.27D-06 MaxDP=2.69D-04 DE=-7.75D-06 OVMax= 3.41D-04

 Cycle   6  Pass 1  IDiag  1:
 RMSU=  4.66D-06    CP:  9.92D-01  1.12D+00  1.14D+00  1.10D+00  9.20D-01
 E= -493.861256240592     Delta-E=       -0.000001251343 Rises=F Damp=F
 DIIS: error= 1.94D-05 at cycle   6 NSaved=   6.
 NSaved= 6 IEnMin= 6 EnMin= -493.861256240592     IErMin= 6 ErrMin= 1.94D-05
 ErrMax= 1.94D-05  0.00D+00 EMaxC= 1.00D-01 BMatC= 9.85D-08 BMatP= 1.17D-06
 IDIUse=1 WtCom= 1.00D+00 WtEn= 0.00D+00
 Coeff-Com:  0.286D-02-0.240D-01-0.148D-01 0.566D-01 0.285D+00 0.695D+00
 Coeff:      0.286D-02-0.240D-01-0.148D-01 0.566D-01 0.285D+00 0.695D+00
 Gap=     0.335 Goal=   None    Shift=    0.000
 RMSDP=2.83D-06 MaxDP=7.46D-05 DE=-1.25D-06 OVMax= 1.27D-04

 Cycle   7  Pass 1  IDiag  1:
 RMSU=  1.91D-06    CP:  9.92D-01  1.12D+00  1.16D+00  1.13D+00  9.77D-01
                    CP:  9.93D-01
 E= -493.861256365561     Delta-E=       -0.000000124969 Rises=F Damp=F
 DIIS: error= 3.10D-06 at cycle   7 NSaved=   7.
 NSaved= 7 IEnMin= 7 EnMin= -493.861256365561     IErMin= 7 ErrMin= 3.10D-06
 ErrMax= 3.10D-06  0.00D+00 EMaxC= 1.00D-01 BMatC= 4.87D-09 BMatP= 9.85D-08
 IDIUse=1 WtCom= 1.00D+00 WtEn= 0.00D+00
 Coeff-Com: -0.900D-04 0.346D-02-0.498D-02-0.313D-01-0.595D-01 0.704D-01
 Coeff-Com:  0.102D+01
 Coeff:     -0.900D-04 0.346D-02-0.498D-02-0.313D-01-0.595D-01 0.704D-01
 Coeff:      0.102D+01
 Gap=     0.335 Goal=   None    Shift=    0.000
 RMSDP=1.24D-06 MaxDP=4.45D-05 DE=-1.25D-07 OVMax= 7.00D-05

 Cycle   8  Pass 1  IDiag  1:
 RMSU=  5.43D-07    CP:  9.92D-01  1.12D+00  1.16D+00  1.14D+00  1.01D+00
                    CP:  1.13D+00  1.22D+00
 E= -493.861256378992     Delta-E=       -0.000000013431 Rises=F Damp=F
 DIIS: error= 1.29D-06 at cycle   8 NSaved=   8.
 NSaved= 8 IEnMin= 8 EnMin= -493.861256378992     IErMin= 8 ErrMin= 1.29D-06
 ErrMax= 1.29D-06  0.00D+00 EMaxC= 1.00D-01 BMatC= 6.66D-10 BMatP= 4.87D-09
 IDIUse=1 WtCom= 1.00D+00 WtEn= 0.00D+00
 Coeff-Com: -0.254D-03 0.301D-02-0.403D-03-0.146D-01-0.417D-01-0.296D-01
 Coeff-Com:  0.323D+00 0.761D+00
 Coeff:     -0.254D-03 0.301D-02-0.403D-03-0.146D-01-0.417D-01-0.296D-01
 Coeff:      0.323D+00 0.761D+00
 Gap=     0.335 Goal=   None    Shift=    0.000
 RMSDP=3.08D-07 MaxDP=8.73D-06 DE=-1.34D-08 OVMax= 1.68D-05

 Cycle   9  Pass 1  IDiag  1:
 RMSU=  1.87D-07    CP:  9.92D-01  1.12D+00  1.16D+00  1.14D+00  1.01D+00
                    CP:  1.17D+00  1.30D+00  1.02D+00
 E= -493.861256380174     Delta-E=       -0.000000001182 Rises=F Damp=F
 DIIS: error= 6.04D-07 at cycle   9 NSaved=   9.
 NSaved= 9 IEnMin= 9 EnMin= -493.861256380174     IErMin= 9 ErrMin= 6.04D-07
 ErrMax= 6.04D-07  0.00D+00 EMaxC= 1.00D-01 BMatC= 7.81D-11 BMatP= 6.66D-10
 IDIUse=1 WtCom= 1.00D+00 WtEn= 0.00D+00
 Coeff-Com: -0.587D-04 0.419D-03 0.480D-03-0.394D-03-0.435D-02-0.148D-01
 Coeff-Com: -0.358D-01 0.207D+00 0.848D+00
 Coeff:     -0.587D-04 0.419D-03 0.480D-03-0.394D-03-0.435D-02-0.148D-01
 Coeff:     -0.358D-01 0.207D+00 0.848D+00
 Gap=     0.335 Goal=   None    Shift=    0.000
 RMSDP=1.13D-07 MaxDP=4.02D-06 DE=-1.18D-09 OVMax= 6.93D-06

 Cycle  10  Pass 1  IDiag  1:
 RMSU=  6.34D-08    CP:  9.92D-01  1.12D+00  1.16D+00  1.14D+00  1.02D+00
                    CP:  1.17D+00  1.33D+00  1.12D+00  1.20D+00
 E= -493.861256380354     Delta-E=       -0.000000000180 Rises=F Damp=F
 DIIS: error= 2.73D-07 at cycle  10 NSaved=  10.
 NSaved=10 IEnMin=10 EnMin= -493.861256380354     IErMin=10 ErrMin= 2.73D-07
 ErrMax= 2.73D-07  0.00D+00 EMaxC= 1.00D-01 BMatC= 9.99D-12 BMatP= 7.81D-11
 IDIUse=1 WtCom= 1.00D+00 WtEn= 0.00D+00
 Coeff-Com:  0.209D-04-0.308D-03 0.185D-03 0.185D-02 0.452D-02 0.720D-03
 Coeff-Com: -0.529D-01-0.523D-01 0.199D+00 0.900D+00
 Coeff:      0.209D-04-0.308D-03 0.185D-03 0.185D-02 0.452D-02 0.720D-03
 Coeff:     -0.529D-01-0.523D-01 0.199D+00 0.900D+00
 Gap=     0.335 Goal=   None    Shift=    0.000
 RMSDP=4.98D-08 MaxDP=1.18D-06 DE=-1.80D-10 OVMax= 3.71D-06

 Cycle  11  Pass 1  IDiag  1:
 RMSU=  2.42D-08    CP:  9.92D-01  1.12D+00  1.16D+00  1.14D+00  1.02D+00
                    CP:  1.17D+00  1.34D+00  1.17D+00  1.34D+00  1.14D+00
 E= -493.861256380387     Delta-E=       -0.000000000033 Rises=F Damp=F
 DIIS: error= 1.60D-07 at cycle  11 NSaved=  11.
 NSaved=11 IEnMin=11 EnMin= -493.861256380387     IErMin=11 ErrMin= 1.60D-07
 ErrMax= 1.60D-07  0.00D+00 EMaxC= 1.00D-01 BMatC= 1.68D-12 BMatP= 9.99D-12
 IDIUse=1 WtCom= 1.00D+00 WtEn= 0.00D+00
 Coeff-Com:  0.129D-04-0.138D-03-0.702D-05 0.555D-03 0.182D-02 0.217D-02
 Coeff-Com: -0.101D-01-0.407D-01-0.558D-01 0.256D+00 0.846D+00
 Coeff:      0.129D-04-0.138D-03-0.702D-05 0.555D-03 0.182D-02 0.217D-02
 Coeff:     -0.101D-01-0.407D-01-0.558D-01 0.256D+00 0.846D+00
 Gap=     0.335 Goal=   None    Shift=    0.000
 RMSDP=1.77D-08 MaxDP=4.25D-07 DE=-3.27D-11 OVMax= 1.78D-06

 Cycle  12  Pass 1  IDiag  1:
 RMSU=  1.02D-08    CP:  9.92D-01  1.12D+00  1.16D+00  1.14D+00  1.02D+00
                    CP:  1.17D+00  1.34D+00  1.18D+00  1.39D+00  1.28D+00
                    CP:  1.20D+00
 E= -493.861256380389     Delta-E=       -0.000000000003 Rises=F Damp=F
 DIIS: error= 5.90D-08 at cycle  12 NSaved=  12.
 NSaved=12 IEnMin=12 EnMin= -493.861256380389     IErMin=12 ErrMin= 5.90D-08
 ErrMax= 5.90D-08  0.00D+00 EMaxC= 1.00D-01 BMatC= 2.57D-13 BMatP= 1.68D-12
 IDIUse=1 WtCom= 1.00D+00 WtEn= 0.00D+00
 Coeff-Com: -0.227D-05 0.411D-04-0.368D-04-0.286D-03-0.641D-03 0.143D-03
 Coeff-Com:  0.908D-02 0.491D-02-0.487D-01-0.150D+00 0.126D+00 0.106D+01
 Coeff:     -0.227D-05 0.411D-04-0.368D-04-0.286D-03-0.641D-03 0.143D-03
 Coeff:      0.908D-02 0.491D-02-0.487D-01-0.150D+00 0.126D+00 0.106D+01
 Gap=     0.335 Goal=   None    Shift=    0.000
 RMSDP=9.67D-09 MaxDP=2.33D-07 DE=-2.73D-12 OVMax= 1.03D-06

 Error on total polarization charges =  0.02945
 SCF Done:  E(RwB97XD) =  -493.861256380     A.U. after   12 cycles
            NFock= 12  Conv=0.97D-08     -V/T= 2.0102
 KE= 4.888959551028D+02 PE=-2.237055255126D+03 EE= 7.097458733135D+02
 SMD-CDS (non-electrostatic) energy       (kcal/mol) =       4.72
 (included in total energy above)
 Leave Link  502 at Tue Oct 21 15:00:20 2025, MaxMem=  4294967296 cpu:             356.7 elap:              44.9
 (Enter /lrz/sys/applications/gaussian/g16.C.01/x86_64_legacy/exe/l701.exe)
 ... and contract with generalized density number  0.
 Compute integral first derivatives.
 R6Disp: Adding Grimme-D2 dispersion energy 1st derivatives to the gradient.
   1 Symmetry operations used in ECPInt.
 ECPInt:  NShTT=    4095 NPrTT=   15045 LenC2=    3948 LenP2D=   11126.
 LDataN:  DoStor=T MaxTD1= 5 Len=  102
 D1PCM: PCM CHGder 1st derivatives, ID1Alg=3 FixD1E=F DoIter=F DoCFld=F I1PDM=0.
 GePol: Maximum number of non-zero 1st derivatives   =     257
 Leave Link  701 at Tue Oct 21 15:00:21 2025, MaxMem=  4294967296 cpu:               9.3 elap:               1.2
 (Enter /lrz/sys/applications/gaussian/g16.C.01/x86_64_legacy/exe/l702.exe)
 L702 exits ... SP integral derivatives will be done elsewhere.
 Leave Link  702 at Tue Oct 21 15:00:21 2025, MaxMem=  4294967296 cpu:               0.2 elap:               0.0
 (Enter /lrz/sys/applications/gaussian/g16.C.01/x86_64_legacy/exe/l703.exe)
 Integral derivatives from FoFJK, PRISM(SPDF).
 Compute integral first derivatives, UseDBF=F ICtDFT=           0.
 Calling FoFJK, ICntrl=      2127 FMM=F ISym2X=0 I1Cent= 0 IOpClX= 0 NMat=1 NMatS=1 NMatT=0.
 FoFJK:  IHMeth= 1 ICntrl=    2127 DoSepK=T KAlg= 0 I1Cent=           0 FoldK=F
 IRaf=         1 NMat=       1 IRICut=       1 DoRegI=T DoRafI=F ISym2E= 0 IDoP0=0 IntGTp=1.
 FoFCou: FMM=F IPFlag=           0 FMFlag=      100000 FMFlg1=         800
         NFxFlg=           0 DoJE=F BraDBF=F KetDBF=F FulRan=T
         wScrn=  0.000000 ICntrl=      2527 IOpCl=  0 I1Cent=           0 NGrid=           0
         NMat0=    1 NMatS0=      1 NMatT0=    0 NMatD0=    1 NMtDS0=    0 NMtDT0=    0
 Symmetry not used in FoFCou.
 Leave Link  703 at Tue Oct 21 15:00:30 2025, MaxMem=  4294967296 cpu:              68.0 elap:               8.5
 (Enter /lrz/sys/applications/gaussian/g16.C.01/x86_64_legacy/exe/l716.exe)
 Dipole        =-2.07550020D+00 1.18288453D+00-2.92733835D-01
 ***** Axes restored to original set *****
 -------------------------------------------------------------------
 Center     Atomic                   Forces (Hartrees/Bohr)
 Number     Number              X              Y              Z
 -------------------------------------------------------------------
      1        8          -0.001765511    0.001890355    0.002304903
      2        6           0.000562770   -0.002064073   -0.002485468
      3        7          -0.003353912    0.002553146    0.003386053
      4        6           0.000650739    0.001256869   -0.000083738
      5        6           0.000250533   -0.001710173   -0.000910732
      6        6          -0.000732897    0.000111444   -0.000040941
      7        6           0.003743568   -0.000667751   -0.000350823
      8        6           0.000364515    0.000229579    0.000130170
      9        7          -0.000652315   -0.000000116   -0.000004367
     10        6          -0.001231925    0.000568734    0.000490273
     11        6           0.000139001    0.000860358   -0.000126147
     12        1           0.000756209   -0.001451693   -0.000137073
     13        1          -0.000279819   -0.000650144    0.000711615
     14        1           0.001329060   -0.001579565   -0.002019387
     15        1           0.000265490   -0.000068834   -0.001160920
     16        1          -0.000596159    0.000523168    0.000307766
     17        1           0.000345761   -0.000284350   -0.000126345
     18        1           0.000390527    0.000214536    0.000105664
     19        1          -0.000185636    0.000268509    0.000009498
 -------------------------------------------------------------------
 Cartesian Forces:  Max     0.003743568 RMS     0.001264642
 Leave Link  716 at Tue Oct 21 15:00:30 2025, MaxMem=  4294967296 cpu:               0.2 elap:               0.0
 (Enter /lrz/sys/applications/gaussian/g16.C.01/x86_64_legacy/exe/l103.exe)

 GradGradGradGradGradGradGradGradGradGradGradGradGradGradGradGradGradGrad
 Berny optimization.
 Using GEDIIS/GDIIS optimizer.
 FormGI is forming the generalized inverse of G from B-inverse, IUseBI=4.
 Internal  Forces:  Max     0.002436796 RMS     0.000749361
 Search for a local minimum.
 Step number   2 out of a maximum of   98
 All quantities printed in internal units (Hartrees-Bohrs-Radians)
 RMS Force = .74936D-03 SwitMx=.10000D-02 MixMth= 2
 Mixed Optimization -- En-DIIS/RFO-DIIS
 Update second derivatives using D2CorX and points    1    2
 DE= -2.80D-03 DEPred=-2.86D-03 R= 9.80D-01
 TightC=F SS=  1.41D+00  RLast= 2.40D-01 DXNew= 5.0454D-01 7.2027D-01
 Trust test= 9.80D-01 RLast= 2.40D-01 DXMaxT set to 5.05D-01
 ITU=  1  0
 Use linear search instead of GDIIS.
     Eigenvalues ---    0.00541   0.01006   0.01499   0.01558   0.02140
     Eigenvalues ---    0.02173   0.02227   0.02232   0.02261   0.02270
     Eigenvalues ---    0.02290   0.02301   0.04502   0.05029   0.05029
     Eigenvalues ---    0.05988   0.06672   0.08418   0.15827   0.16000
     Eigenvalues ---    0.16000   0.16000   0.16000   0.16000   0.16067
     Eigenvalues ---    0.18259   0.20909   0.22001   0.22917   0.24053
     Eigenvalues ---    0.24974   0.25067   0.30805   0.32021   0.35900
     Eigenvalues ---    0.35992   0.36109   0.36507   0.38634   0.42602
     Eigenvalues ---    0.43165   0.43376   0.44113   0.45287   0.45503
     Eigenvalues ---    0.46697   0.47837   0.48028   0.51653   0.54745
     Eigenvalues ---    1.35633
 RFO step:  Lambda=-7.54437753D-04 EMin= 5.41167356D-03
 Quartic linear search produced a step of  0.05683.
 Iteration  1 RMS(Cart)=  0.02328786 RMS(Int)=  0.00071220
 Iteration  2 RMS(Cart)=  0.00072333 RMS(Int)=  0.00006699
 Iteration  3 RMS(Cart)=  0.00000054 RMS(Int)=  0.00006698
 ITry= 1 IFail=0 DXMaxC= 1.19D-01 DCOld= 1.00D+10 DXMaxT= 5.05D-01 DXLimC= 3.00D+00 Rises=F
 Variable       Old X    -DE/DX   Delta X   Delta X   Delta X     New X
                                 (Linear)    (Quad)   (Total)
    R1        2.66518   0.00157  -0.00008   0.00368   0.00360   2.66878
    R2        1.82260   0.00047   0.00012   0.00100   0.00111   1.82372
    R3        2.73027  -0.00001  -0.00024  -0.00025  -0.00049   2.72978
    R4        2.87809  -0.00244   0.00061  -0.00781  -0.00720   2.87089
    R5        2.09701   0.00006  -0.00067  -0.00039  -0.00106   2.09595
    R6        1.92479   0.00093   0.00057   0.00264   0.00321   1.92800
    R7        1.92243   0.00114   0.00051   0.00306   0.00357   1.92600
    R8        2.64833  -0.00125   0.00112  -0.00179  -0.00067   2.64766
    R9        2.64012  -0.00106   0.00083  -0.00158  -0.00075   2.63937
   R10        2.62452  -0.00134   0.00101  -0.00202  -0.00101   2.62351
   R11        2.06165   0.00016   0.00134   0.00164   0.00298   2.06463
   R12        2.65721  -0.00155   0.00100  -0.00270  -0.00170   2.65551
   R13        2.06364  -0.00044   0.00130  -0.00014   0.00116   2.06480
   R14        2.71182   0.00030   0.00244   0.00285   0.00529   2.71711
   R15        2.65089  -0.00183   0.00080  -0.00344  -0.00264   2.64825
   R16        2.19154   0.00065   0.00128   0.00162   0.00290   2.19444
   R17        2.63153  -0.00085   0.00118  -0.00077   0.00041   2.63193
   R18        2.06328  -0.00041   0.00126  -0.00011   0.00115   2.06443
   R19        2.06579  -0.00030   0.00131   0.00026   0.00156   2.06735
    A1        1.89065   0.00033  -0.00122   0.00111  -0.00010   1.89055
    A2        1.84525   0.00120  -0.00035   0.00356   0.00313   1.84839
    A3        1.93453  -0.00032  -0.00072  -0.00650  -0.00724   1.92728
    A4        1.90259  -0.00007   0.00055   0.00596   0.00646   1.90905
    A5        1.95366  -0.00219   0.00262  -0.01246  -0.00984   1.94381
    A6        1.95580   0.00086  -0.00075   0.00895   0.00818   1.96398
    A7        1.87240   0.00054  -0.00135   0.00076  -0.00055   1.87184
    A8        1.88300  -0.00101  -0.00134  -0.01397  -0.01551   1.86749
    A9        1.90840  -0.00014  -0.00149  -0.00822  -0.00989   1.89851
   A10        1.87055  -0.00072  -0.00183  -0.01956  -0.02184   1.84871
   A11        2.09505  -0.00015   0.00109   0.00021   0.00129   2.09634
   A12        2.10160  -0.00015  -0.00082  -0.00146  -0.00229   2.09931
   A13        2.08542   0.00030  -0.00032   0.00121   0.00088   2.08630
   A14        2.10431  -0.00006   0.00014  -0.00008   0.00006   2.10437
   A15        2.07703   0.00089   0.00052   0.00621   0.00673   2.08376
   A16        2.10180  -0.00083  -0.00066  -0.00610  -0.00676   2.09503
   A17        2.08716  -0.00055   0.00000  -0.00263  -0.00263   2.08453
   A18        2.10617   0.00011  -0.00011   0.00014   0.00003   2.10621
   A19        2.08985   0.00044   0.00011   0.00250   0.00260   2.09245
   A20        2.09401  -0.00081  -0.00002  -0.00343  -0.00345   2.09055
   A21        2.09783   0.00112  -0.00000   0.00470   0.00470   2.10254
   A22        2.09134  -0.00031   0.00002  -0.00127  -0.00125   2.09009
   A23        2.08544  -0.00063  -0.00011  -0.00290  -0.00301   2.08243
   A24        2.09216   0.00052   0.00017   0.00288   0.00306   2.09521
   A25        2.10559   0.00011  -0.00006   0.00001  -0.00005   2.10554
   A26        2.10616  -0.00017   0.00029  -0.00023   0.00005   2.10620
   A27        2.08884   0.00014  -0.00028   0.00032   0.00004   2.08889
   A28        2.08818   0.00004  -0.00001  -0.00007  -0.00008   2.08810
   A29        3.14232  -0.00011   0.00015  -0.00212  -0.00196   3.14036
   A30        3.14077   0.00003   0.00002   0.00072   0.00074   3.14151
    D1        2.86777  -0.00035   0.00344   0.04918   0.05260   2.92036
    D2        0.74725   0.00173   0.00089   0.06570   0.06659   0.81384
    D3       -1.30981   0.00131   0.00264   0.06496   0.06762  -1.24219
    D4        0.80085   0.00212   0.00498   0.09501   0.09988   0.90073
    D5        2.82964   0.00064   0.00111   0.05974   0.06099   2.89064
    D6        2.90897   0.00125   0.00535   0.08229   0.08752   2.99649
    D7       -1.34543  -0.00023   0.00148   0.04701   0.04864  -1.29679
    D8       -1.26972   0.00100   0.00495   0.08077   0.08556  -1.18415
    D9        0.75907  -0.00048   0.00108   0.04550   0.04668   0.80575
   D10        1.19343  -0.00015  -0.00253  -0.02448  -0.02700   1.16643
   D11       -1.89715  -0.00016  -0.00100  -0.02349  -0.02448  -1.92163
   D12       -0.86206  -0.00004  -0.00330  -0.01669  -0.02002  -0.88208
   D13        2.33054  -0.00006  -0.00177  -0.01570  -0.01750   2.31305
   D14       -3.01439  -0.00010  -0.00313  -0.02048  -0.02361  -3.03800
   D15        0.17822  -0.00011  -0.00161  -0.01949  -0.02109   0.15713
   D16       -3.09822   0.00012   0.00125   0.00625   0.00751  -3.09071
   D17        0.05306   0.00005   0.00131   0.00338   0.00469   0.05775
   D18       -0.00717   0.00012  -0.00027   0.00519   0.00491  -0.00225
   D19       -3.13908   0.00005  -0.00021   0.00232   0.00210  -3.13698
   D20        3.10200  -0.00019  -0.00106  -0.00921  -0.01026   3.09175
   D21       -0.04425  -0.00008  -0.00107  -0.00460  -0.00566  -0.04992
   D22        0.01114  -0.00019   0.00044  -0.00819  -0.00776   0.00338
   D23       -3.13511  -0.00008   0.00043  -0.00359  -0.00317  -3.13828
   D24       -0.00056   0.00003  -0.00006   0.00106   0.00100   0.00044
   D25       -3.13933  -0.00005   0.00002  -0.00219  -0.00217  -3.14150
   D26        3.13122   0.00010  -0.00012   0.00404   0.00391   3.13513
   D27       -0.00756   0.00002  -0.00003   0.00078   0.00075  -0.00681
   D28       -3.13775  -0.00005   0.00017  -0.00221  -0.00205  -3.13980
   D29        0.00444  -0.00010   0.00023  -0.00439  -0.00417   0.00027
   D30        0.00105   0.00002   0.00008   0.00100   0.00109   0.00214
   D31       -3.13995  -0.00002   0.00015  -0.00118  -0.00103  -3.14098
   D32       -0.00054   0.00003  -0.00006   0.00144   0.00138   0.00084
   D33        3.14053   0.00004  -0.00015   0.00190   0.00176  -3.14090
   D34       -3.14154  -0.00002  -0.00000  -0.00074  -0.00074   3.14091
   D35       -0.00046  -0.00000  -0.00008  -0.00028  -0.00036  -0.00083
   D36       -0.00730   0.00011  -0.00027   0.00490   0.00463  -0.00267
   D37        3.13895   0.00001  -0.00026   0.00029   0.00004   3.13899
   D38        3.13482   0.00010  -0.00019   0.00443   0.00425   3.13906
   D39       -0.00211   0.00000  -0.00018  -0.00017  -0.00034  -0.00246
         Item               Value     Threshold  Converged?
 Maximum Force            0.002437     0.000450     NO 
 RMS     Force            0.000749     0.000300     NO 
 Maximum Displacement     0.119417     0.001800     NO 
 RMS     Displacement     0.023427     0.001200     NO 
 Predicted change in Energy=-3.877530D-04
 Lowest energy point so far.  Saving SCF results.
 GradGradGradGradGradGradGradGradGradGradGradGradGradGradGradGradGradGrad

 Leave Link  103 at Tue Oct 21 15:00:30 2025, MaxMem=  4294967296 cpu:               0.4 elap:               0.1
 (Enter /lrz/sys/applications/gaussian/g16.C.01/x86_64_legacy/exe/l202.exe)
                          Input orientation:                          
 ---------------------------------------------------------------------
 Center     Atomic      Atomic             Coordinates (Angstroms)
 Number     Number       Type             X           Y           Z
 ---------------------------------------------------------------------
      1          8           0        2.997033   -0.330337    1.108927
      2          6           0        2.481350   -0.202388   -0.199572
      3          7           0        3.059224    1.007887   -0.736218
      4          6           0        0.964518   -0.124216   -0.166359
      5          6           0        0.330259    0.984416    0.409562
      6          6           0       -1.054097    1.038184    0.499286
      7          6           0       -1.820122   -0.032045    0.006841
      8          6           0       -3.254482    0.016858    0.093958
      9          7           0       -4.413003    0.055033    0.163754
     10          6           0       -1.196007   -1.146151   -0.570355
     11          6           0        0.193924   -1.183585   -0.650791
     12          1           0        2.487772   -1.007592    1.570811
     13          1           0        2.751486   -1.100864   -0.791125
     14          1           0        4.068178    0.942784   -0.599493
     15          1           0        2.914045    1.021490   -1.744927
     16          1           0        0.935163    1.813701    0.783801
     17          1           0       -1.550516    1.901951    0.948005
     18          1           0       -1.798233   -1.974055   -0.951591
     19          1           0        0.686775   -2.051810   -1.098128
 ---------------------------------------------------------------------
                    Distance matrix (angstroms):
                    1          2          3          4          5
     1  O    0.000000
     2  C    1.412257   0.000000
     3  N    2.280191   1.444540   0.000000
     4  C    2.408311   1.519208   2.448304   0.000000
     5  C    3.054402   2.531154   2.959834   1.401084   0.000000
     6  C    4.319279   3.811405   4.294974   2.422615   1.388302
     7  C    4.950612   4.309790   5.043969   2.791543   2.412367
     8  C    6.342882   5.747521   6.444705   4.229376   3.726411
     9  N    7.480007   6.908717   7.586308   5.390625   4.839701
    10  C    4.589894   3.814593   4.772251   2.423928   2.798042
    11  C    3.417903   2.529558   3.608295   1.396693   2.417264
    12  H    0.965069   1.944904   3.116263   2.473543   3.157761
    13  H    2.064995   1.109129   2.131795   2.130124   3.413559
    14  H    2.384720   1.997343   1.020254   3.310408   3.871946
    15  H    3.158926   2.018224   1.019194   2.757748   3.364394
    16  H    2.992310   2.724396   2.733392   2.158516   1.092555
    17  H    5.068452   4.690535   4.988553   3.416512   2.160811
    18  H    5.471940   4.692459   5.703794   3.416326   3.890472
    19  H    3.629305   2.729151   3.888604   2.158924   3.408651
                    6          7          8          9         10
     6  C    0.000000
     7  C    1.405235   0.000000
     8  C    2.459490   1.437835   0.000000
     9  N    3.515881   2.599083   1.161249   0.000000
    10  C    2.436306   1.401395   2.455854   3.511527   0.000000
    11  C    2.795799   2.411412   3.726556   4.839570   1.392759
    12  H    4.228262   4.685685   6.016982   7.122477   4.263099
    13  H    4.552269   4.762219   6.172870   7.319686   3.953921
    14  H    5.239667   5.999167   7.413471   8.561605   5.663580
    15  H    4.558829   5.156643   6.514714   7.633003   4.792787
    16  H    2.153957   3.406177   4.610602   5.663943   3.890545
    17  H    1.092645   2.167676   2.680760   3.495710   3.423743
    18  H    3.425254   2.165750   2.679098   3.492594   1.092449
    19  H    3.889785   3.403666   4.608032   5.660289   2.154908
                   11         12         13         14         15
    11  C    0.000000
    12  H    3.198160   0.000000
    13  H    2.562745   2.378442   0.000000
    14  H    4.419719   3.318414   2.438626   0.000000
    15  H    3.668589   3.910627   2.332499   1.627955   0.000000
    16  H    3.404587   3.315067   3.778110   3.533806   3.307271
    17  H    3.888412   5.016083   5.527087   5.906307   5.287664
    18  H    2.164259   5.066202   4.635533   6.560999   5.639879
    19  H    1.093996   3.384851   2.293814   4.544240   3.850228
                   16         17         18         19
    16  H    0.000000
    17  H    2.492659   0.000000
    18  H    4.982985   4.323569   0.000000
    19  H    4.306452   4.982405   2.490539   0.000000
 Stoichiometry    C8H8N2O
 Framework group  C1[X(C8H8N2O)]
 Deg. of freedom    51
 Full point group                 C1      NOp   1
 RotChk:  IX=0 Diff= 2.56D-02
 Largest Abelian subgroup         C1      NOp   1
 Largest concise Abelian subgroup C1      NOp   1
                         Standard orientation:                         
 ---------------------------------------------------------------------
 Center     Atomic      Atomic             Coordinates (Angstroms)
 Number     Number       Type             X           Y           Z
 ---------------------------------------------------------------------
      1          8           0       -2.911590   -0.008114    1.221130
      2          6           0       -2.413201    0.324356   -0.057754
      3          7           0       -3.033455   -0.601154   -0.977216
      4          6           0       -0.899245    0.201176   -0.085249
      5          6           0       -0.293748   -1.055413    0.046634
      6          6           0        1.089119   -1.172528    0.083308
      7          6           0        1.882821   -0.016879   -0.012607
      8          6           0        3.315789   -0.129785    0.022343
      9          7           0        4.473222   -0.219540    0.050512
     10          6           0        1.287618    1.245021   -0.143944
     11          6           0       -0.101232    1.343714   -0.177623
     12          1           0       -2.377096    0.447663    1.882901
     13          1           0       -2.661403    1.380935   -0.286237
     14          1           0       -4.038505   -0.563418   -0.805836
     15          1           0       -2.898853   -0.259027   -1.927789
     16          1           0       -0.920165   -1.947992    0.114325
     17          1           0        1.563127   -2.151630    0.186019
     18          1           0        1.911247    2.138864   -0.218611
     19          1           0       -0.571522    2.326400   -0.277531
 ---------------------------------------------------------------------
 Rotational constants (GHZ):           3.4807283           0.5465091           0.5171157
 Leave Link  202 at Tue Oct 21 15:00:30 2025, MaxMem=  4294967296 cpu:               0.0 elap:               0.0
 (Enter /lrz/sys/applications/gaussian/g16.C.01/x86_64_legacy/exe/l301.exe)
 Standard basis: def2SVP (5D, 7F)
 Ernie: Thresh=  0.10000D-02 Tol=  0.10000D-05 Strict=F.
 There are   205 symmetry adapted cartesian basis functions of A   symmetry.
 There are   194 symmetry adapted basis functions of A   symmetry.
   194 basis functions,   331 primitive gaussians,   205 cartesian basis functions
    39 alpha electrons       39 beta electrons
       nuclear repulsion energy       544.8999874072 Hartrees.
 IExCor= 4639 DFT=T Ex+Corr=wB97XD ExCW=0 ScaHFX=  1.000000
 ScaDFX=  1.000000  1.000000  1.000000  1.000000 ScalE2=  1.000000  1.000000
 IRadAn=      5 IRanWt=     -1 IRanGd=            0 ICorTp=0 IEmpDi=121
 HFx  wShort=  0.000000 wLong=  0.200000 cFull=  0.222036 cShort=  0.000000 cLong=  0.777964
 DFx  wShort=  0.000000 wLong=  0.200000 cFull=  0.000000 cShort=  0.000000 cLong=  1.000000
 NAtoms=   19 NActive=   19 NUniq=   19 SFac= 1.00D+00 NAtFMM=   60 NAOKFM=F Big=F
 Integral buffers will be    131072 words long.
 Raffenetti 2 integral format.
 Two-electron integral symmetry is turned on.
 R6Disp:  Grimme-D2 Dispersion energy=       -0.0102130725 Hartrees.
 Nuclear repulsion after empirical dispersion term =      544.8897743346 Hartrees.
 ------------------------------------------------------------------------------
 Polarizable Continuum Model (PCM)
 =================================
 Model                : PCM.
 Atomic radii         : SMD-Coulomb.
 Polarization charges : Total charges.
 Charge compensation  : None.
 Solution method      : On-the-fly selection.
 Cavity type          : VdW (van der Waals Surface) (Alpha=1.000).
 Cavity algorithm     : GePol (No added spheres)
                        Default sphere list used, NSphG=   19.
                        Lebedev-Laikov grids with approx.  5.0 points / Ang**2.
                        Smoothing algorithm: York/Karplus (Gamma=1.0000).
                        Polarization charges: spherical gaussians, with
                                              point-specific exponents (IZeta= 3).
                        Self-potential: point-specific (ISelfS= 7).
                        Self-field    : sphere-specific E.n sum rule (ISelfD= 2).
 1st derivatives      : Analytical E(r).r(x)/FMM algorithm (CHGder, D1EAlg=3).
                        Cavity 1st derivative terms included.
 Solvent              : Water, Eps=  78.355300 Eps(inf)=   1.777849
 ------------------------------------------------------------------------------
 Spheres list:
 ISph  on   Nord     Re0    Alpha      Xe            Ye            Ze
    1   O      1    1.5200  1.000     -2.911590     -0.008114      1.221130
    2   C      2    1.8500  1.000     -2.413201      0.324356     -0.057754
    3   N      3    1.8900  1.000     -3.033455     -0.601154     -0.977216
    4   C      4    1.8500  1.000     -0.899245      0.201176     -0.085249
    5   C      5    1.8500  1.000     -0.293748     -1.055413      0.046634
    6   C      6    1.8500  1.000      1.089119     -1.172528      0.083308
    7   C      7    1.8500  1.000      1.882821     -0.016879     -0.012607
    8   C      8    1.8500  1.000      3.315789     -0.129785      0.022343
    9   N      9    1.8900  1.000      4.473222     -0.219540      0.050512
   10   C     10    1.8500  1.000      1.287618      1.245021     -0.143944
   11   C     11    1.8500  1.000     -0.101232      1.343714     -0.177623
   12   H     12    1.2000  1.000     -2.377096      0.447663      1.882901
   13   H     13    1.2000  1.000     -2.661403      1.380935     -0.286237
   14   H     14    1.2000  1.000     -4.038505     -0.563418     -0.805836
   15   H     15    1.2000  1.000     -2.898853     -0.259027     -1.927789
   16   H     16    1.2000  1.000     -0.920165     -1.947992      0.114325
   17   H     17    1.2000  1.000      1.563127     -2.151630      0.186019
   18   H     18    1.2000  1.000      1.911247      2.138864     -0.218611
   19   H     19    1.2000  1.000     -0.571522      2.326400     -0.277531
 ------------------------------------------------------------------------------
 GePol: Number of generator spheres                  =      19
 GePol: Total number of spheres                      =      19
 GePol: Number of exposed spheres                    =      19 (100.00%)
 GePol: Number of points                             =    1613
 GePol: Average weight of points                     =       0.12
 GePol: Minimum weight of points                     =   0.11D-08
 GePol: Maximum weight of points                     =    0.21991
 GePol: Number of points with low weight             =      68
 GePol: Fraction of low-weight points (<1% of avg)   =       4.22%
 GePol: Cavity surface area                          =    187.415 Ang**2
 GePol: Cavity volume                                =    161.830 Ang**3
 ------------------------------------------------------------------------------
 Atomic radii for non-electrostatic terms: SMD-CDS.
 ------------------------------------------------------------------------------
 PCM non-electrostatic energy =         0.0074746459 Hartrees.
 Nuclear repulsion after PCM non-electrostatic terms =      544.8972489805 Hartrees.
 Leave Link  301 at Tue Oct 21 15:00:30 2025, MaxMem=  4294967296 cpu:               0.6 elap:               0.1
 (Enter /lrz/sys/applications/gaussian/g16.C.01/x86_64_legacy/exe/l302.exe)
 NPDir=0 NMtPBC=     1 NCelOv=     1 NCel=       1 NClECP=     1 NCelD=      1
         NCelK=      1 NCelE2=     1 NClLst=     1 CellRange=     0.0.
 One-electron integrals computed using PRISM.
 One-electron integral symmetry used in STVInt
   1 Symmetry operations used in ECPInt.
 ECPInt:  NShTT=    4095 NPrTT=   15045 LenC2=    3948 LenP2D=   11126.
 LDataN:  DoStor=T MaxTD1= 4 Len=   56
 NBasis=   194 RedAO= T EigKep=  2.79D-04  NBF=   194
 NBsUse=   194 1.00D-06 EigRej= -1.00D+00 NBFU=   194
 Precomputing XC quadrature grid using
 IXCGrd= 4 IRadAn=           5 IRanWt=          -1 IRanGd=           0 AccXCQ= 0.00D+00.
 Generated NRdTot=       0 NPtTot=           0 NUsed=           0 NTot=          32
 NSgBfM=   204   204   204   204   204 MxSgAt=    19 MxSgA2=    19.
 Leave Link  302 at Tue Oct 21 15:00:30 2025, MaxMem=  4294967296 cpu:               2.0 elap:               0.3
 (Enter /lrz/sys/applications/gaussian/g16.C.01/x86_64_legacy/exe/l303.exe)
 DipDrv:  MaxL=1.
 Leave Link  303 at Tue Oct 21 15:00:30 2025, MaxMem=  4294967296 cpu:               0.2 elap:               0.0
 (Enter /lrz/sys/applications/gaussian/g16.C.01/x86_64_legacy/exe/l401.exe)
 Initial guess from the checkpoint file:  "g16_C12-a_10.chk"
 B after Tr=    -0.000000    0.000000   -0.000000
         Rot=    0.999954   -0.009611    0.000038   -0.000152 Ang=  -1.10 deg.
 Guess basis will be translated and rotated to current coordinates.
 JPrj=2 DoOrth=T DoCkMO=T.
 Generating alternative initial guess.
 ExpMin= 1.22D-01 ExpMax= 2.27D+03 ExpMxC= 3.41D+02 IAcc=3 IRadAn=         5 AccDes= 0.00D+00
 Harris functional with IExCor= 4639 and IRadAn=       5 diagonalized for initial guess.
 HarFok:  IExCor= 4639 AccDes= 0.00D+00 IRadAn=         5 IDoV= 1 UseB2=F ITyADJ=14
 ICtDFT=  3500011 ScaDFX=  1.000000  1.000000  1.000000  1.000000
 FoFCou: FMM=F IPFlag=           0 FMFlag=      100000 FMFlg1=           0
         NFxFlg=           0 DoJE=T BraDBF=F KetDBF=T FulRan=T
         wScrn=  0.000000 ICntrl=       500 IOpCl=  0 I1Cent=   200000004 NGrid=           0
         NMat0=    1 NMatS0=      1 NMatT0=    0 NMatD0=    1 NMtDS0=    0 NMtDT0=    0
 Petite list used in FoFCou.
 Harris En= -472.806988680385    
 Leave Link  401 at Tue Oct 21 15:00:32 2025, MaxMem=  4294967296 cpu:              11.3 elap:               1.4
 (Enter /lrz/sys/applications/gaussian/g16.C.01/x86_64_legacy/exe/l502.exe)
 Integral symmetry usage will be decided dynamically.
 Closed shell SCF:
 Using DIIS extrapolation, IDIIS=  1040.
 NGot=  4294967296 LenX=  4294878900 LenY=  4294836434
 Requested convergence on RMS density matrix=1.00D-08 within 128 cycles.
 Requested convergence on MAX density matrix=1.00D-06.
 Requested convergence on             energy=1.00D-06.
 No special actions if energy rises.
 Fock matrices will be formed incrementally for  20 cycles.

 Cycle   1  Pass 1  IDiag  1:
 FoFJK:  IHMeth= 1 ICntrl=       0 DoSepK=T KAlg= 0 I1Cent=           0 FoldK=F
 IRaf=         1 NMat=       1 IRICut=       1 DoRegI=T DoRafI=F ISym2E= 0 IDoP0=0 IntGTp=1.
 FoFCou: FMM=F IPFlag=           0 FMFlag=      100000 FMFlg1=           0
         NFxFlg=           0 DoJE=T BraDBF=F KetDBF=F FulRan=T
         wScrn=  0.000000 ICntrl=       500 IOpCl=  0 I1Cent=           0 NGrid=           0
         NMat0=    1 NMatS0=      1 NMatT0=    0 NMatD0=    1 NMtDS0=    0 NMtDT0=    0
 Symmetry not used in FoFCou.
 Inv3:  Mode=1 IEnd=     7805307.
 Iteration    1 A*A^-1 deviation from unit magnitude is 6.44D-15 for    161.
 Iteration    1 A*A^-1 deviation from orthogonality  is 3.86D-15 for    883    531.
 Iteration    1 A^-1*A deviation from unit magnitude is 6.44D-15 for    161.
 Iteration    1 A^-1*A deviation from orthogonality  is 3.04D-15 for   1576   1522.
 E= -493.860338566761    
 DIIS: error= 2.00D-03 at cycle   1 NSaved=   1.
 NSaved= 1 IEnMin= 1 EnMin= -493.860338566761     IErMin= 1 ErrMin= 2.00D-03
 ErrMax= 2.00D-03  0.00D+00 EMaxC= 1.00D-01 BMatC= 1.03D-03 BMatP= 1.03D-03
 IDIUse=3 WtCom= 9.80D-01 WtEn= 2.00D-02
 Coeff-Com:  0.100D+01
 Coeff-En:   0.100D+01
 Coeff:      0.100D+01
 Gap=     0.783 Goal=   None    Shift=    0.000
 GapD=    0.783 DampG=2.000 DampE=1.000 DampFc=2.0000 IDamp=-1.
 RMSDP=2.95D-04 MaxDP=1.20D-02              OVMax= 1.06D-02

 Cycle   2  Pass 1  IDiag  1:
 RMSU=  2.95D-04    CP:  1.00D+00
 E= -493.861757841115     Delta-E=       -0.001419274354 Rises=F Damp=F
 DIIS: error= 5.41D-04 at cycle   2 NSaved=   2.
 NSaved= 2 IEnMin= 2 EnMin= -493.861757841115     IErMin= 2 ErrMin= 5.41D-04
 ErrMax= 5.41D-04  0.00D+00 EMaxC= 1.00D-01 BMatC= 3.50D-05 BMatP= 1.03D-03
 IDIUse=3 WtCom= 9.95D-01 WtEn= 5.41D-03
 Coeff-Com: -0.161D+00 0.116D+01
 Coeff-En:   0.000D+00 0.100D+01
 Coeff:     -0.160D+00 0.116D+01
 Gap=     0.339 Goal=   None    Shift=    0.000
 RMSDP=7.41D-05 MaxDP=2.69D-03 DE=-1.42D-03 OVMax= 4.12D-03

 Cycle   3  Pass 1  IDiag  1:
 RMSU=  4.97D-05    CP:  1.00D+00  1.19D+00
 E= -493.861838603638     Delta-E=       -0.000080762523 Rises=F Damp=F
 DIIS: error= 1.44D-04 at cycle   3 NSaved=   3.
 NSaved= 3 IEnMin= 3 EnMin= -493.861838603638     IErMin= 3 ErrMin= 1.44D-04
 ErrMax= 1.44D-04  0.00D+00 EMaxC= 1.00D-01 BMatC= 2.54D-06 BMatP= 3.50D-05
 IDIUse=3 WtCom= 9.99D-01 WtEn= 1.44D-03
 Coeff-Com: -0.317D-01 0.151D+00 0.881D+00
 Coeff-En:   0.000D+00 0.000D+00 0.100D+01
 Coeff:     -0.317D-01 0.151D+00 0.881D+00
 Gap=     0.338 Goal=   None    Shift=    0.000
 RMSDP=1.83D-05 MaxDP=4.51D-04 DE=-8.08D-05 OVMax= 1.01D-03

 Cycle   4  Pass 1  IDiag  1:
 RMSU=  1.44D-05    CP:  1.00D+00  1.21D+00  1.19D+00
 E= -493.861842206187     Delta-E=       -0.000003602549 Rises=F Damp=F
 DIIS: error= 4.81D-05 at cycle   4 NSaved=   4.
 NSaved= 4 IEnMin= 4 EnMin= -493.861842206187     IErMin= 4 ErrMin= 4.81D-05
 ErrMax= 4.81D-05  0.00D+00 EMaxC= 1.00D-01 BMatC= 1.16D-06 BMatP= 2.54D-06
 IDIUse=1 WtCom= 1.00D+00 WtEn= 0.00D+00
 Coeff-Com:  0.108D-01-0.116D+00 0.394D+00 0.711D+00
 Coeff:      0.108D-01-0.116D+00 0.394D+00 0.711D+00
 Gap=     0.339 Goal=   None    Shift=    0.000
 RMSDP=8.11D-06 MaxDP=2.53D-04 DE=-3.60D-06 OVMax= 4.44D-04

 Cycle   5  Pass 1  IDiag  1:
 RMSU=  4.12D-06    CP:  1.00D+00  1.21D+00  1.32D+00  9.05D-01
 E= -493.861843503229     Delta-E=       -0.000001297043 Rises=F Damp=F
 DIIS: error= 2.40D-05 at cycle   5 NSaved=   5.
 NSaved= 5 IEnMin= 5 EnMin= -493.861843503229     IErMin= 5 ErrMin= 2.40D-05
 ErrMax= 2.40D-05  0.00D+00 EMaxC= 1.00D-01 BMatC= 7.38D-08 BMatP= 1.16D-06
 IDIUse=1 WtCom= 1.00D+00 WtEn= 0.00D+00
 Coeff-Com:  0.625D-02-0.559D-01 0.890D-01 0.260D+00 0.701D+00
 Coeff:      0.625D-02-0.559D-01 0.890D-01 0.260D+00 0.701D+00
 Gap=     0.339 Goal=   None    Shift=    0.000
 RMSDP=2.44D-06 MaxDP=7.82D-05 DE=-1.30D-06 OVMax= 1.37D-04

 Cycle   6  Pass 1  IDiag  1:
 RMSU=  1.66D-06    CP:  1.00D+00  1.22D+00  1.35D+00  9.67D-01  1.09D+00
 E= -493.861843589413     Delta-E=       -0.000000086184 Rises=F Damp=F
 DIIS: error= 1.20D-05 at cycle   6 NSaved=   6.
 NSaved= 6 IEnMin= 6 EnMin= -493.861843589413     IErMin= 6 ErrMin= 1.20D-05
 ErrMax= 1.20D-05  0.00D+00 EMaxC= 1.00D-01 BMatC= 2.17D-08 BMatP= 7.38D-08
 IDIUse=1 WtCom= 1.00D+00 WtEn= 0.00D+00
 Coeff-Com:  0.105D-02-0.585D-02-0.341D-01-0.134D-01 0.364D+00 0.688D+00
 Coeff:      0.105D-02-0.585D-02-0.341D-01-0.134D-01 0.364D+00 0.688D+00
 Gap=     0.339 Goal=   None    Shift=    0.000
 RMSDP=1.26D-06 MaxDP=4.09D-05 DE=-8.62D-08 OVMax= 7.82D-05

 Cycle   7  Pass 1  IDiag  1:
 RMSU=  6.04D-07    CP:  1.00D+00  1.22D+00  1.36D+00  1.00D+00  1.27D+00
                    CP:  9.47D-01
 E= -493.861843616646     Delta-E=       -0.000000027233 Rises=F Damp=F
 DIIS: error= 2.21D-06 at cycle   7 NSaved=   7.
 NSaved= 7 IEnMin= 7 EnMin= -493.861843616646     IErMin= 7 ErrMin= 2.21D-06
 ErrMax= 2.21D-06  0.00D+00 EMaxC= 1.00D-01 BMatC= 1.03D-09 BMatP= 2.17D-08
 IDIUse=1 WtCom= 1.00D+00 WtEn= 0.00D+00
 Coeff-Com: -0.487D-03 0.563D-02-0.187D-01-0.365D-01-0.410D-02 0.174D+00
 Coeff-Com:  0.880D+00
 Coeff:     -0.487D-03 0.563D-02-0.187D-01-0.365D-01-0.410D-02 0.174D+00
 Coeff:      0.880D+00
 Gap=     0.339 Goal=   None    Shift=    0.000
 RMSDP=4.38D-07 MaxDP=1.51D-05 DE=-2.72D-08 OVMax= 3.05D-05

 Cycle   8  Pass 1  IDiag  1:
 RMSU=  2.06D-07    CP:  1.00D+00  1.22D+00  1.36D+00  1.02D+00  1.34D+00
                    CP:  1.06D+00  1.05D+00
 E= -493.861843618598     Delta-E=       -0.000000001952 Rises=F Damp=F
 DIIS: error= 5.84D-07 at cycle   8 NSaved=   8.
 NSaved= 8 IEnMin= 8 EnMin= -493.861843618598     IErMin= 8 ErrMin= 5.84D-07
 ErrMax= 5.84D-07  0.00D+00 EMaxC= 1.00D-01 BMatC= 1.30D-10 BMatP= 1.03D-09
 IDIUse=1 WtCom= 1.00D+00 WtEn= 0.00D+00
 Coeff-Com: -0.250D-03 0.250D-02-0.389D-02-0.122D-01-0.293D-01 0.109D-01
 Coeff-Com:  0.321D+00 0.711D+00
 Coeff:     -0.250D-03 0.250D-02-0.389D-02-0.122D-01-0.293D-01 0.109D-01
 Coeff:      0.321D+00 0.711D+00
 Gap=     0.339 Goal=   None    Shift=    0.000
 RMSDP=1.06D-07 MaxDP=2.47D-06 DE=-1.95D-09 OVMax= 6.93D-06

 Cycle   9  Pass 1  IDiag  1:
 RMSU=  6.62D-08    CP:  1.00D+00  1.22D+00  1.36D+00  1.02D+00  1.35D+00
                    CP:  1.08D+00  1.14D+00  9.97D-01
 E= -493.861843618791     Delta-E=       -0.000000000193 Rises=F Damp=F
 DIIS: error= 2.10D-07 at cycle   9 NSaved=   9.
 NSaved= 9 IEnMin= 9 EnMin= -493.861843618791     IErMin= 9 ErrMin= 2.10D-07
 ErrMax= 2.10D-07  0.00D+00 EMaxC= 1.00D-01 BMatC= 1.12D-11 BMatP= 1.30D-10
 IDIUse=1 WtCom= 1.00D+00 WtEn= 0.00D+00
 Coeff-Com: -0.112D-04-0.195D-05 0.112D-02 0.902D-03-0.671D-02-0.175D-01
 Coeff-Com: -0.258D-01 0.176D+00 0.872D+00
 Coeff:     -0.112D-04-0.195D-05 0.112D-02 0.902D-03-0.671D-02-0.175D-01
 Coeff:     -0.258D-01 0.176D+00 0.872D+00
 Gap=     0.339 Goal=   None    Shift=    0.000
 RMSDP=4.67D-08 MaxDP=1.61D-06 DE=-1.93D-10 OVMax= 3.53D-06

 Cycle  10  Pass 1  IDiag  1:
 RMSU=  2.17D-08    CP:  1.00D+00  1.22D+00  1.36D+00  1.02D+00  1.35D+00
                    CP:  1.09D+00  1.18D+00  1.13D+00  1.13D+00
 E= -493.861843618808     Delta-E=       -0.000000000017 Rises=F Damp=F
 DIIS: error= 8.26D-08 at cycle  10 NSaved=  10.
 NSaved=10 IEnMin=10 EnMin= -493.861843618808     IErMin=10 ErrMin= 8.26D-08
 ErrMax= 8.26D-08  0.00D+00 EMaxC= 1.00D-01 BMatC= 1.71D-12 BMatP= 1.12D-11
 IDIUse=1 WtCom= 1.00D+00 WtEn= 0.00D+00
 Coeff-Com:  0.255D-04-0.296D-03 0.781D-03 0.166D-02 0.147D-02-0.638D-02
 Coeff-Com: -0.473D-01-0.318D-01 0.276D+00 0.806D+00
 Coeff:      0.255D-04-0.296D-03 0.781D-03 0.166D-02 0.147D-02-0.638D-02
 Coeff:     -0.473D-01-0.318D-01 0.276D+00 0.806D+00
 Gap=     0.339 Goal=   None    Shift=    0.000
 RMSDP=1.62D-08 MaxDP=3.02D-07 DE=-1.73D-11 OVMax= 1.22D-06

 Cycle  11  Pass 1  IDiag  1:
 RMSU=  8.04D-09    CP:  1.00D+00  1.22D+00  1.36D+00  1.02D+00  1.35D+00
                    CP:  1.09D+00  1.19D+00  1.17D+00  1.27D+00  1.09D+00
 E= -493.861843618831     Delta-E=       -0.000000000023 Rises=F Damp=F
 DIIS: error= 4.26D-08 at cycle  11 NSaved=  11.
 NSaved=11 IEnMin=11 EnMin= -493.861843618831     IErMin=11 ErrMin= 4.26D-08
 ErrMax= 4.26D-08  0.00D+00 EMaxC= 1.00D-01 BMatC= 2.00D-13 BMatP= 1.71D-12
 IDIUse=1 WtCom= 1.00D+00 WtEn= 0.00D+00
 Coeff-Com:  0.730D-05-0.689D-04 0.443D-04 0.275D-03 0.127D-02 0.885D-03
 Coeff-Com: -0.834D-02-0.312D-01-0.407D-01 0.196D+00 0.882D+00
 Coeff:      0.730D-05-0.689D-04 0.443D-04 0.275D-03 0.127D-02 0.885D-03
 Coeff:     -0.834D-02-0.312D-01-0.407D-01 0.196D+00 0.882D+00
 Gap=     0.339 Goal=   None    Shift=    0.000
 RMSDP=6.46D-09 MaxDP=1.35D-07 DE=-2.27D-11 OVMax= 5.21D-07

 Error on total polarization charges =  0.02941
 SCF Done:  E(RwB97XD) =  -493.861843619     A.U. after   11 cycles
            NFock= 11  Conv=0.65D-08     -V/T= 2.0102
 KE= 4.888925757330D+02 PE=-2.237753866511D+03 EE= 7.101021981790D+02
 SMD-CDS (non-electrostatic) energy       (kcal/mol) =       4.69
 (included in total energy above)
 Leave Link  502 at Tue Oct 21 15:01:14 2025, MaxMem=  4294967296 cpu:             333.4 elap:              41.9
 (Enter /lrz/sys/applications/gaussian/g16.C.01/x86_64_legacy/exe/l701.exe)
 ... and contract with generalized density number  0.
 Compute integral first derivatives.
 R6Disp: Adding Grimme-D2 dispersion energy 1st derivatives to the gradient.
   1 Symmetry operations used in ECPInt.
 ECPInt:  NShTT=    4095 NPrTT=   15045 LenC2=    3948 LenP2D=   11126.
 LDataN:  DoStor=T MaxTD1= 5 Len=  102
 D1PCM: PCM CHGder 1st derivatives, ID1Alg=3 FixD1E=F DoIter=F DoCFld=F I1PDM=0.
 GePol: Maximum number of non-zero 1st derivatives   =     257
 Leave Link  701 at Tue Oct 21 15:01:15 2025, MaxMem=  4294967296 cpu:              10.3 elap:               1.3
 (Enter /lrz/sys/applications/gaussian/g16.C.01/x86_64_legacy/exe/l702.exe)
 L702 exits ... SP integral derivatives will be done elsewhere.
 Leave Link  702 at Tue Oct 21 15:01:15 2025, MaxMem=  4294967296 cpu:               0.2 elap:               0.0
 (Enter /lrz/sys/applications/gaussian/g16.C.01/x86_64_legacy/exe/l703.exe)
 Integral derivatives from FoFJK, PRISM(SPDF).
 Compute integral first derivatives, UseDBF=F ICtDFT=           0.
 Calling FoFJK, ICntrl=      2127 FMM=F ISym2X=0 I1Cent= 0 IOpClX= 0 NMat=1 NMatS=1 NMatT=0.
 FoFJK:  IHMeth= 1 ICntrl=    2127 DoSepK=T KAlg= 0 I1Cent=           0 FoldK=F
 IRaf=         1 NMat=       1 IRICut=       1 DoRegI=T DoRafI=F ISym2E= 0 IDoP0=0 IntGTp=1.
 FoFCou: FMM=F IPFlag=           0 FMFlag=      100000 FMFlg1=         800
         NFxFlg=           0 DoJE=F BraDBF=F KetDBF=F FulRan=T
         wScrn=  0.000000 ICntrl=      2527 IOpCl=  0 I1Cent=           0 NGrid=           0
         NMat0=    1 NMatS0=      1 NMatT0=    0 NMatD0=    1 NMtDS0=    0 NMtDT0=    0
 Symmetry not used in FoFCou.
 Leave Link  703 at Tue Oct 21 15:01:24 2025, MaxMem=  4294967296 cpu:              67.4 elap:               8.4
 (Enter /lrz/sys/applications/gaussian/g16.C.01/x86_64_legacy/exe/l716.exe)
 Dipole        =-2.08540149D+00 1.26123050D+00-3.01819968D-01
 ***** Axes restored to original set *****
 -------------------------------------------------------------------
 Center     Atomic                   Forces (Hartrees/Bohr)
 Number     Number              X              Y              Z
 -------------------------------------------------------------------
      1        8          -0.001034577    0.001476348    0.000293051
      2        6          -0.001401539   -0.000732638    0.000075503
      3        7           0.000831634    0.000400868    0.001636312
      4        6          -0.000740649    0.000301933   -0.000596887
      5        6           0.000575318   -0.000010029    0.000010095
      6        6          -0.000375244    0.000178185    0.000114262
      7        6          -0.000383412   -0.000065407   -0.000087910
      8        6          -0.001594510    0.000001387    0.000106979
      9        7           0.003011596   -0.000042814   -0.000162747
     10        6          -0.000394590   -0.000022630   -0.000140638
     11        6          -0.000214180    0.000041321   -0.000062954
     12        1           0.000962006   -0.001066310   -0.000576268
     13        1           0.000812654   -0.000522349    0.000941339
     14        1           0.000723777   -0.000160261   -0.001426511
     15        1          -0.000661550    0.000259490   -0.000170222
     16        1          -0.000610817   -0.000708712   -0.000188099
     17        1           0.000430572   -0.000720684   -0.000413488
     18        1           0.000486314    0.000677395    0.000319600
     19        1          -0.000422804    0.000714908    0.000328583
 -------------------------------------------------------------------
 Cartesian Forces:  Max     0.003011596 RMS     0.000768205
 Leave Link  716 at Tue Oct 21 15:01:24 2025, MaxMem=  4294967296 cpu:               0.2 elap:               0.0
 (Enter /lrz/sys/applications/gaussian/g16.C.01/x86_64_legacy/exe/l103.exe)

 GradGradGradGradGradGradGradGradGradGradGradGradGradGradGradGradGradGrad
 Berny optimization.
 Using GEDIIS/GDIIS optimizer.
 FormGI is forming the generalized inverse of G from B-inverse, IUseBI=4.
 GSVD:  received Info=                   1 from GESDD.
 Internal  Forces:  Max     0.003015906 RMS     0.000568619
 Search for a local minimum.
 Step number   3 out of a maximum of   98
 All quantities printed in internal units (Hartrees-Bohrs-Radians)
 RMS Force = .56862D-03 SwitMx=.10000D-02 MixMth= 2
 Mixed Optimization -- En-DIIS/RFO-DIIS
 Swapping is turned off.
 Update second derivatives using D2CorX and points    1    2    3
 DE= -5.87D-04 DEPred=-3.88D-04 R= 1.51D+00
 TightC=F SS=  1.41D+00  RLast= 2.23D-01 DXNew= 8.4853D-01 6.6977D-01
 Trust test= 1.51D+00 RLast= 2.23D-01 DXMaxT set to 6.70D-01
 ITU=  1  1  0
     Eigenvalues ---    0.00283   0.00571   0.01382   0.01564   0.02141
     Eigenvalues ---    0.02181   0.02227   0.02242   0.02269   0.02285
     Eigenvalues ---    0.02290   0.02303   0.04986   0.05029   0.05090
     Eigenvalues ---    0.06051   0.07056   0.09060   0.15855   0.15993
     Eigenvalues ---    0.16000   0.16000   0.16000   0.16030   0.16665
     Eigenvalues ---    0.18874   0.20747   0.22004   0.22952   0.24456
     Eigenvalues ---    0.25006   0.25323   0.31982   0.32267   0.35905
     Eigenvalues ---    0.35992   0.36134   0.37396   0.38947   0.42678
     Eigenvalues ---    0.43383   0.44103   0.45151   0.45437   0.46630
     Eigenvalues ---    0.46705   0.47823   0.48189   0.51165   0.54824
     Eigenvalues ---    1.44439
 En-DIIS/RFO-DIIS/Sim-DIIS IScMMF=       -3 using points:     3    2
 RFO step:  Lambda=-1.15239980D-03.
 NNeg= 0 NGDIIS= 2 SimSw=  2.50D-03 Rises=F DC= -5.87D-04 SmlDif=  1.00D-05
 NRisDI= 0 DoIntr=F SqrtH=F CThrHd= 10.0 CDAdj=  3.0
 RMS Error=  0.5531169773D-01 NUsed= 2 OKEnD=T EnDIS=F
 InvSVX:  RCond= 6.21D-03 Info=           0 Equed=N FErr=  2.61D-14 BErr=  4.68D-17
 Old DIIS coefficients:      4.11425     -3.11425
 DidBck=F Rises=F RFO-DIIS coefs:    3.00000   -2.00000
 Iteration  1 RMS(Cart)=  0.06435057 RMS(Int)=  0.00941890
 Iteration  2 RMS(Cart)=  0.00945535 RMS(Int)=  0.00030477
 Iteration  3 RMS(Cart)=  0.00019189 RMS(Int)=  0.00023496
 Iteration  4 RMS(Cart)=  0.00000018 RMS(Int)=  0.00023496
 ITry= 1 IFail=0 DXMaxC= 3.69D-01 DCOld= 1.00D+10 DXMaxT= 6.70D-01 DXLimC= 3.00D+00 Rises=F
 Variable       Old X    -DE/DX   Delta X   Delta X   Delta X     New X
                                 (Linear)    (Quad)   (Total)
    R1        2.66878  -0.00032   0.00720  -0.00485   0.00234   2.67112
    R2        1.82372  -0.00005   0.00223  -0.00078   0.00145   1.82516
    R3        2.72978   0.00077  -0.00098   0.00393   0.00296   2.73274
    R4        2.87089   0.00023  -0.01440   0.00957  -0.00483   2.86606
    R5        2.09595   0.00011  -0.00211  -0.00040  -0.00252   2.09343
    R6        1.92800   0.00053   0.00643   0.00153   0.00796   1.93596
    R7        1.92600   0.00028   0.00714  -0.00015   0.00699   1.93298
    R8        2.64766  -0.00086  -0.00134   0.00013  -0.00122   2.64645
    R9        2.63937  -0.00052  -0.00150   0.00085  -0.00066   2.63870
   R10        2.62351  -0.00056  -0.00202   0.00151  -0.00051   2.62300
   R11        2.06463  -0.00094   0.00595  -0.00396   0.00199   2.06662
   R12        2.65551  -0.00082  -0.00340   0.00067  -0.00272   2.65279
   R13        2.06480  -0.00094   0.00232  -0.00254  -0.00022   2.06458
   R14        2.71711  -0.00142   0.01058  -0.00392   0.00667   2.72378
   R15        2.64825  -0.00097  -0.00528   0.00021  -0.00507   2.64318
   R16        2.19444  -0.00302   0.00581  -0.00326   0.00255   2.19699
   R17        2.63193  -0.00063   0.00081   0.00053   0.00134   2.63327
   R18        2.06443  -0.00089   0.00231  -0.00238  -0.00008   2.06435
   R19        2.06735  -0.00089   0.00313  -0.00261   0.00052   2.06787
    A1        1.89055  -0.00012  -0.00020  -0.00532  -0.00552   1.88503
    A2        1.84839  -0.00008   0.00627  -0.00680  -0.00072   1.84766
    A3        1.92728   0.00082  -0.01449   0.01393  -0.00062   1.92667
    A4        1.90905  -0.00057   0.01292  -0.01533  -0.00248   1.90656
    A5        1.94381  -0.00083  -0.01969   0.00912  -0.01059   1.93322
    A6        1.96398   0.00021   0.01636  -0.00860   0.00772   1.97170
    A7        1.87184   0.00047  -0.00111   0.00751   0.00649   1.87833
    A8        1.86749   0.00090  -0.03101   0.01856  -0.01309   1.85441
    A9        1.89851  -0.00034  -0.01979  -0.00308  -0.02347   1.87503
   A10        1.84871  -0.00043  -0.04368   0.00244  -0.04285   1.80586
   A11        2.09634  -0.00046   0.00258  -0.00157   0.00101   2.09736
   A12        2.09931   0.00062  -0.00457   0.00481   0.00025   2.09956
   A13        2.08630  -0.00016   0.00177  -0.00290  -0.00116   2.08514
   A14        2.10437   0.00003   0.00012   0.00063   0.00073   2.10511
   A15        2.08376   0.00011   0.01345  -0.00257   0.01088   2.09464
   A16        2.09503  -0.00014  -0.01353   0.00193  -0.01160   2.08343
   A17        2.08453   0.00001  -0.00527   0.00221  -0.00306   2.08146
   A18        2.10621  -0.00001   0.00006  -0.00038  -0.00032   2.10589
   A19        2.09245  -0.00000   0.00521  -0.00183   0.00338   2.09583
   A20        2.09055  -0.00011  -0.00691   0.00197  -0.00494   2.08561
   A21        2.10254   0.00010   0.00940  -0.00318   0.00622   2.10876
   A22        2.09009   0.00001  -0.00250   0.00122  -0.00128   2.08881
   A23        2.08243  -0.00010  -0.00602   0.00114  -0.00489   2.07754
   A24        2.09521   0.00005   0.00612  -0.00155   0.00457   2.09979
   A25        2.10554   0.00005  -0.00009   0.00041   0.00032   2.10586
   A26        2.10620   0.00012   0.00009   0.00208   0.00215   2.10835
   A27        2.08889  -0.00004   0.00009  -0.00128  -0.00119   2.08770
   A28        2.08810  -0.00008  -0.00016  -0.00081  -0.00097   2.08713
   A29        3.14036   0.00011  -0.00392   0.00666   0.00273   3.14309
   A30        3.14151  -0.00000   0.00148  -0.00061   0.00087   3.14239
    D1        2.92036   0.00073   0.10519   0.08194   0.18709   3.10746
    D2        0.81384   0.00132   0.13318   0.06738   0.20056   1.01440
    D3       -1.24219   0.00061   0.13524   0.05924   0.19452  -1.04768
    D4        0.90073   0.00038   0.19975   0.04661   0.24591   1.14664
    D5        2.89064   0.00016   0.12199   0.05739   0.17988   3.07052
    D6        2.99649   0.00086   0.17504   0.06432   0.23891  -3.04778
    D7       -1.29679   0.00064   0.09727   0.07510   0.17288  -1.12391
    D8       -1.18415   0.00101   0.17113   0.07447   0.24506  -0.93909
    D9        0.80575   0.00080   0.09336   0.08525   0.17903   0.98478
   D10        1.16643  -0.00010  -0.05400  -0.01312  -0.06706   1.09936
   D11       -1.92163  -0.00018  -0.04895  -0.02044  -0.06933  -1.99096
   D12       -0.88208  -0.00001  -0.04004  -0.01917  -0.05927  -0.94135
   D13        2.31305  -0.00008  -0.03499  -0.02649  -0.06153   2.25152
   D14       -3.03800  -0.00005  -0.04723  -0.01928  -0.06652  -3.10452
   D15        0.15713  -0.00013  -0.04218  -0.02660  -0.06878   0.08835
   D16       -3.09071  -0.00012   0.01502  -0.01343   0.00159  -3.08911
   D17        0.05775  -0.00012   0.00939  -0.01109  -0.00174   0.05601
   D18       -0.00225  -0.00002   0.00983  -0.00594   0.00388   0.00163
   D19       -3.13698  -0.00002   0.00419  -0.00360   0.00055  -3.13643
   D20        3.09175   0.00009  -0.02051   0.01622  -0.00431   3.08743
   D21       -0.04992   0.00005  -0.01133   0.00880  -0.00254  -0.05245
   D22        0.00338   0.00002  -0.01552   0.00891  -0.00663  -0.00324
   D23       -3.13828  -0.00001  -0.00634   0.00149  -0.00485   3.14005
   D24        0.00044   0.00001   0.00200  -0.00048   0.00151   0.00196
   D25       -3.14150   0.00002  -0.00433   0.00358  -0.00075   3.14094
   D26        3.13513   0.00001   0.00782  -0.00285   0.00492   3.14004
   D27       -0.00681   0.00002   0.00149   0.00120   0.00266  -0.00416
   D28       -3.13980  -0.00002  -0.00410   0.00000  -0.00410   3.13928
   D29        0.00027   0.00000  -0.00834   0.00406  -0.00430  -0.00403
   D30        0.00214  -0.00004   0.00218  -0.00402  -0.00185   0.00029
   D31       -3.14098  -0.00001  -0.00207   0.00003  -0.00205   3.14016
   D32        0.00084   0.00000   0.00276  -0.00115   0.00161   0.00245
   D33       -3.14090  -0.00002   0.00351  -0.00301   0.00051  -3.14039
   D34        3.14091   0.00003  -0.00148   0.00290   0.00141  -3.14087
   D35       -0.00083   0.00001  -0.00073   0.00104   0.00031  -0.00052
   D36       -0.00267  -0.00001   0.00925  -0.00538   0.00389   0.00121
   D37        3.13899   0.00002   0.00007   0.00204   0.00211   3.14110
   D38        3.13906   0.00000   0.00849  -0.00350   0.00500  -3.13912
   D39       -0.00246   0.00004  -0.00069   0.00391   0.00322   0.00077
         Item               Value     Threshold  Converged?
 Maximum Force            0.003016     0.000450     NO 
 RMS     Force            0.000569     0.000300     NO 
 Maximum Displacement     0.369425     0.001800     NO 
 RMS     Displacement     0.070206     0.001200     NO 
 Predicted change in Energy=-7.856169D-04
 Lowest energy point so far.  Saving SCF results.
 GradGradGradGradGradGradGradGradGradGradGradGradGradGradGradGradGradGrad

 Leave Link  103 at Tue Oct 21 15:01:24 2025, MaxMem=  4294967296 cpu:               0.2 elap:               0.1
 (Enter /lrz/sys/applications/gaussian/g16.C.01/x86_64_legacy/exe/l202.exe)
                          Input orientation:                          
 ---------------------------------------------------------------------
 Center     Atomic      Atomic             Coordinates (Angstroms)
 Number     Number       Type             X           Y           Z
 ---------------------------------------------------------------------
      1          8           0        2.983925   -0.259339    1.165819
      2          6           0        2.484477   -0.197163   -0.155038
      3          7           0        3.056851    0.995900   -0.738310
      4          6           0        0.969984   -0.116987   -0.144071
      5          6           0        0.327577    0.981975    0.439730
      6          6           0       -1.057627    1.035501    0.510329
      7          6           0       -1.812703   -0.027886   -0.009003
      8          6           0       -3.251375    0.021056    0.064178
      9          7           0       -4.411728    0.062418    0.123337
     10          6           0       -1.186297   -1.131413   -0.597420
     11          6           0        0.205346   -1.165168   -0.660226
     12          1           0        2.594950   -1.031656    1.596010
     13          1           0        2.767444   -1.121466   -0.696156
     14          1           0        4.066421    0.831320   -0.794984
     15          1           0        2.765336    1.028085   -1.718253
     16          1           0        0.917584    1.810054    0.842423
     17          1           0       -1.559530    1.892200    0.966154
     18          1           0       -1.782152   -1.953797   -0.999908
     19          1           0        0.704783   -2.024371   -1.118225
 ---------------------------------------------------------------------
                    Distance matrix (angstroms):
                    1          2          3          4          5
     1  O    0.000000
     2  C    1.413498   0.000000
     3  N    2.281808   1.446104   0.000000
     4  C    2.406664   1.516654   2.438575   0.000000
     5  C    3.020637   2.529097   2.972693   1.400439   0.000000
     6  C    4.294231   3.809025   4.299952   2.422328   1.388034
     7  C    4.943826   4.302992   5.029172   2.787387   2.408730
     8  C    6.338075   5.744186   6.433352   4.228746   3.724688
     9  N    7.475693   6.906701   7.575849   5.391338   4.838048
    10  C    4.610887   3.813543   4.748643   2.425723   2.798912
    11  C    3.446080   2.527190   3.578741   1.396342   2.415589
    12  H    0.965836   1.942872   3.126241   2.550493   3.245408
    13  H    2.063269   1.107798   2.137469   2.131815   3.415794
    14  H    2.491201   1.992449   1.024466   3.303164   3.940326
    15  H    3.165930   2.005930   1.022891   2.648118   3.256023
    16  H    2.942233   2.734776   2.781730   2.165503   1.093610
    17  H    5.031100   4.687910   5.001951   3.415827   2.160279
    18  H    5.502459   4.690810   5.673191   3.417686   3.891307
    19  H    3.677864   2.726487   3.846894   2.158106   3.406997
                    6          7          8          9         10
     6  C    0.000000
     7  C    1.403794   0.000000
     8  C    2.457780   1.441363   0.000000
     9  N    3.513780   2.603959   1.162596   0.000000
    10  C    2.437044   1.398711   2.455697   3.513991   0.000000
    11  C    2.794324   2.406247   3.725696   4.841313   1.393469
    12  H    4.335108   4.796981   6.134674   7.242880   4.372519
    13  H    4.554040   4.758764   6.173301   7.322135   3.954986
    14  H    5.291634   5.993337   7.412477   8.562332   5.610917
    15  H    4.425119   4.999505   6.355469   7.472230   4.640593
    16  H    2.147481   3.399619   4.602868   5.654457   3.892517
    17  H    1.092528   2.168354   2.679008   3.491917   3.424370
    18  H    3.426610   2.166093   2.681593   3.498781   1.092408
    19  H    3.888585   3.399127   4.607932   5.663466   2.155179
                   11         12         13         14         15
    11  C    0.000000
    12  H    3.289169   0.000000
    13  H    2.562722   2.300401   0.000000
    14  H    4.348795   3.369385   2.347442   0.000000
    15  H    3.533175   3.905881   2.380180   1.607471   0.000000
    16  H    3.408399   3.384784   3.792494   3.681602   3.253110
    17  H    3.886824   5.119117   5.528848   5.989857   5.163062
    18  H    2.165056   5.171862   4.635069   6.481101   5.485188
    19  H    1.094271   3.453301   2.290840   4.422676   3.731407
                   16         17         18         19
    16  H    0.000000
    17  H    2.481562   0.000000
    18  H    4.984910   4.325119   0.000000
    19  H    4.311872   4.981092   2.490748   0.000000
 Stoichiometry    C8H8N2O
 Framework group  C1[X(C8H8N2O)]
 Deg. of freedom    51
 Full point group                 C1      NOp   1
 RotChk:  IX=0 Diff= 7.12D-02
 Largest Abelian subgroup         C1      NOp   1
 Largest concise Abelian subgroup C1      NOp   1
                         Standard orientation:                         
 ---------------------------------------------------------------------
 Center     Atomic      Atomic             Coordinates (Angstroms)
 Number     Number       Type             X           Y           Z
 ---------------------------------------------------------------------
      1          8           0       -2.910289   -0.135221    1.217601
      2          6           0       -2.413489    0.323627   -0.023618
      3          7           0       -3.022755   -0.518570   -1.028962
      4          6           0       -0.902202    0.203072   -0.065044
      5          6           0       -0.293930   -1.055439    0.020891
      6          6           0        1.088977   -1.171866    0.046424
      7          6           0        1.876439   -0.011236   -0.012554
      8          6           0        3.312931   -0.126012    0.016500
      9          7           0        4.471468   -0.220366    0.039300
     10          6           0        1.284300    1.252854   -0.101091
     11          6           0       -0.105653    1.348236   -0.127331
     12          1           0       -2.497422    0.388339    1.916360
     13          1           0       -2.667888    1.394956   -0.145073
     14          1           0       -4.026764   -0.316653   -1.002005
     15          1           0       -2.732735   -0.163154   -1.943223
     16          1           0       -0.909156   -1.958495    0.065267
     17          1           0        1.564269   -2.153263    0.114062
     18          1           0        1.905195    2.150450   -0.147638
     19          1           0       -0.578404    2.332727   -0.195987
 ---------------------------------------------------------------------
 Rotational constants (GHZ):           3.4703684           0.5470879           0.5187145
 Leave Link  202 at Tue Oct 21 15:01:24 2025, MaxMem=  4294967296 cpu:               0.1 elap:               0.0
 (Enter /lrz/sys/applications/gaussian/g16.C.01/x86_64_legacy/exe/l301.exe)
 Standard basis: def2SVP (5D, 7F)
 Ernie: Thresh=  0.10000D-02 Tol=  0.10000D-05 Strict=F.
 There are   205 symmetry adapted cartesian basis functions of A   symmetry.
 There are   194 symmetry adapted basis functions of A   symmetry.
   194 basis functions,   331 primitive gaussians,   205 cartesian basis functions
    39 alpha electrons       39 beta electrons
       nuclear repulsion energy       545.0239020717 Hartrees.
 IExCor= 4639 DFT=T Ex+Corr=wB97XD ExCW=0 ScaHFX=  1.000000
 ScaDFX=  1.000000  1.000000  1.000000  1.000000 ScalE2=  1.000000  1.000000
 IRadAn=      5 IRanWt=     -1 IRanGd=            0 ICorTp=0 IEmpDi=121
 HFx  wShort=  0.000000 wLong=  0.200000 cFull=  0.222036 cShort=  0.000000 cLong=  0.777964
 DFx  wShort=  0.000000 wLong=  0.200000 cFull=  0.000000 cShort=  0.000000 cLong=  1.000000
 NAtoms=   19 NActive=   19 NUniq=   19 SFac= 1.00D+00 NAtFMM=   60 NAOKFM=F Big=F
 Integral buffers will be    131072 words long.
 Raffenetti 2 integral format.
 Two-electron integral symmetry is turned on.
 R6Disp:  Grimme-D2 Dispersion energy=       -0.0102363572 Hartrees.
 Nuclear repulsion after empirical dispersion term =      545.0136657145 Hartrees.
 ------------------------------------------------------------------------------
 Polarizable Continuum Model (PCM)
 =================================
 Model                : PCM.
 Atomic radii         : SMD-Coulomb.
 Polarization charges : Total charges.
 Charge compensation  : None.
 Solution method      : On-the-fly selection.
 Cavity type          : VdW (van der Waals Surface) (Alpha=1.000).
 Cavity algorithm     : GePol (No added spheres)
                        Default sphere list used, NSphG=   19.
                        Lebedev-Laikov grids with approx.  5.0 points / Ang**2.
                        Smoothing algorithm: York/Karplus (Gamma=1.0000).
                        Polarization charges: spherical gaussians, with
                                              point-specific exponents (IZeta= 3).
                        Self-potential: point-specific (ISelfS= 7).
                        Self-field    : sphere-specific E.n sum rule (ISelfD= 2).
 1st derivatives      : Analytical E(r).r(x)/FMM algorithm (CHGder, D1EAlg=3).
                        Cavity 1st derivative terms included.
 Solvent              : Water, Eps=  78.355300 Eps(inf)=   1.777849
 ------------------------------------------------------------------------------
 Spheres list:
 ISph  on   Nord     Re0    Alpha      Xe            Ye            Ze
    1   O      1    1.5200  1.000     -2.910289     -0.135221      1.217601
    2   C      2    1.8500  1.000     -2.413489      0.323627     -0.023618
    3   N      3    1.8900  1.000     -3.022755     -0.518570     -1.028962
    4   C      4    1.8500  1.000     -0.902202      0.203072     -0.065044
    5   C      5    1.8500  1.000     -0.293930     -1.055439      0.020891
    6   C      6    1.8500  1.000      1.088977     -1.171866      0.046424
    7   C      7    1.8500  1.000      1.876439     -0.011236     -0.012554
    8   C      8    1.8500  1.000      3.312931     -0.126012      0.016500
    9   N      9    1.8900  1.000      4.471468     -0.220366      0.039300
   10   C     10    1.8500  1.000      1.284300      1.252854     -0.101091
   11   C     11    1.8500  1.000     -0.105653      1.348236     -0.127331
   12   H     12    1.2000  1.000     -2.497422      0.388339      1.916360
   13   H     13    1.2000  1.000     -2.667888      1.394956     -0.145073
   14   H     14    1.2000  1.000     -4.026764     -0.316653     -1.002005
   15   H     15    1.2000  1.000     -2.732735     -0.163154     -1.943223
   16   H     16    1.2000  1.000     -0.909156     -1.958495      0.065267
   17   H     17    1.2000  1.000      1.564269     -2.153263      0.114062
   18   H     18    1.2000  1.000      1.905195      2.150450     -0.147638
   19   H     19    1.2000  1.000     -0.578404      2.332727     -0.195987
 ------------------------------------------------------------------------------
 GePol: Number of generator spheres                  =      19
 GePol: Total number of spheres                      =      19
 GePol: Number of exposed spheres                    =      19 (100.00%)
 GePol: Number of points                             =    1622
 GePol: Average weight of points                     =       0.12
 GePol: Minimum weight of points                     =   0.25D-09
 GePol: Maximum weight of points                     =    0.21991
 GePol: Number of points with low weight             =      85
 GePol: Fraction of low-weight points (<1% of avg)   =       5.24%
 GePol: Cavity surface area                          =    187.429 Ang**2
 GePol: Cavity volume                                =    161.691 Ang**3
 ------------------------------------------------------------------------------
 Atomic radii for non-electrostatic terms: SMD-CDS.
 ------------------------------------------------------------------------------
 PCM non-electrostatic energy =         0.0073648706 Hartrees.
 Nuclear repulsion after PCM non-electrostatic terms =      545.0210305851 Hartrees.
 Leave Link  301 at Tue Oct 21 15:01:24 2025, MaxMem=  4294967296 cpu:               0.5 elap:               0.1
 (Enter /lrz/sys/applications/gaussian/g16.C.01/x86_64_legacy/exe/l302.exe)
 NPDir=0 NMtPBC=     1 NCelOv=     1 NCel=       1 NClECP=     1 NCelD=      1
         NCelK=      1 NCelE2=     1 NClLst=     1 CellRange=     0.0.
 One-electron integrals computed using PRISM.
 One-electron integral symmetry used in STVInt
   1 Symmetry operations used in ECPInt.
 ECPInt:  NShTT=    4095 NPrTT=   15045 LenC2=    3948 LenP2D=   11135.
 LDataN:  DoStor=T MaxTD1= 4 Len=   56
 NBasis=   194 RedAO= T EigKep=  2.78D-04  NBF=   194
 NBsUse=   194 1.00D-06 EigRej= -1.00D+00 NBFU=   194
 Precomputing XC quadrature grid using
 IXCGrd= 4 IRadAn=           5 IRanWt=          -1 IRanGd=           0 AccXCQ= 0.00D+00.
 Generated NRdTot=       0 NPtTot=           0 NUsed=           0 NTot=          32
 NSgBfM=   204   204   204   204   204 MxSgAt=    19 MxSgA2=    19.
 Leave Link  302 at Tue Oct 21 15:01:24 2025, MaxMem=  4294967296 cpu:               1.9 elap:               0.3
 (Enter /lrz/sys/applications/gaussian/g16.C.01/x86_64_legacy/exe/l303.exe)
 DipDrv:  MaxL=1.
 Leave Link  303 at Tue Oct 21 15:01:24 2025, MaxMem=  4294967296 cpu:               0.2 elap:               0.0
 (Enter /lrz/sys/applications/gaussian/g16.C.01/x86_64_legacy/exe/l401.exe)
 Initial guess from the checkpoint file:  "g16_C12-a_10.chk"
 B after Tr=     0.000000   -0.000000    0.000000
         Rot=    0.999632   -0.027085    0.001250   -0.000485 Ang=  -3.11 deg.
 Guess basis will be translated and rotated to current coordinates.
 JPrj=2 DoOrth=T DoCkMO=T.
 Generating alternative initial guess.
 ExpMin= 1.22D-01 ExpMax= 2.27D+03 ExpMxC= 3.41D+02 IAcc=3 IRadAn=         5 AccDes= 0.00D+00
 Harris functional with IExCor= 4639 and IRadAn=       5 diagonalized for initial guess.
 HarFok:  IExCor= 4639 AccDes= 0.00D+00 IRadAn=         5 IDoV= 1 UseB2=F ITyADJ=14
 ICtDFT=  3500011 ScaDFX=  1.000000  1.000000  1.000000  1.000000
 FoFCou: FMM=F IPFlag=           0 FMFlag=      100000 FMFlg1=           0
         NFxFlg=           0 DoJE=T BraDBF=F KetDBF=T FulRan=T
         wScrn=  0.000000 ICntrl=       500 IOpCl=  0 I1Cent=   200000004 NGrid=           0
         NMat0=    1 NMatS0=      1 NMatT0=    0 NMatD0=    1 NMtDS0=    0 NMtDT0=    0
 Petite list used in FoFCou.
 Harris En= -472.807727529091    
 Leave Link  401 at Tue Oct 21 15:01:26 2025, MaxMem=  4294967296 cpu:              12.6 elap:               1.6
 (Enter /lrz/sys/applications/gaussian/g16.C.01/x86_64_legacy/exe/l502.exe)
 Integral symmetry usage will be decided dynamically.
 Closed shell SCF:
 Using DIIS extrapolation, IDIIS=  1040.
 NGot=  4294967296 LenX=  4294878900 LenY=  4294836434
 Requested convergence on RMS density matrix=1.00D-08 within 128 cycles.
 Requested convergence on MAX density matrix=1.00D-06.
 Requested convergence on             energy=1.00D-06.
 No special actions if energy rises.
 Fock matrices will be formed incrementally for  20 cycles.

 Cycle   1  Pass 1  IDiag  1:
 FoFJK:  IHMeth= 1 ICntrl=       0 DoSepK=T KAlg= 0 I1Cent=           0 FoldK=F
 IRaf=         1 NMat=       1 IRICut=       1 DoRegI=T DoRafI=F ISym2E= 0 IDoP0=0 IntGTp=1.
 FoFCou: FMM=F IPFlag=           0 FMFlag=      100000 FMFlg1=           0
         NFxFlg=           0 DoJE=T BraDBF=F KetDBF=F FulRan=T
         wScrn=  0.000000 ICntrl=       500 IOpCl=  0 I1Cent=           0 NGrid=           0
         NMat0=    1 NMatS0=      1 NMatT0=    0 NMatD0=    1 NMtDS0=    0 NMtDT0=    0
 Symmetry not used in FoFCou.
 Inv3:  Mode=1 IEnd=     7892652.
 Iteration    1 A*A^-1 deviation from unit magnitude is 6.77D-15 for    393.
 Iteration    1 A*A^-1 deviation from orthogonality  is 3.07D-15 for    709    220.
 Iteration    1 A^-1*A deviation from unit magnitude is 6.11D-15 for    393.
 Iteration    1 A^-1*A deviation from orthogonality  is 2.71D-15 for   1550   1516.
 E= -493.849518746280    
 DIIS: error= 6.23D-03 at cycle   1 NSaved=   1.
 NSaved= 1 IEnMin= 1 EnMin= -493.849518746280     IErMin= 1 ErrMin= 6.23D-03
 ErrMax= 6.23D-03  0.00D+00 EMaxC= 1.00D-01 BMatC= 8.97D-03 BMatP= 8.97D-03
 IDIUse=3 WtCom= 9.38D-01 WtEn= 6.23D-02
 Coeff-Com:  0.100D+01
 Coeff-En:   0.100D+01
 Coeff:      0.100D+01
 Gap=     0.788 Goal=   None    Shift=    0.000
 GapD=    0.788 DampG=2.000 DampE=1.000 DampFc=2.0000 IDamp=-1.
 RMSDP=8.17D-04 MaxDP=3.18D-02              OVMax= 2.93D-02

 Cycle   2  Pass 1  IDiag  1:
 RMSU=  8.17D-04    CP:  9.99D-01
 E= -493.861998758056     Delta-E=       -0.012480011776 Rises=F Damp=F
 DIIS: error= 1.58D-03 at cycle   2 NSaved=   2.
 NSaved= 2 IEnMin= 2 EnMin= -493.861998758056     IErMin= 2 ErrMin= 1.58D-03
 ErrMax= 1.58D-03  0.00D+00 EMaxC= 1.00D-01 BMatC= 3.18D-04 BMatP= 8.97D-03
 IDIUse=3 WtCom= 9.84D-01 WtEn= 1.58D-02
 Coeff-Com: -0.158D+00 0.116D+01
 Coeff-En:   0.000D+00 0.100D+01
 Coeff:     -0.156D+00 0.116D+01
 Gap=     0.347 Goal=   None    Shift=    0.000
 RMSDP=2.14D-04 MaxDP=7.18D-03 DE=-1.25D-02 OVMax= 9.61D-03

 Cycle   3  Pass 1  IDiag  1:
 RMSU=  1.45D-04    CP:  9.99D-01  1.19D+00
 E= -493.862689251500     Delta-E=       -0.000690493444 Rises=F Damp=F
 DIIS: error= 4.34D-04 at cycle   3 NSaved=   3.
 NSaved= 3 IEnMin= 3 EnMin= -493.862689251500     IErMin= 3 ErrMin= 4.34D-04
 ErrMax= 4.34D-04  0.00D+00 EMaxC= 1.00D-01 BMatC= 3.74D-05 BMatP= 3.18D-04
 IDIUse=3 WtCom= 9.96D-01 WtEn= 4.34D-03
 Coeff-Com: -0.507D-01 0.278D+00 0.773D+00
 Coeff-En:   0.000D+00 0.000D+00 0.100D+01
 Coeff:     -0.505D-01 0.276D+00 0.774D+00
 Gap=     0.345 Goal=   None    Shift=    0.000
 RMSDP=5.07D-05 MaxDP=1.85D-03 DE=-6.90D-04 OVMax= 2.61D-03

 Cycle   4  Pass 1  IDiag  1:
 RMSU=  4.56D-05    CP:  9.99D-01  1.21D+00  1.09D+00
 E= -493.862731117019     Delta-E=       -0.000041865520 Rises=F Damp=F
 DIIS: error= 1.77D-04 at cycle   4 NSaved=   4.
 NSaved= 4 IEnMin= 4 EnMin= -493.862731117019     IErMin= 4 ErrMin= 1.77D-04
 ErrMax= 1.77D-04  0.00D+00 EMaxC= 1.00D-01 BMatC= 9.14D-06 BMatP= 3.74D-05
 IDIUse=3 WtCom= 9.98D-01 WtEn= 1.77D-03
 Coeff-Com:  0.113D-01-0.115D+00 0.285D+00 0.818D+00
 Coeff-En:   0.000D+00 0.000D+00 0.000D+00 0.100D+01
 Coeff:      0.113D-01-0.114D+00 0.285D+00 0.818D+00
 Gap=     0.345 Goal=   None    Shift=    0.000
 RMSDP=2.70D-05 MaxDP=7.73D-04 DE=-4.19D-05 OVMax= 1.30D-03

 Cycle   5  Pass 1  IDiag  1:
 RMSU=  1.14D-05    CP:  9.99D-01  1.22D+00  1.25D+00  9.75D-01
 E= -493.862742657311     Delta-E=       -0.000011540292 Rises=F Damp=F
 DIIS: error= 3.10D-05 at cycle   5 NSaved=   5.
 NSaved= 5 IEnMin= 5 EnMin= -493.862742657311     IErMin= 5 ErrMin= 3.10D-05
 ErrMax= 3.10D-05  0.00D+00 EMaxC= 1.00D-01 BMatC= 2.98D-07 BMatP= 9.14D-06
 IDIUse=1 WtCom= 1.00D+00 WtEn= 0.00D+00
 Coeff-Com:  0.493D-02-0.409D-01 0.210D-01 0.172D+00 0.843D+00
 Coeff:      0.493D-02-0.409D-01 0.210D-01 0.172D+00 0.843D+00
 Gap=     0.345 Goal=   None    Shift=    0.000
 RMSDP=7.02D-06 MaxDP=2.20D-04 DE=-1.15D-05 OVMax= 3.77D-04

 Cycle   6  Pass 1  IDiag  1:
 RMSU=  4.11D-06    CP:  9.99D-01  1.23D+00  1.27D+00  1.04D+00  1.18D+00
 E= -493.862743140095     Delta-E=       -0.000000482783 Rises=F Damp=F
 DIIS: error= 2.79D-05 at cycle   6 NSaved=   6.
 NSaved= 6 IEnMin= 6 EnMin= -493.862743140095     IErMin= 6 ErrMin= 2.79D-05
 ErrMax= 2.79D-05  0.00D+00 EMaxC= 1.00D-01 BMatC= 1.24D-07 BMatP= 2.98D-07
 IDIUse=1 WtCom= 1.00D+00 WtEn= 0.00D+00
 Coeff-Com:  0.111D-02-0.650D-02-0.251D-01-0.174D-01 0.423D+00 0.625D+00
 Coeff:      0.111D-02-0.650D-02-0.251D-01-0.174D-01 0.423D+00 0.625D+00
 Gap=     0.345 Goal=   None    Shift=    0.000
 RMSDP=2.61D-06 MaxDP=7.72D-05 DE=-4.83D-07 OVMax= 1.39D-04

 Cycle   7  Pass 1  IDiag  1:
 RMSU=  1.52D-06    CP:  9.99D-01  1.23D+00  1.28D+00  1.06D+00  1.32D+00
                    CP:  9.22D-01
 E= -493.862743276881     Delta-E=       -0.000000136786 Rises=F Damp=F
 DIIS: error= 8.22D-06 at cycle   7 NSaved=   7.
 NSaved= 7 IEnMin= 7 EnMin= -493.862743276881     IErMin= 7 ErrMin= 8.22D-06
 ErrMax= 8.22D-06  0.00D+00 EMaxC= 1.00D-01 BMatC= 1.28D-08 BMatP= 1.24D-07
 IDIUse=1 WtCom= 1.00D+00 WtEn= 0.00D+00
 Coeff-Com: -0.414D-03 0.478D-02-0.129D-01-0.375D-01 0.939D-02 0.249D+00
 Coeff-Com:  0.787D+00
 Coeff:     -0.414D-03 0.478D-02-0.129D-01-0.375D-01 0.939D-02 0.249D+00
 Coeff:      0.787D+00
 Gap=     0.345 Goal=   None    Shift=    0.000
 RMSDP=1.13D-06 MaxDP=3.60D-05 DE=-1.37D-07 OVMax= 6.52D-05

 Cycle   8  Pass 1  IDiag  1:
 RMSU=  5.56D-07    CP:  9.99D-01  1.23D+00  1.28D+00  1.07D+00  1.38D+00
                    CP:  1.05D+00  1.02D+00
 E= -493.862743294021     Delta-E=       -0.000000017140 Rises=F Damp=F
 DIIS: error= 1.74D-06 at cycle   8 NSaved=   8.
 NSaved= 8 IEnMin= 8 EnMin= -493.862743294021     IErMin= 8 ErrMin= 1.74D-06
 ErrMax= 1.74D-06  0.00D+00 EMaxC= 1.00D-01 BMatC= 1.41D-09 BMatP= 1.28D-08
 IDIUse=1 WtCom= 1.00D+00 WtEn= 0.00D+00
 Coeff-Com: -0.285D-03 0.268D-02-0.251D-02-0.136D-01-0.399D-01 0.378D-01
 Coeff-Com:  0.324D+00 0.692D+00
 Coeff:     -0.285D-03 0.268D-02-0.251D-02-0.136D-01-0.399D-01 0.378D-01
 Coeff:      0.324D+00 0.692D+00
 Gap=     0.345 Goal=   None    Shift=    0.000
 RMSDP=3.32D-07 MaxDP=8.98D-06 DE=-1.71D-08 OVMax= 1.87D-05

 Cycle   9  Pass 1  IDiag  1:
 RMSU=  1.82D-07    CP:  9.99D-01  1.23D+00  1.28D+00  1.07D+00  1.39D+00
                    CP:  1.10D+00  1.13D+00  9.74D-01
 E= -493.862743295760     Delta-E=       -0.000000001740 Rises=F Damp=F
 DIIS: error= 4.21D-07 at cycle   9 NSaved=   9.
 NSaved= 9 IEnMin= 9 EnMin= -493.862743295760     IErMin= 9 ErrMin= 4.21D-07
 ErrMax= 4.21D-07  0.00D+00 EMaxC= 1.00D-01 BMatC= 7.03D-11 BMatP= 1.41D-09
 IDIUse=1 WtCom= 1.00D+00 WtEn= 0.00D+00
 Coeff-Com: -0.290D-04 0.198D-03 0.497D-03-0.898D-04-0.889D-02-0.123D-01
 Coeff-Com:  0.425D-02 0.154D+00 0.863D+00
 Coeff:     -0.290D-04 0.198D-03 0.497D-03-0.898D-04-0.889D-02-0.123D-01
 Coeff:      0.425D-02 0.154D+00 0.863D+00
 Gap=     0.345 Goal=   None    Shift=    0.000
 RMSDP=1.17D-07 MaxDP=3.56D-06 DE=-1.74D-09 OVMax= 8.09D-06

 Cycle  10  Pass 1  IDiag  1:
 RMSU=  5.97D-08    CP:  9.99D-01  1.23D+00  1.28D+00  1.07D+00  1.39D+00
                    CP:  1.10D+00  1.16D+00  1.08D+00  1.13D+00
 E= -493.862743295892     Delta-E=       -0.000000000132 Rises=F Damp=F
 DIIS: error= 1.80D-07 at cycle  10 NSaved=  10.
 NSaved=10 IEnMin=10 EnMin= -493.862743295892     IErMin=10 ErrMin= 1.80D-07
 ErrMax= 1.80D-07  0.00D+00 EMaxC= 1.00D-01 BMatC= 1.74D-11 BMatP= 7.03D-11
 IDIUse=1 WtCom= 1.00D+00 WtEn= 0.00D+00
 Coeff-Com:  0.258D-04-0.282D-03 0.516D-03 0.175D-02 0.212D-02-0.105D-01
 Coeff-Com: -0.456D-01-0.356D-01 0.354D+00 0.733D+00
 Coeff:      0.258D-04-0.282D-03 0.516D-03 0.175D-02 0.212D-02-0.105D-01
 Coeff:     -0.456D-01-0.356D-01 0.354D+00 0.733D+00
 Gap=     0.345 Goal=   None    Shift=    0.000
 RMSDP=4.51D-08 MaxDP=1.18D-06 DE=-1.32D-10 OVMax= 3.04D-06

 Cycle  11  Pass 1  IDiag  1:
 RMSU=  1.90D-08    CP:  9.99D-01  1.23D+00  1.28D+00  1.07D+00  1.39D+00
                    CP:  1.11D+00  1.17D+00  1.12D+00  1.26D+00  9.86D-01
 E= -493.862743295906     Delta-E=       -0.000000000014 Rises=F Damp=F
 DIIS: error= 4.54D-08 at cycle  11 NSaved=  11.
 NSaved=11 IEnMin=11 EnMin= -493.862743295906     IErMin=11 ErrMin= 4.54D-08
 ErrMax= 4.54D-08  0.00D+00 EMaxC= 1.00D-01 BMatC= 6.26D-13 BMatP= 1.74D-11
 IDIUse=1 WtCom= 1.00D+00 WtEn= 0.00D+00
 Coeff-Com:  0.579D-05-0.528D-04 0.193D-04 0.217D-03 0.126D-02-0.189D-03
 Coeff-Com: -0.697D-02-0.182D-01-0.227D-01 0.948D-01 0.952D+00
 Coeff:      0.579D-05-0.528D-04 0.193D-04 0.217D-03 0.126D-02-0.189D-03
 Coeff:     -0.697D-02-0.182D-01-0.227D-01 0.948D-01 0.952D+00
 Gap=     0.345 Goal=   None    Shift=    0.000
 RMSDP=1.42D-08 MaxDP=3.37D-07 DE=-1.39D-11 OVMax= 1.10D-06

 Cycle  12  Pass 1  IDiag  1:
 RMSU=  6.82D-09    CP:  9.99D-01  1.23D+00  1.28D+00  1.07D+00  1.39D+00
                    CP:  1.11D+00  1.17D+00  1.13D+00  1.30D+00  1.11D+00
                    CP:  1.21D+00
 E= -493.862743295916     Delta-E=       -0.000000000009 Rises=F Damp=F
 DIIS: error= 1.79D-08 at cycle  12 NSaved=  12.
 NSaved=12 IEnMin=12 EnMin= -493.862743295916     IErMin=12 ErrMin= 1.79D-08
 ErrMax= 1.79D-08  0.00D+00 EMaxC= 1.00D-01 BMatC= 8.80D-14 BMatP= 6.26D-13
 IDIUse=1 WtCom= 1.00D+00 WtEn= 0.00D+00
 Coeff-Com: -0.177D-05 0.218D-04-0.585D-04-0.162D-03 0.981D-04 0.118D-02
 Coeff-Com:  0.361D-02-0.271D-03-0.456D-01-0.658D-01 0.216D+00 0.891D+00
 Coeff:     -0.177D-05 0.218D-04-0.585D-04-0.162D-03 0.981D-04 0.118D-02
 Coeff:      0.361D-02-0.271D-03-0.456D-01-0.658D-01 0.216D+00 0.891D+00
 Gap=     0.345 Goal=   None    Shift=    0.000
 RMSDP=5.03D-09 MaxDP=1.17D-07 DE=-9.32D-12 OVMax= 3.70D-07

 Error on total polarization charges =  0.02922
 SCF Done:  E(RwB97XD) =  -493.862743296     A.U. after   12 cycles
            NFock= 12  Conv=0.50D-08     -V/T= 2.0102
 KE= 4.888914222932D+02 PE=-2.238030950467D+03 EE= 7.102557542923D+02
 SMD-CDS (non-electrostatic) energy       (kcal/mol) =       4.62
 (included in total energy above)
 Leave Link  502 at Tue Oct 21 15:02:11 2025, MaxMem=  4294967296 cpu:             362.3 elap:              45.7
 (Enter /lrz/sys/applications/gaussian/g16.C.01/x86_64_legacy/exe/l701.exe)
 ... and contract with generalized density number  0.
 Compute integral first derivatives.
 R6Disp: Adding Grimme-D2 dispersion energy 1st derivatives to the gradient.
   1 Symmetry operations used in ECPInt.
 ECPInt:  NShTT=    4095 NPrTT=   15045 LenC2=    3948 LenP2D=   11135.
 LDataN:  DoStor=T MaxTD1= 5 Len=  102
 D1PCM: PCM CHGder 1st derivatives, ID1Alg=3 FixD1E=F DoIter=F DoCFld=F I1PDM=0.
 GePol: Maximum number of non-zero 1st derivatives   =     258
 Leave Link  701 at Tue Oct 21 15:02:12 2025, MaxMem=  4294967296 cpu:               8.9 elap:               1.1
 (Enter /lrz/sys/applications/gaussian/g16.C.01/x86_64_legacy/exe/l702.exe)
 L702 exits ... SP integral derivatives will be done elsewhere.
 Leave Link  702 at Tue Oct 21 15:02:13 2025, MaxMem=  4294967296 cpu:               0.2 elap:               0.0
 (Enter /lrz/sys/applications/gaussian/g16.C.01/x86_64_legacy/exe/l703.exe)
 Integral derivatives from FoFJK, PRISM(SPDF).
 Compute integral first derivatives, UseDBF=F ICtDFT=           0.
 Calling FoFJK, ICntrl=      2127 FMM=F ISym2X=0 I1Cent= 0 IOpClX= 0 NMat=1 NMatS=1 NMatT=0.
 FoFJK:  IHMeth= 1 ICntrl=    2127 DoSepK=T KAlg= 0 I1Cent=           0 FoldK=F
 IRaf=         1 NMat=       1 IRICut=       1 DoRegI=T DoRafI=F ISym2E= 0 IDoP0=0 IntGTp=1.
 FoFCou: FMM=F IPFlag=           0 FMFlag=      100000 FMFlg1=         800
         NFxFlg=           0 DoJE=F BraDBF=F KetDBF=F FulRan=T
         wScrn=  0.000000 ICntrl=      2527 IOpCl=  0 I1Cent=           0 NGrid=           0
         NMat0=    1 NMatS0=      1 NMatT0=    0 NMatD0=    1 NMtDS0=    0 NMtDT0=    0
 Symmetry not used in FoFCou.
 Leave Link  703 at Tue Oct 21 15:02:21 2025, MaxMem=  4294967296 cpu:              66.5 elap:               8.3
 (Enter /lrz/sys/applications/gaussian/g16.C.01/x86_64_legacy/exe/l716.exe)
 Dipole        =-2.08645996D+00 1.45604959D+00-2.86526838D-01
 ***** Axes restored to original set *****
 -------------------------------------------------------------------
 Center     Atomic                   Forces (Hartrees/Bohr)
 Number     Number              X              Y              Z
 -------------------------------------------------------------------
      1        8          -0.000843472    0.000059892   -0.000226345
      2        6          -0.001287831    0.001727765    0.002909869
      3        7           0.004674002   -0.004580684   -0.005113640
      4        6          -0.001377567   -0.000913448   -0.000672087
      5        6           0.000310459    0.002110375    0.001115075
      6        6           0.000686566    0.000000574   -0.000070612
      7        6          -0.006060911    0.000869626    0.000538060
      8        6          -0.002819601    0.000122778    0.000123183
      9        7           0.006234306   -0.000255828   -0.000311573
     10        6           0.001969158   -0.000700069   -0.000806106
     11        6          -0.000502335   -0.000889502   -0.000452691
     12        1           0.001152520   -0.000144609   -0.000569199
     13        1           0.000746659   -0.000243901    0.000251363
     14        1          -0.001305151    0.002105304    0.001385265
     15        1          -0.001735157    0.001731576    0.001957540
     16        1           0.000014844   -0.001764601   -0.000587329
     17        1           0.000284087   -0.000816997   -0.000475054
     18        1           0.000362663    0.000835656    0.000377496
     19        1          -0.000503238    0.000746094    0.000626784
 -------------------------------------------------------------------
 Cartesian Forces:  Max     0.006234306 RMS     0.001920445
 Leave Link  716 at Tue Oct 21 15:02:21 2025, MaxMem=  4294967296 cpu:               0.2 elap:               0.0
 (Enter /lrz/sys/applications/gaussian/g16.C.01/x86_64_legacy/exe/l103.exe)

 GradGradGradGradGradGradGradGradGradGradGradGradGradGradGradGradGradGrad
 Berny optimization.
 Using GEDIIS/GDIIS optimizer.
 FormGI is forming the generalized inverse of G from B-inverse, IUseBI=4.
 Internal  Forces:  Max     0.006247332 RMS     0.001064861
 Search for a local minimum.
 Step number   4 out of a maximum of   98
 All quantities printed in internal units (Hartrees-Bohrs-Radians)
 RMS Force = .10649D-02 SwitMx=.10000D-02 MixMth= 1
 Mixed Optimization -- RFO/linear search
 Update second derivatives using D2CorX and points    3    4
 DE= -9.00D-04 DEPred=-7.86D-04 R= 1.15D+00
 TightC=F SS=  1.41D+00  RLast= 6.44D-01 DXNew= 1.1264D+00 1.9313D+00
 Trust test= 1.15D+00 RLast= 6.44D-01 DXMaxT set to 1.13D+00
 ITU=  1  1  1  0
 Use linear search instead of GDIIS.
     Eigenvalues ---    0.00181   0.00599   0.01367   0.01568   0.02141
     Eigenvalues ---    0.02182   0.02227   0.02244   0.02269   0.02289
     Eigenvalues ---    0.02294   0.02305   0.05029   0.05038   0.06038
     Eigenvalues ---    0.06339   0.07205   0.09092   0.15937   0.15999
     Eigenvalues ---    0.16000   0.16000   0.16027   0.16055   0.16799
     Eigenvalues ---    0.18683   0.20667   0.22015   0.23111   0.24523
     Eigenvalues ---    0.25004   0.25450   0.31994   0.32362   0.35905
     Eigenvalues ---    0.35992   0.36143   0.37303   0.38880   0.42807
     Eigenvalues ---    0.43391   0.44181   0.45294   0.45552   0.46688
     Eigenvalues ---    0.47338   0.47956   0.48387   0.50944   0.54879
     Eigenvalues ---    1.44641
 RFO step:  Lambda=-6.11654986D-04 EMin= 1.81221284D-03
 Quartic linear search produced a step of  0.23530.
 Iteration  1 RMS(Cart)=  0.05648568 RMS(Int)=  0.00210936
 Iteration  2 RMS(Cart)=  0.00246074 RMS(Int)=  0.00004229
 Iteration  3 RMS(Cart)=  0.00000708 RMS(Int)=  0.00004205
 Iteration  4 RMS(Cart)=  0.00000000 RMS(Int)=  0.00004205
 ITry= 1 IFail=0 DXMaxC= 2.46D-01 DCOld= 1.00D+10 DXMaxT= 1.13D+00 DXLimC= 3.00D+00 Rises=F
 Variable       Old X    -DE/DX   Delta X   Delta X   Delta X     New X
                                 (Linear)    (Quad)   (Total)
    R1        2.67112  -0.00063   0.00055   0.00111   0.00166   2.67278
    R2        1.82516  -0.00060   0.00034  -0.00040  -0.00006   1.82510
    R3        2.73274   0.00075   0.00070   0.00142   0.00212   2.73486
    R4        2.86606   0.00136  -0.00114  -0.00014  -0.00128   2.86478
    R5        2.09343   0.00027  -0.00059  -0.00002  -0.00061   2.09282
    R6        1.93596  -0.00170   0.00187  -0.00210  -0.00023   1.93573
    R7        1.93298  -0.00134   0.00164  -0.00080   0.00084   1.93383
    R8        2.64645  -0.00017  -0.00029  -0.00035  -0.00063   2.64581
    R9        2.63870  -0.00016  -0.00016  -0.00064  -0.00079   2.63792
   R10        2.62300   0.00008  -0.00012  -0.00005  -0.00017   2.62283
   R11        2.06662  -0.00155   0.00047  -0.00194  -0.00147   2.06515
   R12        2.65279   0.00030  -0.00064   0.00019  -0.00046   2.65233
   R13        2.06458  -0.00097  -0.00005  -0.00145  -0.00150   2.06307
   R14        2.72378  -0.00342   0.00157  -0.00402  -0.00245   2.72133
   R15        2.64318   0.00110  -0.00119   0.00148   0.00029   2.64347
   R16        2.19699  -0.00625   0.00060  -0.00249  -0.00189   2.19510
   R17        2.63327  -0.00078   0.00032  -0.00107  -0.00076   2.63251
   R18        2.06435  -0.00096  -0.00002  -0.00147  -0.00149   2.06286
   R19        2.06787  -0.00108   0.00012  -0.00153  -0.00141   2.06646
    A1        1.88503   0.00013  -0.00130   0.00068  -0.00062   1.88441
    A2        1.84766   0.00009  -0.00017   0.00486   0.00470   1.85236
    A3        1.92667   0.00111  -0.00014   0.00439   0.00425   1.93092
    A4        1.90656  -0.00055  -0.00058   0.00029  -0.00030   1.90626
    A5        1.93322  -0.00061  -0.00249  -0.00747  -0.00996   1.92326
    A6        1.97170  -0.00035   0.00182  -0.00304  -0.00123   1.97046
    A7        1.87833   0.00035   0.00153   0.00123   0.00274   1.88106
    A8        1.85441   0.00260  -0.00308   0.01623   0.01304   1.86745
    A9        1.87503   0.00102  -0.00552   0.01015   0.00451   1.87954
   A10        1.80586   0.00079  -0.01008   0.01386   0.00350   1.80935
   A11        2.09736  -0.00125   0.00024  -0.00376  -0.00357   2.09379
   A12        2.09956   0.00122   0.00006   0.00371   0.00373   2.10329
   A13        2.08514   0.00005  -0.00027   0.00071   0.00042   2.08556
   A14        2.10511  -0.00004   0.00017  -0.00035  -0.00017   2.10493
   A15        2.09464  -0.00101   0.00256  -0.00231   0.00024   2.09489
   A16        2.08343   0.00105  -0.00273   0.00267  -0.00007   2.08336
   A17        2.08146   0.00053  -0.00072   0.00100   0.00028   2.08174
   A18        2.10589  -0.00007  -0.00008  -0.00009  -0.00017   2.10572
   A19        2.09583  -0.00046   0.00080  -0.00091  -0.00011   2.09572
   A20        2.08561   0.00070  -0.00116   0.00073  -0.00043   2.08518
   A21        2.10876  -0.00124   0.00146  -0.00222  -0.00075   2.10801
   A22        2.08881   0.00054  -0.00030   0.00148   0.00118   2.09000
   A23        2.07754   0.00078  -0.00115   0.00180   0.00065   2.07819
   A24        2.09979  -0.00058   0.00108  -0.00115  -0.00008   2.09971
   A25        2.10586  -0.00019   0.00008  -0.00065  -0.00057   2.10528
   A26        2.10835  -0.00008   0.00051  -0.00093  -0.00042   2.10793
   A27        2.08770   0.00006  -0.00028   0.00058   0.00029   2.08799
   A28        2.08713   0.00002  -0.00023   0.00036   0.00013   2.08726
   A29        3.14309  -0.00007   0.00064  -0.00355  -0.00290   3.14019
   A30        3.14239  -0.00002   0.00021   0.00003   0.00023   3.14262
    D1        3.10746   0.00086   0.04402   0.07878   0.12281  -3.05292
    D2        1.01440   0.00094   0.04719   0.08246   0.12965   1.14405
    D3       -1.04768   0.00018   0.04577   0.07817   0.12394  -0.92373
    D4        1.14664  -0.00160   0.05786   0.05086   0.10864   1.25528
    D5        3.07052   0.00088   0.04233   0.07804   0.12046  -3.09221
    D6       -3.04778  -0.00055   0.05622   0.05498   0.11110  -2.93668
    D7       -1.12391   0.00193   0.04068   0.08217   0.12292  -1.00099
    D8       -0.93909  -0.00078   0.05766   0.04907   0.10666  -0.83243
    D9        0.98478   0.00170   0.04213   0.07626   0.11848   1.10326
   D10        1.09936   0.00002  -0.01578  -0.04436  -0.06014   1.03922
   D11       -1.99096  -0.00025  -0.01631  -0.05949  -0.07581  -2.06677
   D12       -0.94135  -0.00040  -0.01395  -0.04849  -0.06243  -1.00378
   D13        2.25152  -0.00067  -0.01448  -0.06362  -0.07810   2.17342
   D14       -3.10452   0.00020  -0.01565  -0.04076  -0.05640   3.12226
   D15        0.08835  -0.00007  -0.01618  -0.05589  -0.07207   0.01628
   D16       -3.08911  -0.00047   0.00037  -0.01744  -0.01704  -3.10615
   D17        0.05601  -0.00043  -0.00041  -0.01806  -0.01845   0.03756
   D18        0.00163  -0.00016   0.00091  -0.00234  -0.00143   0.00020
   D19       -3.13643  -0.00012   0.00013  -0.00296  -0.00285  -3.13928
   D20        3.08743   0.00048  -0.00101   0.01933   0.01835   3.10578
   D21       -0.05245   0.00031  -0.00060   0.01459   0.01402  -0.03844
   D22       -0.00324   0.00025  -0.00156   0.00444   0.00287  -0.00037
   D23        3.14005   0.00008  -0.00114  -0.00031  -0.00146   3.13859
   D24        0.00196  -0.00001   0.00036  -0.00084  -0.00048   0.00147
   D25        3.14094   0.00006  -0.00018   0.00068   0.00050   3.14144
   D26        3.14004  -0.00006   0.00116  -0.00024   0.00092   3.14097
   D27       -0.00416   0.00002   0.00062   0.00128   0.00191  -0.00225
   D28        3.13928   0.00006  -0.00096   0.00213   0.00116   3.14045
   D29       -0.00403   0.00011  -0.00101   0.00203   0.00101  -0.00302
   D30        0.00029  -0.00001  -0.00044   0.00062   0.00018   0.00047
   D31        3.14016   0.00003  -0.00048   0.00052   0.00003   3.14019
   D32        0.00245  -0.00002   0.00038   0.00001   0.00039   0.00284
   D33       -3.14039  -0.00004   0.00012   0.00031   0.00044  -3.13995
   D34       -3.14087   0.00002   0.00033  -0.00009   0.00024  -3.14063
   D35       -0.00052   0.00001   0.00007   0.00021   0.00029  -0.00024
   D36        0.00121  -0.00016   0.00091  -0.00327  -0.00235  -0.00114
   D37        3.14110   0.00001   0.00050   0.00147   0.00198  -3.14010
   D38       -3.13912  -0.00014   0.00118  -0.00357  -0.00240  -3.14152
   D39        0.00077   0.00003   0.00076   0.00117   0.00193   0.00270
         Item               Value     Threshold  Converged?
 Maximum Force            0.006247     0.000450     NO 
 RMS     Force            0.001065     0.000300     NO 
 Maximum Displacement     0.245909     0.001800     NO 
 RMS     Displacement     0.056608     0.001200     NO 
 Predicted change in Energy=-3.926929D-04
 Lowest energy point so far.  Saving SCF results.
 GradGradGradGradGradGradGradGradGradGradGradGradGradGradGradGradGradGrad

 Leave Link  103 at Tue Oct 21 15:02:21 2025, MaxMem=  4294967296 cpu:               0.3 elap:               0.1
 (Enter /lrz/sys/applications/gaussian/g16.C.01/x86_64_legacy/exe/l202.exe)
                          Input orientation:                          
 ---------------------------------------------------------------------
 Center     Atomic      Atomic             Coordinates (Angstroms)
 Number     Number       Type             X           Y           Z
 ---------------------------------------------------------------------
      1          8           0        2.991655   -0.195187    1.198129
      2          6           0        2.486787   -0.199281   -0.123063
      3          7           0        3.041199    0.971108   -0.769033
      4          6           0        0.972617   -0.125550   -0.116570
      5          6           0        0.328152    0.965717    0.478486
      6          6           0       -1.057541    1.026346    0.529105
      7          6           0       -1.810988   -0.021561   -0.022407
      8          6           0       -3.248972    0.036301    0.029044
      9          7           0       -4.408983    0.081992    0.068928
     10          6           0       -1.181436   -1.117515   -0.621877
     11          6           0        0.210393   -1.159581   -0.662829
     12          1           0        2.702691   -1.009272    1.630033
     13          1           0        2.777143   -1.144722   -0.621392
     14          1           0        4.036130    0.783928   -0.925114
     15          1           0        2.652677    1.017774   -1.714597
     16          1           0        0.916291    1.781087    0.906913
     17          1           0       -1.560825    1.876842    0.993043
     18          1           0       -1.775073   -1.927537   -1.049766
     19          1           0        0.711350   -2.011629   -1.130649
 ---------------------------------------------------------------------
                    Distance matrix (angstroms):
                    1          2          3          4          5
     1  O    0.000000
     2  C    1.414375   0.000000
     3  N    2.287449   1.447225   0.000000
     4  C    2.410352   1.515979   2.430514   0.000000
     5  C    2.993298   2.525626   2.986127   1.400104   0.000000
     6  C    4.282024   3.806540   4.299754   2.421838   1.387943
     7  C    4.958349   4.302625   5.008648   2.787137   2.408637
     8  C    6.353406   5.742610   6.409137   4.227199   3.723121
     9  N    7.491419   6.904174   7.549697   5.388794   4.836234
    10  C    4.645190   3.814162   4.713242   2.424721   2.798127
    11  C    3.482619   2.528931   3.544655   1.395925   2.415236
    12  H    0.965803   1.943205   3.129219   2.612421   3.296222
    13  H    2.063561   1.107473   2.137349   2.133043   3.414856
    14  H    2.560811   2.002610   1.024346   3.296363   3.968909
    15  H    3.173350   2.010404   1.023337   2.585244   3.196207
    16  H    2.880555   2.729316   2.824906   2.164706   1.092833
    17  H    5.006040   4.683924   5.010378   3.414548   2.159433
    18  H    5.547591   4.691386   5.628271   3.415818   3.889735
    19  H    3.731280   2.729837   3.802063   2.157292   3.405987
                    6          7          8          9         10
     6  C    0.000000
     7  C    1.403551   0.000000
     8  C    2.456139   1.440068   0.000000
     9  N    3.512225   2.601662   1.161595   0.000000
    10  C    2.436441   1.398862   2.455544   3.511850   0.000000
    11  C    2.794037   2.406493   3.725054   4.838968   1.393067
    12  H    4.415329   4.907080   6.251295   7.362324   4.491020
    13  H    4.554336   4.761430   6.175107   7.322689   3.958672
    14  H    5.302736   5.970969   7.385261   8.532336   5.561513
    15  H    4.335896   4.885492   6.231616   7.343276   4.522601
    16  H    2.146716   3.398709   4.600473   5.652228   3.890957
    17  H    1.091732   2.167408   2.677074   3.491057   3.423168
    18  H    3.425362   2.165526   2.681953   3.496736   1.091618
    19  H    3.887550   3.398640   4.606849   5.660393   2.154281
                   11         12         13         14         15
    11  C    0.000000
    12  H    3.389891   0.000000
    13  H    2.567127   2.256724   0.000000
    14  H    4.299102   3.394466   2.323141   0.000000
    15  H    3.436837   3.911262   2.426310   1.609941   0.000000
    16  H    3.407332   3.391199   3.789306   3.752871   3.235737
    17  H    3.885743   5.187772   5.527587   6.016618   5.081625
    18  H    2.163690   5.298576   4.638855   6.413865   5.359276
    19  H    1.093525   3.548453   2.297470   4.348740   3.645138
                   16         17         18         19
    16  H    0.000000
    17  H    2.480462   0.000000
    18  H    4.982562   4.323456   0.000000
    19  H    4.310261   4.979262   2.489160   0.000000
 Stoichiometry    C8H8N2O
 Framework group  C1[X(C8H8N2O)]
 Deg. of freedom    51
 Full point group                 C1      NOp   1
 RotChk:  IX=0 Diff= 8.07D-02
 Largest Abelian subgroup         C1      NOp   1
 Largest concise Abelian subgroup C1      NOp   1
                         Standard orientation:                         
 ---------------------------------------------------------------------
 Center     Atomic      Atomic             Coordinates (Angstroms)
 Number     Number       Type             X           Y           Z
 ---------------------------------------------------------------------
      1          8           0       -2.929996   -0.264026    1.185712
      2          6           0       -2.414018    0.321948    0.006366
      3          7           0       -2.996634   -0.412896   -1.095915
      4          6           0       -0.902732    0.208298   -0.029569
      5          6           0       -0.295267   -1.052709    0.004181
      6          6           0        1.087605   -1.170810    0.014239
      7          6           0        1.875784   -0.009676   -0.008025
      8          6           0        3.310997   -0.127241    0.003737
      9          7           0        4.468814   -0.220468    0.012225
     10          6           0        1.283399    1.257061   -0.043675
     11          6           0       -0.106227    1.354427   -0.053470
     12          1           0       -2.621222    0.257851    1.937429
     13          1           0       -2.672587    1.398703   -0.009010
     14          1           0       -3.984356   -0.145906   -1.144980
     15          1           0       -2.601612   -0.038542   -1.962537
     16          1           0       -0.910425   -1.955806    0.020889
     17          1           0        1.562050   -2.153703    0.040691
     18          1           0        1.903893    2.154986   -0.062351
     19          1           0       -0.578269    2.340389   -0.082695
 ---------------------------------------------------------------------
 Rotational constants (GHZ):           3.4622357           0.5473732           0.5196340
 Leave Link  202 at Tue Oct 21 15:02:21 2025, MaxMem=  4294967296 cpu:               0.1 elap:               0.0
 (Enter /lrz/sys/applications/gaussian/g16.C.01/x86_64_legacy/exe/l301.exe)
 Standard basis: def2SVP (5D, 7F)
 Ernie: Thresh=  0.10000D-02 Tol=  0.10000D-05 Strict=F.
 There are   205 symmetry adapted cartesian basis functions of A   symmetry.
 There are   194 symmetry adapted basis functions of A   symmetry.
   194 basis functions,   331 primitive gaussians,   205 cartesian basis functions
    39 alpha electrons       39 beta electrons
       nuclear repulsion energy       545.1031661536 Hartrees.
 IExCor= 4639 DFT=T Ex+Corr=wB97XD ExCW=0 ScaHFX=  1.000000
 ScaDFX=  1.000000  1.000000  1.000000  1.000000 ScalE2=  1.000000  1.000000
 IRadAn=      5 IRanWt=     -1 IRanGd=            0 ICorTp=0 IEmpDi=121
 HFx  wShort=  0.000000 wLong=  0.200000 cFull=  0.222036 cShort=  0.000000 cLong=  0.777964
 DFx  wShort=  0.000000 wLong=  0.200000 cFull=  0.000000 cShort=  0.000000 cLong=  1.000000
 NAtoms=   19 NActive=   19 NUniq=   19 SFac= 1.00D+00 NAtFMM=   60 NAOKFM=F Big=F
 Integral buffers will be    131072 words long.
 Raffenetti 2 integral format.
 Two-electron integral symmetry is turned on.
 R6Disp:  Grimme-D2 Dispersion energy=       -0.0102464577 Hartrees.
 Nuclear repulsion after empirical dispersion term =      545.0929196959 Hartrees.
 ------------------------------------------------------------------------------
 Polarizable Continuum Model (PCM)
 =================================
 Model                : PCM.
 Atomic radii         : SMD-Coulomb.
 Polarization charges : Total charges.
 Charge compensation  : None.
 Solution method      : On-the-fly selection.
 Cavity type          : VdW (van der Waals Surface) (Alpha=1.000).
 Cavity algorithm     : GePol (No added spheres)
                        Default sphere list used, NSphG=   19.
                        Lebedev-Laikov grids with approx.  5.0 points / Ang**2.
                        Smoothing algorithm: York/Karplus (Gamma=1.0000).
                        Polarization charges: spherical gaussians, with
                                              point-specific exponents (IZeta= 3).
                        Self-potential: point-specific (ISelfS= 7).
                        Self-field    : sphere-specific E.n sum rule (ISelfD= 2).
 1st derivatives      : Analytical E(r).r(x)/FMM algorithm (CHGder, D1EAlg=3).
                        Cavity 1st derivative terms included.
 Solvent              : Water, Eps=  78.355300 Eps(inf)=   1.777849
 ------------------------------------------------------------------------------
 Spheres list:
 ISph  on   Nord     Re0    Alpha      Xe            Ye            Ze
    1   O      1    1.5200  1.000     -2.929996     -0.264026      1.185712
    2   C      2    1.8500  1.000     -2.414018      0.321948      0.006366
    3   N      3    1.8900  1.000     -2.996634     -0.412896     -1.095915
    4   C      4    1.8500  1.000     -0.902732      0.208298     -0.029569
    5   C      5    1.8500  1.000     -0.295267     -1.052709      0.004181
    6   C      6    1.8500  1.000      1.087605     -1.170810      0.014239
    7   C      7    1.8500  1.000      1.875784     -0.009676     -0.008025
    8   C      8    1.8500  1.000      3.310997     -0.127241      0.003737
    9   N      9    1.8900  1.000      4.468814     -0.220468      0.012225
   10   C     10    1.8500  1.000      1.283399      1.257061     -0.043675
   11   C     11    1.8500  1.000     -0.106227      1.354427     -0.053470
   12   H     12    1.2000  1.000     -2.621222      0.257851      1.937429
   13   H     13    1.2000  1.000     -2.672587      1.398703     -0.009010
   14   H     14    1.2000  1.000     -3.984356     -0.145906     -1.144980
   15   H     15    1.2000  1.000     -2.601612     -0.038542     -1.962537
   16   H     16    1.2000  1.000     -0.910425     -1.955806      0.020889
   17   H     17    1.2000  1.000      1.562050     -2.153703      0.040691
   18   H     18    1.2000  1.000      1.903893      2.154986     -0.062351
   19   H     19    1.2000  1.000     -0.578269      2.340389     -0.082695
 ------------------------------------------------------------------------------
 GePol: Number of generator spheres                  =      19
 GePol: Total number of spheres                      =      19
 GePol: Number of exposed spheres                    =      19 (100.00%)
 GePol: Number of points                             =    1607
 GePol: Average weight of points                     =       0.12
 GePol: Minimum weight of points                     =   0.41D-09
 GePol: Maximum weight of points                     =    0.21991
 GePol: Number of points with low weight             =      58
 GePol: Fraction of low-weight points (<1% of avg)   =       3.61%
 GePol: Cavity surface area                          =    187.684 Ang**2
 GePol: Cavity volume                                =    161.670 Ang**3
 ------------------------------------------------------------------------------
 Atomic radii for non-electrostatic terms: SMD-CDS.
 ------------------------------------------------------------------------------
 PCM non-electrostatic energy =         0.0073524410 Hartrees.
 Nuclear repulsion after PCM non-electrostatic terms =      545.1002721369 Hartrees.
 Leave Link  301 at Tue Oct 21 15:02:21 2025, MaxMem=  4294967296 cpu:               0.6 elap:               0.1
 (Enter /lrz/sys/applications/gaussian/g16.C.01/x86_64_legacy/exe/l302.exe)
 NPDir=0 NMtPBC=     1 NCelOv=     1 NCel=       1 NClECP=     1 NCelD=      1
         NCelK=      1 NCelE2=     1 NClLst=     1 CellRange=     0.0.
 One-electron integrals computed using PRISM.
 One-electron integral symmetry used in STVInt
   1 Symmetry operations used in ECPInt.
 ECPInt:  NShTT=    4095 NPrTT=   15045 LenC2=    3951 LenP2D=   11137.
 LDataN:  DoStor=T MaxTD1= 4 Len=   56
 NBasis=   194 RedAO= T EigKep=  2.78D-04  NBF=   194
 NBsUse=   194 1.00D-06 EigRej= -1.00D+00 NBFU=   194
 Precomputing XC quadrature grid using
 IXCGrd= 4 IRadAn=           5 IRanWt=          -1 IRanGd=           0 AccXCQ= 0.00D+00.
 Generated NRdTot=       0 NPtTot=           0 NUsed=           0 NTot=          32
 NSgBfM=   204   204   204   204   204 MxSgAt=    19 MxSgA2=    19.
 Leave Link  302 at Tue Oct 21 15:02:21 2025, MaxMem=  4294967296 cpu:               2.4 elap:               0.3
 (Enter /lrz/sys/applications/gaussian/g16.C.01/x86_64_legacy/exe/l303.exe)
 DipDrv:  MaxL=1.
 Leave Link  303 at Tue Oct 21 15:02:22 2025, MaxMem=  4294967296 cpu:               0.3 elap:               0.0
 (Enter /lrz/sys/applications/gaussian/g16.C.01/x86_64_legacy/exe/l401.exe)
 Initial guess from the checkpoint file:  "g16_C12-a_10.chk"
 B after Tr=    -0.000000   -0.000000    0.000000
         Rot=    0.999518   -0.030999    0.001893   -0.000208 Ang=  -3.56 deg.
 Guess basis will be translated and rotated to current coordinates.
 JPrj=2 DoOrth=T DoCkMO=T.
 Generating alternative initial guess.
 ExpMin= 1.22D-01 ExpMax= 2.27D+03 ExpMxC= 3.41D+02 IAcc=3 IRadAn=         5 AccDes= 0.00D+00
 Harris functional with IExCor= 4639 and IRadAn=       5 diagonalized for initial guess.
 HarFok:  IExCor= 4639 AccDes= 0.00D+00 IRadAn=         5 IDoV= 1 UseB2=F ITyADJ=14
 ICtDFT=  3500011 ScaDFX=  1.000000  1.000000  1.000000  1.000000
 FoFCou: FMM=F IPFlag=           0 FMFlag=      100000 FMFlg1=           0
         NFxFlg=           0 DoJE=T BraDBF=F KetDBF=T FulRan=T
         wScrn=  0.000000 ICntrl=       500 IOpCl=  0 I1Cent=   200000004 NGrid=           0
         NMat0=    1 NMatS0=      1 NMatT0=    0 NMatD0=    1 NMtDS0=    0 NMtDT0=    0
 Petite list used in FoFCou.
 Harris En= -472.807749193377    
 Leave Link  401 at Tue Oct 21 15:02:23 2025, MaxMem=  4294967296 cpu:              11.5 elap:               1.5
 (Enter /lrz/sys/applications/gaussian/g16.C.01/x86_64_legacy/exe/l502.exe)
 Integral symmetry usage will be decided dynamically.
 Closed shell SCF:
 Using DIIS extrapolation, IDIIS=  1040.
 NGot=  4294967296 LenX=  4294878900 LenY=  4294836434
 Requested convergence on RMS density matrix=1.00D-08 within 128 cycles.
 Requested convergence on MAX density matrix=1.00D-06.
 Requested convergence on             energy=1.00D-06.
 No special actions if energy rises.
 Fock matrices will be formed incrementally for  20 cycles.

 Cycle   1  Pass 1  IDiag  1:
 FoFJK:  IHMeth= 1 ICntrl=       0 DoSepK=T KAlg= 0 I1Cent=           0 FoldK=F
 IRaf=         1 NMat=       1 IRICut=       1 DoRegI=T DoRafI=F ISym2E= 0 IDoP0=0 IntGTp=1.
 FoFCou: FMM=F IPFlag=           0 FMFlag=      100000 FMFlg1=           0
         NFxFlg=           0 DoJE=T BraDBF=F KetDBF=F FulRan=T
         wScrn=  0.000000 ICntrl=       500 IOpCl=  0 I1Cent=           0 NGrid=           0
         NMat0=    1 NMatS0=      1 NMatT0=    0 NMatD0=    1 NMtDS0=    0 NMtDT0=    0
 Symmetry not used in FoFCou.
 Inv3:  Mode=1 IEnd=     7747347.
 Iteration    1 A*A^-1 deviation from unit magnitude is 5.44D-15 for    740.
 Iteration    1 A*A^-1 deviation from orthogonality  is 3.40D-15 for   1030    518.
 Iteration    1 A^-1*A deviation from unit magnitude is 5.77D-15 for    369.
 Iteration    1 A^-1*A deviation from orthogonality  is 4.34D-15 for   1325    137.
 E= -493.856515179600    
 DIIS: error= 4.47D-03 at cycle   1 NSaved=   1.
 NSaved= 1 IEnMin= 1 EnMin= -493.856515179600     IErMin= 1 ErrMin= 4.47D-03
 ErrMax= 4.47D-03  0.00D+00 EMaxC= 1.00D-01 BMatC= 4.47D-03 BMatP= 4.47D-03
 IDIUse=3 WtCom= 9.55D-01 WtEn= 4.47D-02
 Coeff-Com:  0.100D+01
 Coeff-En:   0.100D+01
 Coeff:      0.100D+01
 Gap=     0.788 Goal=   None    Shift=    0.000
 GapD=    0.788 DampG=2.000 DampE=1.000 DampFc=2.0000 IDamp=-1.
 RMSDP=5.45D-04 MaxDP=2.31D-02              OVMax= 1.81D-02

 Cycle   2  Pass 1  IDiag  1:
 RMSU=  5.45D-04    CP:  1.00D+00
 E= -493.862905007554     Delta-E=       -0.006389827954 Rises=F Damp=F
 DIIS: error= 7.56D-04 at cycle   2 NSaved=   2.
 NSaved= 2 IEnMin= 2 EnMin= -493.862905007554     IErMin= 2 ErrMin= 7.56D-04
 ErrMax= 7.56D-04  0.00D+00 EMaxC= 1.00D-01 BMatC= 1.54D-04 BMatP= 4.47D-03
 IDIUse=3 WtCom= 9.92D-01 WtEn= 7.56D-03
 Coeff-Com: -0.168D+00 0.117D+01
 Coeff-En:   0.000D+00 0.100D+01
 Coeff:     -0.167D+00 0.117D+01
 Gap=     0.345 Goal=   None    Shift=    0.000
 RMSDP=1.48D-04 MaxDP=4.83D-03 DE=-6.39D-03 OVMax= 6.03D-03

 Cycle   3  Pass 1  IDiag  1:
 RMSU=  8.27D-05    CP:  9.99D-01  1.22D+00
 E= -493.863280095002     Delta-E=       -0.000375087448 Rises=F Damp=F
 DIIS: error= 1.98D-04 at cycle   3 NSaved=   3.
 NSaved= 3 IEnMin= 3 EnMin= -493.863280095002     IErMin= 3 ErrMin= 1.98D-04
 ErrMax= 1.98D-04  0.00D+00 EMaxC= 1.00D-01 BMatC= 8.65D-06 BMatP= 1.54D-04
 IDIUse=3 WtCom= 9.98D-01 WtEn= 1.98D-03
 Coeff-Com: -0.225D-01 0.781D-01 0.944D+00
 Coeff-En:   0.000D+00 0.000D+00 0.100D+01
 Coeff:     -0.224D-01 0.779D-01 0.945D+00
 Gap=     0.344 Goal=   None    Shift=    0.000
 RMSDP=3.33D-05 MaxDP=1.06D-03 DE=-3.75D-04 OVMax= 1.54D-03

 Cycle   4  Pass 1  IDiag  1:
 RMSU=  2.59D-05    CP:  9.99D-01  1.25D+00  1.19D+00
 E= -493.863294402437     Delta-E=       -0.000014307435 Rises=F Damp=F
 DIIS: error= 1.16D-04 at cycle   4 NSaved=   4.
 NSaved= 4 IEnMin= 4 EnMin= -493.863294402437     IErMin= 4 ErrMin= 1.16D-04
 ErrMax= 1.16D-04  0.00D+00 EMaxC= 1.00D-01 BMatC= 4.12D-06 BMatP= 8.65D-06
 IDIUse=3 WtCom= 9.99D-01 WtEn= 1.16D-03
 Coeff-Com:  0.133D-01-0.129D+00 0.419D+00 0.697D+00
 Coeff-En:   0.000D+00 0.000D+00 0.000D+00 0.100D+01
 Coeff:      0.133D-01-0.129D+00 0.418D+00 0.697D+00
 Gap=     0.345 Goal=   None    Shift=    0.000
 RMSDP=1.44D-05 MaxDP=5.34D-04 DE=-1.43D-05 OVMax= 5.23D-04

 Cycle   5  Pass 1  IDiag  1:
 RMSU=  7.04D-06    CP:  9.99D-01  1.26D+00  1.33D+00  8.56D-01
 E= -493.863299051231     Delta-E=       -0.000004648794 Rises=F Damp=F
 DIIS: error= 1.65D-05 at cycle   5 NSaved=   5.
 NSaved= 5 IEnMin= 5 EnMin= -493.863299051231     IErMin= 5 ErrMin= 1.65D-05
 ErrMax= 1.65D-05  0.00D+00 EMaxC= 1.00D-01 BMatC= 8.98D-08 BMatP= 4.12D-06
 IDIUse=1 WtCom= 1.00D+00 WtEn= 0.00D+00
 Coeff-Com:  0.293D-02-0.215D-01-0.110D-01 0.768D-01 0.953D+00
 Coeff:      0.293D-02-0.215D-01-0.110D-01 0.768D-01 0.953D+00
 Gap=     0.345 Goal=   None    Shift=    0.000
 RMSDP=4.32D-06 MaxDP=1.04D-04 DE=-4.65D-06 OVMax= 2.09D-04

 Cycle   6  Pass 1  IDiag  1:
 RMSU=  2.17D-06    CP:  9.99D-01  1.26D+00  1.35D+00  9.37D-01  1.23D+00
 E= -493.863299246211     Delta-E=       -0.000000194980 Rises=F Damp=F
 DIIS: error= 1.76D-05 at cycle   6 NSaved=   6.
 NSaved= 6 IEnMin= 6 EnMin= -493.863299246211     IErMin= 5 ErrMin= 1.65D-05
 ErrMax= 1.76D-05  0.00D+00 EMaxC= 1.00D-01 BMatC= 4.00D-08 BMatP= 8.98D-08
 IDIUse=1 WtCom= 1.00D+00 WtEn= 0.00D+00
 Coeff-Com:  0.147D-03 0.215D-02-0.460D-01-0.320D-01 0.461D+00 0.615D+00
 Coeff:      0.147D-03 0.215D-02-0.460D-01-0.320D-01 0.461D+00 0.615D+00
 Gap=     0.345 Goal=   None    Shift=    0.000
 RMSDP=1.34D-06 MaxDP=5.01D-05 DE=-1.95D-07 OVMax= 6.25D-05

 Cycle   7  Pass 1  IDiag  1:
 RMSU=  8.90D-07    CP:  9.99D-01  1.26D+00  1.36D+00  9.55D-01  1.34D+00
                    CP:  8.97D-01
 E= -493.863299288118     Delta-E=       -0.000000041907 Rises=F Damp=F
 DIIS: error= 5.83D-06 at cycle   7 NSaved=   7.
 NSaved= 7 IEnMin= 7 EnMin= -493.863299288118     IErMin= 7 ErrMin= 5.83D-06
 ErrMax= 5.83D-06  0.00D+00 EMaxC= 1.00D-01 BMatC= 5.33D-09 BMatP= 4.00D-08
 IDIUse=1 WtCom= 1.00D+00 WtEn= 0.00D+00
 Coeff-Com: -0.501D-03 0.532D-02-0.176D-01-0.303D-01 0.936D-02 0.278D+00
 Coeff-Com:  0.755D+00
 Coeff:     -0.501D-03 0.532D-02-0.176D-01-0.303D-01 0.936D-02 0.278D+00
 Coeff:      0.755D+00
 Gap=     0.345 Goal=   None    Shift=    0.000
 RMSDP=5.99D-07 MaxDP=1.48D-05 DE=-4.19D-08 OVMax= 3.27D-05

 Cycle   8  Pass 1  IDiag  1:
 RMSU=  3.32D-07    CP:  9.99D-01  1.26D+00  1.36D+00  9.62D-01  1.39D+00
                    CP:  1.04D+00  1.00D+00
 E= -493.863299294666     Delta-E=       -0.000000006548 Rises=F Damp=F
 DIIS: error= 8.94D-07 at cycle   8 NSaved=   8.
 NSaved= 8 IEnMin= 8 EnMin= -493.863299294666     IErMin= 8 ErrMin= 8.94D-07
 ErrMax= 8.94D-07  0.00D+00 EMaxC= 1.00D-01 BMatC= 3.00D-10 BMatP= 5.33D-09
 IDIUse=1 WtCom= 1.00D+00 WtEn= 0.00D+00
 Coeff-Com: -0.180D-03 0.165D-02-0.221D-02-0.795D-02-0.332D-01 0.462D-01
 Coeff-Com:  0.256D+00 0.739D+00
 Coeff:     -0.180D-03 0.165D-02-0.221D-02-0.795D-02-0.332D-01 0.462D-01
 Coeff:      0.256D+00 0.739D+00
 Gap=     0.345 Goal=   None    Shift=    0.000
 RMSDP=1.76D-07 MaxDP=5.02D-06 DE=-6.55D-09 OVMax= 8.74D-06

 Cycle   9  Pass 1  IDiag  1:
 RMSU=  9.51D-08    CP:  9.99D-01  1.26D+00  1.36D+00  9.63D-01  1.39D+00
                    CP:  1.08D+00  1.11D+00  1.01D+00
 E= -493.863299295113     Delta-E=       -0.000000000447 Rises=F Damp=F
 DIIS: error= 3.33D-07 at cycle   9 NSaved=   9.
 NSaved= 9 IEnMin= 9 EnMin= -493.863299295113     IErMin= 9 ErrMin= 3.33D-07
 ErrMax= 3.33D-07  0.00D+00 EMaxC= 1.00D-01 BMatC= 1.82D-11 BMatP= 3.00D-10
 IDIUse=1 WtCom= 1.00D+00 WtEn= 0.00D+00
 Coeff-Com:  0.316D-04-0.390D-03 0.172D-02 0.218D-02-0.555D-02-0.254D-01
 Coeff-Com: -0.538D-01 0.103D+00 0.978D+00
 Coeff:      0.316D-04-0.390D-03 0.172D-02 0.218D-02-0.555D-02-0.254D-01
 Coeff:     -0.538D-01 0.103D+00 0.978D+00
 Gap=     0.345 Goal=   None    Shift=    0.000
 RMSDP=7.84D-08 MaxDP=1.49D-06 DE=-4.47D-10 OVMax= 5.85D-06

 Cycle  10  Pass 1  IDiag  1:
 RMSU=  2.90D-08    CP:  9.99D-01  1.26D+00  1.36D+00  9.63D-01  1.40D+00
                    CP:  1.10D+00  1.15D+00  1.14D+00  1.17D+00
 E= -493.863299295178     Delta-E=       -0.000000000066 Rises=F Damp=F
 DIIS: error= 9.29D-08 at cycle  10 NSaved=  10.
 NSaved=10 IEnMin=10 EnMin= -493.863299295178     IErMin=10 ErrMin= 9.29D-08
 ErrMax= 9.29D-08  0.00D+00 EMaxC= 1.00D-01 BMatC= 3.03D-12 BMatP= 1.82D-11
 IDIUse=1 WtCom= 1.00D+00 WtEn= 0.00D+00
 Coeff-Com:  0.222D-04-0.240D-03 0.724D-03 0.124D-02 0.424D-03-0.117D-01
 Coeff-Com: -0.367D-01-0.171D-01 0.336D+00 0.728D+00
 Coeff:      0.222D-04-0.240D-03 0.724D-03 0.124D-02 0.424D-03-0.117D-01
 Coeff:     -0.367D-01-0.171D-01 0.336D+00 0.728D+00
 Gap=     0.345 Goal=   None    Shift=    0.000
 RMSDP=1.84D-08 MaxDP=4.04D-07 DE=-6.59D-11 OVMax= 1.26D-06

 Cycle  11  Pass 1  IDiag  1:
 RMSU=  1.08D-08    CP:  9.99D-01  1.26D+00  1.36D+00  9.63D-01  1.40D+00
                    CP:  1.10D+00  1.16D+00  1.17D+00  1.27D+00  1.04D+00
 E= -493.863299295168     Delta-E=        0.000000000011 Rises=F Damp=F
 DIIS: error= 4.33D-08 at cycle  11 NSaved=  11.
 NSaved=11 IEnMin=10 EnMin= -493.863299295178     IErMin=11 ErrMin= 4.33D-08
 ErrMax= 4.33D-08  0.00D+00 EMaxC= 1.00D-01 BMatC= 3.71D-13 BMatP= 3.03D-12
 IDIUse=1 WtCom= 1.00D+00 WtEn= 0.00D+00
 Coeff-Com: -0.168D-05 0.299D-04-0.201D-03-0.204D-03 0.139D-02 0.299D-02
 Coeff-Com:  0.287D-02-0.261D-01-0.119D+00 0.128D+00 0.101D+01
 Coeff:     -0.168D-05 0.299D-04-0.201D-03-0.204D-03 0.139D-02 0.299D-02
 Coeff:      0.287D-02-0.261D-01-0.119D+00 0.128D+00 0.101D+01
 Gap=     0.345 Goal=   None    Shift=    0.000
 RMSDP=1.06D-08 MaxDP=1.78D-07 DE= 1.07D-11 OVMax= 9.37D-07

 Cycle  12  Pass 1  IDiag  1:
 RMSU=  4.18D-09    CP:  9.99D-01  1.26D+00  1.36D+00  9.63D-01  1.40D+00
                    CP:  1.10D+00  1.16D+00  1.18D+00  1.32D+00  1.28D+00
                    CP:  1.32D+00
 E= -493.863299295178     Delta-E=       -0.000000000010 Rises=F Damp=F
 DIIS: error= 2.28D-08 at cycle  12 NSaved=  12.
 NSaved=12 IEnMin=10 EnMin= -493.863299295178     IErMin=12 ErrMin= 2.28D-08
 ErrMax= 2.28D-08  0.00D+00 EMaxC= 1.00D-01 BMatC= 6.44D-14 BMatP= 3.71D-13
 IDIUse=1 WtCom= 1.00D+00 WtEn= 0.00D+00
 Coeff-Com: -0.325D-05 0.384D-04-0.150D-03-0.217D-03 0.389D-03 0.233D-02
 Coeff-Com:  0.515D-02-0.658D-02-0.744D-01-0.531D-01 0.324D+00 0.803D+00
 Coeff:     -0.325D-05 0.384D-04-0.150D-03-0.217D-03 0.389D-03 0.233D-02
 Coeff:      0.515D-02-0.658D-02-0.744D-01-0.531D-01 0.324D+00 0.803D+00
 Gap=     0.345 Goal=   None    Shift=    0.000
 RMSDP=3.19D-09 MaxDP=6.04D-08 DE=-1.02D-11 OVMax= 2.40D-07

 Error on total polarization charges =  0.02912
 SCF Done:  E(RwB97XD) =  -493.863299295     A.U. after   12 cycles
            NFock= 12  Conv=0.32D-08     -V/T= 2.0102
 KE= 4.888982698897D+02 PE=-2.238226824212D+03 EE= 7.103649828906D+02
 SMD-CDS (non-electrostatic) energy       (kcal/mol) =       4.61
 (included in total energy above)
 Leave Link  502 at Tue Oct 21 15:03:09 2025, MaxMem=  4294967296 cpu:             362.5 elap:              45.7
 (Enter /lrz/sys/applications/gaussian/g16.C.01/x86_64_legacy/exe/l701.exe)
 ... and contract with generalized density number  0.
 Compute integral first derivatives.
 R6Disp: Adding Grimme-D2 dispersion energy 1st derivatives to the gradient.
   1 Symmetry operations used in ECPInt.
 ECPInt:  NShTT=    4095 NPrTT=   15045 LenC2=    3951 LenP2D=   11137.
 LDataN:  DoStor=T MaxTD1= 5 Len=  102
 D1PCM: PCM CHGder 1st derivatives, ID1Alg=3 FixD1E=F DoIter=F DoCFld=F I1PDM=0.
 GePol: Maximum number of non-zero 1st derivatives   =     258
 Leave Link  701 at Tue Oct 21 15:03:10 2025, MaxMem=  4294967296 cpu:               8.8 elap:               1.1
 (Enter /lrz/sys/applications/gaussian/g16.C.01/x86_64_legacy/exe/l702.exe)
 L702 exits ... SP integral derivatives will be done elsewhere.
 Leave Link  702 at Tue Oct 21 15:03:10 2025, MaxMem=  4294967296 cpu:               0.2 elap:               0.0
 (Enter /lrz/sys/applications/gaussian/g16.C.01/x86_64_legacy/exe/l703.exe)
 Integral derivatives from FoFJK, PRISM(SPDF).
 Compute integral first derivatives, UseDBF=F ICtDFT=           0.
 Calling FoFJK, ICntrl=      2127 FMM=F ISym2X=0 I1Cent= 0 IOpClX= 0 NMat=1 NMatS=1 NMatT=0.
 FoFJK:  IHMeth= 1 ICntrl=    2127 DoSepK=T KAlg= 0 I1Cent=           0 FoldK=F
 IRaf=         1 NMat=       1 IRICut=       1 DoRegI=T DoRafI=F ISym2E= 0 IDoP0=0 IntGTp=1.
 FoFCou: FMM=F IPFlag=           0 FMFlag=      100000 FMFlg1=         800
         NFxFlg=           0 DoJE=F BraDBF=F KetDBF=F FulRan=T
         wScrn=  0.000000 ICntrl=      2527 IOpCl=  0 I1Cent=           0 NGrid=           0
         NMat0=    1 NMatS0=      1 NMatT0=    0 NMatD0=    1 NMtDS0=    0 NMtDT0=    0
 Symmetry not used in FoFCou.
 Leave Link  703 at Tue Oct 21 15:03:18 2025, MaxMem=  4294967296 cpu:              66.4 elap:               8.3
 (Enter /lrz/sys/applications/gaussian/g16.C.01/x86_64_legacy/exe/l716.exe)
 Dipole        =-2.10205824D+00 1.53762421D+00-1.84633400D-01
 ***** Axes restored to original set *****
 -------------------------------------------------------------------
 Center     Atomic                   Forces (Hartrees/Bohr)
 Number     Number              X              Y              Z
 -------------------------------------------------------------------
      1        8          -0.000370043   -0.000224798   -0.001493786
      2        6          -0.000103288    0.002543859    0.002387210
      3        7           0.003562729   -0.004682825   -0.005327464
      4        6          -0.001113287   -0.001048080   -0.000184189
      5        6          -0.000130482    0.001805318    0.001049399
      6        6           0.000957567   -0.000165266   -0.000175494
      7        6          -0.005158731    0.000921837    0.000446336
      8        6          -0.001355552   -0.000253561   -0.000118299
      9        7           0.003855604   -0.000071909   -0.000060619
     10        6           0.001832806   -0.000478091   -0.000558940
     11        6          -0.000539891   -0.000529170   -0.000704365
     12        1           0.000451136    0.000136641   -0.000619824
     13        1           0.000567379   -0.000191114    0.000509316
     14        1          -0.001387353    0.001879276    0.002038290
     15        1          -0.001096029    0.001325419    0.002648620
     16        1           0.000254526   -0.001282302   -0.000351256
     17        1           0.000031427   -0.000373580   -0.000241220
     18        1           0.000026272    0.000404232    0.000218837
     19        1          -0.000284788    0.000284114    0.000537447
 -------------------------------------------------------------------
 Cartesian Forces:  Max     0.005327464 RMS     0.001666226
 Leave Link  716 at Tue Oct 21 15:03:18 2025, MaxMem=  4294967296 cpu:               0.2 elap:               0.0
 (Enter /lrz/sys/applications/gaussian/g16.C.01/x86_64_legacy/exe/l103.exe)

 GradGradGradGradGradGradGradGradGradGradGradGradGradGradGradGradGradGrad
 Berny optimization.
 Using GEDIIS/GDIIS optimizer.
 FormGI is forming the generalized inverse of G from B-inverse, IUseBI=4.
 GSVD:  received Info=                   1 from GESDD.
 Internal  Forces:  Max     0.003855475 RMS     0.000839541
 Search for a local minimum.
 Step number   5 out of a maximum of   98
 All quantities printed in internal units (Hartrees-Bohrs-Radians)
 RMS Force = .83954D-03 SwitMx=.10000D-02 MixMth= 2
 Mixed Optimization -- En-DIIS/RFO-DIIS
 Update second derivatives using D2CorX and points    4    5
 DE= -5.56D-04 DEPred=-3.93D-04 R= 1.42D+00
 TightC=F SS=  1.41D+00  RLast= 3.95D-01 DXNew= 1.8944D+00 1.1841D+00
 Trust test= 1.42D+00 RLast= 3.95D-01 DXMaxT set to 1.18D+00
 ITU=  1  1  1  1  0
 Use linear search instead of GDIIS.
     Eigenvalues ---    0.00192   0.00616   0.01344   0.01548   0.02143
     Eigenvalues ---    0.02171   0.02224   0.02230   0.02266   0.02277
     Eigenvalues ---    0.02293   0.02313   0.04498   0.05029   0.05055
     Eigenvalues ---    0.06251   0.07073   0.08814   0.15837   0.15970
     Eigenvalues ---    0.16000   0.16000   0.16003   0.16155   0.16286
     Eigenvalues ---    0.18450   0.20780   0.22006   0.22894   0.24404
     Eigenvalues ---    0.24984   0.25033   0.31938   0.32180   0.35903
     Eigenvalues ---    0.35992   0.36143   0.36941   0.39245   0.42560
     Eigenvalues ---    0.43388   0.43753   0.44952   0.45469   0.45755
     Eigenvalues ---    0.46724   0.47845   0.48050   0.51224   0.54775
     Eigenvalues ---    1.39040
 RFO step:  Lambda=-4.07623754D-04 EMin= 1.91506445D-03
 Quartic linear search produced a step of  0.37888.
 Iteration  1 RMS(Cart)=  0.02726970 RMS(Int)=  0.00038067
 Iteration  2 RMS(Cart)=  0.00044997 RMS(Int)=  0.00011832
 Iteration  3 RMS(Cart)=  0.00000009 RMS(Int)=  0.00011832
 ITry= 1 IFail=0 DXMaxC= 1.00D-01 DCOld= 1.00D+10 DXMaxT= 1.18D+00 DXLimC= 3.00D+00 Rises=F
 Variable       Old X    -DE/DX   Delta X   Delta X   Delta X     New X
                                 (Linear)    (Quad)   (Total)
    R1        2.67278  -0.00194   0.00063  -0.00452  -0.00389   2.66889
    R2        1.82510  -0.00054  -0.00002  -0.00100  -0.00102   1.82408
    R3        2.73486  -0.00049   0.00080  -0.00294  -0.00213   2.73273
    R4        2.86478   0.00158  -0.00048   0.00354   0.00306   2.86784
    R5        2.09282   0.00008  -0.00023   0.00052   0.00029   2.09311
    R6        1.93573  -0.00200  -0.00009  -0.00601  -0.00610   1.92963
    R7        1.93383  -0.00197   0.00032  -0.00555  -0.00523   1.92859
    R8        2.64581   0.00025  -0.00024   0.00024   0.00000   2.64581
    R9        2.63792   0.00019  -0.00030  -0.00004  -0.00033   2.63759
   R10        2.62283   0.00023  -0.00007  -0.00018  -0.00025   2.62259
   R11        2.06515  -0.00096  -0.00056  -0.00245  -0.00300   2.06215
   R12        2.65233   0.00059  -0.00017   0.00110   0.00092   2.65325
   R13        2.06307  -0.00041  -0.00057  -0.00101  -0.00157   2.06150
   R14        2.72133  -0.00252  -0.00093  -0.00658  -0.00751   2.71382
   R15        2.64347   0.00112   0.00011   0.00251   0.00261   2.64608
   R16        2.19510  -0.00386  -0.00072  -0.00284  -0.00356   2.19154
   R17        2.63251  -0.00044  -0.00029  -0.00164  -0.00193   2.63058
   R18        2.06286  -0.00040  -0.00057  -0.00099  -0.00155   2.06131
   R19        2.06646  -0.00058  -0.00053  -0.00159  -0.00212   2.06434
    A1        1.88441  -0.00048  -0.00024  -0.00249  -0.00273   1.88168
    A2        1.85236  -0.00032   0.00178   0.00094   0.00273   1.85509
    A3        1.93092   0.00076   0.00161   0.00393   0.00555   1.93646
    A4        1.90626  -0.00051  -0.00011  -0.00550  -0.00562   1.90064
    A5        1.92326   0.00019  -0.00378   0.00097  -0.00281   1.92045
    A6        1.97046  -0.00019  -0.00047  -0.00110  -0.00157   1.96889
    A7        1.88106   0.00008   0.00104   0.00082   0.00185   1.88291
    A8        1.86745   0.00178   0.00494   0.01831   0.02290   1.89034
    A9        1.87954   0.00056   0.00171   0.01460   0.01595   1.89549
   A10        1.80935   0.00107   0.00132   0.03111   0.03163   1.84098
   A11        2.09379  -0.00082  -0.00135  -0.00350  -0.00490   2.08889
   A12        2.10329   0.00087   0.00141   0.00337   0.00473   2.10801
   A13        2.08556  -0.00005   0.00016   0.00040   0.00054   2.08610
   A14        2.10493  -0.00004  -0.00007  -0.00054  -0.00060   2.10434
   A15        2.09489  -0.00091   0.00009  -0.00617  -0.00609   2.08880
   A16        2.08336   0.00095  -0.00003   0.00672   0.00668   2.09005
   A17        2.08174   0.00052   0.00011   0.00234   0.00245   2.08419
   A18        2.10572  -0.00007  -0.00006   0.00008   0.00002   2.10574
   A19        2.09572  -0.00045  -0.00004  -0.00242  -0.00247   2.09326
   A20        2.08518   0.00081  -0.00016   0.00342   0.00325   2.08843
   A21        2.10801  -0.00112  -0.00029  -0.00440  -0.00469   2.10332
   A22        2.09000   0.00031   0.00045   0.00099   0.00144   2.09143
   A23        2.07819   0.00070   0.00025   0.00332   0.00357   2.08176
   A24        2.09971  -0.00058  -0.00003  -0.00317  -0.00320   2.09651
   A25        2.10528  -0.00012  -0.00022  -0.00015  -0.00037   2.10492
   A26        2.10793  -0.00003  -0.00016  -0.00112  -0.00127   2.10666
   A27        2.08799   0.00003   0.00011   0.00084   0.00095   2.08893
   A28        2.08726  -0.00001   0.00005   0.00029   0.00033   2.08759
   A29        3.14019   0.00020  -0.00110   0.00409   0.00299   3.14317
   A30        3.14262  -0.00005   0.00009  -0.00116  -0.00108   3.14154
    D1       -3.05292   0.00067   0.04653  -0.00344   0.04310  -3.00981
    D2        1.14405   0.00022   0.04912  -0.00731   0.04180   1.18585
    D3       -0.92373  -0.00002   0.04696  -0.00728   0.03969  -0.88404
    D4        1.25528  -0.00167   0.04116  -0.05215  -0.01121   1.24407
    D5       -3.09221   0.00062   0.04564  -0.00169   0.04418  -3.04803
    D6       -2.93668  -0.00085   0.04210  -0.04636  -0.00450  -2.94118
    D7       -1.00099   0.00144   0.04657   0.00410   0.05090  -0.95009
    D8       -0.83243  -0.00074   0.04041  -0.04537  -0.00518  -0.83761
    D9        1.10326   0.00155   0.04489   0.00509   0.05021   1.15347
   D10        1.03922   0.00003  -0.02279  -0.00652  -0.02931   1.00991
   D11       -2.06677  -0.00014  -0.02872  -0.01561  -0.04434  -2.11110
   D12       -1.00378  -0.00015  -0.02365  -0.01064  -0.03430  -1.03808
   D13        2.17342  -0.00033  -0.02959  -0.01974  -0.04932   2.12409
   D14        3.12226  -0.00009  -0.02137  -0.01043  -0.03179   3.09047
   D15        0.01628  -0.00027  -0.02730  -0.01952  -0.04682  -0.03054
   D16       -3.10615  -0.00032  -0.00645  -0.01261  -0.01902  -3.12517
   D17        0.03756  -0.00033  -0.00699  -0.01410  -0.02105   0.01651
   D18        0.00020  -0.00013  -0.00054  -0.00354  -0.00409  -0.00390
   D19       -3.13928  -0.00013  -0.00108  -0.00504  -0.00613   3.13778
   D20        3.10578   0.00031   0.00695   0.01222   0.01922   3.12500
   D21       -0.03844   0.00032   0.00531   0.01664   0.02199  -0.01645
   D22       -0.00037   0.00015   0.00109   0.00325   0.00433   0.00396
   D23        3.13859   0.00016  -0.00055   0.00767   0.00710  -3.13749
   D24        0.00147   0.00002  -0.00018   0.00130   0.00112   0.00259
   D25        3.14144   0.00004   0.00019   0.00026   0.00045  -3.14129
   D26        3.14097   0.00003   0.00035   0.00277   0.00314  -3.13908
   D27       -0.00225   0.00004   0.00072   0.00173   0.00247   0.00022
   D28        3.14045  -0.00003   0.00044  -0.00262  -0.00218   3.13826
   D29       -0.00302   0.00006   0.00038   0.00130   0.00167  -0.00134
   D30        0.00047  -0.00004   0.00007  -0.00159  -0.00152  -0.00105
   D31        3.14019   0.00005   0.00001   0.00233   0.00234  -3.14065
   D32        0.00284  -0.00004   0.00015  -0.00159  -0.00144   0.00140
   D33       -3.13995  -0.00008   0.00017  -0.00358  -0.00341   3.13982
   D34       -3.14063   0.00006   0.00009   0.00234   0.00242  -3.13820
   D35       -0.00024   0.00001   0.00011   0.00034   0.00046   0.00022
   D36       -0.00114  -0.00007  -0.00089  -0.00071  -0.00159  -0.00272
   D37       -3.14010  -0.00008   0.00075  -0.00513  -0.00436   3.13873
   D38       -3.14152  -0.00002  -0.00091   0.00130   0.00039  -3.14113
   D39        0.00270  -0.00004   0.00073  -0.00312  -0.00238   0.00032
         Item               Value     Threshold  Converged?
 Maximum Force            0.003855     0.000450     NO 
 RMS     Force            0.000840     0.000300     NO 
 Maximum Displacement     0.100095     0.001800     NO 
 RMS     Displacement     0.027276     0.001200     NO 
 Predicted change in Energy=-2.927567D-04
 Lowest energy point so far.  Saving SCF results.
 GradGradGradGradGradGradGradGradGradGradGradGradGradGradGradGradGradGrad

 Leave Link  103 at Tue Oct 21 15:03:18 2025, MaxMem=  4294967296 cpu:               0.2 elap:               0.1
 (Enter /lrz/sys/applications/gaussian/g16.C.01/x86_64_legacy/exe/l202.exe)
                          Input orientation:                          
 ---------------------------------------------------------------------
 Center     Atomic      Atomic             Coordinates (Angstroms)
 Number     Number       Type             X           Y           Z
 ---------------------------------------------------------------------
      1          8           0        3.004502   -0.160983    1.201654
      2          6           0        2.487762   -0.201871   -0.112095
      3          7           0        3.027976    0.951793   -0.796508
      4          6           0        0.971590   -0.137054   -0.101114
      5          6           0        0.328453    0.951096    0.501046
      6          6           0       -1.057162    1.019450    0.538749
      7          6           0       -1.814440   -0.016508   -0.031028
      8          6           0       -3.248583    0.046887    0.008694
      9          7           0       -4.406624    0.099663    0.041696
     10          6           0       -1.182036   -1.110338   -0.634590
     11          6           0        0.208760   -1.161985   -0.663008
     12          1           0        2.755659   -0.982832    1.642536
     13          1           0        2.783865   -1.158971   -0.584447
     14          1           0        4.023320    0.791579   -0.958694
     15          1           0        2.606247    1.007018   -1.724222
     16          1           0        0.922395    1.752076    0.944304
     17          1           0       -1.559621    1.866808    1.007341
     18          1           0       -1.776605   -1.912453   -1.073834
     19          1           0        0.707809   -2.014114   -1.130094
 ---------------------------------------------------------------------
                    Distance matrix (angstroms):
                    1          2          3          4          5
     1  O    0.000000
     2  C    1.412314   0.000000
     3  N    2.287242   1.446096   0.000000
     4  C    2.414645   1.517596   2.428556   0.000000
     5  C    2.981411   2.523468   2.995175   1.400104   0.000000
     6  C    4.281353   3.805484   4.298354   2.421314   1.387812
     7  C    4.976202   4.306956   4.997255   2.789518   2.410674
     8  C    6.369257   5.743006   6.392370   4.225607   3.722256
     9  N    7.505880   6.902690   7.530072   5.385315   4.832897
    10  C    4.669066   3.816508   4.690715   2.422806   2.796562
    11  C    3.506443   2.533609   3.526168   1.395750   2.415463
    12  H    0.965264   1.939175   3.125039   2.634114   3.306721
    13  H    2.057868   1.107626   2.135389   2.135946   3.414635
    14  H    2.571472   2.015344   1.021119   3.303159   3.975969
    15  H    3.175467   2.018515   1.020568   2.572058   3.184853
    16  H    2.839224   2.717399   2.846814   2.159660   1.091244
    17  H    4.998091   4.681226   5.013698   3.413380   2.158631
    18  H    5.577139   4.694236   5.600430   3.413327   3.887342
    19  H    3.761109   2.736563   3.780352   2.156788   3.405436
                    6          7          8          9         10
     6  C    0.000000
     7  C    1.404039   0.000000
     8  C    2.455435   1.436092   0.000000
     9  N    3.508841   2.595804   1.159713   0.000000
    10  C    2.434814   1.400245   2.454302   3.509904   0.000000
    11  C    2.793822   2.409327   3.723678   4.836335   1.392045
    12  H    4.445794   4.961895   6.307193   7.418408   4.550495
    13  H    4.556378   4.770315   6.180319   7.326619   3.966517
    14  H    5.301468   5.965988   7.373668   8.517246   5.551402
    15  H    4.306014   4.843241   6.180928   7.288492   4.474549
    16  H    2.149387   3.401386   4.602183   5.651868   3.887796
    17  H    1.090898   2.165646   2.676191   3.487219   3.420805
    18  H    3.422584   2.164136   2.679104   3.494283   1.090796
    19  H    3.886215   3.400017   4.604085   5.656727   2.152638
                   11         12         13         14         15
    11  C    0.000000
    12  H    3.440105   0.000000
    13  H    2.576305   2.234116   0.000000
    14  H    4.295895   3.394392   2.341144   0.000000
    15  H    3.402748   3.913679   2.454006   1.624976   0.000000
    16  H    3.403598   3.365725   3.778405   3.762936   3.242144
    17  H    3.884692   5.210140   5.527658   6.015866   5.055208
    18  H    2.161864   5.365098   4.648131   6.400326   5.306195
    19  H    1.092402   3.597875   2.310629   4.346712   3.617222
                   16         17         18         19
    16  H    0.000000
    17  H    2.485466   0.000000
    18  H    4.978580   4.319860   0.000000
    19  H    4.305038   4.977089   2.487129   0.000000
 Stoichiometry    C8H8N2O
 Framework group  C1[X(C8H8N2O)]
 Deg. of freedom    51
 Full point group                 C1      NOp   1
 RotChk:  IX=0 Diff= 4.28D-02
 Largest Abelian subgroup         C1      NOp   1
 Largest concise Abelian subgroup C1      NOp   1
                         Standard orientation:                         
 ---------------------------------------------------------------------
 Center     Atomic      Atomic             Coordinates (Angstroms)
 Number     Number       Type             X           Y           Z
 ---------------------------------------------------------------------
      1          8           0       -2.948710   -0.329568    1.155286
      2          6           0       -2.414974    0.319720    0.020305
      3          7           0       -2.978010   -0.348935   -1.131686
      4          6           0       -0.901382    0.212389   -0.004559
      5          6           0       -0.295588   -1.049858    0.001624
      6          6           0        1.087082   -1.169191   -0.001176
      7          6           0        1.879256   -0.009989   -0.007123
      8          6           0        3.310542   -0.127383   -0.005887
      9          7           0        4.466221   -0.224012   -0.004834
     10          6           0        1.284363    1.257594   -0.011841
     11          6           0       -0.104055    1.357976   -0.008878
     12          1           0       -2.682976    0.173167    1.935272
     13          1           0       -2.679055    1.394494    0.064545
     14          1           0       -3.966552   -0.101046   -1.195085
     15          1           0       -2.546598    0.034074   -1.973557
     16          1           0       -0.916541   -1.947177    0.008628
     17          1           0        1.560464   -2.152017    0.003355
     18          1           0        1.905923    2.153969   -0.014781
     19          1           0       -0.573918    2.344166   -0.009810
 ---------------------------------------------------------------------
 Rotational constants (GHZ):           3.4634001           0.5473492           0.5197017
 Leave Link  202 at Tue Oct 21 15:03:18 2025, MaxMem=  4294967296 cpu:               0.2 elap:               0.1
 (Enter /lrz/sys/applications/gaussian/g16.C.01/x86_64_legacy/exe/l301.exe)
 Standard basis: def2SVP (5D, 7F)
 Ernie: Thresh=  0.10000D-02 Tol=  0.10000D-05 Strict=F.
 There are   205 symmetry adapted cartesian basis functions of A   symmetry.
 There are   194 symmetry adapted basis functions of A   symmetry.
   194 basis functions,   331 primitive gaussians,   205 cartesian basis functions
    39 alpha electrons       39 beta electrons
       nuclear repulsion energy       545.2156555363 Hartrees.
 IExCor= 4639 DFT=T Ex+Corr=wB97XD ExCW=0 ScaHFX=  1.000000
 ScaDFX=  1.000000  1.000000  1.000000  1.000000 ScalE2=  1.000000  1.000000
 IRadAn=      5 IRanWt=     -1 IRanGd=            0 ICorTp=0 IEmpDi=121
 HFx  wShort=  0.000000 wLong=  0.200000 cFull=  0.222036 cShort=  0.000000 cLong=  0.777964
 DFx  wShort=  0.000000 wLong=  0.200000 cFull=  0.000000 cShort=  0.000000 cLong=  1.000000
 NAtoms=   19 NActive=   19 NUniq=   19 SFac= 1.00D+00 NAtFMM=   60 NAOKFM=F Big=F
 Integral buffers will be    131072 words long.
 Raffenetti 2 integral format.
 Two-electron integral symmetry is turned on.
 R6Disp:  Grimme-D2 Dispersion energy=       -0.0102469769 Hartrees.
 Nuclear repulsion after empirical dispersion term =      545.2054085594 Hartrees.
 ------------------------------------------------------------------------------
 Polarizable Continuum Model (PCM)
 =================================
 Model                : PCM.
 Atomic radii         : SMD-Coulomb.
 Polarization charges : Total charges.
 Charge compensation  : None.
 Solution method      : On-the-fly selection.
 Cavity type          : VdW (van der Waals Surface) (Alpha=1.000).
 Cavity algorithm     : GePol (No added spheres)
                        Default sphere list used, NSphG=   19.
                        Lebedev-Laikov grids with approx.  5.0 points / Ang**2.
                        Smoothing algorithm: York/Karplus (Gamma=1.0000).
                        Polarization charges: spherical gaussians, with
                                              point-specific exponents (IZeta= 3).
                        Self-potential: point-specific (ISelfS= 7).
                        Self-field    : sphere-specific E.n sum rule (ISelfD= 2).
 1st derivatives      : Analytical E(r).r(x)/FMM algorithm (CHGder, D1EAlg=3).
                        Cavity 1st derivative terms included.
 Solvent              : Water, Eps=  78.355300 Eps(inf)=   1.777849
 ------------------------------------------------------------------------------
 Spheres list:
 ISph  on   Nord     Re0    Alpha      Xe            Ye            Ze
    1   O      1    1.5200  1.000     -2.948710     -0.329568      1.155286
    2   C      2    1.8500  1.000     -2.414974      0.319720      0.020305
    3   N      3    1.8900  1.000     -2.978010     -0.348935     -1.131686
    4   C      4    1.8500  1.000     -0.901382      0.212389     -0.004559
    5   C      5    1.8500  1.000     -0.295588     -1.049858      0.001624
    6   C      6    1.8500  1.000      1.087082     -1.169191     -0.001176
    7   C      7    1.8500  1.000      1.879256     -0.009989     -0.007123
    8   C      8    1.8500  1.000      3.310542     -0.127383     -0.005887
    9   N      9    1.8900  1.000      4.466221     -0.224012     -0.004834
   10   C     10    1.8500  1.000      1.284363      1.257594     -0.011841
   11   C     11    1.8500  1.000     -0.104055      1.357976     -0.008878
   12   H     12    1.2000  1.000     -2.682976      0.173167      1.935272
   13   H     13    1.2000  1.000     -2.679055      1.394494      0.064545
   14   H     14    1.2000  1.000     -3.966552     -0.101046     -1.195085
   15   H     15    1.2000  1.000     -2.546598      0.034074     -1.973557
   16   H     16    1.2000  1.000     -0.916541     -1.947177      0.008628
   17   H     17    1.2000  1.000      1.560464     -2.152017      0.003355
   18   H     18    1.2000  1.000      1.905923      2.153969     -0.014781
   19   H     19    1.2000  1.000     -0.573918      2.344166     -0.009810
 ------------------------------------------------------------------------------
 GePol: Number of generator spheres                  =      19
 GePol: Total number of spheres                      =      19
 GePol: Number of exposed spheres                    =      19 (100.00%)
 GePol: Number of points                             =    1607
 GePol: Average weight of points                     =       0.12
 GePol: Minimum weight of points                     =   0.33D-08
 GePol: Maximum weight of points                     =    0.21991
 GePol: Number of points with low weight             =      72
 GePol: Fraction of low-weight points (<1% of avg)   =       4.48%
 GePol: Cavity surface area                          =    187.809 Ang**2
 GePol: Cavity volume                                =    161.728 Ang**3
 ------------------------------------------------------------------------------
 Atomic radii for non-electrostatic terms: SMD-CDS.
 ------------------------------------------------------------------------------
 PCM non-electrostatic energy =         0.0074036335 Hartrees.
 Nuclear repulsion after PCM non-electrostatic terms =      545.2128121929 Hartrees.
 Leave Link  301 at Tue Oct 21 15:03:19 2025, MaxMem=  4294967296 cpu:               0.6 elap:               0.1
 (Enter /lrz/sys/applications/gaussian/g16.C.01/x86_64_legacy/exe/l302.exe)
 NPDir=0 NMtPBC=     1 NCelOv=     1 NCel=       1 NClECP=     1 NCelD=      1
         NCelK=      1 NCelE2=     1 NClLst=     1 CellRange=     0.0.
 One-electron integrals computed using PRISM.
 One-electron integral symmetry used in STVInt
   1 Symmetry operations used in ECPInt.
 ECPInt:  NShTT=    4095 NPrTT=   15045 LenC2=    3949 LenP2D=   11134.
 LDataN:  DoStor=T MaxTD1= 4 Len=   56
 NBasis=   194 RedAO= T EigKep=  2.78D-04  NBF=   194
 NBsUse=   194 1.00D-06 EigRej= -1.00D+00 NBFU=   194
 Precomputing XC quadrature grid using
 IXCGrd= 4 IRadAn=           5 IRanWt=          -1 IRanGd=           0 AccXCQ= 0.00D+00.
 Generated NRdTot=       0 NPtTot=           0 NUsed=           0 NTot=          32
 NSgBfM=   204   204   204   204   204 MxSgAt=    19 MxSgA2=    19.
 Leave Link  302 at Tue Oct 21 15:03:19 2025, MaxMem=  4294967296 cpu:               2.0 elap:               0.3
 (Enter /lrz/sys/applications/gaussian/g16.C.01/x86_64_legacy/exe/l303.exe)
 DipDrv:  MaxL=1.
 Leave Link  303 at Tue Oct 21 15:03:19 2025, MaxMem=  4294967296 cpu:               0.3 elap:               0.0
 (Enter /lrz/sys/applications/gaussian/g16.C.01/x86_64_legacy/exe/l401.exe)
 Initial guess from the checkpoint file:  "g16_C12-a_10.chk"
 B after Tr=     0.000000   -0.000000   -0.000000
         Rot=    0.999858   -0.016807    0.001169    0.000067 Ang=  -1.93 deg.
 Guess basis will be translated and rotated to current coordinates.
 JPrj=2 DoOrth=T DoCkMO=T.
 Generating alternative initial guess.
 ExpMin= 1.22D-01 ExpMax= 2.27D+03 ExpMxC= 3.41D+02 IAcc=3 IRadAn=         5 AccDes= 0.00D+00
 Harris functional with IExCor= 4639 and IRadAn=       5 diagonalized for initial guess.
 HarFok:  IExCor= 4639 AccDes= 0.00D+00 IRadAn=         5 IDoV= 1 UseB2=F ITyADJ=14
 ICtDFT=  3500011 ScaDFX=  1.000000  1.000000  1.000000  1.000000
 FoFCou: FMM=F IPFlag=           0 FMFlag=      100000 FMFlg1=           0
         NFxFlg=           0 DoJE=T BraDBF=F KetDBF=T FulRan=T
         wScrn=  0.000000 ICntrl=       500 IOpCl=  0 I1Cent=   200000004 NGrid=           0
         NMat0=    1 NMatS0=      1 NMatT0=    0 NMatD0=    1 NMtDS0=    0 NMtDT0=    0
 Petite list used in FoFCou.
 Harris En= -472.806923430190    
 Leave Link  401 at Tue Oct 21 15:03:20 2025, MaxMem=  4294967296 cpu:              11.5 elap:               1.5
 (Enter /lrz/sys/applications/gaussian/g16.C.01/x86_64_legacy/exe/l502.exe)
 Integral symmetry usage will be decided dynamically.
 Closed shell SCF:
 Using DIIS extrapolation, IDIIS=  1040.
 NGot=  4294967296 LenX=  4294878900 LenY=  4294836434
 Requested convergence on RMS density matrix=1.00D-08 within 128 cycles.
 Requested convergence on MAX density matrix=1.00D-06.
 Requested convergence on             energy=1.00D-06.
 No special actions if energy rises.
 Fock matrices will be formed incrementally for  20 cycles.

 Cycle   1  Pass 1  IDiag  1:
 FoFJK:  IHMeth= 1 ICntrl=       0 DoSepK=T KAlg= 0 I1Cent=           0 FoldK=F
 IRaf=         1 NMat=       1 IRICut=       1 DoRegI=T DoRafI=F ISym2E= 0 IDoP0=0 IntGTp=1.
 FoFCou: FMM=F IPFlag=           0 FMFlag=      100000 FMFlg1=           0
         NFxFlg=           0 DoJE=T BraDBF=F KetDBF=F FulRan=T
         wScrn=  0.000000 ICntrl=       500 IOpCl=  0 I1Cent=           0 NGrid=           0
         NMat0=    1 NMatS0=      1 NMatT0=    0 NMatD0=    1 NMtDS0=    0 NMtDT0=    0
 Symmetry not used in FoFCou.
 Inv3:  Mode=1 IEnd=     7747347.
 Iteration    1 A*A^-1 deviation from unit magnitude is 6.00D-15 for    181.
 Iteration    1 A*A^-1 deviation from orthogonality  is 3.98D-15 for    851     48.
 Iteration    1 A^-1*A deviation from unit magnitude is 6.22D-15 for    181.
 Iteration    1 A^-1*A deviation from orthogonality  is 3.87D-15 for    573    312.
 E= -493.862087133268    
 DIIS: error= 1.65D-03 at cycle   1 NSaved=   1.
 NSaved= 1 IEnMin= 1 EnMin= -493.862087133268     IErMin= 1 ErrMin= 1.65D-03
 ErrMax= 1.65D-03  0.00D+00 EMaxC= 1.00D-01 BMatC= 9.82D-04 BMatP= 9.82D-04
 IDIUse=3 WtCom= 9.84D-01 WtEn= 1.65D-02
 Coeff-Com:  0.100D+01
 Coeff-En:   0.100D+01
 Coeff:      0.100D+01
 Gap=     0.786 Goal=   None    Shift=    0.000
 GapD=    0.786 DampG=2.000 DampE=1.000 DampFc=2.0000 IDamp=-1.
 RMSDP=2.78D-04 MaxDP=9.42D-03              OVMax= 7.27D-03

 Cycle   2  Pass 1  IDiag  1:
 RMSU=  2.78D-04    CP:  1.00D+00
 E= -493.863523656828     Delta-E=       -0.001436523561 Rises=F Damp=F
 DIIS: error= 4.02D-04 at cycle   2 NSaved=   2.
 NSaved= 2 IEnMin= 2 EnMin= -493.863523656828     IErMin= 2 ErrMin= 4.02D-04
 ErrMax= 4.02D-04  0.00D+00 EMaxC= 1.00D-01 BMatC= 3.43D-05 BMatP= 9.82D-04
 IDIUse=3 WtCom= 9.96D-01 WtEn= 4.02D-03
 Coeff-Com: -0.167D+00 0.117D+01
 Coeff-En:   0.000D+00 0.100D+01
 Coeff:     -0.166D+00 0.117D+01
 Gap=     0.342 Goal=   None    Shift=    0.000
 RMSDP=6.94D-05 MaxDP=1.97D-03 DE=-1.44D-03 OVMax= 2.30D-03

 Cycle   3  Pass 1  IDiag  1:
 RMSU=  4.03D-05    CP:  1.00D+00  1.20D+00
 E= -493.863610019410     Delta-E=       -0.000086362582 Rises=F Damp=F
 DIIS: error= 9.09D-05 at cycle   3 NSaved=   3.
 NSaved= 3 IEnMin= 3 EnMin= -493.863610019410     IErMin= 3 ErrMin= 9.09D-05
 ErrMax= 9.09D-05  0.00D+00 EMaxC= 1.00D-01 BMatC= 2.09D-06 BMatP= 3.43D-05
 IDIUse=1 WtCom= 1.00D+00 WtEn= 0.00D+00
 Coeff-Com: -0.244D-01 0.856D-01 0.939D+00
 Coeff:     -0.244D-01 0.856D-01 0.939D+00
 Gap=     0.342 Goal=   None    Shift=    0.000
 RMSDP=1.62D-05 MaxDP=4.57D-04 DE=-8.64D-05 OVMax= 5.51D-04

 Cycle   4  Pass 1  IDiag  1:
 RMSU=  1.30D-05    CP:  1.00D+00  1.22D+00  1.19D+00
 E= -493.863613044948     Delta-E=       -0.000003025537 Rises=F Damp=F
 DIIS: error= 8.65D-05 at cycle   4 NSaved=   4.
 NSaved= 4 IEnMin= 4 EnMin= -493.863613044948     IErMin= 4 ErrMin= 8.65D-05
 ErrMax= 8.65D-05  0.00D+00 EMaxC= 1.00D-01 BMatC= 1.48D-06 BMatP= 2.09D-06
 IDIUse=1 WtCom= 1.00D+00 WtEn= 0.00D+00
 Coeff-Com:  0.896D-02-0.110D+00 0.489D+00 0.612D+00
 Coeff:      0.896D-02-0.110D+00 0.489D+00 0.612D+00
 Gap=     0.342 Goal=   None    Shift=    0.000
 RMSDP=6.77D-06 MaxDP=2.25D-04 DE=-3.03D-06 OVMax= 3.12D-04

 Cycle   5  Pass 1  IDiag  1:
 RMSU=  4.29D-06    CP:  1.00D+00  1.23D+00  1.30D+00  8.26D-01
 E= -493.863614502407     Delta-E=       -0.000001457459 Rises=F Damp=F
 DIIS: error= 3.27D-05 at cycle   5 NSaved=   5.
 NSaved= 5 IEnMin= 5 EnMin= -493.863614502407     IErMin= 5 ErrMin= 3.27D-05
 ErrMax= 3.27D-05  0.00D+00 EMaxC= 1.00D-01 BMatC= 1.18D-07 BMatP= 1.48D-06
 IDIUse=1 WtCom= 1.00D+00 WtEn= 0.00D+00
 Coeff-Com:  0.663D-02-0.588D-01 0.112D+00 0.262D+00 0.678D+00
 Coeff:      0.663D-02-0.588D-01 0.112D+00 0.262D+00 0.678D+00
 Gap=     0.342 Goal=   None    Shift=    0.000
 RMSDP=2.34D-06 MaxDP=9.07D-05 DE=-1.46D-06 OVMax= 1.09D-04

 Cycle   6  Pass 1  IDiag  1:
 RMSU=  1.73D-06    CP:  1.00D+00  1.23D+00  1.33D+00  8.84D-01  9.49D-01
 E= -493.863614639338     Delta-E=       -0.000000136931 Rises=F Damp=F
 DIIS: error= 8.03D-06 at cycle   6 NSaved=   6.
 NSaved= 6 IEnMin= 6 EnMin= -493.863614639338     IErMin= 6 ErrMin= 8.03D-06
 ErrMax= 8.03D-06  0.00D+00 EMaxC= 1.00D-01 BMatC= 1.37D-08 BMatP= 1.18D-07
 IDIUse=1 WtCom= 1.00D+00 WtEn= 0.00D+00
 Coeff-Com:  0.839D-03-0.259D-02-0.427D-01-0.120D-01 0.245D+00 0.811D+00
 Coeff:      0.839D-03-0.259D-02-0.427D-01-0.120D-01 0.245D+00 0.811D+00
 Gap=     0.342 Goal=   None    Shift=    0.000
 RMSDP=1.08D-06 MaxDP=2.07D-05 DE=-1.37D-07 OVMax= 5.13D-05

 Cycle   7  Pass 1  IDiag  1:
 RMSU=  5.58D-07    CP:  1.00D+00  1.23D+00  1.34D+00  9.18D-01  1.09D+00
                    CP:  1.02D+00
 E= -493.863614660373     Delta-E=       -0.000000021034 Rises=F Damp=F
 DIIS: error= 1.58D-06 at cycle   7 NSaved=   7.
 NSaved= 7 IEnMin= 7 EnMin= -493.863614660373     IErMin= 7 ErrMin= 1.58D-06
 ErrMax= 1.58D-06  0.00D+00 EMaxC= 1.00D-01 BMatC= 1.21D-09 BMatP= 1.37D-08
 IDIUse=1 WtCom= 1.00D+00 WtEn= 0.00D+00
 Coeff-Com: -0.435D-03 0.554D-02-0.246D-01-0.324D-01-0.261D-02 0.254D+00
 Coeff-Com:  0.800D+00
 Coeff:     -0.435D-03 0.554D-02-0.246D-01-0.324D-01-0.261D-02 0.254D+00
 Coeff:      0.800D+00
 Gap=     0.342 Goal=   None    Shift=    0.000
 RMSDP=3.45D-07 MaxDP=7.56D-06 DE=-2.10D-08 OVMax= 1.77D-05

 Cycle   8  Pass 1  IDiag  1:
 RMSU=  2.13D-07    CP:  1.00D+00  1.23D+00  1.34D+00  9.26D-01  1.13D+00
                    CP:  1.12D+00  9.93D-01
 E= -493.863614662134     Delta-E=       -0.000000001761 Rises=F Damp=F
 DIIS: error= 5.69D-07 at cycle   8 NSaved=   8.
 NSaved= 8 IEnMin= 8 EnMin= -493.863614662134     IErMin= 8 ErrMin= 5.69D-07
 ErrMax= 5.69D-07  0.00D+00 EMaxC= 1.00D-01 BMatC= 1.39D-10 BMatP= 1.21D-09
 IDIUse=1 WtCom= 1.00D+00 WtEn= 0.00D+00
 Coeff-Com: -0.231D-03 0.230D-02-0.517D-02-0.112D-01-0.237D-01 0.239D-01
 Coeff-Com:  0.295D+00 0.719D+00
 Coeff:     -0.231D-03 0.230D-02-0.517D-02-0.112D-01-0.237D-01 0.239D-01
 Coeff:      0.295D+00 0.719D+00
 Gap=     0.342 Goal=   None    Shift=    0.000
 RMSDP=9.89D-08 MaxDP=2.11D-06 DE=-1.76D-09 OVMax= 5.68D-06

 Cycle   9  Pass 1  IDiag  1:
 RMSU=  6.77D-08    CP:  1.00D+00  1.23D+00  1.35D+00  9.27D-01  1.14D+00
                    CP:  1.14D+00  1.08D+00  1.07D+00
 E= -493.863614662312     Delta-E=       -0.000000000179 Rises=F Damp=F
 DIIS: error= 1.56D-07 at cycle   9 NSaved=   9.
 NSaved= 9 IEnMin= 9 EnMin= -493.863614662312     IErMin= 9 ErrMin= 1.56D-07
 ErrMax= 1.56D-07  0.00D+00 EMaxC= 1.00D-01 BMatC= 1.07D-11 BMatP= 1.39D-10
 IDIUse=1 WtCom= 1.00D+00 WtEn= 0.00D+00
 Coeff-Com: -0.253D-05-0.122D-03 0.181D-02 0.101D-02-0.587D-02-0.240D-01
 Coeff-Com: -0.253D-01 0.165D+00 0.888D+00
 Coeff:     -0.253D-05-0.122D-03 0.181D-02 0.101D-02-0.587D-02-0.240D-01
 Coeff:     -0.253D-01 0.165D+00 0.888D+00
 Gap=     0.342 Goal=   None    Shift=    0.000
 RMSDP=4.64D-08 MaxDP=8.59D-07 DE=-1.79D-10 OVMax= 2.91D-06

 Cycle  10  Pass 1  IDiag  1:
 RMSU=  2.11D-08    CP:  1.00D+00  1.23D+00  1.35D+00  9.27D-01  1.14D+00
                    CP:  1.15D+00  1.12D+00  1.20D+00  1.11D+00
 E= -493.863614662327     Delta-E=       -0.000000000015 Rises=F Damp=F
 DIIS: error= 9.43D-08 at cycle  10 NSaved=  10.
 NSaved=10 IEnMin=10 EnMin= -493.863614662327     IErMin=10 ErrMin= 9.43D-08
 ErrMax= 9.43D-08  0.00D+00 EMaxC= 1.00D-01 BMatC= 1.25D-12 BMatP= 1.07D-11
 IDIUse=1 WtCom= 1.00D+00 WtEn= 0.00D+00
 Coeff-Com:  0.248D-04-0.279D-03 0.898D-03 0.135D-02 0.144D-02-0.574D-02
 Coeff-Com: -0.367D-01-0.568D-01 0.151D+00 0.945D+00
 Coeff:      0.248D-04-0.279D-03 0.898D-03 0.135D-02 0.144D-02-0.574D-02
 Coeff:     -0.367D-01-0.568D-01 0.151D+00 0.945D+00
 Gap=     0.342 Goal=   None    Shift=    0.000
 RMSDP=1.75D-08 MaxDP=3.39D-07 DE=-1.46D-11 OVMax= 1.37D-06

 Cycle  11  Pass 1  IDiag  1:
 RMSU=  8.57D-09    CP:  1.00D+00  1.23D+00  1.35D+00  9.27D-01  1.14D+00
                    CP:  1.15D+00  1.13D+00  1.25D+00  1.25D+00  1.25D+00
 E= -493.863614662352     Delta-E=       -0.000000000025 Rises=F Damp=F
 DIIS: error= 4.34D-08 at cycle  11 NSaved=  11.
 NSaved=11 IEnMin=11 EnMin= -493.863614662352     IErMin=11 ErrMin= 4.34D-08
 ErrMax= 4.34D-08  0.00D+00 EMaxC= 1.00D-01 BMatC= 2.28D-13 BMatP= 1.25D-12
 IDIUse=1 WtCom= 1.00D+00 WtEn= 0.00D+00
 Coeff-Com:  0.609D-05-0.489D-04-0.210D-04 0.146D-03 0.101D-02 0.211D-02
 Coeff-Com: -0.521D-02-0.366D-01-0.794D-01 0.203D+00 0.915D+00
 Coeff:      0.609D-05-0.489D-04-0.210D-04 0.146D-03 0.101D-02 0.211D-02
 Coeff:     -0.521D-02-0.366D-01-0.794D-01 0.203D+00 0.915D+00
 Gap=     0.342 Goal=   None    Shift=    0.000
 RMSDP=7.01D-09 MaxDP=1.64D-07 DE=-2.48D-11 OVMax= 6.63D-07

 Error on total polarization charges =  0.02909
 SCF Done:  E(RwB97XD) =  -493.863614662     A.U. after   11 cycles
            NFock= 11  Conv=0.70D-08     -V/T= 2.0101
 KE= 4.889185342976D+02 PE=-2.238484012259D+03 EE= 7.104890511062D+02
 SMD-CDS (non-electrostatic) energy       (kcal/mol) =       4.65
 (included in total energy above)
 Leave Link  502 at Tue Oct 21 15:04:03 2025, MaxMem=  4294967296 cpu:             336.7 elap:              42.4
 (Enter /lrz/sys/applications/gaussian/g16.C.01/x86_64_legacy/exe/l701.exe)
 ... and contract with generalized density number  0.
 Compute integral first derivatives.
 R6Disp: Adding Grimme-D2 dispersion energy 1st derivatives to the gradient.
   1 Symmetry operations used in ECPInt.
 ECPInt:  NShTT=    4095 NPrTT=   15045 LenC2=    3949 LenP2D=   11134.
 LDataN:  DoStor=T MaxTD1= 5 Len=  102
 D1PCM: PCM CHGder 1st derivatives, ID1Alg=3 FixD1E=F DoIter=F DoCFld=F I1PDM=0.
 GePol: Maximum number of non-zero 1st derivatives   =     258
 Leave Link  701 at Tue Oct 21 15:04:04 2025, MaxMem=  4294967296 cpu:               8.7 elap:               1.1
 (Enter /lrz/sys/applications/gaussian/g16.C.01/x86_64_legacy/exe/l702.exe)
 L702 exits ... SP integral derivatives will be done elsewhere.
 Leave Link  702 at Tue Oct 21 15:04:04 2025, MaxMem=  4294967296 cpu:               0.2 elap:               0.0
 (Enter /lrz/sys/applications/gaussian/g16.C.01/x86_64_legacy/exe/l703.exe)
 Integral derivatives from FoFJK, PRISM(SPDF).
 Compute integral first derivatives, UseDBF=F ICtDFT=           0.
 Calling FoFJK, ICntrl=      2127 FMM=F ISym2X=0 I1Cent= 0 IOpClX= 0 NMat=1 NMatS=1 NMatT=0.
 FoFJK:  IHMeth= 1 ICntrl=    2127 DoSepK=T KAlg= 0 I1Cent=           0 FoldK=F
 IRaf=         1 NMat=       1 IRICut=       1 DoRegI=T DoRafI=F ISym2E= 0 IDoP0=0 IntGTp=1.
 FoFCou: FMM=F IPFlag=           0 FMFlag=      100000 FMFlg1=         800
         NFxFlg=           0 DoJE=F BraDBF=F KetDBF=F FulRan=T
         wScrn=  0.000000 ICntrl=      2527 IOpCl=  0 I1Cent=           0 NGrid=           0
         NMat0=    1 NMatS0=      1 NMatT0=    0 NMatD0=    1 NMtDS0=    0 NMtDT0=    0
 Symmetry not used in FoFCou.
 Leave Link  703 at Tue Oct 21 15:04:12 2025, MaxMem=  4294967296 cpu:              68.5 elap:               8.6
 (Enter /lrz/sys/applications/gaussian/g16.C.01/x86_64_legacy/exe/l716.exe)
 Dipole        =-2.11933824D+00 1.53138731D+00-1.08273642D-01
 ***** Axes restored to original set *****
 -------------------------------------------------------------------
 Center     Atomic                   Forces (Hartrees/Bohr)
 Number     Number              X              Y              Z
 -------------------------------------------------------------------
      1        8          -0.000048838    0.000363369   -0.000111296
      2        6           0.000653721    0.001554414   -0.000291756
      3        7           0.000152632   -0.001644501   -0.001009240
      4        6          -0.000202557   -0.000186263   -0.000324920
      5        6          -0.000274096    0.000236242    0.000214794
      6        6           0.000361072   -0.000153575    0.000019055
      7        6          -0.000611827    0.000100198   -0.000000782
      8        6           0.000662970    0.000024292   -0.000051290
      9        7          -0.000692555    0.000002350    0.000005516
     10        6           0.000325651    0.000007630    0.000040935
     11        6          -0.000041939    0.000067343   -0.000228387
     12        1           0.000332321   -0.000210521   -0.000101946
     13        1           0.000019276   -0.000383223    0.000232580
     14        1          -0.000298998    0.000001091    0.000580658
     15        1          -0.000269974    0.000335140    0.000987657
     16        1           0.000201683   -0.000018909    0.000103073
     17        1          -0.000147579    0.000190759    0.000079811
     18        1          -0.000204990   -0.000127569   -0.000106406
     19        1           0.000084028   -0.000158268   -0.000038059
 -------------------------------------------------------------------
 Cartesian Forces:  Max     0.001644501 RMS     0.000438909
 Leave Link  716 at Tue Oct 21 15:04:12 2025, MaxMem=  4294967296 cpu:               0.2 elap:               0.0
 (Enter /lrz/sys/applications/gaussian/g16.C.01/x86_64_legacy/exe/l103.exe)

 GradGradGradGradGradGradGradGradGradGradGradGradGradGradGradGradGradGrad
 Berny optimization.
 Using GEDIIS/GDIIS optimizer.
 FormGI is forming the generalized inverse of G from B-inverse, IUseBI=4.
 Internal  Forces:  Max     0.001447956 RMS     0.000265179
 Search for a local minimum.
 Step number   6 out of a maximum of   98
 All quantities printed in internal units (Hartrees-Bohrs-Radians)
 RMS Force = .26518D-03 SwitMx=.10000D-02 MixMth= 2
 Mixed Optimization -- En-DIIS/RFO-DIIS
 Swapping is turned off.
 Update second derivatives using D2CorX and points    4    5    6
 DE= -3.15D-04 DEPred=-2.93D-04 R= 1.08D+00
 TightC=F SS=  1.41D+00  RLast= 1.62D-01 DXNew= 1.9915D+00 4.8550D-01
 Trust test= 1.08D+00 RLast= 1.62D-01 DXMaxT set to 1.18D+00
 ITU=  1  1  1  1  1  0
     Eigenvalues ---    0.00176   0.00610   0.01309   0.01545   0.02139
     Eigenvalues ---    0.02157   0.02223   0.02231   0.02261   0.02274
     Eigenvalues ---    0.02293   0.02314   0.03943   0.05029   0.05069
     Eigenvalues ---    0.06259   0.07000   0.08778   0.15780   0.15999
     Eigenvalues ---    0.16000   0.16001   0.16026   0.16211   0.16765
     Eigenvalues ---    0.18344   0.20810   0.22004   0.22858   0.24363
     Eigenvalues ---    0.24989   0.25062   0.31745   0.32119   0.35901
     Eigenvalues ---    0.35992   0.36126   0.36875   0.39722   0.42636
     Eigenvalues ---    0.43377   0.43804   0.45060   0.45627   0.45719
     Eigenvalues ---    0.46728   0.47841   0.48117   0.51321   0.54801
     Eigenvalues ---    1.41855
 En-DIIS/RFO-DIIS/Sim-DIIS IScMMF=       -3 using points:     6    5
 RFO step:  Lambda=-2.29316799D-04.
 NNeg= 0 NGDIIS= 2 SimSw=  2.50D-01 Rises=F DC= -3.15D-04 SmlDif=  1.00D-05
 NRisDI= 0 DoIntr=F SqrtH=F CThrHd= 10.0 CDAdj=  3.0
 RMS Error=  0.3323615326D-01 NUsed= 2 OKEnD=T EnDIS=F
 InvSVX:  RCond= 5.41D-03 Info=           0 Equed=N FErr=  1.21D-14 BErr=  4.05D-17
 DidBck=F Rises=F RFO-DIIS coefs:    2.74229   -1.74229
 Iteration  1 RMS(Cart)=  0.05581616 RMS(Int)=  0.00141913
 Iteration  2 RMS(Cart)=  0.00189879 RMS(Int)=  0.00021867
 Iteration  3 RMS(Cart)=  0.00000259 RMS(Int)=  0.00021866
 Iteration  4 RMS(Cart)=  0.00000000 RMS(Int)=  0.00021866
 ITry= 1 IFail=0 DXMaxC= 1.89D-01 DCOld= 1.00D+10 DXMaxT= 1.18D+00 DXLimC= 3.00D+00 Rises=F
 Variable       Old X    -DE/DX   Delta X   Delta X   Delta X     New X
                                 (Linear)    (Quad)   (Total)
    R1        2.66889  -0.00008  -0.00679   0.00572  -0.00106   2.66782
    R2        1.82408   0.00003  -0.00177   0.00179   0.00002   1.82410
    R3        2.73273  -0.00145  -0.00372  -0.00273  -0.00644   2.72628
    R4        2.86784   0.00053   0.00533  -0.00339   0.00194   2.86978
    R5        2.09311   0.00023   0.00050   0.00008   0.00058   2.09369
    R6        1.92963  -0.00039  -0.01063   0.00795  -0.00268   1.92696
    R7        1.92859  -0.00076  -0.00912   0.00565  -0.00347   1.92513
    R8        2.64581   0.00034   0.00000   0.00073   0.00074   2.64656
    R9        2.63759   0.00018  -0.00057   0.00066   0.00010   2.63768
   R10        2.62259   0.00014  -0.00043   0.00045   0.00002   2.62261
   R11        2.06215   0.00014  -0.00523   0.00502  -0.00021   2.06194
   R12        2.65325   0.00032   0.00161  -0.00086   0.00074   2.65399
   R13        2.06150   0.00025  -0.00274   0.00305   0.00030   2.06180
   R14        2.71382   0.00003  -0.01309   0.01112  -0.00197   2.71185
   R15        2.64608   0.00032   0.00456  -0.00340   0.00115   2.64723
   R16        2.19154   0.00069  -0.00620   0.00592  -0.00027   2.19127
   R17        2.63058   0.00017  -0.00336   0.00309  -0.00027   2.63031
   R18        2.06131   0.00025  -0.00271   0.00306   0.00035   2.06165
   R19        2.06434   0.00018  -0.00370   0.00363  -0.00007   2.06427
    A1        1.88168   0.00003  -0.00476   0.00260  -0.00216   1.87952
    A2        1.85509  -0.00034   0.00475  -0.00439   0.00036   1.85545
    A3        1.93646   0.00057   0.00966  -0.00193   0.00773   1.94420
    A4        1.90064  -0.00013  -0.00979   0.00524  -0.00456   1.89608
    A5        1.92045  -0.00006  -0.00490  -0.00117  -0.00608   1.91436
    A6        1.96889   0.00014  -0.00274   0.00499   0.00224   1.97113
    A7        1.88291  -0.00016   0.00322  -0.00266   0.00056   1.88348
    A8        1.89034  -0.00031   0.03989  -0.03209   0.00713   1.89748
    A9        1.89549   0.00010   0.02779  -0.02121   0.00591   1.90141
   A10        1.84098   0.00048   0.05510  -0.03830   0.01532   1.85630
   A11        2.08889   0.00003  -0.00854   0.00619  -0.00245   2.08644
   A12        2.10801   0.00001   0.00824  -0.00562   0.00252   2.11054
   A13        2.08610  -0.00003   0.00093  -0.00079   0.00009   2.08619
   A14        2.10434   0.00000  -0.00104   0.00081  -0.00021   2.10413
   A15        2.08880  -0.00015  -0.01060   0.00907  -0.00154   2.08725
   A16        2.09005   0.00015   0.01165  -0.00988   0.00175   2.09180
   A17        2.08419   0.00010   0.00427  -0.00331   0.00097   2.08516
   A18        2.10574  -0.00000   0.00003   0.00005   0.00007   2.10581
   A19        2.09326  -0.00009  -0.00430   0.00326  -0.00104   2.09222
   A20        2.08843   0.00018   0.00567  -0.00433   0.00133   2.08977
   A21        2.10332  -0.00018  -0.00817   0.00638  -0.00179   2.10152
   A22        2.09143   0.00000   0.00250  -0.00204   0.00046   2.09189
   A23        2.08176   0.00013   0.00621  -0.00480   0.00142   2.08318
   A24        2.09651  -0.00014  -0.00558   0.00407  -0.00151   2.09499
   A25        2.10492   0.00001  -0.00064   0.00074   0.00010   2.10502
   A26        2.10666  -0.00001  -0.00222   0.00172  -0.00048   2.10618
   A27        2.08893  -0.00001   0.00165  -0.00133   0.00031   2.08924
   A28        2.08759   0.00001   0.00057  -0.00039   0.00017   2.08776
   A29        3.14317  -0.00011   0.00521  -0.00719  -0.00199   3.14119
   A30        3.14154  -0.00002  -0.00188   0.00110  -0.00078   3.14076
    D1       -3.00981   0.00028   0.07510   0.02429   0.09940  -2.91042
    D2        1.18585   0.00024   0.07282   0.02944   0.10223   1.28807
    D3       -0.88404   0.00018   0.06915   0.03059   0.09976  -0.78429
    D4        1.24407  -0.00039  -0.01953   0.08503   0.06508   1.30915
    D5       -3.04803   0.00007   0.07698   0.01264   0.09004  -2.95799
    D6       -2.94118   0.00006  -0.00784   0.07946   0.07120  -2.86997
    D7       -0.95009   0.00052   0.08867   0.00708   0.09616  -0.85393
    D8       -0.83761  -0.00009  -0.00903   0.07860   0.06915  -0.76846
    D9        1.15347   0.00037   0.08748   0.00621   0.09411   1.24758
   D10        1.00991  -0.00019  -0.05107  -0.02430  -0.07539   0.93452
   D11       -2.11110  -0.00023  -0.07725  -0.01204  -0.08930  -2.20041
   D12       -1.03808  -0.00009  -0.05976  -0.01698  -0.07674  -1.11482
   D13        2.12409  -0.00013  -0.08594  -0.00473  -0.09066   2.03344
   D14        3.09047  -0.00012  -0.05539  -0.02068  -0.07607   3.01440
   D15       -0.03054  -0.00016  -0.08157  -0.00843  -0.08999  -0.12052
   D16       -3.12517  -0.00007  -0.03313   0.01729  -0.01576  -3.14093
   D17        0.01651  -0.00008  -0.03668   0.01736  -0.01924  -0.00273
   D18       -0.00390  -0.00003  -0.00713   0.00513  -0.00201  -0.00591
   D19        3.13778  -0.00004  -0.01068   0.00520  -0.00549   3.13229
   D20        3.12500   0.00008   0.03349  -0.01775   0.01582   3.14083
   D21       -0.01645   0.00006   0.03832  -0.02127   0.01712   0.00068
   D22        0.00396   0.00004   0.00755  -0.00560   0.00194   0.00590
   D23       -3.13749   0.00002   0.01238  -0.00912   0.00324  -3.13425
   D24        0.00259  -0.00001   0.00195  -0.00219  -0.00023   0.00237
   D25       -3.14129   0.00002   0.00078   0.00033   0.00109  -3.14020
   D26       -3.13908   0.00000   0.00547  -0.00226   0.00325  -3.13583
   D27        0.00022   0.00004   0.00430   0.00025   0.00458   0.00479
   D28        3.13826   0.00004  -0.00380   0.00448   0.00067   3.13893
   D29       -0.00134   0.00005   0.00292  -0.00033   0.00258   0.00124
   D30       -0.00105   0.00000  -0.00264   0.00199  -0.00065  -0.00170
   D31       -3.14065   0.00001   0.00408  -0.00282   0.00126  -3.13939
   D32        0.00140  -0.00004  -0.00252  -0.00013  -0.00265  -0.00125
   D33        3.13982  -0.00001  -0.00594   0.00405  -0.00188   3.13794
   D34       -3.13820  -0.00003   0.00422  -0.00495  -0.00074  -3.13894
   D35        0.00022  -0.00000   0.00080  -0.00077   0.00003   0.00026
   D36       -0.00272  -0.00001  -0.00276   0.00312   0.00038  -0.00234
   D37        3.13873   0.00001  -0.00759   0.00664  -0.00092   3.13781
   D38       -3.14113  -0.00003   0.00068  -0.00108  -0.00040  -3.14153
   D39        0.00032  -0.00002  -0.00415   0.00243  -0.00169  -0.00138
         Item               Value     Threshold  Converged?
 Maximum Force            0.001448     0.000450     NO 
 RMS     Force            0.000265     0.000300     YES
 Maximum Displacement     0.188855     0.001800     NO 
 RMS     Displacement     0.055820     0.001200     NO 
 Predicted change in Energy=-1.270015D-04
 Lowest energy point so far.  Saving SCF results.
 GradGradGradGradGradGradGradGradGradGradGradGradGradGradGradGradGradGrad

 Leave Link  103 at Tue Oct 21 15:04:13 2025, MaxMem=  4294967296 cpu:               0.2 elap:               0.1
 (Enter /lrz/sys/applications/gaussian/g16.C.01/x86_64_legacy/exe/l202.exe)
                          Input orientation:                          
 ---------------------------------------------------------------------
 Center     Atomic      Atomic             Coordinates (Angstroms)
 Number     Number       Type             X           Y           Z
 ---------------------------------------------------------------------
      1          8           0        3.016896   -0.084418    1.216871
      2          6           0        2.489606   -0.200893   -0.087523
      3          7           0        3.014291    0.914149   -0.837677
      4          6           0        0.972118   -0.142848   -0.078836
      5          6           0        0.325715    0.932522    0.543367
      6          6           0       -1.059986    1.006289    0.564442
      7          6           0       -1.815347   -0.010350   -0.042435
      8          6           0       -3.248582    0.058552   -0.021121
      9          7           0       -4.406716    0.113428   -0.003464
     10          6           0       -1.178338   -1.092352   -0.663631
     11          6           0        0.212305   -1.150334   -0.675428
     12          1           0        2.855597   -0.919123    1.674039
     13          1           0        2.790754   -1.182043   -0.504866
     14          1           0        3.992934    0.729627   -1.056766
     15          1           0        2.526314    0.971251   -1.730109
     16          1           0        0.918587    1.716180    1.017659
     17          1           0       -1.565173    1.844000    1.047593
     18          1           0       -1.771152   -1.880454   -1.130217
     19          1           0        0.713446   -1.993922   -1.155512
 ---------------------------------------------------------------------
                    Distance matrix (angstroms):
                    1          2          3          4          5
     1  O    0.000000
     2  C    1.411752   0.000000
     3  N    2.284362   1.442687   0.000000
     4  C    2.421443   1.518623   2.421477   0.000000
     5  C    2.954695   2.522910   3.022591   1.400498   0.000000
     6  C    4.270395   3.805516   4.309775   2.421523   1.387824
     7  C    4.994187   4.309403   4.981216   2.790849   2.411705
     8  C    6.388214   5.744434   6.373570   4.225897   3.722644
     9  N    7.525847   6.903993   7.510554   5.385464   4.833824
    10  C    4.706612   3.818430   4.651287   2.422396   2.796272
    11  C    3.547210   2.536369   3.484184   1.395803   2.415909
    12  H    0.965273   1.937241   3.113645   2.687502   3.332763
    13  H    2.054337   1.107935   2.134186   2.137490   3.412711
    14  H    2.604754   2.016258   1.019701   3.292854   4.006256
    15  H    3.168564   2.018256   1.018733   2.526547   3.164305
    16  H    2.772136   2.713798   2.911615   2.158970   1.091132
    17  H    4.974214   4.680952   5.038884   3.413833   2.158818
    18  H    5.626719   4.697041   5.549401   3.413239   3.887232
    19  H    3.818414   2.740492   3.721798   2.156992   3.405965
                    6          7          8          9         10
     6  C    0.000000
     7  C    1.404431   0.000000
     8  C    2.455818   1.435049   0.000000
     9  N    3.510031   2.594617   1.159568   0.000000
    10  C    2.434433   1.400854   2.454243   3.508868   0.000000
    11  C    2.794106   2.410729   3.723878   4.835700   1.391901
    12  H    4.502245   5.058642   6.410181   7.524717   4.665548
    13  H    4.556360   4.775235   6.184389   7.330295   3.973278
    14  H    5.313837   5.942437   7.345914   8.487831   5.496927
    15  H    4.257668   4.760441   6.091230   7.196115   4.372673
    16  H    2.150372   3.402807   4.603487   5.654234   3.887374
    17  H    1.091058   2.165494   2.676535   3.489121   3.420539
    18  H    3.422121   2.163911   2.678178   3.491610   1.090980
    19  H    3.886460   3.401219   4.604037   5.655458   2.152585
                   11         12         13         14         15
    11  C    0.000000
    12  H    3.544071   0.000000
    13  H    2.584278   2.195668   0.000000
    14  H    4.239437   3.386622   2.324717   0.000000
    15  H    3.311814   3.907705   2.491550   1.631793   0.000000
    16  H    3.403275   3.335815   3.771311   3.837726   3.269547
    17  H    3.885134   5.250760   5.526406   6.046711   5.021711
    18  H    2.161946   5.494980   4.657234   6.327922   5.192331
    19  H    1.092365   3.708148   2.323294   4.264095   3.522626
                   16         17         18         19
    16  H    0.000000
    17  H    2.487227   0.000000
    18  H    4.978337   4.319357   0.000000
    19  H    4.304603   4.977491   2.487316   0.000000
 Stoichiometry    C8H8N2O
 Framework group  C1[X(C8H8N2O)]
 Deg. of freedom    51
 Full point group                 C1      NOp   1
 RotChk:  IX=2 Diff= 1.11D-01
 Largest Abelian subgroup         C1      NOp   1
 Largest concise Abelian subgroup C1      NOp   1
                         Standard orientation:                         
 ---------------------------------------------------------------------
 Center     Atomic      Atomic             Coordinates (Angstroms)
 Number     Number       Type             X           Y           Z
 ---------------------------------------------------------------------
      1          8           0       -2.970789   -0.480200    1.085093
      2          6           0       -2.416343    0.312359    0.056753
      3          7           0       -2.955966   -0.194886   -1.181332
      4          6           0       -0.901326    0.210208    0.034359
      5          6           0       -0.295075   -1.050584   -0.030899
      6          6           0        1.087581   -1.168421   -0.051680
      7          6           0        1.880541   -0.010256   -0.003783
      8          6           0        3.310829   -0.125679   -0.021643
      9          7           0        4.466594   -0.218515   -0.035273
     10          6           0        1.283833    1.255236    0.065953
     11          6           0       -0.104349    1.354952    0.085878
     12          1           0       -2.796237   -0.036060    1.924154
     13          1           0       -2.683817    1.371336    0.242619
     14          1           0       -3.925170    0.110676   -1.265389
     15          1           0       -2.453061    0.228740   -1.959436
     16          1           0       -0.917044   -1.946536   -0.062395
     17          1           0        1.561518   -2.149785   -0.103806
     18          1           0        1.905718    2.150705    0.106331
     19          1           0       -0.574145    2.339432    0.143788
 ---------------------------------------------------------------------
 Rotational constants (GHZ):           3.4650615           0.5474437           0.5193183
 Leave Link  202 at Tue Oct 21 15:04:13 2025, MaxMem=  4294967296 cpu:               0.1 elap:               0.0
 (Enter /lrz/sys/applications/gaussian/g16.C.01/x86_64_legacy/exe/l301.exe)
 Standard basis: def2SVP (5D, 7F)
 Ernie: Thresh=  0.10000D-02 Tol=  0.10000D-05 Strict=F.
 There are   205 symmetry adapted cartesian basis functions of A   symmetry.
 There are   194 symmetry adapted basis functions of A   symmetry.
   194 basis functions,   331 primitive gaussians,   205 cartesian basis functions
    39 alpha electrons       39 beta electrons
       nuclear repulsion energy       545.2424259313 Hartrees.
 IExCor= 4639 DFT=T Ex+Corr=wB97XD ExCW=0 ScaHFX=  1.000000
 ScaDFX=  1.000000  1.000000  1.000000  1.000000 ScalE2=  1.000000  1.000000
 IRadAn=      5 IRanWt=     -1 IRanGd=            0 ICorTp=0 IEmpDi=121
 HFx  wShort=  0.000000 wLong=  0.200000 cFull=  0.222036 cShort=  0.000000 cLong=  0.777964
 DFx  wShort=  0.000000 wLong=  0.200000 cFull=  0.000000 cShort=  0.000000 cLong=  1.000000
 NAtoms=   19 NActive=   19 NUniq=   19 SFac= 1.00D+00 NAtFMM=   60 NAOKFM=F Big=F
 Integral buffers will be    131072 words long.
 Raffenetti 2 integral format.
 Two-electron integral symmetry is turned on.
 R6Disp:  Grimme-D2 Dispersion energy=       -0.0102461883 Hartrees.
 Nuclear repulsion after empirical dispersion term =      545.2321797430 Hartrees.
 ------------------------------------------------------------------------------
 Polarizable Continuum Model (PCM)
 =================================
 Model                : PCM.
 Atomic radii         : SMD-Coulomb.
 Polarization charges : Total charges.
 Charge compensation  : None.
 Solution method      : On-the-fly selection.
 Cavity type          : VdW (van der Waals Surface) (Alpha=1.000).
 Cavity algorithm     : GePol (No added spheres)
                        Default sphere list used, NSphG=   19.
                        Lebedev-Laikov grids with approx.  5.0 points / Ang**2.
                        Smoothing algorithm: York/Karplus (Gamma=1.0000).
                        Polarization charges: spherical gaussians, with
                                              point-specific exponents (IZeta= 3).
                        Self-potential: point-specific (ISelfS= 7).
                        Self-field    : sphere-specific E.n sum rule (ISelfD= 2).
 1st derivatives      : Analytical E(r).r(x)/FMM algorithm (CHGder, D1EAlg=3).
                        Cavity 1st derivative terms included.
 Solvent              : Water, Eps=  78.355300 Eps(inf)=   1.777849
 ------------------------------------------------------------------------------
 Spheres list:
 ISph  on   Nord     Re0    Alpha      Xe            Ye            Ze
    1   O      1    1.5200  1.000     -2.970789     -0.480200      1.085093
    2   C      2    1.8500  1.000     -2.416343      0.312359      0.056753
    3   N      3    1.8900  1.000     -2.955966     -0.194886     -1.181332
    4   C      4    1.8500  1.000     -0.901326      0.210208      0.034359
    5   C      5    1.8500  1.000     -0.295075     -1.050584     -0.030899
    6   C      6    1.8500  1.000      1.087581     -1.168421     -0.051680
    7   C      7    1.8500  1.000      1.880541     -0.010256     -0.003783
    8   C      8    1.8500  1.000      3.310829     -0.125679     -0.021643
    9   N      9    1.8900  1.000      4.466594     -0.218515     -0.035273
   10   C     10    1.8500  1.000      1.283833      1.255236      0.065953
   11   C     11    1.8500  1.000     -0.104349      1.354952      0.085878
   12   H     12    1.2000  1.000     -2.796237     -0.036060      1.924154
   13   H     13    1.2000  1.000     -2.683817      1.371336      0.242619
   14   H     14    1.2000  1.000     -3.925170      0.110676     -1.265389
   15   H     15    1.2000  1.000     -2.453061      0.228740     -1.959436
   16   H     16    1.2000  1.000     -0.917044     -1.946536     -0.062395
   17   H     17    1.2000  1.000      1.561518     -2.149785     -0.103806
   18   H     18    1.2000  1.000      1.905718      2.150705      0.106331
   19   H     19    1.2000  1.000     -0.574145      2.339432      0.143788
 ------------------------------------------------------------------------------
 GePol: Number of generator spheres                  =      19
 GePol: Total number of spheres                      =      19
 GePol: Number of exposed spheres                    =      19 (100.00%)
 GePol: Number of points                             =    1628
 GePol: Average weight of points                     =       0.12
 GePol: Minimum weight of points                     =   0.22D-07
 GePol: Maximum weight of points                     =    0.21991
 GePol: Number of points with low weight             =      75
 GePol: Fraction of low-weight points (<1% of avg)   =       4.61%
 GePol: Cavity surface area                          =    187.784 Ang**2
 GePol: Cavity volume                                =    161.745 Ang**3
 ------------------------------------------------------------------------------
 Atomic radii for non-electrostatic terms: SMD-CDS.
 ------------------------------------------------------------------------------
 PCM non-electrostatic energy =         0.0073537040 Hartrees.
 Nuclear repulsion after PCM non-electrostatic terms =      545.2395334471 Hartrees.
 Leave Link  301 at Tue Oct 21 15:04:13 2025, MaxMem=  4294967296 cpu:               0.6 elap:               0.1
 (Enter /lrz/sys/applications/gaussian/g16.C.01/x86_64_legacy/exe/l302.exe)
 NPDir=0 NMtPBC=     1 NCelOv=     1 NCel=       1 NClECP=     1 NCelD=      1
         NCelK=      1 NCelE2=     1 NClLst=     1 CellRange=     0.0.
 One-electron integrals computed using PRISM.
 One-electron integral symmetry used in STVInt
   1 Symmetry operations used in ECPInt.
 ECPInt:  NShTT=    4095 NPrTT=   15045 LenC2=    3949 LenP2D=   11129.
 LDataN:  DoStor=T MaxTD1= 4 Len=   56
 NBasis=   194 RedAO= T EigKep=  2.78D-04  NBF=   194
 NBsUse=   194 1.00D-06 EigRej= -1.00D+00 NBFU=   194
 Precomputing XC quadrature grid using
 IXCGrd= 4 IRadAn=           5 IRanWt=          -1 IRanGd=           0 AccXCQ= 0.00D+00.
 Generated NRdTot=       0 NPtTot=           0 NUsed=           0 NTot=          32
 NSgBfM=   204   204   204   204   204 MxSgAt=    19 MxSgA2=    19.
 Leave Link  302 at Tue Oct 21 15:04:13 2025, MaxMem=  4294967296 cpu:               2.0 elap:               0.3
 (Enter /lrz/sys/applications/gaussian/g16.C.01/x86_64_legacy/exe/l303.exe)
 DipDrv:  MaxL=1.
 Leave Link  303 at Tue Oct 21 15:04:13 2025, MaxMem=  4294967296 cpu:               0.2 elap:               0.0
 (Enter /lrz/sys/applications/gaussian/g16.C.01/x86_64_legacy/exe/l401.exe)
 Initial guess from the checkpoint file:  "g16_C12-a_10.chk"
 B after Tr=    -0.000000    0.000000   -0.000000
         Rot=    0.999128   -0.041720    0.001706    0.000017 Ang=  -4.79 deg.
 Guess basis will be translated and rotated to current coordinates.
 JPrj=2 DoOrth=T DoCkMO=T.
 Generating alternative initial guess.
 ExpMin= 1.22D-01 ExpMax= 2.27D+03 ExpMxC= 3.41D+02 IAcc=3 IRadAn=         5 AccDes= 0.00D+00
 Harris functional with IExCor= 4639 and IRadAn=       5 diagonalized for initial guess.
 HarFok:  IExCor= 4639 AccDes= 0.00D+00 IRadAn=         5 IDoV= 1 UseB2=F ITyADJ=14
 ICtDFT=  3500011 ScaDFX=  1.000000  1.000000  1.000000  1.000000
 FoFCou: FMM=F IPFlag=           0 FMFlag=      100000 FMFlg1=           0
         NFxFlg=           0 DoJE=T BraDBF=F KetDBF=T FulRan=T
         wScrn=  0.000000 ICntrl=       500 IOpCl=  0 I1Cent=   200000004 NGrid=           0
         NMat0=    1 NMatS0=      1 NMatT0=    0 NMatD0=    1 NMtDS0=    0 NMtDT0=    0
 Petite list used in FoFCou.
 Harris En= -472.806458923785    
 Leave Link  401 at Tue Oct 21 15:04:15 2025, MaxMem=  4294967296 cpu:              13.2 elap:               1.7
 (Enter /lrz/sys/applications/gaussian/g16.C.01/x86_64_legacy/exe/l502.exe)
 Integral symmetry usage will be decided dynamically.
 Closed shell SCF:
 Using DIIS extrapolation, IDIIS=  1040.
 NGot=  4294967296 LenX=  4294878900 LenY=  4294836434
 Requested convergence on RMS density matrix=1.00D-08 within 128 cycles.
 Requested convergence on MAX density matrix=1.00D-06.
 Requested convergence on             energy=1.00D-06.
 No special actions if energy rises.
 Fock matrices will be formed incrementally for  20 cycles.

 Cycle   1  Pass 1  IDiag  1:
 FoFJK:  IHMeth= 1 ICntrl=       0 DoSepK=T KAlg= 0 I1Cent=           0 FoldK=F
 IRaf=         1 NMat=       1 IRICut=       1 DoRegI=T DoRafI=F ISym2E= 0 IDoP0=0 IntGTp=1.
 FoFCou: FMM=F IPFlag=           0 FMFlag=      100000 FMFlg1=           0
         NFxFlg=           0 DoJE=T BraDBF=F KetDBF=F FulRan=T
         wScrn=  0.000000 ICntrl=       500 IOpCl=  0 I1Cent=           0 NGrid=           0
         NMat0=    1 NMatS0=      1 NMatT0=    0 NMatD0=    1 NMtDS0=    0 NMtDT0=    0
 Symmetry not used in FoFCou.
 Inv3:  Mode=1 IEnd=     7951152.
 Iteration    1 A*A^-1 deviation from unit magnitude is 6.00D-15 for   1135.
 Iteration    1 A*A^-1 deviation from orthogonality  is 3.44D-15 for    552    312.
 Iteration    1 A^-1*A deviation from unit magnitude is 6.22D-15 for    161.
 Iteration    1 A^-1*A deviation from orthogonality  is 3.52D-15 for   1348    138.
 E= -493.857811209682    
 DIIS: error= 3.69D-03 at cycle   1 NSaved=   1.
 NSaved= 1 IEnMin= 1 EnMin= -493.857811209682     IErMin= 1 ErrMin= 3.69D-03
 ErrMax= 3.69D-03  0.00D+00 EMaxC= 1.00D-01 BMatC= 3.72D-03 BMatP= 3.72D-03
 IDIUse=3 WtCom= 9.63D-01 WtEn= 3.69D-02
 Coeff-Com:  0.100D+01
 Coeff-En:   0.100D+01
 Coeff:      0.100D+01
 Gap=     0.784 Goal=   None    Shift=    0.000
 GapD=    0.784 DampG=2.000 DampE=1.000 DampFc=2.0000 IDamp=-1.
 RMSDP=5.24D-04 MaxDP=2.03D-02              OVMax= 1.40D-02

 Cycle   2  Pass 1  IDiag  1:
 RMSU=  5.24D-04    CP:  9.99D-01
 E= -493.863375131258     Delta-E=       -0.005563921577 Rises=F Damp=F
 DIIS: error= 8.65D-04 at cycle   2 NSaved=   2.
 NSaved= 2 IEnMin= 2 EnMin= -493.863375131258     IErMin= 2 ErrMin= 8.65D-04
 ErrMax= 8.65D-04  0.00D+00 EMaxC= 1.00D-01 BMatC= 1.33D-04 BMatP= 3.72D-03
 IDIUse=3 WtCom= 9.91D-01 WtEn= 8.65D-03
 Coeff-Com: -0.174D+00 0.117D+01
 Coeff-En:   0.000D+00 0.100D+01
 Coeff:     -0.173D+00 0.117D+01
 Gap=     0.341 Goal=   None    Shift=    0.000
 RMSDP=1.38D-04 MaxDP=4.22D-03 DE=-5.56D-03 OVMax= 4.81D-03

 Cycle   3  Pass 1  IDiag  1:
 RMSU=  7.21D-05    CP:  9.99D-01  1.22D+00
 E= -493.863723479658     Delta-E=       -0.000348348400 Rises=F Damp=F
 DIIS: error= 1.79D-04 at cycle   3 NSaved=   3.
 NSaved= 3 IEnMin= 3 EnMin= -493.863723479658     IErMin= 3 ErrMin= 1.79D-04
 ErrMax= 1.79D-04  0.00D+00 EMaxC= 1.00D-01 BMatC= 6.05D-06 BMatP= 1.33D-04
 IDIUse=3 WtCom= 9.98D-01 WtEn= 1.79D-03
 Coeff-Com: -0.114D-01-0.649D-02 0.102D+01
 Coeff-En:   0.000D+00 0.000D+00 0.100D+01
 Coeff:     -0.114D-01-0.648D-02 0.102D+01
 Gap=     0.341 Goal=   None    Shift=    0.000
 RMSDP=3.06D-05 MaxDP=7.75D-04 DE=-3.48D-04 OVMax= 1.31D-03

 Cycle   4  Pass 1  IDiag  1:
 RMSU=  2.08D-05    CP:  9.99D-01  1.25D+00  1.26D+00
 E= -493.863736024517     Delta-E=       -0.000012544859 Rises=F Damp=F
 DIIS: error= 9.79D-05 at cycle   4 NSaved=   4.
 NSaved= 4 IEnMin= 4 EnMin= -493.863736024517     IErMin= 4 ErrMin= 9.79D-05
 ErrMax= 9.79D-05  0.00D+00 EMaxC= 1.00D-01 BMatC= 3.23D-06 BMatP= 6.05D-06
 IDIUse=1 WtCom= 1.00D+00 WtEn= 0.00D+00
 Coeff-Com:  0.140D-01-0.134D+00 0.466D+00 0.654D+00
 Coeff:      0.140D-01-0.134D+00 0.466D+00 0.654D+00
 Gap=     0.341 Goal=   None    Shift=    0.000
 RMSDP=1.13D-05 MaxDP=4.02D-04 DE=-1.25D-05 OVMax= 3.95D-04

 Cycle   5  Pass 1  IDiag  1:
 RMSU=  6.40D-06    CP:  9.99D-01  1.25D+00  1.37D+00  8.31D-01
 E= -493.863739441244     Delta-E=       -0.000003416727 Rises=F Damp=F
 DIIS: error= 1.88D-05 at cycle   5 NSaved=   5.
 NSaved= 5 IEnMin= 5 EnMin= -493.863739441244     IErMin= 5 ErrMin= 1.88D-05
 ErrMax= 1.88D-05  0.00D+00 EMaxC= 1.00D-01 BMatC= 9.20D-08 BMatP= 3.23D-06
 IDIUse=1 WtCom= 1.00D+00 WtEn= 0.00D+00
 Coeff-Com:  0.269D-02-0.184D-01-0.172D-01 0.870D-01 0.946D+00
 Coeff:      0.269D-02-0.184D-01-0.172D-01 0.870D-01 0.946D+00
 Gap=     0.341 Goal=   None    Shift=    0.000
 RMSDP=3.81D-06 MaxDP=7.95D-05 DE=-3.42D-06 OVMax= 1.67D-04

 Cycle   6  Pass 1  IDiag  1:
 RMSU=  2.08D-06    CP:  9.99D-01  1.25D+00  1.40D+00  9.23D-01  1.19D+00
 E= -493.863739609948     Delta-E=       -0.000000168704 Rises=F Damp=F
 DIIS: error= 1.93D-05 at cycle   6 NSaved=   6.
 NSaved= 6 IEnMin= 6 EnMin= -493.863739609948     IErMin= 5 ErrMin= 1.88D-05
 ErrMax= 1.93D-05  0.00D+00 EMaxC= 1.00D-01 BMatC= 5.05D-08 BMatP= 9.20D-08
 IDIUse=1 WtCom= 1.00D+00 WtEn= 0.00D+00
 Coeff-Com: -0.143D-03 0.559D-02-0.629D-01-0.292D-01 0.513D+00 0.574D+00
 Coeff:     -0.143D-03 0.559D-02-0.629D-01-0.292D-01 0.513D+00 0.574D+00
 Gap=     0.341 Goal=   None    Shift=    0.000
 RMSDP=1.29D-06 MaxDP=5.11D-05 DE=-1.69D-07 OVMax= 6.27D-05

 Cycle   7  Pass 1  IDiag  1:
 RMSU=  8.48D-07    CP:  9.99D-01  1.26D+00  1.41D+00  9.45D-01  1.29D+00
                    CP:  8.19D-01
 E= -493.863739661791     Delta-E=       -0.000000051843 Rises=F Damp=F
 DIIS: error= 4.20D-06 at cycle   7 NSaved=   7.
 NSaved= 7 IEnMin= 7 EnMin= -493.863739661791     IErMin= 7 ErrMin= 4.20D-06
 ErrMax= 4.20D-06  0.00D+00 EMaxC= 1.00D-01 BMatC= 3.00D-09 BMatP= 5.05D-08
 IDIUse=1 WtCom= 1.00D+00 WtEn= 0.00D+00
 Coeff-Com: -0.484D-03 0.506D-02-0.175D-01-0.253D-01 0.497D-02 0.195D+00
 Coeff-Com:  0.838D+00
 Coeff:     -0.484D-03 0.506D-02-0.175D-01-0.253D-01 0.497D-02 0.195D+00
 Coeff:      0.838D+00
 Gap=     0.341 Goal=   None    Shift=    0.000
 RMSDP=5.17D-07 MaxDP=9.79D-06 DE=-5.18D-08 OVMax= 2.97D-05

 Cycle   8  Pass 1  IDiag  1:
 RMSU=  2.81D-07    CP:  9.99D-01  1.26D+00  1.41D+00  9.52D-01  1.33D+00
                    CP:  9.53D-01  1.10D+00
 E= -493.863739666100     Delta-E=       -0.000000004309 Rises=F Damp=F
 DIIS: error= 7.10D-07 at cycle   8 NSaved=   8.
 NSaved= 8 IEnMin= 8 EnMin= -493.863739666100     IErMin= 8 ErrMin= 7.10D-07
 ErrMax= 7.10D-07  0.00D+00 EMaxC= 1.00D-01 BMatC= 2.69D-10 BMatP= 3.00D-09
 IDIUse=1 WtCom= 1.00D+00 WtEn= 0.00D+00
 Coeff-Com: -0.181D-03 0.162D-02-0.283D-02-0.828D-02-0.310D-01 0.400D-01
 Coeff-Com:  0.315D+00 0.685D+00
 Coeff:     -0.181D-03 0.162D-02-0.283D-02-0.828D-02-0.310D-01 0.400D-01
 Coeff:      0.315D+00 0.685D+00
 Gap=     0.341 Goal=   None    Shift=    0.000
 RMSDP=1.53D-07 MaxDP=4.08D-06 DE=-4.31D-09 OVMax= 6.59D-06

 Cycle   9  Pass 1  IDiag  1:
 RMSU=  9.54D-08    CP:  9.99D-01  1.26D+00  1.41D+00  9.53D-01  1.34D+00
                    CP:  9.87D-01  1.20D+00  1.01D+00
 E= -493.863739666476     Delta-E=       -0.000000000376 Rises=F Damp=F
 DIIS: error= 3.67D-07 at cycle   9 NSaved=   9.
 NSaved= 9 IEnMin= 9 EnMin= -493.863739666476     IErMin= 9 ErrMin= 3.67D-07
 ErrMax= 3.67D-07  0.00D+00 EMaxC= 1.00D-01 BMatC= 2.66D-11 BMatP= 2.69D-10
 IDIUse=1 WtCom= 1.00D+00 WtEn= 0.00D+00
 Coeff-Com:  0.391D-04-0.488D-03 0.244D-02 0.221D-02-0.881D-02-0.226D-01
 Coeff-Com: -0.667D-01 0.176D+00 0.918D+00
 Coeff:      0.391D-04-0.488D-03 0.244D-02 0.221D-02-0.881D-02-0.226D-01
 Coeff:     -0.667D-01 0.176D+00 0.918D+00
 Gap=     0.341 Goal=   None    Shift=    0.000
 RMSDP=7.90D-08 MaxDP=1.54D-06 DE=-3.76D-10 OVMax= 5.81D-06

 Cycle  10  Pass 1  IDiag  1:
 RMSU=  3.05D-08    CP:  9.99D-01  1.26D+00  1.41D+00  9.54D-01  1.34D+00
                    CP:  1.00D+00  1.25D+00  1.17D+00  1.13D+00
 E= -493.863739666527     Delta-E=       -0.000000000050 Rises=F Damp=F
 DIIS: error= 1.18D-07 at cycle  10 NSaved=  10.
 NSaved=10 IEnMin=10 EnMin= -493.863739666527     IErMin=10 ErrMin= 1.18D-07
 ErrMax= 1.18D-07  0.00D+00 EMaxC= 1.00D-01 BMatC= 3.19D-12 BMatP= 2.66D-11
 IDIUse=1 WtCom= 1.00D+00 WtEn= 0.00D+00
 Coeff-Com:  0.236D-04-0.252D-03 0.888D-03 0.117D-02-0.169D-03-0.902D-02
 Coeff-Com: -0.423D-01-0.704D-02 0.272D+00 0.785D+00
 Coeff:      0.236D-04-0.252D-03 0.888D-03 0.117D-02-0.169D-03-0.902D-02
 Coeff:     -0.423D-01-0.704D-02 0.272D+00 0.785D+00
 Gap=     0.341 Goal=   None    Shift=    0.000
 RMSDP=2.08D-08 MaxDP=3.70D-07 DE=-5.05D-11 OVMax= 1.58D-06

 Cycle  11  Pass 1  IDiag  1:
 RMSU=  1.31D-08    CP:  9.99D-01  1.26D+00  1.41D+00  9.54D-01  1.34D+00
                    CP:  1.00D+00  1.26D+00  1.21D+00  1.21D+00  1.10D+00
 E= -493.863739666553     Delta-E=       -0.000000000026 Rises=F Damp=F
 DIIS: error= 6.87D-08 at cycle  11 NSaved=  11.
 NSaved=11 IEnMin=11 EnMin= -493.863739666553     IErMin=11 ErrMin= 6.87D-08
 ErrMax= 6.87D-08  0.00D+00 EMaxC= 1.00D-01 BMatC= 5.39D-13 BMatP= 3.19D-12
 IDIUse=1 WtCom= 1.00D+00 WtEn= 0.00D+00
 Coeff-Com: -0.567D-05 0.788D-04-0.451D-03-0.366D-03 0.223D-02 0.429D-02
 Coeff-Com:  0.854D-02-0.490D-01-0.168D+00 0.128D+00 0.108D+01
 Coeff:     -0.567D-05 0.788D-04-0.451D-03-0.366D-03 0.223D-02 0.429D-02
 Coeff:      0.854D-02-0.490D-01-0.168D+00 0.128D+00 0.108D+01
 Gap=     0.341 Goal=   None    Shift=    0.000
 RMSDP=1.34D-08 MaxDP=2.82D-07 DE=-2.59D-11 OVMax= 1.08D-06

 Cycle  12  Pass 1  IDiag  1:
 RMSU=  4.00D-09    CP:  9.99D-01  1.26D+00  1.41D+00  9.54D-01  1.34D+00
                    CP:  1.00D+00  1.26D+00  1.22D+00  1.26D+00  1.41D+00
                    CP:  1.36D+00
 E= -493.863739666542     Delta-E=        0.000000000011 Rises=F Damp=F
 DIIS: error= 1.99D-08 at cycle  12 NSaved=  12.
 NSaved=12 IEnMin=11 EnMin= -493.863739666553     IErMin=12 ErrMin= 1.99D-08
 ErrMax= 1.99D-08  0.00D+00 EMaxC= 1.00D-01 BMatC= 3.90D-14 BMatP= 5.39D-13
 IDIUse=1 WtCom= 1.00D+00 WtEn= 0.00D+00
 Coeff-Com: -0.311D-05 0.360D-04-0.154D-03-0.170D-03 0.373D-03 0.157D-02
 Coeff-Com:  0.522D-02-0.748D-02-0.473D-01-0.405D-01 0.160D+00 0.928D+00
 Coeff:     -0.311D-05 0.360D-04-0.154D-03-0.170D-03 0.373D-03 0.157D-02
 Coeff:      0.522D-02-0.748D-02-0.473D-01-0.405D-01 0.160D+00 0.928D+00
 Gap=     0.341 Goal=   None    Shift=    0.000
 RMSDP=3.30D-09 MaxDP=6.91D-08 DE= 1.07D-11 OVMax= 2.86D-07

 Error on total polarization charges =  0.02902
 SCF Done:  E(RwB97XD) =  -493.863739667     A.U. after   12 cycles
            NFock= 12  Conv=0.33D-08     -V/T= 2.0101
 KE= 4.889239261175D+02 PE=-2.238556752516D+03 EE= 7.105295532852D+02
 SMD-CDS (non-electrostatic) energy       (kcal/mol) =       4.61
 (included in total energy above)
 Leave Link  502 at Tue Oct 21 15:05:00 2025, MaxMem=  4294967296 cpu:             362.5 elap:              45.6
 (Enter /lrz/sys/applications/gaussian/g16.C.01/x86_64_legacy/exe/l701.exe)
 ... and contract with generalized density number  0.
 Compute integral first derivatives.
 R6Disp: Adding Grimme-D2 dispersion energy 1st derivatives to the gradient.
   1 Symmetry operations used in ECPInt.
 ECPInt:  NShTT=    4095 NPrTT=   15045 LenC2=    3949 LenP2D=   11129.
 LDataN:  DoStor=T MaxTD1= 5 Len=  102
 D1PCM: PCM CHGder 1st derivatives, ID1Alg=3 FixD1E=F DoIter=F DoCFld=F I1PDM=0.
 GePol: Maximum number of non-zero 1st derivatives   =     260
 Leave Link  701 at Tue Oct 21 15:05:01 2025, MaxMem=  4294967296 cpu:               9.2 elap:               1.2
 (Enter /lrz/sys/applications/gaussian/g16.C.01/x86_64_legacy/exe/l702.exe)
 L702 exits ... SP integral derivatives will be done elsewhere.
 Leave Link  702 at Tue Oct 21 15:05:01 2025, MaxMem=  4294967296 cpu:               0.2 elap:               0.0
 (Enter /lrz/sys/applications/gaussian/g16.C.01/x86_64_legacy/exe/l703.exe)
 Integral derivatives from FoFJK, PRISM(SPDF).
 Compute integral first derivatives, UseDBF=F ICtDFT=           0.
 Calling FoFJK, ICntrl=      2127 FMM=F ISym2X=0 I1Cent= 0 IOpClX= 0 NMat=1 NMatS=1 NMatT=0.
 FoFJK:  IHMeth= 1 ICntrl=    2127 DoSepK=T KAlg= 0 I1Cent=           0 FoldK=F
 IRaf=         1 NMat=       1 IRICut=       1 DoRegI=T DoRafI=F ISym2E= 0 IDoP0=0 IntGTp=1.
 FoFCou: FMM=F IPFlag=           0 FMFlag=      100000 FMFlg1=         800
         NFxFlg=           0 DoJE=F BraDBF=F KetDBF=F FulRan=T
         wScrn=  0.000000 ICntrl=      2527 IOpCl=  0 I1Cent=           0 NGrid=           0
         NMat0=    1 NMatS0=      1 NMatT0=    0 NMatD0=    1 NMtDS0=    0 NMtDT0=    0
 Symmetry not used in FoFCou.
 Leave Link  703 at Tue Oct 21 15:05:10 2025, MaxMem=  4294967296 cpu:              67.1 elap:               8.4
 (Enter /lrz/sys/applications/gaussian/g16.C.01/x86_64_legacy/exe/l716.exe)
 Dipole        =-2.14087881D+00 1.56200868D+00 6.45996474D-02
 ***** Axes restored to original set *****
 -------------------------------------------------------------------
 Center     Atomic                   Forces (Hartrees/Bohr)
 Number     Number              X              Y              Z
 -------------------------------------------------------------------
      1        8           0.000014387   -0.000658944    0.000696107
      2        6           0.000329469    0.000310259   -0.000292344
      3        7          -0.000597117   -0.000152937   -0.000691337
      4        6          -0.000000857   -0.000069968    0.000869685
      5        6          -0.000071962   -0.000397367   -0.000200350
      6        6          -0.000135026    0.000005481   -0.000099085
      7        6           0.000902806    0.000032000    0.000060640
      8        6           0.000493476   -0.000119548   -0.000027647
      9        7          -0.001098830    0.000106030    0.000005891
     10        6          -0.000195017    0.000110864   -0.000029424
     11        6           0.000070087    0.000159044   -0.000145447
     12        1          -0.000059250    0.000260595    0.000269815
     13        1          -0.000270891   -0.000001809    0.000023421
     14        1           0.000269728    0.000095835   -0.000133945
     15        1           0.000305837    0.000269215   -0.000420174
     16        1           0.000080618    0.000180459    0.000184817
     17        1          -0.000058139    0.000125742    0.000098874
     18        1          -0.000068719   -0.000100218   -0.000078930
     19        1           0.000089401   -0.000154732   -0.000090565
 -------------------------------------------------------------------
 Cartesian Forces:  Max     0.001098830 RMS     0.000332011
 Leave Link  716 at Tue Oct 21 15:05:10 2025, MaxMem=  4294967296 cpu:               0.2 elap:               0.0
 (Enter /lrz/sys/applications/gaussian/g16.C.01/x86_64_legacy/exe/l103.exe)

 GradGradGradGradGradGradGradGradGradGradGradGradGradGradGradGradGradGrad
 Berny optimization.
 Using GEDIIS/GDIIS optimizer.
 FormGI is forming the generalized inverse of G from B-inverse, IUseBI=4.
 Internal  Forces:  Max     0.001102348 RMS     0.000267869
 Search for a local minimum.
 Step number   7 out of a maximum of   98
 All quantities printed in internal units (Hartrees-Bohrs-Radians)
 RMS Force = .26787D-03 SwitMx=.10000D-02 MixMth= 2
 Mixed Optimization -- En-DIIS/RFO-DIIS
 Swapping is turned off.
 Update second derivatives using D2CorX and points    5    6    7
 DE= -1.25D-04 DEPred=-1.27D-04 R= 9.84D-01
 TightC=F SS=  1.41D+00  RLast= 3.38D-01 DXNew= 1.9915D+00 1.0131D+00
 Trust test= 9.84D-01 RLast= 3.38D-01 DXMaxT set to 1.18D+00
 ITU=  1  1  1  1  1  1  0
     Eigenvalues ---    0.00131   0.00638   0.01336   0.01543   0.02123
     Eigenvalues ---    0.02149   0.02215   0.02230   0.02261   0.02273
     Eigenvalues ---    0.02294   0.02315   0.03899   0.05031   0.05069
     Eigenvalues ---    0.06340   0.06952   0.08840   0.15732   0.16000
     Eigenvalues ---    0.16001   0.16002   0.16029   0.16516   0.16793
     Eigenvalues ---    0.19191   0.20857   0.22003   0.22949   0.24457
     Eigenvalues ---    0.25010   0.25377   0.31829   0.32113   0.35905
     Eigenvalues ---    0.35992   0.36135   0.37200   0.40859   0.42646
     Eigenvalues ---    0.43375   0.43846   0.45476   0.45624   0.46638
     Eigenvalues ---    0.46916   0.47850   0.48160   0.51363   0.54797
     Eigenvalues ---    1.42946
 En-DIIS/RFO-DIIS/Sim-DIIS IScMMF=       -3 using points:     7    6    5
 RFO step:  Lambda=-8.83861147D-05.
 NNeg= 0 NGDIIS= 3 SimSw=  2.50D-01 Rises=F DC= -1.25D-04 SmlDif=  1.00D-05
 NRisDI= 0 DoIntr=F SqrtH=F CThrHd= 10.0 CDAdj=  3.0
 RMS Error=  0.1799573085D-01 NUsed= 3 OKEnD=T EnDIS=F
 InvSVX:  RCond= 1.03D-03 Info=           0 Equed=N FErr=  7.86D-14 BErr=  4.88D-17
 DidBck=F Rises=F RFO-DIIS coefs:    0.97628    0.59485   -0.57113
 Iteration  1 RMS(Cart)=  0.01956400 RMS(Int)=  0.00017036
 Iteration  2 RMS(Cart)=  0.00018101 RMS(Int)=  0.00012204
 Iteration  3 RMS(Cart)=  0.00000001 RMS(Int)=  0.00012204
 ITry= 1 IFail=0 DXMaxC= 6.26D-02 DCOld= 1.00D+10 DXMaxT= 1.18D+00 DXLimC= 3.00D+00 Rises=F
 Variable       Old X    -DE/DX   Delta X   Delta X   Delta X     New X
                                 (Linear)    (Quad)   (Total)
    R1        2.66782   0.00084  -0.00220   0.00278   0.00058   2.66841
    R2        1.82410  -0.00009  -0.00058   0.00042  -0.00016   1.82394
    R3        2.72628   0.00082  -0.00107   0.00120   0.00013   2.72642
    R4        2.86978  -0.00001   0.00170  -0.00118   0.00052   2.87030
    R5        2.09369  -0.00009   0.00015  -0.00010   0.00005   2.09375
    R6        1.92696   0.00027  -0.00342   0.00297  -0.00045   1.92651
    R7        1.92513   0.00023  -0.00291   0.00231  -0.00059   1.92453
    R8        2.64656  -0.00006  -0.00002  -0.00008  -0.00009   2.64647
    R9        2.63768   0.00008  -0.00019   0.00019   0.00001   2.63769
   R10        2.62261   0.00009  -0.00014   0.00012  -0.00002   2.62259
   R11        2.06194   0.00025  -0.00171   0.00167  -0.00004   2.06190
   R12        2.65399  -0.00005   0.00051  -0.00052  -0.00002   2.65397
   R13        2.06180   0.00016  -0.00091   0.00092   0.00002   2.06182
   R14        2.71185   0.00060  -0.00424   0.00395  -0.00029   2.71156
   R15        2.64723  -0.00006   0.00147  -0.00133   0.00013   2.64736
   R16        2.19127   0.00110  -0.00203   0.00204   0.00001   2.19128
   R17        2.63031   0.00008  -0.00110   0.00091  -0.00019   2.63012
   R18        2.06165   0.00015  -0.00090   0.00090   0.00000   2.06166
   R19        2.06427   0.00020  -0.00121   0.00120  -0.00001   2.06426
    A1        1.87952   0.00052  -0.00151   0.00289   0.00139   1.88091
    A2        1.85545   0.00064   0.00155   0.00123   0.00278   1.85823
    A3        1.94420  -0.00045   0.00298  -0.00221   0.00077   1.94497
    A4        1.89608   0.00002  -0.00310   0.00199  -0.00112   1.89497
    A5        1.91436   0.00008  -0.00146   0.00087  -0.00061   1.91376
    A6        1.97113  -0.00018  -0.00095   0.00051  -0.00045   1.97069
    A7        1.88348  -0.00011   0.00104  -0.00237  -0.00132   1.88215
    A8        1.89748   0.00017   0.01291  -0.00939   0.00313   1.90061
    A9        1.90141   0.00079   0.00897  -0.00410   0.00449   1.90590
   A10        1.85630  -0.00036   0.01770  -0.01371   0.00317   1.85947
   A11        2.08644   0.00039  -0.00274   0.00289   0.00008   2.08652
   A12        2.11054  -0.00040   0.00264  -0.00269  -0.00012   2.11042
   A13        2.08619   0.00001   0.00030  -0.00020   0.00006   2.08625
   A14        2.10413   0.00002  -0.00034   0.00030  -0.00002   2.10411
   A15        2.08725   0.00007  -0.00344   0.00301  -0.00044   2.08681
   A16        2.09180  -0.00008   0.00378  -0.00331   0.00046   2.09225
   A17        2.08516  -0.00009   0.00138  -0.00128   0.00009   2.08525
   A18        2.10581   0.00003   0.00001   0.00007   0.00008   2.10589
   A19        2.09222   0.00006  -0.00138   0.00121  -0.00017   2.09204
   A20        2.08977   0.00000   0.00183  -0.00142   0.00041   2.09017
   A21        2.10152   0.00015  -0.00263   0.00241  -0.00023   2.10129
   A22        2.09189  -0.00015   0.00081  -0.00098  -0.00017   2.09171
   A23        2.08318  -0.00009   0.00200  -0.00178   0.00022   2.08340
   A24        2.09499   0.00006  -0.00179   0.00152  -0.00027   2.09472
   A25        2.10502   0.00002  -0.00021   0.00026   0.00005   2.10507
   A26        2.10618  -0.00000  -0.00071   0.00057  -0.00013   2.10605
   A27        2.08924  -0.00000   0.00053  -0.00043   0.00009   2.08933
   A28        2.08776   0.00000   0.00018  -0.00014   0.00004   2.08780
   A29        3.14119   0.00006   0.00175  -0.00116   0.00059   3.14178
   A30        3.14076   0.00006  -0.00060   0.00106   0.00046   3.14122
    D1       -2.91042  -0.00011   0.02226  -0.01091   0.01136  -2.89906
    D2        1.28807  -0.00034   0.02145  -0.01148   0.00994   1.29802
    D3       -0.78429   0.00005   0.02030  -0.00850   0.01182  -0.77247
    D4        1.30915   0.00004  -0.00795   0.01187   0.00369   1.31285
    D5       -2.95799   0.00012   0.02310  -0.01170   0.01163  -2.94637
    D6       -2.86997  -0.00008  -0.00426   0.01042   0.00592  -2.86405
    D7       -0.85393   0.00000   0.02679  -0.01315   0.01386  -0.84008
    D8       -0.76846  -0.00029  -0.00460   0.00835   0.00352  -0.76494
    D9        1.24758  -0.00020   0.02644  -0.01522   0.01145   1.25903
   D10        0.93452   0.00016  -0.01495  -0.01152  -0.02648   0.90804
   D11       -2.20041   0.00003  -0.02320  -0.01050  -0.03371  -2.23412
   D12       -1.11482  -0.00040  -0.01777  -0.01223  -0.03000  -1.14482
   D13        2.03344  -0.00053  -0.02602  -0.01122  -0.03723   1.99620
   D14        3.01440  -0.00016  -0.01635  -0.01188  -0.02823   2.98618
   D15       -0.12052  -0.00028  -0.02460  -0.01086  -0.03546  -0.15598
   D16       -3.14093  -0.00012  -0.01049   0.00351  -0.00693   3.13533
   D17       -0.00273  -0.00013  -0.01157   0.00361  -0.00791  -0.01064
   D18       -0.00591   0.00001  -0.00229   0.00250   0.00020  -0.00571
   D19        3.13229  -0.00001  -0.00337   0.00259  -0.00078   3.13151
   D20        3.14083   0.00015   0.01060  -0.00300   0.00766  -3.13470
   D21        0.00068   0.00008   0.01216  -0.00580   0.00640   0.00708
   D22        0.00590   0.00002   0.00243  -0.00199   0.00043   0.00633
   D23       -3.13425  -0.00005   0.00398  -0.00480  -0.00083  -3.13508
   D24        0.00237  -0.00002   0.00065  -0.00132  -0.00067   0.00170
   D25       -3.14020  -0.00002   0.00023  -0.00057  -0.00035  -3.14055
   D26       -3.13583  -0.00000   0.00172  -0.00142   0.00032  -3.13550
   D27        0.00479  -0.00000   0.00130  -0.00067   0.00064   0.00544
   D28        3.13893   0.00003  -0.00126   0.00209   0.00082   3.13975
   D29        0.00124   0.00001   0.00090  -0.00038   0.00051   0.00174
   D30       -0.00170   0.00003  -0.00085   0.00135   0.00050  -0.00120
   D31       -3.13939   0.00001   0.00131  -0.00112   0.00019  -3.13920
   D32       -0.00125   0.00002  -0.00076   0.00088   0.00011  -0.00114
   D33        3.13794   0.00003  -0.00190   0.00232   0.00043   3.13837
   D34       -3.13894  -0.00001   0.00140  -0.00159  -0.00020  -3.13914
   D35        0.00026   0.00000   0.00026  -0.00015   0.00011   0.00037
   D36       -0.00234  -0.00003  -0.00091   0.00032  -0.00059  -0.00293
   D37        3.13781   0.00003  -0.00247   0.00312   0.00067   3.13848
   D38       -3.14153  -0.00004   0.00023  -0.00113  -0.00090   3.14076
   D39       -0.00138   0.00003  -0.00132   0.00167   0.00036  -0.00102
         Item               Value     Threshold  Converged?
 Maximum Force            0.001102     0.000450     NO 
 RMS     Force            0.000268     0.000300     YES
 Maximum Displacement     0.062629     0.001800     NO 
 RMS     Displacement     0.019564     0.001200     NO 
 Predicted change in Energy=-3.306100D-05
 Lowest energy point so far.  Saving SCF results.
 GradGradGradGradGradGradGradGradGradGradGradGradGradGradGradGradGradGrad

 Leave Link  103 at Tue Oct 21 15:05:10 2025, MaxMem=  4294967296 cpu:               0.2 elap:               0.0
 (Enter /lrz/sys/applications/gaussian/g16.C.01/x86_64_legacy/exe/l202.exe)
                          Input orientation:                          
 ---------------------------------------------------------------------
 Center     Atomic      Atomic             Coordinates (Angstroms)
 Number     Number       Type             X           Y           Z
 ---------------------------------------------------------------------
      1          8           0        3.021442   -0.057259    1.218817
      2          6           0        2.490143   -0.199781   -0.081691
      3          7           0        3.009686    0.899403   -0.858491
      4          6           0        0.972285   -0.144791   -0.070405
      5          6           0        0.324596    0.924654    0.560509
      6          6           0       -1.061092    0.999669    0.576942
      7          6           0       -1.815202   -0.009255   -0.044180
      8          6           0       -3.248289    0.061081   -0.028856
      9          7           0       -4.406398    0.117929   -0.016066
     10          6           0       -1.176663   -1.085235   -0.674355
     11          6           0        0.213837   -1.145057   -0.680733
     12          1           0        2.872003   -0.885981    1.690490
     13          1           0        2.790998   -1.189191   -0.479355
     14          1           0        3.986544    0.712712   -1.082546
     15          1           0        2.512578    0.946707   -1.746086
     16          1           0        0.916798    1.701925    1.045971
     17          1           0       -1.567395    1.832608    1.067144
     18          1           0       -1.768558   -1.867168   -1.152354
     19          1           0        0.715954   -1.983709   -1.168371
 ---------------------------------------------------------------------
                    Distance matrix (angstroms):
                    1          2          3          4          5
     1  O    0.000000
     2  C    1.412060   0.000000
     3  N    2.287040   1.442758   0.000000
     4  C    2.422561   1.518896   2.421245   0.000000
     5  C    2.944572   2.523167   3.037089   1.400452   0.000000
     6  C    4.265699   3.805752   4.317610   2.421460   1.387814
     7  C    4.999059   4.309722   4.976777   2.790903   2.411756
     8  C    6.393764   5.744601   6.368149   4.225796   3.722715
     9  N    7.531829   6.904168   7.504578   5.385370   4.833792
    10  C    4.718572   3.818474   4.636617   2.422224   2.796126
    11  C    3.560090   2.536527   3.468168   1.395806   2.415916
    12  H    0.965188   1.938379   3.115102   2.694261   3.323333
    13  H    2.053816   1.107963   2.133962   2.136756   3.410688
    14  H    2.611618   2.018308   1.019463   3.293250   4.019255
    15  H    3.171363   2.021175   1.018419   2.524238   3.179329
    16  H    2.748478   2.713581   2.941292   2.158642   1.091113
    17  H    4.965082   4.681244   5.052585   3.413811   2.158863
    18  H    5.642900   4.697130   5.529185   3.413124   3.887089
    19  H    3.837337   2.740624   3.697238   2.157047   3.405989
                    6          7          8          9         10
     6  C    0.000000
     7  C    1.404422   0.000000
     8  C    2.455966   1.434894   0.000000
     9  N    3.510014   2.594469   1.159575   0.000000
    10  C    2.434323   1.400923   2.454046   3.508865   0.000000
    11  C    2.794108   2.410860   3.723711   4.835648   1.391801
    12  H    4.501655   5.074211   6.427367   7.542897   4.692962
    13  H    4.554719   4.774798   6.183778   7.329782   3.973810
    14  H    5.321172   5.937987   7.340142   8.481311   5.482512
    15  H    4.262673   4.747634   6.076249   7.179978   4.346020
    16  H    2.150627   3.402996   4.603864   5.654501   3.887204
    17  H    1.091068   2.165389   2.676738   3.489041   3.420424
    18  H    3.421948   2.163808   2.677685   3.491413   1.090982
    19  H    3.886458   3.401326   4.603790   5.655367   2.152512
                   11         12         13         14         15
    11  C    0.000000
    12  H    3.571507   0.000000
    13  H    2.585393   2.192424   0.000000
    14  H    4.224462   3.389358   2.326028   0.000000
    15  H    3.285523   3.911264   2.498837   1.633283   0.000000
    16  H    3.403082   3.306885   3.767996   3.864255   3.303400
    17  H    3.885145   5.242856   5.524357   6.059833   5.034409
    18  H    2.161888   5.529855   4.658554   6.307285   5.157377
    19  H    1.092359   3.745216   2.326330   4.239671   3.485534
                   16         17         18         19
    16  H    0.000000
    17  H    2.487718   0.000000
    18  H    4.978171   4.319142   0.000000
    19  H    4.304363   4.977498   2.487295   0.000000
 Stoichiometry    C8H8N2O
 Framework group  C1[X(C8H8N2O)]
 Deg. of freedom    51
 Full point group                 C1      NOp   1
 RotChk:  IX=2 Diff= 4.60D-02
 Largest Abelian subgroup         C1      NOp   1
 Largest concise Abelian subgroup C1      NOp   1
                         Standard orientation:                         
 ---------------------------------------------------------------------
 Center     Atomic      Atomic             Coordinates (Angstroms)
 Number     Number       Type             X           Y           Z
 ---------------------------------------------------------------------
      1          8           0       -2.977150   -0.536211    1.054011
      2          6           0       -2.416692    0.308053    0.070640
      3          7           0       -2.949259   -0.130306   -1.196548
      4          6           0       -0.901305    0.206899    0.050290
      5          6           0       -0.294336   -1.051597   -0.044802
      6          6           0        1.088327   -1.167778   -0.072578
      7          6           0        1.880634   -0.010313   -0.002377
      8          6           0        3.310815   -0.123576   -0.028320
      9          7           0        4.466569   -0.215345   -0.048957
     10          6           0        1.282966    1.252813    0.097076
     11          6           0       -0.105102    1.350947    0.124379
     12          1           0       -2.815507   -0.132497    1.915681
     13          1           0       -2.683714    1.356049    0.311441
     14          1           0       -3.916292    0.182892   -1.274390
     15          1           0       -2.436093    0.323089   -1.950386
     16          1           0       -0.916096   -1.946917   -0.093201
     17          1           0        1.562938   -2.147340   -0.147610
     18          1           0        1.904393    2.147688    0.154264
     19          1           0       -0.575430    2.333584    0.204791
 ---------------------------------------------------------------------
 Rotational constants (GHZ):           3.4629070           0.5475848           0.5191279
 Leave Link  202 at Tue Oct 21 15:05:10 2025, MaxMem=  4294967296 cpu:               0.0 elap:               0.0
 (Enter /lrz/sys/applications/gaussian/g16.C.01/x86_64_legacy/exe/l301.exe)
 Standard basis: def2SVP (5D, 7F)
 Ernie: Thresh=  0.10000D-02 Tol=  0.10000D-05 Strict=F.
 There are   205 symmetry adapted cartesian basis functions of A   symmetry.
 There are   194 symmetry adapted basis functions of A   symmetry.
   194 basis functions,   331 primitive gaussians,   205 cartesian basis functions
    39 alpha electrons       39 beta electrons
       nuclear repulsion energy       545.2046553628 Hartrees.
 IExCor= 4639 DFT=T Ex+Corr=wB97XD ExCW=0 ScaHFX=  1.000000
 ScaDFX=  1.000000  1.000000  1.000000  1.000000 ScalE2=  1.000000  1.000000
 IRadAn=      5 IRanWt=     -1 IRanGd=            0 ICorTp=0 IEmpDi=121
 HFx  wShort=  0.000000 wLong=  0.200000 cFull=  0.222036 cShort=  0.000000 cLong=  0.777964
 DFx  wShort=  0.000000 wLong=  0.200000 cFull=  0.000000 cShort=  0.000000 cLong=  1.000000
 NAtoms=   19 NActive=   19 NUniq=   19 SFac= 1.00D+00 NAtFMM=   60 NAOKFM=F Big=F
 Integral buffers will be    131072 words long.
 Raffenetti 2 integral format.
 Two-electron integral symmetry is turned on.
 R6Disp:  Grimme-D2 Dispersion energy=       -0.0102458815 Hartrees.
 Nuclear repulsion after empirical dispersion term =      545.1944094813 Hartrees.
 ------------------------------------------------------------------------------
 Polarizable Continuum Model (PCM)
 =================================
 Model                : PCM.
 Atomic radii         : SMD-Coulomb.
 Polarization charges : Total charges.
 Charge compensation  : None.
 Solution method      : On-the-fly selection.
 Cavity type          : VdW (van der Waals Surface) (Alpha=1.000).
 Cavity algorithm     : GePol (No added spheres)
                        Default sphere list used, NSphG=   19.
                        Lebedev-Laikov grids with approx.  5.0 points / Ang**2.
                        Smoothing algorithm: York/Karplus (Gamma=1.0000).
                        Polarization charges: spherical gaussians, with
                                              point-specific exponents (IZeta= 3).
                        Self-potential: point-specific (ISelfS= 7).
                        Self-field    : sphere-specific E.n sum rule (ISelfD= 2).
 1st derivatives      : Analytical E(r).r(x)/FMM algorithm (CHGder, D1EAlg=3).
                        Cavity 1st derivative terms included.
 Solvent              : Water, Eps=  78.355300 Eps(inf)=   1.777849
 ------------------------------------------------------------------------------
 Spheres list:
 ISph  on   Nord     Re0    Alpha      Xe            Ye            Ze
    1   O      1    1.5200  1.000     -2.977150     -0.536211      1.054011
    2   C      2    1.8500  1.000     -2.416692      0.308053      0.070640
    3   N      3    1.8900  1.000     -2.949259     -0.130306     -1.196548
    4   C      4    1.8500  1.000     -0.901305      0.206899      0.050290
    5   C      5    1.8500  1.000     -0.294336     -1.051597     -0.044802
    6   C      6    1.8500  1.000      1.088327     -1.167778     -0.072578
    7   C      7    1.8500  1.000      1.880634     -0.010313     -0.002377
    8   C      8    1.8500  1.000      3.310815     -0.123576     -0.028320
    9   N      9    1.8900  1.000      4.466569     -0.215345     -0.048957
   10   C     10    1.8500  1.000      1.282966      1.252813      0.097076
   11   C     11    1.8500  1.000     -0.105102      1.350947      0.124379
   12   H     12    1.2000  1.000     -2.815507     -0.132497      1.915681
   13   H     13    1.2000  1.000     -2.683714      1.356049      0.311441
   14   H     14    1.2000  1.000     -3.916292      0.182892     -1.274390
   15   H     15    1.2000  1.000     -2.436093      0.323089     -1.950386
   16   H     16    1.2000  1.000     -0.916096     -1.946917     -0.093201
   17   H     17    1.2000  1.000      1.562938     -2.147340     -0.147610
   18   H     18    1.2000  1.000      1.904393      2.147688      0.154264
   19   H     19    1.2000  1.000     -0.575430      2.333584      0.204791
 ------------------------------------------------------------------------------
 GePol: Number of generator spheres                  =      19
 GePol: Total number of spheres                      =      19
 GePol: Number of exposed spheres                    =      19 (100.00%)
 GePol: Number of points                             =    1630
 GePol: Average weight of points                     =       0.12
 GePol: Minimum weight of points                     =   0.14D-09
 GePol: Maximum weight of points                     =    0.21991
 GePol: Number of points with low weight             =      74
 GePol: Fraction of low-weight points (<1% of avg)   =       4.54%
 GePol: Cavity surface area                          =    188.067 Ang**2
 GePol: Cavity volume                                =    161.698 Ang**3
 ------------------------------------------------------------------------------
 Atomic radii for non-electrostatic terms: SMD-CDS.
 ------------------------------------------------------------------------------
 PCM non-electrostatic energy =         0.0073398559 Hartrees.
 Nuclear repulsion after PCM non-electrostatic terms =      545.2017493372 Hartrees.
 Leave Link  301 at Tue Oct 21 15:05:10 2025, MaxMem=  4294967296 cpu:               0.6 elap:               0.1
 (Enter /lrz/sys/applications/gaussian/g16.C.01/x86_64_legacy/exe/l302.exe)
 NPDir=0 NMtPBC=     1 NCelOv=     1 NCel=       1 NClECP=     1 NCelD=      1
         NCelK=      1 NCelE2=     1 NClLst=     1 CellRange=     0.0.
 One-electron integrals computed using PRISM.
 One-electron integral symmetry used in STVInt
   1 Symmetry operations used in ECPInt.
 ECPInt:  NShTT=    4095 NPrTT=   15045 LenC2=    3950 LenP2D=   11131.
 LDataN:  DoStor=T MaxTD1= 4 Len=   56
 NBasis=   194 RedAO= T EigKep=  2.78D-04  NBF=   194
 NBsUse=   194 1.00D-06 EigRej= -1.00D+00 NBFU=   194
 Precomputing XC quadrature grid using
 IXCGrd= 4 IRadAn=           5 IRanWt=          -1 IRanGd=           0 AccXCQ= 0.00D+00.
 Generated NRdTot=       0 NPtTot=           0 NUsed=           0 NTot=          32
 NSgBfM=   204   204   204   204   204 MxSgAt=    19 MxSgA2=    19.
 Leave Link  302 at Tue Oct 21 15:05:10 2025, MaxMem=  4294967296 cpu:               2.0 elap:               0.3
 (Enter /lrz/sys/applications/gaussian/g16.C.01/x86_64_legacy/exe/l303.exe)
 DipDrv:  MaxL=1.
 Leave Link  303 at Tue Oct 21 15:05:10 2025, MaxMem=  4294967296 cpu:               0.3 elap:               0.0
 (Enter /lrz/sys/applications/gaussian/g16.C.01/x86_64_legacy/exe/l401.exe)
 Initial guess from the checkpoint file:  "g16_C12-a_10.chk"
 B after Tr=     0.000000   -0.000000   -0.000000
         Rot=    0.999855   -0.017005    0.000397   -0.000015 Ang=  -1.95 deg.
 Guess basis will be translated and rotated to current coordinates.
 JPrj=2 DoOrth=T DoCkMO=T.
 Generating alternative initial guess.
 ExpMin= 1.22D-01 ExpMax= 2.27D+03 ExpMxC= 3.41D+02 IAcc=3 IRadAn=         5 AccDes= 0.00D+00
 Harris functional with IExCor= 4639 and IRadAn=       5 diagonalized for initial guess.
 HarFok:  IExCor= 4639 AccDes= 0.00D+00 IRadAn=         5 IDoV= 1 UseB2=F ITyADJ=14
 ICtDFT=  3500011 ScaDFX=  1.000000  1.000000  1.000000  1.000000
 FoFCou: FMM=F IPFlag=           0 FMFlag=      100000 FMFlg1=           0
         NFxFlg=           0 DoJE=T BraDBF=F KetDBF=T FulRan=T
         wScrn=  0.000000 ICntrl=       500 IOpCl=  0 I1Cent=   200000004 NGrid=           0
         NMat0=    1 NMatS0=      1 NMatT0=    0 NMatD0=    1 NMtDS0=    0 NMtDT0=    0
 Petite list used in FoFCou.
 Harris En= -472.806612879426    
 Leave Link  401 at Tue Oct 21 15:05:12 2025, MaxMem=  4294967296 cpu:              11.7 elap:               1.5
 (Enter /lrz/sys/applications/gaussian/g16.C.01/x86_64_legacy/exe/l502.exe)
 Integral symmetry usage will be decided dynamically.
 Closed shell SCF:
 Using DIIS extrapolation, IDIIS=  1040.
 NGot=  4294967296 LenX=  4294878900 LenY=  4294836434
 Requested convergence on RMS density matrix=1.00D-08 within 128 cycles.
 Requested convergence on MAX density matrix=1.00D-06.
 Requested convergence on             energy=1.00D-06.
 No special actions if energy rises.
 Fock matrices will be formed incrementally for  20 cycles.

 Cycle   1  Pass 1  IDiag  1:
 FoFJK:  IHMeth= 1 ICntrl=       0 DoSepK=T KAlg= 0 I1Cent=           0 FoldK=F
 IRaf=         1 NMat=       1 IRICut=       1 DoRegI=T DoRafI=F ISym2E= 0 IDoP0=0 IntGTp=1.
 FoFCou: FMM=F IPFlag=           0 FMFlag=      100000 FMFlg1=           0
         NFxFlg=           0 DoJE=T BraDBF=F KetDBF=F FulRan=T
         wScrn=  0.000000 ICntrl=       500 IOpCl=  0 I1Cent=           0 NGrid=           0
         NMat0=    1 NMatS0=      1 NMatT0=    0 NMatD0=    1 NMtDS0=    0 NMtDT0=    0
 Symmetry not used in FoFCou.
 Inv3:  Mode=1 IEnd=     7970700.
 Iteration    1 A*A^-1 deviation from unit magnitude is 6.22D-15 for   1097.
 Iteration    1 A*A^-1 deviation from orthogonality  is 4.61D-15 for    752    384.
 Iteration    1 A^-1*A deviation from unit magnitude is 6.44D-15 for    220.
 Iteration    1 A^-1*A deviation from orthogonality  is 2.73D-15 for   1350    138.
 E= -493.863171178036    
 DIIS: error= 1.22D-03 at cycle   1 NSaved=   1.
 NSaved= 1 IEnMin= 1 EnMin= -493.863171178036     IErMin= 1 ErrMin= 1.22D-03
 ErrMax= 1.22D-03  0.00D+00 EMaxC= 1.00D-01 BMatC= 3.69D-04 BMatP= 3.69D-04
 IDIUse=3 WtCom= 9.88D-01 WtEn= 1.22D-02
 Coeff-Com:  0.100D+01
 Coeff-En:   0.100D+01
 Coeff:      0.100D+01
 Gap=     0.784 Goal=   None    Shift=    0.000
 GapD=    0.784 DampG=2.000 DampE=1.000 DampFc=2.0000 IDamp=-1.
 RMSDP=1.93D-04 MaxDP=5.15D-03              OVMax= 4.72D-03

 Cycle   2  Pass 1  IDiag  1:
 RMSU=  1.93D-04    CP:  1.00D+00
 E= -493.863762752786     Delta-E=       -0.000591574750 Rises=F Damp=F
 DIIS: error= 3.50D-04 at cycle   2 NSaved=   2.
 NSaved= 2 IEnMin= 2 EnMin= -493.863762752786     IErMin= 2 ErrMin= 3.50D-04
 ErrMax= 3.50D-04  0.00D+00 EMaxC= 1.00D-01 BMatC= 1.44D-05 BMatP= 3.69D-04
 IDIUse=3 WtCom= 9.97D-01 WtEn= 3.50D-03
 Coeff-Com: -0.182D+00 0.118D+01
 Coeff-En:   0.000D+00 0.100D+01
 Coeff:     -0.182D+00 0.118D+01
 Gap=     0.341 Goal=   None    Shift=    0.000
 RMSDP=4.61D-05 MaxDP=7.40D-04 DE=-5.92D-04 OVMax= 1.80D-03

 Cycle   3  Pass 1  IDiag  1:
 RMSU=  2.53D-05    CP:  1.00D+00  1.20D+00
 E= -493.863803095700     Delta-E=       -0.000040342914 Rises=F Damp=F
 DIIS: error= 6.94D-05 at cycle   3 NSaved=   3.
 NSaved= 3 IEnMin= 3 EnMin= -493.863803095700     IErMin= 3 ErrMin= 6.94D-05
 ErrMax= 6.94D-05  0.00D+00 EMaxC= 1.00D-01 BMatC= 8.11D-07 BMatP= 1.44D-05
 IDIUse=1 WtCom= 1.00D+00 WtEn= 0.00D+00
 Coeff-Com: -0.207D-01 0.446D-01 0.976D+00
 Coeff:     -0.207D-01 0.446D-01 0.976D+00
 Gap=     0.341 Goal=   None    Shift=    0.000
 RMSDP=9.89D-06 MaxDP=3.15D-04 DE=-4.03D-05 OVMax= 3.87D-04

 Cycle   4  Pass 1  IDiag  1:
 RMSU=  7.55D-06    CP:  1.00D+00  1.22D+00  1.22D+00
 E= -493.863804549366     Delta-E=       -0.000001453666 Rises=F Damp=F
 DIIS: error= 3.87D-05 at cycle   4 NSaved=   4.
 NSaved= 4 IEnMin= 4 EnMin= -493.863804549366     IErMin= 4 ErrMin= 3.87D-05
 ErrMax= 3.87D-05  0.00D+00 EMaxC= 1.00D-01 BMatC= 4.69D-07 BMatP= 8.11D-07
 IDIUse=1 WtCom= 1.00D+00 WtEn= 0.00D+00
 Coeff-Com:  0.152D-01-0.145D+00 0.473D+00 0.657D+00
 Coeff:      0.152D-01-0.145D+00 0.473D+00 0.657D+00
 Gap=     0.341 Goal=   None    Shift=    0.000
 RMSDP=4.01D-06 MaxDP=1.42D-04 DE=-1.45D-06 OVMax= 1.37D-04

 Cycle   5  Pass 1  IDiag  1:
 RMSU=  2.13D-06    CP:  1.00D+00  1.22D+00  1.34D+00  8.10D-01
 E= -493.863805035156     Delta-E=       -0.000000485790 Rises=F Damp=F
 DIIS: error= 7.37D-06 at cycle   5 NSaved=   5.
 NSaved= 5 IEnMin= 5 EnMin= -493.863805035156     IErMin= 5 ErrMin= 7.37D-06
 ErrMax= 7.37D-06  0.00D+00 EMaxC= 1.00D-01 BMatC= 6.75D-09 BMatP= 4.69D-07
 IDIUse=1 WtCom= 1.00D+00 WtEn= 0.00D+00
 Coeff-Com:  0.125D-02-0.383D-02-0.558D-01 0.133D-02 0.106D+01
 Coeff:      0.125D-02-0.383D-02-0.558D-01 0.133D-02 0.106D+01
 Gap=     0.341 Goal=   None    Shift=    0.000
 RMSDP=1.19D-06 MaxDP=1.97D-05 DE=-4.86D-07 OVMax= 4.97D-05

 Cycle   6  Pass 1  IDiag  1:
 RMSU=  5.69D-07    CP:  1.00D+00  1.22D+00  1.37D+00  8.89D-01  1.26D+00
 E= -493.863805053299     Delta-E=       -0.000000018143 Rises=F Damp=F
 DIIS: error= 2.78D-06 at cycle   6 NSaved=   6.
 NSaved= 6 IEnMin= 6 EnMin= -493.863805053299     IErMin= 6 ErrMin= 2.78D-06
 ErrMax= 2.78D-06  0.00D+00 EMaxC= 1.00D-01 BMatC= 3.16D-09 BMatP= 6.75D-09
 IDIUse=1 WtCom= 1.00D+00 WtEn= 0.00D+00
 Coeff-Com: -0.814D-03 0.118D-01-0.711D-01-0.620D-01 0.510D+00 0.612D+00
 Coeff:     -0.814D-03 0.118D-01-0.711D-01-0.620D-01 0.510D+00 0.612D+00
 Gap=     0.341 Goal=   None    Shift=    0.000
 RMSDP=3.39D-07 MaxDP=8.75D-06 DE=-1.81D-08 OVMax= 1.37D-05

 Cycle   7  Pass 1  IDiag  1:
 RMSU=  2.24D-07    CP:  1.00D+00  1.22D+00  1.37D+00  9.03D-01  1.35D+00
                    CP:  7.82D-01
 E= -493.863805056414     Delta-E=       -0.000000003115 Rises=F Damp=F
 DIIS: error= 1.13D-06 at cycle   7 NSaved=   7.
 NSaved= 7 IEnMin= 7 EnMin= -493.863805056414     IErMin= 7 ErrMin= 1.13D-06
 ErrMax= 1.13D-06  0.00D+00 EMaxC= 1.00D-01 BMatC= 2.11D-10 BMatP= 3.16D-09
 IDIUse=1 WtCom= 1.00D+00 WtEn= 0.00D+00
 Coeff-Com: -0.455D-03 0.494D-02-0.193D-01-0.241D-01 0.544D-01 0.217D+00
 Coeff-Com:  0.767D+00
 Coeff:     -0.455D-03 0.494D-02-0.193D-01-0.241D-01 0.544D-01 0.217D+00
 Coeff:      0.767D+00
 Gap=     0.341 Goal=   None    Shift=    0.000
 RMSDP=1.22D-07 MaxDP=3.58D-06 DE=-3.12D-09 OVMax= 5.41D-06

 Cycle   8  Pass 1  IDiag  1:
 RMSU=  8.88D-08    CP:  1.00D+00  1.22D+00  1.37D+00  9.06D-01  1.37D+00
                    CP:  8.77D-01  1.10D+00
 E= -493.863805056664     Delta-E=       -0.000000000251 Rises=F Damp=F
 DIIS: error= 5.40D-07 at cycle   8 NSaved=   8.
 NSaved= 8 IEnMin= 8 EnMin= -493.863805056664     IErMin= 8 ErrMin= 5.40D-07
 ErrMax= 5.40D-07  0.00D+00 EMaxC= 1.00D-01 BMatC= 5.54D-11 BMatP= 2.11D-10
 IDIUse=1 WtCom= 1.00D+00 WtEn= 0.00D+00
 Coeff-Com: -0.144D-03 0.123D-02-0.178D-02-0.560D-02-0.308D-01 0.423D-01
 Coeff-Com:  0.401D+00 0.594D+00
 Coeff:     -0.144D-03 0.123D-02-0.178D-02-0.560D-02-0.308D-01 0.423D-01
 Coeff:      0.401D+00 0.594D+00
 Gap=     0.341 Goal=   None    Shift=    0.000
 RMSDP=4.49D-08 MaxDP=1.39D-06 DE=-2.51D-10 OVMax= 1.83D-06

 Cycle   9  Pass 1  IDiag  1:
 RMSU=  3.06D-08    CP:  1.00D+00  1.22D+00  1.37D+00  9.06D-01  1.38D+00
                    CP:  9.02D-01  1.22D+00  9.49D-01
 E= -493.863805056727     Delta-E=       -0.000000000063 Rises=F Damp=F
 DIIS: error= 8.70D-08 at cycle   9 NSaved=   9.
 NSaved= 9 IEnMin= 9 EnMin= -493.863805056727     IErMin= 9 ErrMin= 8.70D-08
 ErrMax= 8.70D-08  0.00D+00 EMaxC= 1.00D-01 BMatC= 2.22D-12 BMatP= 5.54D-11
 IDIUse=1 WtCom= 1.00D+00 WtEn= 0.00D+00
 Coeff-Com:  0.450D-04-0.567D-03 0.272D-02 0.275D-02-0.133D-01-0.264D-01
 Coeff-Com: -0.556D-01 0.102D+00 0.988D+00
 Coeff:      0.450D-04-0.567D-03 0.272D-02 0.275D-02-0.133D-01-0.264D-01
 Coeff:     -0.556D-01 0.102D+00 0.988D+00
 Gap=     0.341 Goal=   None    Shift=    0.000
 RMSDP=2.44D-08 MaxDP=4.97D-07 DE=-6.25D-11 OVMax= 1.46D-06

 Cycle  10  Pass 1  IDiag  1:
 RMSU=  8.99D-09    CP:  1.00D+00  1.22D+00  1.37D+00  9.06D-01  1.38D+00
                    CP:  9.13D-01  1.29D+00  1.10D+00  1.16D+00
 E= -493.863805056735     Delta-E=       -0.000000000008 Rises=F Damp=F
 DIIS: error= 4.48D-08 at cycle  10 NSaved=  10.
 NSaved=10 IEnMin=10 EnMin= -493.863805056735     IErMin=10 ErrMin= 4.48D-08
 ErrMax= 4.48D-08  0.00D+00 EMaxC= 1.00D-01 BMatC= 1.98D-13 BMatP= 2.22D-12
 IDIUse=1 WtCom= 1.00D+00 WtEn= 0.00D+00
 Coeff-Com:  0.161D-04-0.170D-03 0.580D-03 0.795D-03-0.532D-03-0.666D-02
 Coeff-Com: -0.326D-01-0.180D-01 0.172D+00 0.885D+00
 Coeff:      0.161D-04-0.170D-03 0.580D-03 0.795D-03-0.532D-03-0.666D-02
 Coeff:     -0.326D-01-0.180D-01 0.172D+00 0.885D+00
 Gap=     0.341 Goal=   None    Shift=    0.000
 RMSDP=6.25D-09 MaxDP=1.38D-07 DE=-7.96D-12 OVMax= 4.90D-07

 Error on total polarization charges =  0.02900
 SCF Done:  E(RwB97XD) =  -493.863805057     A.U. after   10 cycles
            NFock= 10  Conv=0.62D-08     -V/T= 2.0101
 KE= 4.889206034479D+02 PE=-2.238481070678D+03 EE= 7.104949128367D+02
 SMD-CDS (non-electrostatic) energy       (kcal/mol) =       4.61
 (included in total energy above)
 Leave Link  502 at Tue Oct 21 15:05:51 2025, MaxMem=  4294967296 cpu:             308.5 elap:              38.8
 (Enter /lrz/sys/applications/gaussian/g16.C.01/x86_64_legacy/exe/l701.exe)
 ... and contract with generalized density number  0.
 Compute integral first derivatives.
 R6Disp: Adding Grimme-D2 dispersion energy 1st derivatives to the gradient.
   1 Symmetry operations used in ECPInt.
 ECPInt:  NShTT=    4095 NPrTT=   15045 LenC2=    3950 LenP2D=   11131.
 LDataN:  DoStor=T MaxTD1= 5 Len=  102
 D1PCM: PCM CHGder 1st derivatives, ID1Alg=3 FixD1E=F DoIter=F DoCFld=F I1PDM=0.
 GePol: Maximum number of non-zero 1st derivatives   =     258
 Leave Link  701 at Tue Oct 21 15:05:52 2025, MaxMem=  4294967296 cpu:               9.0 elap:               1.1
 (Enter /lrz/sys/applications/gaussian/g16.C.01/x86_64_legacy/exe/l702.exe)
 L702 exits ... SP integral derivatives will be done elsewhere.
 Leave Link  702 at Tue Oct 21 15:05:52 2025, MaxMem=  4294967296 cpu:               0.2 elap:               0.0
 (Enter /lrz/sys/applications/gaussian/g16.C.01/x86_64_legacy/exe/l703.exe)
 Integral derivatives from FoFJK, PRISM(SPDF).
 Compute integral first derivatives, UseDBF=F ICtDFT=           0.
 Calling FoFJK, ICntrl=      2127 FMM=F ISym2X=0 I1Cent= 0 IOpClX= 0 NMat=1 NMatS=1 NMatT=0.
 FoFJK:  IHMeth= 1 ICntrl=    2127 DoSepK=T KAlg= 0 I1Cent=           0 FoldK=F
 IRaf=         1 NMat=       1 IRICut=       1 DoRegI=T DoRafI=F ISym2E= 0 IDoP0=0 IntGTp=1.
 FoFCou: FMM=F IPFlag=           0 FMFlag=      100000 FMFlg1=         800
         NFxFlg=           0 DoJE=F BraDBF=F KetDBF=F FulRan=T
         wScrn=  0.000000 ICntrl=      2527 IOpCl=  0 I1Cent=           0 NGrid=           0
         NMat0=    1 NMatS0=      1 NMatT0=    0 NMatD0=    1 NMtDS0=    0 NMtDT0=    0
 Symmetry not used in FoFCou.
 Leave Link  703 at Tue Oct 21 15:06:00 2025, MaxMem=  4294967296 cpu:              66.4 elap:               8.3
 (Enter /lrz/sys/applications/gaussian/g16.C.01/x86_64_legacy/exe/l716.exe)
 Dipole        =-2.14329766D+00 1.55623766D+00 1.43182825D-01
 ***** Axes restored to original set *****
 -------------------------------------------------------------------
 Center     Atomic                   Forces (Hartrees/Bohr)
 Number     Number              X              Y              Z
 -------------------------------------------------------------------
      1        8           0.000224462   -0.000118811    0.000237619
      2        6           0.000167279   -0.000443270   -0.000294681
      3        7          -0.000689657    0.000258813    0.000255843
      4        6           0.000150779    0.000201080    0.000741012
      5        6           0.000001721   -0.000495174   -0.000228282
      6        6          -0.000250662    0.000008897   -0.000059566
      7        6           0.001072672   -0.000020432    0.000032770
      8        6           0.000416992   -0.000050470    0.000008084
      9        7          -0.001097751    0.000074066   -0.000000517
     10        6          -0.000258284    0.000111346   -0.000001351
     11        6           0.000089799    0.000205605   -0.000241412
     12        1          -0.000204434    0.000284792    0.000105927
     13        1          -0.000205454    0.000030511   -0.000004919
     14        1           0.000286681   -0.000099068   -0.000230631
     15        1           0.000236380   -0.000007673   -0.000477482
     16        1           0.000062688    0.000215328    0.000201089
     17        1          -0.000044759    0.000139303    0.000089376
     18        1          -0.000055875   -0.000117675   -0.000065718
     19        1           0.000097425   -0.000177168   -0.000067163
 -------------------------------------------------------------------
 Cartesian Forces:  Max     0.001097751 RMS     0.000311658
 Leave Link  716 at Tue Oct 21 15:06:00 2025, MaxMem=  4294967296 cpu:               0.2 elap:               0.0
 (Enter /lrz/sys/applications/gaussian/g16.C.01/x86_64_legacy/exe/l103.exe)

 GradGradGradGradGradGradGradGradGradGradGradGradGradGradGradGradGradGrad
 Berny optimization.
 Using GEDIIS/GDIIS optimizer.
 FormGI is forming the generalized inverse of G from B-inverse, IUseBI=4.
 Internal  Forces:  Max     0.001099834 RMS     0.000203566
 Search for a local minimum.
 Step number   8 out of a maximum of   98
 All quantities printed in internal units (Hartrees-Bohrs-Radians)
 RMS Force = .20357D-03 SwitMx=.10000D-02 MixMth= 2
 Mixed Optimization -- En-DIIS/RFO-DIIS
 Swapping is turned off.
 Update second derivatives using D2CorX and points    5    6    7    8
 DE= -6.54D-05 DEPred=-3.31D-05 R= 1.98D+00
 TightC=F SS=  1.41D+00  RLast= 8.57D-02 DXNew= 1.9915D+00 2.5699D-01
 Trust test= 1.98D+00 RLast= 8.57D-02 DXMaxT set to 1.18D+00
 ITU=  1  1  1  1  1  1  1  0
     Eigenvalues ---    0.00047   0.00465   0.01387   0.01522   0.02144
     Eigenvalues ---    0.02151   0.02219   0.02231   0.02266   0.02273
     Eigenvalues ---    0.02295   0.02327   0.04525   0.05030   0.05094
     Eigenvalues ---    0.06359   0.08763   0.08877   0.15848   0.15985
     Eigenvalues ---    0.16000   0.16001   0.16010   0.16492   0.16922
     Eigenvalues ---    0.20430   0.22003   0.22847   0.23792   0.24417
     Eigenvalues ---    0.25010   0.25107   0.31961   0.32297   0.35903
     Eigenvalues ---    0.35992   0.36145   0.37005   0.41193   0.42785
     Eigenvalues ---    0.43391   0.44856   0.45580   0.45582   0.46703
     Eigenvalues ---    0.47800   0.48143   0.49044   0.51960   0.54964
     Eigenvalues ---    1.41676
 En-DIIS/RFO-DIIS/Sim-DIIS IScMMF=       -3 using points:     8    7    6    5
 RFO step:  Lambda=-2.31450047D-04.
 NNeg= 0 NGDIIS= 4 SimSw=  2.50D-01 Rises=F DC= -6.54D-05 SmlDif=  1.00D-05
 NRisDI= 0 DoIntr=F SqrtH=F CThrHd= 10.0 CDAdj=  3.0
 RMS Error=  0.5490537133D-01 NUsed= 4 OKEnD=T EnDIS=F
 InvSVX:  RCond= 3.64D-06 Info=           0 Equed=N FErr=  2.37D-11 BErr=  1.78D-17
 Old DIIS coefficients:      5.56557     -4.69469      0.65479     -0.52568
 DidBck=F Rises=F RFO-DIIS coefs:    2.93198   -2.00000    0.34495   -0.27693
 Iteration  1 RMS(Cart)=  0.10690531 RMS(Int)=  0.00350588
 Iteration  2 RMS(Cart)=  0.00529787 RMS(Int)=  0.00013374
 Iteration  3 RMS(Cart)=  0.00000734 RMS(Int)=  0.00013361
 Iteration  4 RMS(Cart)=  0.00000000 RMS(Int)=  0.00013361
 ITry= 1 IFail=0 DXMaxC= 3.76D-01 DCOld= 1.00D+10 DXMaxT= 1.18D+00 DXLimC= 3.00D+00 Rises=F
 Variable       Old X    -DE/DX   Delta X   Delta X   Delta X     New X
                                 (Linear)    (Quad)   (Total)
    R1        2.66841   0.00034   0.00012   0.00098   0.00110   2.66951
    R2        1.82394  -0.00016  -0.00060  -0.00062  -0.00122   1.82272
    R3        2.72642   0.00031   0.00011  -0.00104  -0.00094   2.72548
    R4        2.87030  -0.00018   0.00171  -0.00006   0.00165   2.87195
    R5        2.09375  -0.00008   0.00014   0.00006   0.00021   2.09395
    R6        1.92651   0.00034  -0.00238   0.00081  -0.00157   1.92494
    R7        1.92453   0.00029  -0.00236  -0.00003  -0.00239   1.92214
    R8        2.64647  -0.00010  -0.00022  -0.00052  -0.00071   2.64576
    R9        2.63769   0.00009  -0.00008   0.00025   0.00020   2.63789
   R10        2.62259   0.00012  -0.00011   0.00024   0.00013   2.62272
   R11        2.06190   0.00028  -0.00089   0.00092   0.00003   2.06194
   R12        2.65397  -0.00009   0.00018  -0.00051  -0.00036   2.65361
   R13        2.06182   0.00017  -0.00042   0.00054   0.00011   2.06193
   R14        2.71156   0.00068  -0.00251   0.00178  -0.00074   2.71082
   R15        2.64736  -0.00008   0.00090  -0.00038   0.00048   2.64785
   R16        2.19128   0.00110  -0.00094   0.00115   0.00020   2.19148
   R17        2.63012   0.00010  -0.00088   0.00009  -0.00079   2.62933
   R18        2.06166   0.00015  -0.00045   0.00047   0.00002   2.06168
   R19        2.06426   0.00021  -0.00061   0.00069   0.00008   2.06434
    A1        1.88091   0.00018   0.00207   0.00162   0.00369   1.88460
    A2        1.85823   0.00011   0.00610   0.00011   0.00621   1.86444
    A3        1.94497  -0.00017   0.00251   0.00237   0.00488   1.94985
    A4        1.89497   0.00015  -0.00340   0.00180  -0.00160   1.89337
    A5        1.91376   0.00000  -0.00153  -0.00364  -0.00520   1.90856
    A6        1.97069  -0.00002  -0.00145   0.00092  -0.00055   1.97013
    A7        1.88215  -0.00008  -0.00209  -0.00138  -0.00348   1.87867
    A8        1.90061  -0.00003   0.01191   0.00054   0.01203   1.91264
    A9        1.90590   0.00037   0.01269   0.00466   0.01694   1.92284
   A10        1.85947  -0.00028   0.01384  -0.00134   0.01164   1.87111
   A11        2.08652   0.00038  -0.00104   0.00197   0.00066   2.08718
   A12        2.11042  -0.00039   0.00091  -0.00205  -0.00141   2.10901
   A13        2.08625   0.00002   0.00026   0.00007   0.00020   2.08645
   A14        2.10411   0.00003  -0.00019   0.00028   0.00015   2.10426
   A15        2.08681   0.00009  -0.00243   0.00063  -0.00184   2.08497
   A16        2.09225  -0.00013   0.00262  -0.00092   0.00165   2.09391
   A17        2.08525  -0.00011   0.00080  -0.00070   0.00010   2.08535
   A18        2.10589   0.00002   0.00015   0.00017   0.00032   2.10621
   A19        2.09204   0.00009  -0.00094   0.00053  -0.00042   2.09163
   A20        2.09017  -0.00006   0.00160  -0.00001   0.00159   2.09177
   A21        2.10129   0.00019  -0.00163   0.00093  -0.00072   2.10057
   A22        2.09171  -0.00013   0.00003  -0.00092  -0.00087   2.09084
   A23        2.08340  -0.00010   0.00132  -0.00046   0.00087   2.08427
   A24        2.09472   0.00008  -0.00131   0.00028  -0.00103   2.09369
   A25        2.10507   0.00002  -0.00001   0.00018   0.00016   2.10523
   A26        2.10605  -0.00002  -0.00057  -0.00011  -0.00061   2.10545
   A27        2.08933   0.00000   0.00042   0.00001   0.00040   2.08973
   A28        2.08780   0.00001   0.00015   0.00009   0.00020   2.08800
   A29        3.14178   0.00000   0.00211  -0.00108   0.00103   3.14280
   A30        3.14122   0.00004   0.00065   0.00110   0.00175   3.14297
    D1       -2.89906  -0.00023   0.02712   0.01456   0.04170  -2.85735
    D2        1.29802  -0.00021   0.02383   0.01757   0.04138   1.33939
    D3       -0.77247  -0.00010   0.02703   0.01672   0.04376  -0.72872
    D4        1.31285   0.00014  -0.00040   0.02184   0.02122   1.33406
    D5       -2.94637  -0.00001   0.02857   0.02310   0.05191  -2.89445
    D6       -2.86405   0.00000   0.00536   0.02272   0.02784  -2.83621
    D7       -0.84008  -0.00014   0.03433   0.02398   0.05853  -0.78154
    D8       -0.76494  -0.00011   0.00066   0.01903   0.01947  -0.74547
    D9        1.25903  -0.00025   0.02963   0.02029   0.05016   1.30920
   D10        0.90804  -0.00016  -0.05415  -0.10078  -0.15495   0.75309
   D11       -2.23412  -0.00026  -0.07134  -0.11868  -0.19002  -2.42414
   D12       -1.14482  -0.00020  -0.06224  -0.10007  -0.16230  -1.30713
   D13        1.99620  -0.00029  -0.07943  -0.11796  -0.19737   1.79883
   D14        2.98618  -0.00013  -0.05817  -0.09806  -0.15624   2.82993
   D15       -0.15598  -0.00022  -0.07535  -0.11596  -0.19131  -0.34729
   D16        3.13533  -0.00007  -0.01757  -0.01492  -0.03250   3.10283
   D17       -0.01064  -0.00010  -0.01980  -0.01888  -0.03867  -0.04931
   D18       -0.00571   0.00002  -0.00060   0.00272   0.00212  -0.00359
   D19        3.13151  -0.00001  -0.00283  -0.00123  -0.00406   3.12745
   D20       -3.13470   0.00009   0.01905   0.01674   0.03580  -3.09889
   D21        0.00708   0.00007   0.01729   0.01486   0.03216   0.03924
   D22        0.00633  -0.00000   0.00190  -0.00115   0.00075   0.00708
   D23       -3.13508  -0.00002   0.00015  -0.00304  -0.00289  -3.13797
   D24        0.00170  -0.00002  -0.00096  -0.00258  -0.00354  -0.00184
   D25       -3.14055  -0.00002  -0.00062  -0.00157  -0.00220   3.14044
   D26       -3.13550   0.00001   0.00127   0.00139   0.00267  -3.13283
   D27        0.00544   0.00001   0.00162   0.00239   0.00402   0.00945
   D28        3.13975   0.00001   0.00093   0.00182   0.00276  -3.14068
   D29        0.00174  -0.00000   0.00127   0.00087   0.00214   0.00388
   D30       -0.00120   0.00002   0.00059   0.00083   0.00142   0.00023
   D31       -3.13920   0.00000   0.00093  -0.00012   0.00081  -3.13839
   D32       -0.00114   0.00002   0.00000   0.00067   0.00068  -0.00046
   D33        3.13837   0.00001   0.00001   0.00114   0.00115   3.13952
   D34       -3.13914   0.00000   0.00034  -0.00028   0.00006  -3.13908
   D35        0.00037   0.00000   0.00034   0.00018   0.00053   0.00090
   D36       -0.00293  -0.00002  -0.00160  -0.00053  -0.00212  -0.00505
   D37        3.13848   0.00001   0.00015   0.00136   0.00152   3.14000
   D38        3.14076  -0.00001  -0.00160  -0.00100  -0.00260   3.13816
   D39       -0.00102   0.00001   0.00015   0.00089   0.00104   0.00003
         Item               Value     Threshold  Converged?
 Maximum Force            0.001100     0.000450     NO 
 RMS     Force            0.000204     0.000300     YES
 Maximum Displacement     0.376206     0.001800     NO 
 RMS     Displacement     0.106833     0.001200     NO 
 Predicted change in Energy=-1.344621D-04
 Lowest energy point so far.  Saving SCF results.
 GradGradGradGradGradGradGradGradGradGradGradGradGradGradGradGradGradGrad

 Leave Link  103 at Tue Oct 21 15:06:00 2025, MaxMem=  4294967296 cpu:               0.2 elap:               0.1
 (Enter /lrz/sys/applications/gaussian/g16.C.01/x86_64_legacy/exe/l202.exe)
                          Input orientation:                          
 ---------------------------------------------------------------------
 Center     Atomic      Atomic             Coordinates (Angstroms)
 Number     Number       Type             X           Y           Z
 ---------------------------------------------------------------------
      1          8           0        3.041757    0.096896    1.215460
      2          6           0        2.492647   -0.194174   -0.053128
      3          7           0        2.983624    0.812733   -0.961534
      4          6           0        0.973552   -0.154739   -0.030878
      5          6           0        0.318771    0.879014    0.649437
      6          6           0       -1.066702    0.960644    0.644379
      7          6           0       -1.813240   -0.003187   -0.052454
      8          6           0       -3.245606    0.074266   -0.063843
      9          7           0       -4.403455    0.138767   -0.073321
     10          6           0       -1.166717   -1.042731   -0.734114
     11          6           0        0.222813   -1.112030   -0.715389
     12          1           0        2.944180   -0.686901    1.769073
     13          1           0        2.797740   -1.219775   -0.341022
     14          1           0        3.951983    0.610517   -1.204444
     15          1           0        2.447127    0.797212   -1.825554
     16          1           0        0.906427    1.618935    1.195094
     17          1           0       -1.578908    1.764892    1.174843
     18          1           0       -1.753143   -1.789213   -1.271826
     19          1           0        0.730417   -1.921866   -1.244395
 ---------------------------------------------------------------------
                    Distance matrix (angstroms):
                    1          2          3          4          5
     1  O    0.000000
     2  C    1.412643   0.000000
     3  N    2.292402   1.442263   0.000000
     4  C    2.427787   1.519770   2.417129   0.000000
     5  C    2.889073   2.524097   3.114653   1.400076   0.000000
     6  C    4.236936   3.806453   4.359584   2.421299   1.387885
     7  C    5.018826   4.310120   4.949955   2.790993   2.411721
     8  C    6.416234   5.744538   6.336757   4.225497   3.723060
     9  N    7.556050   6.904164   7.470749   5.385179   4.834228
    10  C    4.776069   3.817687   4.551901   2.421533   2.795352
    11  C    3.624379   2.536374   3.374519   1.395912   2.415826
    12  H    0.964545   1.940897   3.115554   2.721469   3.255526
    13  H    2.053243   1.108072   2.133232   2.134983   3.395764
    14  H    2.635955   2.025517   1.018634   3.291493   4.087688
    15  H    3.176758   2.031357   1.017153   2.509681   3.265298
    16  H    2.622337   2.713212   3.100928   2.157182   1.091130
    17  H    4.912678   4.682245   5.127125   3.413766   2.159171
    18  H    5.721457   4.696393   5.413259   3.412671   3.886324
    19  H    3.933011   2.740345   3.554573   2.157423   3.406021
                    6          7          8          9         10
     6  C    0.000000
     7  C    1.404231   0.000000
     8  C    2.456597   1.434504   0.000000
     9  N    3.510626   2.594186   1.159683   0.000000
    10  C    2.433877   1.401179   2.453309   3.508426   0.000000
    11  C    2.794244   2.411333   3.723136   4.835194   1.391383
    12  H    4.479567   5.139890   6.500186   7.619966   4.826182
    13  H    4.545235   4.777499   6.186550   7.333111   3.987830
    14  H    5.359845   5.911134   7.307107   8.444840   5.399586
    15  H    4.298171   4.683508   6.002790   7.101714   4.199584
    16  H    2.151713   3.403563   4.605464   5.656379   3.886417
    17  H    1.091129   2.165010   2.677767   3.490022   3.420053
    18  H    3.421222   2.163416   2.675672   3.489652   1.090993
    19  H    3.886639   3.401800   4.602934   5.654579   2.152297
                   11         12         13         14         15
    11  C    0.000000
    12  H    3.709329   0.000000
    13  H    2.604229   2.181262   0.000000
    14  H    4.136792   3.397170   2.329751   0.000000
    15  H    3.134525   3.920586   2.528834   1.638665   0.000000
    16  H    3.402270   3.130299   3.740989   4.006258   3.489025
    17  H    3.885339   5.179067   5.510094   6.130607   5.113487
    18  H    2.161621   5.703246   4.679871   6.189645   4.963717
    19  H    1.092402   3.937877   2.362803   4.097932   3.267755
                   16         17         18         19
    16  H    0.000000
    17  H    2.489700   0.000000
    18  H    4.977397   4.318357   0.000000
    19  H    4.303412   4.977738   2.487252   0.000000
 Stoichiometry    C8H8N2O
 Framework group  C1[X(C8H8N2O)]
 Deg. of freedom    51
 Full point group                 C1      NOp   1
 RotChk:  IX=2 Diff= 2.25D-01
 Largest Abelian subgroup         C1      NOp   1
 Largest concise Abelian subgroup C1      NOp   1
                         Standard orientation:                         
 ---------------------------------------------------------------------
 Center     Atomic      Atomic             Coordinates (Angstroms)
 Number     Number       Type             X           Y           Z
 ---------------------------------------------------------------------
      1          8           0       -3.005312   -0.793931    0.847782
      2          6           0       -2.418404    0.277790    0.138901
      3          7           0       -2.913281    0.204311   -1.213807
      4          6           0       -0.901821    0.180226    0.126329
      5          6           0       -0.290669   -1.058002   -0.104964
      6          6           0        1.091940   -1.162126   -0.166413
      7          6           0        1.879812   -0.012209    0.003334
      8          6           0        3.309545   -0.110591   -0.059790
      9          7           0        4.465224   -0.191288   -0.112327
     10          6           0        1.277095    1.230818    0.237684
     11          6           0       -0.110218    1.316731    0.300371
     12          1           0       -2.900819   -0.619895    1.790724
     13          1           0       -2.689763    1.224868    0.646080
     14          1           0       -3.869930    0.552663   -1.246825
     15          1           0       -2.355881    0.797357   -1.823891
     16          1           0       -0.910306   -1.947710   -0.227577
     17          1           0        1.570173   -2.126377   -0.345505
     18          1           0        1.895482    2.119753    0.370570
     19          1           0       -0.583741    2.283815    0.484395
 ---------------------------------------------------------------------
 Rotational constants (GHZ):           3.4537829           0.5501848           0.5174430
 Leave Link  202 at Tue Oct 21 15:06:00 2025, MaxMem=  4294967296 cpu:               0.0 elap:               0.0
 (Enter /lrz/sys/applications/gaussian/g16.C.01/x86_64_legacy/exe/l301.exe)
 Standard basis: def2SVP (5D, 7F)
 Ernie: Thresh=  0.10000D-02 Tol=  0.10000D-05 Strict=F.
 There are   205 symmetry adapted cartesian basis functions of A   symmetry.
 There are   194 symmetry adapted basis functions of A   symmetry.
   194 basis functions,   331 primitive gaussians,   205 cartesian basis functions
    39 alpha electrons       39 beta electrons
       nuclear repulsion energy       545.2504850208 Hartrees.
 IExCor= 4639 DFT=T Ex+Corr=wB97XD ExCW=0 ScaHFX=  1.000000
 ScaDFX=  1.000000  1.000000  1.000000  1.000000 ScalE2=  1.000000  1.000000
 IRadAn=      5 IRanWt=     -1 IRanGd=            0 ICorTp=0 IEmpDi=121
 HFx  wShort=  0.000000 wLong=  0.200000 cFull=  0.222036 cShort=  0.000000 cLong=  0.777964
 DFx  wShort=  0.000000 wLong=  0.200000 cFull=  0.000000 cShort=  0.000000 cLong=  1.000000
 NAtoms=   19 NActive=   19 NUniq=   19 SFac= 1.00D+00 NAtFMM=   60 NAOKFM=F Big=F
 Integral buffers will be    131072 words long.
 Raffenetti 2 integral format.
 Two-electron integral symmetry is turned on.
 R6Disp:  Grimme-D2 Dispersion energy=       -0.0102570239 Hartrees.
 Nuclear repulsion after empirical dispersion term =      545.2402279969 Hartrees.
 ------------------------------------------------------------------------------
 Polarizable Continuum Model (PCM)
 =================================
 Model                : PCM.
 Atomic radii         : SMD-Coulomb.
 Polarization charges : Total charges.
 Charge compensation  : None.
 Solution method      : On-the-fly selection.
 Cavity type          : VdW (van der Waals Surface) (Alpha=1.000).
 Cavity algorithm     : GePol (No added spheres)
                        Default sphere list used, NSphG=   19.
                        Lebedev-Laikov grids with approx.  5.0 points / Ang**2.
                        Smoothing algorithm: York/Karplus (Gamma=1.0000).
                        Polarization charges: spherical gaussians, with
                                              point-specific exponents (IZeta= 3).
                        Self-potential: point-specific (ISelfS= 7).
                        Self-field    : sphere-specific E.n sum rule (ISelfD= 2).
 1st derivatives      : Analytical E(r).r(x)/FMM algorithm (CHGder, D1EAlg=3).
                        Cavity 1st derivative terms included.
 Solvent              : Water, Eps=  78.355300 Eps(inf)=   1.777849
 ------------------------------------------------------------------------------
 Spheres list:
 ISph  on   Nord     Re0    Alpha      Xe            Ye            Ze
    1   O      1    1.5200  1.000     -3.005312     -0.793931      0.847782
    2   C      2    1.8500  1.000     -2.418404      0.277790      0.138901
    3   N      3    1.8900  1.000     -2.913281      0.204311     -1.213807
    4   C      4    1.8500  1.000     -0.901821      0.180226      0.126329
    5   C      5    1.8500  1.000     -0.290669     -1.058002     -0.104964
    6   C      6    1.8500  1.000      1.091940     -1.162126     -0.166413
    7   C      7    1.8500  1.000      1.879812     -0.012209      0.003334
    8   C      8    1.8500  1.000      3.309545     -0.110591     -0.059790
    9   N      9    1.8900  1.000      4.465224     -0.191288     -0.112327
   10   C     10    1.8500  1.000      1.277095      1.230818      0.237684
   11   C     11    1.8500  1.000     -0.110218      1.316731      0.300371
   12   H     12    1.2000  1.000     -2.900819     -0.619895      1.790724
   13   H     13    1.2000  1.000     -2.689763      1.224868      0.646080
   14   H     14    1.2000  1.000     -3.869930      0.552663     -1.246825
   15   H     15    1.2000  1.000     -2.355881      0.797357     -1.823891
   16   H     16    1.2000  1.000     -0.910306     -1.947710     -0.227577
   17   H     17    1.2000  1.000      1.570173     -2.126377     -0.345505
   18   H     18    1.2000  1.000      1.895482      2.119753      0.370570
   19   H     19    1.2000  1.000     -0.583741      2.283815      0.484395
 ------------------------------------------------------------------------------
 GePol: Number of generator spheres                  =      19
 GePol: Total number of spheres                      =      19
 GePol: Number of exposed spheres                    =      19 (100.00%)
 GePol: Number of points                             =    1645
 GePol: Average weight of points                     =       0.11
 GePol: Minimum weight of points                     =   0.21D-09
 GePol: Maximum weight of points                     =    0.21991
 GePol: Number of points with low weight             =      89
 GePol: Fraction of low-weight points (<1% of avg)   =       5.41%
 GePol: Cavity surface area                          =    187.924 Ang**2
 GePol: Cavity volume                                =    161.624 Ang**3
 ------------------------------------------------------------------------------
 Atomic radii for non-electrostatic terms: SMD-CDS.
 ------------------------------------------------------------------------------
 PCM non-electrostatic energy =         0.0072517387 Hartrees.
 Nuclear repulsion after PCM non-electrostatic terms =      545.2474797356 Hartrees.
 Leave Link  301 at Tue Oct 21 15:06:00 2025, MaxMem=  4294967296 cpu:               0.6 elap:               0.1
 (Enter /lrz/sys/applications/gaussian/g16.C.01/x86_64_legacy/exe/l302.exe)
 NPDir=0 NMtPBC=     1 NCelOv=     1 NCel=       1 NClECP=     1 NCelD=      1
         NCelK=      1 NCelE2=     1 NClLst=     1 CellRange=     0.0.
 One-electron integrals computed using PRISM.
 One-electron integral symmetry used in STVInt
   1 Symmetry operations used in ECPInt.
 ECPInt:  NShTT=    4095 NPrTT=   15045 LenC2=    3949 LenP2D=   11138.
 LDataN:  DoStor=T MaxTD1= 4 Len=   56
 NBasis=   194 RedAO= T EigKep=  2.77D-04  NBF=   194
 NBsUse=   194 1.00D-06 EigRej= -1.00D+00 NBFU=   194
 Precomputing XC quadrature grid using
 IXCGrd= 4 IRadAn=           5 IRanWt=          -1 IRanGd=           0 AccXCQ= 0.00D+00.
 Generated NRdTot=       0 NPtTot=           0 NUsed=           0 NTot=          32
 NSgBfM=   204   204   204   204   204 MxSgAt=    19 MxSgA2=    19.
 Leave Link  302 at Tue Oct 21 15:06:01 2025, MaxMem=  4294967296 cpu:               2.0 elap:               0.3
 (Enter /lrz/sys/applications/gaussian/g16.C.01/x86_64_legacy/exe/l303.exe)
 DipDrv:  MaxL=1.
 Leave Link  303 at Tue Oct 21 15:06:01 2025, MaxMem=  4294967296 cpu:               0.3 elap:               0.0
 (Enter /lrz/sys/applications/gaussian/g16.C.01/x86_64_legacy/exe/l401.exe)
 Initial guess from the checkpoint file:  "g16_C12-a_10.chk"
 B after Tr=    -0.000000    0.000000    0.000000
         Rot=    0.996533   -0.083177    0.001890    0.000092 Ang=  -9.54 deg.
 Guess basis will be translated and rotated to current coordinates.
 JPrj=2 DoOrth=T DoCkMO=T.
 Generating alternative initial guess.
 ExpMin= 1.22D-01 ExpMax= 2.27D+03 ExpMxC= 3.41D+02 IAcc=3 IRadAn=         5 AccDes= 0.00D+00
 Harris functional with IExCor= 4639 and IRadAn=       5 diagonalized for initial guess.
 HarFok:  IExCor= 4639 AccDes= 0.00D+00 IRadAn=         5 IDoV= 1 UseB2=F ITyADJ=14
 ICtDFT=  3500011 ScaDFX=  1.000000  1.000000  1.000000  1.000000
 FoFCou: FMM=F IPFlag=           0 FMFlag=      100000 FMFlg1=           0
         NFxFlg=           0 DoJE=T BraDBF=F KetDBF=T FulRan=T
         wScrn=  0.000000 ICntrl=       500 IOpCl=  0 I1Cent=   200000004 NGrid=           0
         NMat0=    1 NMatS0=      1 NMatT0=    0 NMatD0=    1 NMtDS0=    0 NMtDT0=    0
 Petite list used in FoFCou.
 Harris En= -472.807004463895    
 Leave Link  401 at Tue Oct 21 15:06:02 2025, MaxMem=  4294967296 cpu:              11.9 elap:               1.5
 (Enter /lrz/sys/applications/gaussian/g16.C.01/x86_64_legacy/exe/l502.exe)
 Integral symmetry usage will be decided dynamically.
 Closed shell SCF:
 Using DIIS extrapolation, IDIIS=  1040.
 NGot=  4294967296 LenX=  4294878900 LenY=  4294836434
 Requested convergence on RMS density matrix=1.00D-08 within 128 cycles.
 Requested convergence on MAX density matrix=1.00D-06.
 Requested convergence on             energy=1.00D-06.
 No special actions if energy rises.
 Fock matrices will be formed incrementally for  20 cycles.

 Cycle   1  Pass 1  IDiag  1:
 FoFJK:  IHMeth= 1 ICntrl=       0 DoSepK=T KAlg= 0 I1Cent=           0 FoldK=F
 IRaf=         1 NMat=       1 IRICut=       1 DoRegI=T DoRafI=F ISym2E= 0 IDoP0=0 IntGTp=1.
 FoFCou: FMM=F IPFlag=           0 FMFlag=      100000 FMFlg1=           0
         NFxFlg=           0 DoJE=T BraDBF=F KetDBF=F FulRan=T
         wScrn=  0.000000 ICntrl=       500 IOpCl=  0 I1Cent=           0 NGrid=           0
         NMat0=    1 NMatS0=      1 NMatT0=    0 NMatD0=    1 NMtDS0=    0 NMtDT0=    0
 Symmetry not used in FoFCou.
 Inv3:  Mode=1 IEnd=     8118075.
 Iteration    1 A*A^-1 deviation from unit magnitude is 6.66D-15 for   1129.
 Iteration    1 A*A^-1 deviation from orthogonality  is 3.76D-15 for    895    541.
 Iteration    1 A^-1*A deviation from unit magnitude is 6.00D-15 for   1129.
 Iteration    1 A^-1*A deviation from orthogonality  is 5.09D-15 for    393    229.
 E= -493.844981562751    
 DIIS: error= 5.82D-03 at cycle   1 NSaved=   1.
 NSaved= 1 IEnMin= 1 EnMin= -493.844981562751     IErMin= 1 ErrMin= 5.82D-03
 ErrMax= 5.82D-03  0.00D+00 EMaxC= 1.00D-01 BMatC= 1.09D-02 BMatP= 1.09D-02
 IDIUse=3 WtCom= 9.42D-01 WtEn= 5.82D-02
 Coeff-Com:  0.100D+01
 Coeff-En:   0.100D+01
 Coeff:      0.100D+01
 Gap=     0.781 Goal=   None    Shift=    0.000
 GapD=    0.781 DampG=2.000 DampE=1.000 DampFc=2.0000 IDamp=-1.
 RMSDP=1.06D-03 MaxDP=3.24D-02              OVMax= 2.56D-02

 Cycle   2  Pass 1  IDiag  1:
 RMSU=  1.06D-03    CP:  9.98D-01
 E= -493.862562047560     Delta-E=       -0.017580484809 Rises=F Damp=F
 DIIS: error= 1.70D-03 at cycle   2 NSaved=   2.
 NSaved= 2 IEnMin= 2 EnMin= -493.862562047560     IErMin= 2 ErrMin= 1.70D-03
 ErrMax= 1.70D-03  0.00D+00 EMaxC= 1.00D-01 BMatC= 4.34D-04 BMatP= 1.09D-02
 IDIUse=3 WtCom= 9.83D-01 WtEn= 1.70D-02
 Coeff-Com: -0.181D+00 0.118D+01
 Coeff-En:   0.000D+00 0.100D+01
 Coeff:     -0.178D+00 0.118D+01
 Gap=     0.340 Goal=   None    Shift=    0.000
 RMSDP=2.50D-04 MaxDP=5.01D-03 DE=-1.76D-02 OVMax= 9.06D-03

 Cycle   3  Pass 1  IDiag  1:
 RMSU=  1.43D-04    CP:  9.97D-01  1.19D+00
 E= -493.863759685719     Delta-E=       -0.001197638159 Rises=F Damp=F
 DIIS: error= 3.34D-04 at cycle   3 NSaved=   3.
 NSaved= 3 IEnMin= 3 EnMin= -493.863759685719     IErMin= 3 ErrMin= 3.34D-04
 ErrMax= 3.34D-04  0.00D+00 EMaxC= 1.00D-01 BMatC= 3.49D-05 BMatP= 4.34D-04
 IDIUse=3 WtCom= 9.97D-01 WtEn= 3.34D-03
 Coeff-Com: -0.399D-01 0.163D+00 0.877D+00
 Coeff-En:   0.000D+00 0.000D+00 0.100D+01
 Coeff:     -0.398D-01 0.162D+00 0.877D+00
 Gap=     0.338 Goal=   None    Shift=    0.000
 RMSDP=5.40D-05 MaxDP=2.22D-03 DE=-1.20D-03 OVMax= 2.17D-03

 Cycle   4  Pass 1  IDiag  1:
 RMSU=  4.58D-05    CP:  9.97D-01  1.21D+00  1.16D+00
 E= -493.863810839314     Delta-E=       -0.000051153595 Rises=F Damp=F
 DIIS: error= 2.06D-04 at cycle   4 NSaved=   4.
 NSaved= 4 IEnMin= 4 EnMin= -493.863810839314     IErMin= 4 ErrMin= 2.06D-04
 ErrMax= 2.06D-04  0.00D+00 EMaxC= 1.00D-01 BMatC= 1.36D-05 BMatP= 3.49D-05
 IDIUse=3 WtCom= 9.98D-01 WtEn= 2.06D-03
 Coeff-Com:  0.153D-01-0.144D+00 0.381D+00 0.748D+00
 Coeff-En:   0.000D+00 0.000D+00 0.000D+00 0.100D+01
 Coeff:      0.152D-01-0.144D+00 0.380D+00 0.748D+00
 Gap=     0.339 Goal=   None    Shift=    0.000
 RMSDP=2.51D-05 MaxDP=9.12D-04 DE=-5.12D-05 OVMax= 8.79D-04

 Cycle   5  Pass 1  IDiag  1:
 RMSU=  1.24D-05    CP:  9.97D-01  1.21D+00  1.31D+00  8.74D-01
 E= -493.863827305185     Delta-E=       -0.000016465871 Rises=F Damp=F
 DIIS: error= 3.95D-05 at cycle   5 NSaved=   5.
 NSaved= 5 IEnMin= 5 EnMin= -493.863827305185     IErMin= 5 ErrMin= 3.95D-05
 ErrMax= 3.95D-05  0.00D+00 EMaxC= 1.00D-01 BMatC= 1.57D-07 BMatP= 1.36D-05
 IDIUse=1 WtCom= 1.00D+00 WtEn= 0.00D+00
 Coeff-Com:  0.405D-03 0.480D-02-0.740D-01-0.604D-01 0.113D+01
 Coeff:      0.405D-03 0.480D-02-0.740D-01-0.604D-01 0.113D+01
 Gap=     0.339 Goal=   None    Shift=    0.000
 RMSDP=6.50D-06 MaxDP=1.10D-04 DE=-1.65D-05 OVMax= 2.82D-04

 Cycle   6  Pass 1  IDiag  1:
 RMSU=  2.59D-06    CP:  9.97D-01  1.21D+00  1.33D+00  9.44D-01  1.29D+00
 E= -493.863827833752     Delta-E=       -0.000000528567 Rises=F Damp=F
 DIIS: error= 1.83D-05 at cycle   6 NSaved=   6.
 NSaved= 6 IEnMin= 6 EnMin= -493.863827833752     IErMin= 6 ErrMin= 1.83D-05
 ErrMax= 1.83D-05  0.00D+00 EMaxC= 1.00D-01 BMatC= 5.64D-08 BMatP= 1.57D-07
 IDIUse=1 WtCom= 1.00D+00 WtEn= 0.00D+00
 Coeff-Com: -0.697D-03 0.106D-01-0.549D-01-0.706D-01 0.501D+00 0.615D+00
 Coeff:     -0.697D-03 0.106D-01-0.549D-01-0.706D-01 0.501D+00 0.615D+00
 Gap=     0.339 Goal=   None    Shift=    0.000
 RMSDP=1.47D-06 MaxDP=5.77D-05 DE=-5.29D-07 OVMax= 7.20D-05

 Cycle   7  Pass 1  IDiag  1:
 RMSU=  1.15D-06    CP:  9.97D-01  1.21D+00  1.33D+00  9.51D-01  1.35D+00
                    CP:  8.79D-01
 E= -493.863827890430     Delta-E=       -0.000000056678 Rises=F Damp=F
 DIIS: error= 8.36D-06 at cycle   7 NSaved=   7.
 NSaved= 7 IEnMin= 7 EnMin= -493.863827890430     IErMin= 7 ErrMin= 8.36D-06
 ErrMax= 8.36D-06  0.00D+00 EMaxC= 1.00D-01 BMatC= 9.32D-09 BMatP= 5.64D-08
 IDIUse=1 WtCom= 1.00D+00 WtEn= 0.00D+00
 Coeff-Com: -0.422D-03 0.423D-02-0.115D-01-0.224D-01 0.797D-02 0.294D+00
 Coeff-Com:  0.728D+00
 Coeff:     -0.422D-03 0.423D-02-0.115D-01-0.224D-01 0.797D-02 0.294D+00
 Coeff:      0.728D+00
 Gap=     0.339 Goal=   None    Shift=    0.000
 RMSDP=6.77D-07 MaxDP=2.00D-05 DE=-5.67D-08 OVMax= 2.96D-05

 Cycle   8  Pass 1  IDiag  1:
 RMSU=  4.42D-07    CP:  9.97D-01  1.21D+00  1.33D+00  9.54D-01  1.38D+00
                    CP:  1.03D+00  1.03D+00
 E= -493.863827901273     Delta-E=       -0.000000010843 Rises=F Damp=F
 DIIS: error= 1.43D-06 at cycle   8 NSaved=   8.
 NSaved= 8 IEnMin= 8 EnMin= -493.863827901273     IErMin= 8 ErrMin= 1.43D-06
 ErrMax= 1.43D-06  0.00D+00 EMaxC= 1.00D-01 BMatC= 6.13D-10 BMatP= 9.32D-09
 IDIUse=1 WtCom= 1.00D+00 WtEn= 0.00D+00
 Coeff-Com: -0.111D-03 0.839D-03-0.356D-03-0.344D-02-0.337D-01 0.662D-01
 Coeff-Com:  0.270D+00 0.701D+00
 Coeff:     -0.111D-03 0.839D-03-0.356D-03-0.344D-02-0.337D-01 0.662D-01
 Coeff:      0.270D+00 0.701D+00
 Gap=     0.339 Goal=   None    Shift=    0.000
 RMSDP=2.27D-07 MaxDP=7.02D-06 DE=-1.08D-08 OVMax= 1.32D-05

 Cycle   9  Pass 1  IDiag  1:
 RMSU=  1.63D-07    CP:  9.97D-01  1.21D+00  1.33D+00  9.54D-01  1.38D+00
                    CP:  1.07D+00  1.12D+00  1.05D+00
 E= -493.863827902204     Delta-E=       -0.000000000931 Rises=F Damp=F
 DIIS: error= 7.48D-07 at cycle   9 NSaved=   9.
 NSaved= 9 IEnMin= 9 EnMin= -493.863827902204     IErMin= 9 ErrMin= 7.48D-07
 ErrMax= 7.48D-07  0.00D+00 EMaxC= 1.00D-01 BMatC= 9.76D-11 BMatP= 6.13D-10
 IDIUse=1 WtCom= 1.00D+00 WtEn= 0.00D+00
 Coeff-Com:  0.553D-04-0.650D-03 0.243D-02 0.374D-02-0.127D-01-0.409D-01
 Coeff-Com: -0.696D-01 0.246D+00 0.872D+00
 Coeff:      0.553D-04-0.650D-03 0.243D-02 0.374D-02-0.127D-01-0.409D-01
 Coeff:     -0.696D-01 0.246D+00 0.872D+00
 Gap=     0.339 Goal=   None    Shift=    0.000
 RMSDP=1.28D-07 MaxDP=2.13D-06 DE=-9.31D-10 OVMax= 8.39D-06

 Cycle  10  Pass 1  IDiag  1:
 RMSU=  5.38D-08    CP:  9.97D-01  1.21D+00  1.33D+00  9.54D-01  1.38D+00
                    CP:  1.09D+00  1.17D+00  1.23D+00  1.04D+00
 E= -493.863827902466     Delta-E=       -0.000000000262 Rises=F Damp=F
 DIIS: error= 3.24D-07 at cycle  10 NSaved=  10.
 NSaved=10 IEnMin=10 EnMin= -493.863827902466     IErMin=10 ErrMin= 3.24D-07
 ErrMax= 3.24D-07  0.00D+00 EMaxC= 1.00D-01 BMatC= 6.52D-12 BMatP= 9.76D-11
 IDIUse=1 WtCom= 1.00D+00 WtEn= 0.00D+00
 Coeff-Com:  0.912D-05-0.742D-04 0.705D-04 0.322D-03 0.231D-02-0.581D-02
 Coeff-Com: -0.223D-01-0.523D-01 0.176D-01 0.106D+01
 Coeff:      0.912D-05-0.742D-04 0.705D-04 0.322D-03 0.231D-02-0.581D-02
 Coeff:     -0.223D-01-0.523D-01 0.176D-01 0.106D+01
 Gap=     0.339 Goal=   None    Shift=    0.000
 RMSDP=4.43D-08 MaxDP=9.80D-07 DE=-2.62D-10 OVMax= 3.84D-06

 Cycle  11  Pass 1  IDiag  1:
 RMSU=  2.06D-08    CP:  9.97D-01  1.21D+00  1.33D+00  9.54D-01  1.38D+00
                    CP:  1.09D+00  1.19D+00  1.27D+00  1.16D+00  1.46D+00
 E= -493.863827902509     Delta-E=       -0.000000000043 Rises=F Damp=F
 DIIS: error= 1.58D-07 at cycle  11 NSaved=  11.
 NSaved=11 IEnMin=11 EnMin= -493.863827902509     IErMin=11 ErrMin= 1.58D-07
 ErrMax= 1.58D-07  0.00D+00 EMaxC= 1.00D-01 BMatC= 2.57D-12 BMatP= 6.52D-12
 IDIUse=1 WtCom= 1.00D+00 WtEn= 0.00D+00
 Coeff-Com: -0.923D-05 0.125D-03-0.566D-03-0.768D-03 0.421D-02 0.746D-02
 Coeff-Com:  0.669D-02-0.838D-01-0.204D+00 0.463D+00 0.808D+00
 Coeff:     -0.923D-05 0.125D-03-0.566D-03-0.768D-03 0.421D-02 0.746D-02
 Coeff:      0.669D-02-0.838D-01-0.204D+00 0.463D+00 0.808D+00
 Gap=     0.339 Goal=   None    Shift=    0.000
 RMSDP=2.15D-08 MaxDP=4.98D-07 DE=-4.27D-11 OVMax= 2.11D-06

 Cycle  12  Pass 1  IDiag  1:
 RMSU=  8.50D-09    CP:  9.97D-01  1.21D+00  1.33D+00  9.54D-01  1.38D+00
                    CP:  1.09D+00  1.19D+00  1.28D+00  1.20D+00  1.77D+00
                    CP:  1.16D+00
 E= -493.863827902501     Delta-E=        0.000000000008 Rises=F Damp=F
 DIIS: error= 4.41D-08 at cycle  12 NSaved=  12.
 NSaved=12 IEnMin=11 EnMin= -493.863827902509     IErMin=12 ErrMin= 4.41D-08
 ErrMax= 4.41D-08  0.00D+00 EMaxC= 1.00D-01 BMatC= 1.40D-13 BMatP= 2.57D-12
 IDIUse=1 WtCom= 1.00D+00 WtEn= 0.00D+00
 Coeff-Com: -0.185D-05 0.191D-04-0.541D-04-0.101D-03 0.270D-04 0.132D-02
 Coeff-Com:  0.332D-02 0.773D-03-0.182D-01-0.965D-01 0.735D-01 0.104D+01
 Coeff:     -0.185D-05 0.191D-04-0.541D-04-0.101D-03 0.270D-04 0.132D-02
 Coeff:      0.332D-02 0.773D-03-0.182D-01-0.965D-01 0.735D-01 0.104D+01
 Gap=     0.339 Goal=   None    Shift=    0.000
 RMSDP=7.53D-09 MaxDP=1.56D-07 DE= 7.73D-12 OVMax= 7.24D-07

 Error on total polarization charges =  0.02895
 SCF Done:  E(RwB97XD) =  -493.863827903     A.U. after   12 cycles
            NFock= 12  Conv=0.75D-08     -V/T= 2.0101
 KE= 4.889130554046D+02 PE=-2.238570505489D+03 EE= 7.105461424461D+02
 SMD-CDS (non-electrostatic) energy       (kcal/mol) =       4.55
 (included in total energy above)
 Leave Link  502 at Tue Oct 21 15:06:48 2025, MaxMem=  4294967296 cpu:             366.0 elap:              46.0
 (Enter /lrz/sys/applications/gaussian/g16.C.01/x86_64_legacy/exe/l701.exe)
 ... and contract with generalized density number  0.
 Compute integral first derivatives.
 R6Disp: Adding Grimme-D2 dispersion energy 1st derivatives to the gradient.
   1 Symmetry operations used in ECPInt.
 ECPInt:  NShTT=    4095 NPrTT=   15045 LenC2=    3949 LenP2D=   11138.
 LDataN:  DoStor=T MaxTD1= 5 Len=  102
 D1PCM: PCM CHGder 1st derivatives, ID1Alg=3 FixD1E=F DoIter=F DoCFld=F I1PDM=0.
 GePol: Maximum number of non-zero 1st derivatives   =     260
 Leave Link  701 at Tue Oct 21 15:06:50 2025, MaxMem=  4294967296 cpu:               9.7 elap:               1.2
 (Enter /lrz/sys/applications/gaussian/g16.C.01/x86_64_legacy/exe/l702.exe)
 L702 exits ... SP integral derivatives will be done elsewhere.
 Leave Link  702 at Tue Oct 21 15:06:50 2025, MaxMem=  4294967296 cpu:               0.2 elap:               0.0
 (Enter /lrz/sys/applications/gaussian/g16.C.01/x86_64_legacy/exe/l703.exe)
 Integral derivatives from FoFJK, PRISM(SPDF).
 Compute integral first derivatives, UseDBF=F ICtDFT=           0.
 Calling FoFJK, ICntrl=      2127 FMM=F ISym2X=0 I1Cent= 0 IOpClX= 0 NMat=1 NMatS=1 NMatT=0.
 FoFJK:  IHMeth= 1 ICntrl=    2127 DoSepK=T KAlg= 0 I1Cent=           0 FoldK=F
 IRaf=         1 NMat=       1 IRICut=       1 DoRegI=T DoRafI=F ISym2E= 0 IDoP0=0 IntGTp=1.
 FoFCou: FMM=F IPFlag=           0 FMFlag=      100000 FMFlg1=         800
         NFxFlg=           0 DoJE=F BraDBF=F KetDBF=F FulRan=T
         wScrn=  0.000000 ICntrl=      2527 IOpCl=  0 I1Cent=           0 NGrid=           0
         NMat0=    1 NMatS0=      1 NMatT0=    0 NMatD0=    1 NMtDS0=    0 NMtDT0=    0
 Symmetry not used in FoFCou.
 Leave Link  703 at Tue Oct 21 15:06:58 2025, MaxMem=  4294967296 cpu:              69.1 elap:               8.7
 (Enter /lrz/sys/applications/gaussian/g16.C.01/x86_64_legacy/exe/l716.exe)
 Dipole        =-2.16116205D+00 1.46424278D+00 5.37874305D-01
 ***** Axes restored to original set *****
 -------------------------------------------------------------------
 Center     Atomic                   Forces (Hartrees/Bohr)
 Number     Number              X              Y              Z
 -------------------------------------------------------------------
      1        8           0.000771841    0.000720250   -0.001471278
      2        6          -0.000085836   -0.001672685    0.000290879
      3        7          -0.000402116    0.002321051    0.002177292
      4        6           0.000411271    0.001537375    0.000851770
      5        6           0.000246224   -0.000843795   -0.000094164
      6        6          -0.000802769   -0.000070830   -0.000058583
      7        6           0.001444405   -0.000009487    0.000026386
      8        6           0.000033635    0.000200689    0.000060653
      9        7          -0.000889338   -0.000016784   -0.000009746
     10        6          -0.000249794   -0.000119424    0.000073287
     11        6           0.000062058    0.000241191   -0.000631255
     12        1          -0.000769723   -0.000377422    0.000052929
     13        1           0.000077204    0.000059128   -0.000015778
     14        1           0.000279566   -0.000831874   -0.000512265
     15        1          -0.000200206   -0.001113116   -0.000765966
     16        1          -0.000069952    0.000253367    0.000018814
     17        1          -0.000013656    0.000161588    0.000098989
     18        1           0.000003604   -0.000226666   -0.000017085
     19        1           0.000153584   -0.000212553   -0.000074880
 -------------------------------------------------------------------
 Cartesian Forces:  Max     0.002321051 RMS     0.000707039
 Leave Link  716 at Tue Oct 21 15:06:58 2025, MaxMem=  4294967296 cpu:               0.2 elap:               0.0
 (Enter /lrz/sys/applications/gaussian/g16.C.01/x86_64_legacy/exe/l103.exe)

 GradGradGradGradGradGradGradGradGradGradGradGradGradGradGradGradGradGrad
 Berny optimization.
 Using GEDIIS/GDIIS optimizer.
 FormGI is forming the generalized inverse of G from B-inverse, IUseBI=4.
 Internal  Forces:  Max     0.001384281 RMS     0.000406705
 Search for a local minimum.
 Step number   9 out of a maximum of   98
 All quantities printed in internal units (Hartrees-Bohrs-Radians)
 RMS Force = .40670D-03 SwitMx=.10000D-02 MixMth= 2
 Mixed Optimization -- En-DIIS/RFO-DIIS
 Swapping is turned off.
 Update second derivatives using D2CorX and points    7    8    9
 DE= -2.28D-05 DEPred=-1.34D-04 R= 1.70D-01
 Trust test= 1.70D-01 RLast= 4.56D-01 DXMaxT set to 1.18D+00
 ITU=  0  1  1  1  1  1  1  1  0
     Eigenvalues ---    0.00070   0.00415   0.01383   0.01530   0.02144
     Eigenvalues ---    0.02156   0.02228   0.02233   0.02266   0.02293
     Eigenvalues ---    0.02295   0.02331   0.04786   0.05033   0.05189
     Eigenvalues ---    0.06391   0.08721   0.08775   0.15832   0.16000
     Eigenvalues ---    0.16000   0.16007   0.16023   0.16716   0.17240
     Eigenvalues ---    0.20634   0.22013   0.22637   0.23404   0.24405
     Eigenvalues ---    0.25008   0.26982   0.31964   0.32358   0.35903
     Eigenvalues ---    0.35992   0.36150   0.36918   0.40918   0.42786
     Eigenvalues ---    0.43389   0.44784   0.45578   0.45651   0.46725
     Eigenvalues ---    0.47760   0.48128   0.50222   0.54041   0.54991
     Eigenvalues ---    1.41452
 En-DIIS/RFO-DIIS/Sim-DIIS IScMMF=       -3 using points:     9    8    7    6    5
 RFO step:  Lambda=-9.39098856D-05.
 NNeg= 0 NGDIIS= 5 SimSw=  2.50D-01 Rises=F DC= -2.28D-05 SmlDif=  1.00D-05
 NRisDI= 0 DoIntr=F SqrtH=F CThrHd= 10.0 CDAdj=  3.0
 RMS Error=  0.1426930368D-01 NUsed= 5 OKEnD=T EnDIS=F
 InvSVX:  RCond= 2.57D-06 Info=           0 Equed=N FErr=  2.27D-11 BErr=  2.43D-17
 DidBck=F Rises=F RFO-DIIS coefs:    1.64698   -0.73507   -0.35397    0.21870    0.22336
 Iteration  1 RMS(Cart)=  0.04280182 RMS(Int)=  0.00063236
 Iteration  2 RMS(Cart)=  0.00087577 RMS(Int)=  0.00009910
 Iteration  3 RMS(Cart)=  0.00000037 RMS(Int)=  0.00009910
 ITry= 1 IFail=0 DXMaxC= 1.64D-01 DCOld= 1.00D+10 DXMaxT= 1.18D+00 DXLimC= 3.00D+00 Rises=F
 Variable       Old X    -DE/DX   Delta X   Delta X   Delta X     New X
                                 (Linear)    (Quad)   (Total)
    R1        2.66951  -0.00120   0.00200  -0.00382  -0.00181   2.66769
    R2        1.82272   0.00042  -0.00055   0.00118   0.00063   1.82335
    R3        2.72548  -0.00042   0.00271  -0.00159   0.00112   2.72660
    R4        2.87195  -0.00030  -0.00052   0.00081   0.00029   2.87224
    R5        2.09395  -0.00003  -0.00019   0.00032   0.00012   2.09407
    R6        1.92494   0.00055   0.00157  -0.00037   0.00120   1.92614
    R7        1.92214   0.00077   0.00120   0.00035   0.00155   1.92369
    R8        2.64576  -0.00023  -0.00078  -0.00020  -0.00099   2.64477
    R9        2.63789   0.00031   0.00016   0.00061   0.00077   2.63866
   R10        2.62272   0.00047   0.00013   0.00096   0.00110   2.62382
   R11        2.06194   0.00014   0.00079  -0.00084  -0.00005   2.06188
   R12        2.65361  -0.00021  -0.00077  -0.00002  -0.00078   2.65283
   R13        2.06193   0.00017   0.00029  -0.00006   0.00023   2.06216
   R14        2.71082   0.00086   0.00210  -0.00047   0.00162   2.71244
   R15        2.64785   0.00002  -0.00079   0.00080   0.00001   2.64786
   R16        2.19148   0.00089   0.00105  -0.00055   0.00050   2.19198
   R17        2.62933  -0.00000   0.00006  -0.00049  -0.00044   2.62890
   R18        2.06168   0.00016   0.00021  -0.00004   0.00017   2.06185
   R19        2.06434   0.00027   0.00056  -0.00000   0.00056   2.06490
    A1        1.88460  -0.00087   0.00383  -0.00630  -0.00247   1.88213
    A2        1.86444  -0.00032   0.00301   0.00001   0.00300   1.86744
    A3        1.94985   0.00042  -0.00157   0.00451   0.00293   1.95279
    A4        1.89337   0.00004   0.00233  -0.00344  -0.00110   1.89226
    A5        1.90856  -0.00027   0.00001  -0.00060  -0.00059   1.90797
    A6        1.97013   0.00016  -0.00096  -0.00109  -0.00206   1.96808
    A7        1.87867  -0.00000  -0.00280   0.00070  -0.00210   1.87657
    A8        1.91264  -0.00067  -0.00076  -0.00368  -0.00413   1.90851
    A9        1.92284  -0.00125   0.00439  -0.01039  -0.00570   1.91714
   A10        1.87111   0.00008  -0.00658  -0.00008  -0.00601   1.86510
   A11        2.08718   0.00138   0.00260   0.00473   0.00736   2.09454
   A12        2.10901  -0.00136  -0.00307  -0.00445  -0.00749   2.10152
   A13        2.08645  -0.00003  -0.00003  -0.00020  -0.00021   2.08624
   A14        2.10426  -0.00002   0.00032  -0.00032   0.00000   2.10426
   A15        2.08497   0.00020   0.00089  -0.00049   0.00041   2.08538
   A16        2.09391  -0.00018  -0.00124   0.00084  -0.00039   2.09352
   A17        2.08535  -0.00012  -0.00092   0.00052  -0.00040   2.08495
   A18        2.10621  -0.00002   0.00016  -0.00028  -0.00012   2.10609
   A19        2.09163   0.00013   0.00075  -0.00024   0.00052   2.09215
   A20        2.09177  -0.00025  -0.00032  -0.00013  -0.00045   2.09132
   A21        2.10057   0.00027   0.00139  -0.00048   0.00092   2.10149
   A22        2.09084  -0.00002  -0.00107   0.00061  -0.00046   2.09038
   A23        2.08427  -0.00021  -0.00088  -0.00001  -0.00089   2.08337
   A24        2.09369   0.00022   0.00074   0.00035   0.00109   2.09478
   A25        2.10523  -0.00002   0.00014  -0.00034  -0.00020   2.10504
   A26        2.10545   0.00010   0.00011   0.00051   0.00061   2.10605
   A27        2.08973  -0.00009  -0.00010  -0.00049  -0.00058   2.08915
   A28        2.08800  -0.00001  -0.00002  -0.00000  -0.00002   2.08798
   A29        3.14280  -0.00014   0.00082  -0.00225  -0.00142   3.14138
   A30        3.14297  -0.00005   0.00168  -0.00182  -0.00014   3.14283
    D1       -2.85735  -0.00044  -0.02759  -0.00475  -0.03235  -2.88970
    D2        1.33939  -0.00015  -0.02863  -0.00661  -0.03522   1.30417
    D3       -0.72872  -0.00042  -0.02570  -0.00799  -0.03369  -0.76240
    D4        1.33406   0.00041  -0.01286   0.00384  -0.00885   1.32521
    D5       -2.89445  -0.00064  -0.01711  -0.00466  -0.02195  -2.91641
    D6       -2.83621   0.00056  -0.01298   0.00893  -0.00388  -2.84009
    D7       -0.78154  -0.00048  -0.01723   0.00043  -0.01697  -0.79852
    D8       -0.74547   0.00048  -0.01713   0.00870  -0.00825  -0.75372
    D9        1.30920  -0.00057  -0.02137   0.00020  -0.02135   1.28785
   D10        0.75309  -0.00035  -0.05804  -0.00164  -0.05967   0.69342
   D11       -2.42414  -0.00033  -0.07059   0.00114  -0.06944  -2.49358
   D12       -1.30713  -0.00003  -0.06078  -0.00403  -0.06481  -1.37194
   D13        1.79883  -0.00001  -0.07333  -0.00125  -0.07458   1.72425
   D14        2.82993  -0.00006  -0.05787  -0.00277  -0.06064   2.76929
   D15       -0.34729  -0.00004  -0.07042   0.00001  -0.07041  -0.41770
   D16        3.10283   0.00002  -0.00920   0.00113  -0.00819   3.09464
   D17       -0.04931   0.00008  -0.01112   0.00577  -0.00545  -0.05476
   D18       -0.00359   0.00003   0.00316  -0.00152   0.00165  -0.00194
   D19        3.12745   0.00009   0.00124   0.00312   0.00438   3.13184
   D20       -3.09889  -0.00015   0.01120  -0.00583   0.00525  -3.09364
   D21        0.03924  -0.00001   0.00776   0.00089   0.00855   0.04779
   D22        0.00708  -0.00011  -0.00138  -0.00295  -0.00432   0.00276
   D23       -3.13797   0.00004  -0.00482   0.00376  -0.00103  -3.13900
   D24       -0.00184   0.00003  -0.00238   0.00305   0.00065  -0.00119
   D25        3.14044   0.00002  -0.00197   0.00283   0.00086   3.14130
   D26       -3.13283  -0.00002  -0.00044  -0.00161  -0.00210  -3.13493
   D27        0.00945  -0.00004  -0.00003  -0.00183  -0.00190   0.00756
   D28       -3.14068  -0.00003   0.00190  -0.00156   0.00036  -3.14032
   D29        0.00388  -0.00002  -0.00017  -0.00016  -0.00033   0.00356
   D30        0.00023  -0.00002   0.00150  -0.00133   0.00016   0.00038
   D31       -3.13839  -0.00001  -0.00058   0.00006  -0.00053  -3.13893
   D32       -0.00046  -0.00005   0.00192  -0.00423  -0.00229  -0.00275
   D33        3.13952  -0.00006   0.00230  -0.00376  -0.00148   3.13804
   D34       -3.13908  -0.00004  -0.00016  -0.00283  -0.00298   3.14112
   D35        0.00090  -0.00005   0.00021  -0.00237  -0.00217  -0.00127
   D36       -0.00505   0.00012  -0.00113   0.00579   0.00463  -0.00042
   D37        3.14000  -0.00003   0.00230  -0.00092   0.00134   3.14133
   D38        3.13816   0.00012  -0.00151   0.00532   0.00381  -3.14121
   D39        0.00003  -0.00003   0.00192  -0.00138   0.00052   0.00055
         Item               Value     Threshold  Converged?
 Maximum Force            0.001384     0.000450     NO 
 RMS     Force            0.000407     0.000300     NO 
 Maximum Displacement     0.164355     0.001800     NO 
 RMS     Displacement     0.042869     0.001200     NO 
 Predicted change in Energy=-2.239800D-05
 Lowest energy point so far.  Saving SCF results.
 GradGradGradGradGradGradGradGradGradGradGradGradGradGradGradGradGradGrad

 Leave Link  103 at Tue Oct 21 15:06:59 2025, MaxMem=  4294967296 cpu:               0.2 elap:               0.1
 (Enter /lrz/sys/applications/gaussian/g16.C.01/x86_64_legacy/exe/l202.exe)
                          Input orientation:                          
 ---------------------------------------------------------------------
 Center     Atomic      Atomic             Coordinates (Angstroms)
 Number     Number       Type             X           Y           Z
 ---------------------------------------------------------------------
      1          8           0        3.053855    0.148828    1.203811
      2          6           0        2.494110   -0.189334   -0.047260
      3          7           0        2.978506    0.778461   -1.001494
      4          6           0        0.974995   -0.149469   -0.017682
      5          6           0        0.314975    0.865200    0.684861
      6          6           0       -1.071144    0.945134    0.673756
      7          6           0       -1.811508   -0.001886   -0.051306
      8          6           0       -3.244734    0.074298   -0.069450
      9          7           0       -4.402913    0.136342   -0.085194
     10          6           0       -1.160129   -1.023186   -0.755557
     11          6           0        0.229287   -1.088799   -0.732723
     12          1           0        2.931192   -0.603379    1.795525
     13          1           0        2.795808   -1.225918   -0.297131
     14          1           0        3.947196    0.565476   -1.236414
     15          1           0        2.443437    0.710240   -1.864812
     16          1           0        0.898077    1.593338    1.250821
     17          1           0       -1.587538    1.735400    1.221150
     18          1           0       -1.741901   -1.757894   -1.314315
     19          1           0        0.741694   -1.883590   -1.280202
 ---------------------------------------------------------------------
                    Distance matrix (angstroms):
                    1          2          3          4          5
     1  O    0.000000
     2  C    1.411683   0.000000
     3  N    2.294665   1.442854   0.000000
     4  C    2.429544   1.519925   2.417229   0.000000
     5  C    2.878187   2.529165   3.153683   1.399553   0.000000
     6  C    4.234463   3.810238   4.385648   2.421348   1.388466
     7  C    5.026907   4.309698   4.945305   2.790612   2.411578
     8  C    6.426427   5.744939   6.331924   4.225975   3.723713
     9  N    7.567370   6.904812   7.465740   5.385921   4.835565
    10  C    4.792745   3.814506   4.520478   2.422106   2.795843
    11  C    3.641438   2.531466   3.334232   1.396319   2.415575
    12  H    0.964876   1.938642   3.120102   2.705635   3.199202
    13  H    2.051668   1.108136   2.132380   2.133587   3.389929
    14  H    2.631796   2.023680   1.019269   3.290962   4.119971
    15  H    3.178717   2.028619   1.017974   2.511436   3.324935
    16  H    2.595418   2.722178   3.172559   2.156940   1.091102
    17  H    4.905103   4.687570   5.167653   3.413797   2.159724
    18  H    5.742458   4.691439   5.367792   3.413182   3.886909
    19  H    3.955646   2.731595   3.488198   2.157675   3.405790
                    6          7          8          9         10
     6  C    0.000000
     7  C    1.403817   0.000000
     8  C    2.456665   1.435364   0.000000
     9  N    3.511530   2.595310   1.159947   0.000000
    10  C    2.434161   1.401185   2.453730   3.508496   0.000000
    11  C    2.793956   2.410509   3.723110   4.835033   1.391152
    12  H    4.435645   5.125016   6.486867   7.607457   4.839749
    13  H    4.539758   4.773474   6.183086   7.329547   3.987567
    14  H    5.382993   5.906695   7.302528   8.440011   5.370273
    15  H    4.341864   4.679796   5.998586   7.097106   4.149807
    16  H    2.151976   3.403252   4.605809   5.657585   3.886896
    17  H    1.091249   2.165057   2.677911   3.491398   3.420504
    18  H    3.421798   2.164163   2.676775   3.489964   1.091084
    19  H    3.886645   3.401446   4.603352   5.654657   2.152318
                   11         12         13         14         15
    11  C    0.000000
    12  H    3.732019   0.000000
    13  H    2.606832   2.187485   0.000000
    14  H    4.100387   3.404576   2.327453   0.000000
    15  H    3.069304   3.919383   2.516048   1.636194   0.000000
    16  H    3.402291   3.042339   3.734400   4.066935   3.588199
    17  H    3.885174   5.120421   5.503481   6.167789   5.179080
    18  H    2.161370   5.730777   4.680648   6.145725   4.889968
    19  H    1.092696   3.986595   2.370305   4.034239   3.156842
                   16         17         18         19
    16  H    0.000000
    17  H    2.489848   0.000000
    18  H    4.977967   4.319203   0.000000
    19  H    4.303435   4.977868   2.487007   0.000000
 Stoichiometry    C8H8N2O
 Framework group  C1[X(C8H8N2O)]
 Deg. of freedom    51
 Full point group                 C1      NOp   1
 RotChk:  IX=2 Diff= 7.47D-02
 Largest Abelian subgroup         C1      NOp   1
 Largest concise Abelian subgroup C1      NOp   1
                         Standard orientation:                         
 ---------------------------------------------------------------------
 Center     Atomic      Atomic             Coordinates (Angstroms)
 Number     Number       Type             X           Y           Z
 ---------------------------------------------------------------------
      1          8           0       -3.015995   -0.864293    0.766053
      2          6           0       -2.418614    0.262353    0.160534
      3          7           0       -2.906238    0.320205   -1.196192
      4          6           0       -0.902185    0.160357    0.145904
      5          6           0       -0.285772   -1.067244   -0.122011
      6          6           0        1.097624   -1.162026   -0.193201
      7          6           0        1.879455   -0.012994    0.004707
      8          6           0        3.310192   -0.101722   -0.068697
      9          7           0        4.466373   -0.172956   -0.129103
     10          6           0        1.271894    1.220063    0.276287
     11          6           0       -0.115450    1.296633    0.344976
     12          1           0       -2.887189   -0.790533    1.719444
     13          1           0       -2.686846    1.160746    0.751217
     14          1           0       -3.863230    0.671025   -1.196431
     15          1           0       -2.349668    0.980169   -1.735588
     16          1           0       -0.900945   -1.956428   -0.268356
     17          1           0        1.580048   -2.118379   -0.401720
     18          1           0        1.885745    2.108486    0.432352
     19          1           0       -0.593767    2.255984    0.556738
 ---------------------------------------------------------------------
 Rotational constants (GHZ):           3.4540355           0.5511790           0.5161064
 Leave Link  202 at Tue Oct 21 15:06:59 2025, MaxMem=  4294967296 cpu:               0.2 elap:               0.0
 (Enter /lrz/sys/applications/gaussian/g16.C.01/x86_64_legacy/exe/l301.exe)
 Standard basis: def2SVP (5D, 7F)
 Ernie: Thresh=  0.10000D-02 Tol=  0.10000D-05 Strict=F.
 There are   205 symmetry adapted cartesian basis functions of A   symmetry.
 There are   194 symmetry adapted basis functions of A   symmetry.
   194 basis functions,   331 primitive gaussians,   205 cartesian basis functions
    39 alpha electrons       39 beta electrons
       nuclear repulsion energy       545.2276075953 Hartrees.
 IExCor= 4639 DFT=T Ex+Corr=wB97XD ExCW=0 ScaHFX=  1.000000
 ScaDFX=  1.000000  1.000000  1.000000  1.000000 ScalE2=  1.000000  1.000000
 IRadAn=      5 IRanWt=     -1 IRanGd=            0 ICorTp=0 IEmpDi=121
 HFx  wShort=  0.000000 wLong=  0.200000 cFull=  0.222036 cShort=  0.000000 cLong=  0.777964
 DFx  wShort=  0.000000 wLong=  0.200000 cFull=  0.000000 cShort=  0.000000 cLong=  1.000000
 NAtoms=   19 NActive=   19 NUniq=   19 SFac= 1.00D+00 NAtFMM=   60 NAOKFM=F Big=F
 Integral buffers will be    131072 words long.
 Raffenetti 2 integral format.
 Two-electron integral symmetry is turned on.
 R6Disp:  Grimme-D2 Dispersion energy=       -0.0102743689 Hartrees.
 Nuclear repulsion after empirical dispersion term =      545.2173332264 Hartrees.
 ------------------------------------------------------------------------------
 Polarizable Continuum Model (PCM)
 =================================
 Model                : PCM.
 Atomic radii         : SMD-Coulomb.
 Polarization charges : Total charges.
 Charge compensation  : None.
 Solution method      : On-the-fly selection.
 Cavity type          : VdW (van der Waals Surface) (Alpha=1.000).
 Cavity algorithm     : GePol (No added spheres)
                        Default sphere list used, NSphG=   19.
                        Lebedev-Laikov grids with approx.  5.0 points / Ang**2.
                        Smoothing algorithm: York/Karplus (Gamma=1.0000).
                        Polarization charges: spherical gaussians, with
                                              point-specific exponents (IZeta= 3).
                        Self-potential: point-specific (ISelfS= 7).
                        Self-field    : sphere-specific E.n sum rule (ISelfD= 2).
 1st derivatives      : Analytical E(r).r(x)/FMM algorithm (CHGder, D1EAlg=3).
                        Cavity 1st derivative terms included.
 Solvent              : Water, Eps=  78.355300 Eps(inf)=   1.777849
 ------------------------------------------------------------------------------
 Spheres list:
 ISph  on   Nord     Re0    Alpha      Xe            Ye            Ze
    1   O      1    1.5200  1.000     -3.015995     -0.864293      0.766053
    2   C      2    1.8500  1.000     -2.418614      0.262353      0.160534
    3   N      3    1.8900  1.000     -2.906238      0.320205     -1.196192
    4   C      4    1.8500  1.000     -0.902185      0.160357      0.145904
    5   C      5    1.8500  1.000     -0.285772     -1.067244     -0.122011
    6   C      6    1.8500  1.000      1.097624     -1.162026     -0.193201
    7   C      7    1.8500  1.000      1.879455     -0.012994      0.004707
    8   C      8    1.8500  1.000      3.310192     -0.101722     -0.068697
    9   N      9    1.8900  1.000      4.466373     -0.172956     -0.129103
   10   C     10    1.8500  1.000      1.271894      1.220063      0.276287
   11   C     11    1.8500  1.000     -0.115450      1.296633      0.344976
   12   H     12    1.2000  1.000     -2.887189     -0.790533      1.719444
   13   H     13    1.2000  1.000     -2.686846      1.160746      0.751217
   14   H     14    1.2000  1.000     -3.863230      0.671025     -1.196431
   15   H     15    1.2000  1.000     -2.349668      0.980169     -1.735588
   16   H     16    1.2000  1.000     -0.900945     -1.956428     -0.268356
   17   H     17    1.2000  1.000      1.580048     -2.118379     -0.401720
   18   H     18    1.2000  1.000      1.885745      2.108486      0.432352
   19   H     19    1.2000  1.000     -0.593767      2.255984      0.556738
 ------------------------------------------------------------------------------
 GePol: Number of generator spheres                  =      19
 GePol: Total number of spheres                      =      19
 GePol: Number of exposed spheres                    =      19 (100.00%)
 GePol: Number of points                             =    1633
 GePol: Average weight of points                     =       0.12
 GePol: Minimum weight of points                     =   0.50D-11
 GePol: Maximum weight of points                     =    0.21991
 GePol: Number of points with low weight             =      77
 GePol: Fraction of low-weight points (<1% of avg)   =       4.72%
 GePol: Cavity surface area                          =    188.472 Ang**2
 GePol: Cavity volume                                =    161.697 Ang**3
 ------------------------------------------------------------------------------
 Atomic radii for non-electrostatic terms: SMD-CDS.
 ------------------------------------------------------------------------------
 PCM non-electrostatic energy =         0.0071762087 Hartrees.
 Nuclear repulsion after PCM non-electrostatic terms =      545.2245094350 Hartrees.
 Leave Link  301 at Tue Oct 21 15:06:59 2025, MaxMem=  4294967296 cpu:               0.6 elap:               0.1
 (Enter /lrz/sys/applications/gaussian/g16.C.01/x86_64_legacy/exe/l302.exe)
 NPDir=0 NMtPBC=     1 NCelOv=     1 NCel=       1 NClECP=     1 NCelD=      1
         NCelK=      1 NCelE2=     1 NClLst=     1 CellRange=     0.0.
 One-electron integrals computed using PRISM.
 One-electron integral symmetry used in STVInt
   1 Symmetry operations used in ECPInt.
 ECPInt:  NShTT=    4095 NPrTT=   15045 LenC2=    3949 LenP2D=   11134.
 LDataN:  DoStor=T MaxTD1= 4 Len=   56
 NBasis=   194 RedAO= T EigKep=  2.77D-04  NBF=   194
 NBsUse=   194 1.00D-06 EigRej= -1.00D+00 NBFU=   194
 Precomputing XC quadrature grid using
 IXCGrd= 4 IRadAn=           5 IRanWt=          -1 IRanGd=           0 AccXCQ= 0.00D+00.
 Generated NRdTot=       0 NPtTot=           0 NUsed=           0 NTot=          32
 NSgBfM=   204   204   204   204   204 MxSgAt=    19 MxSgA2=    19.
 Leave Link  302 at Tue Oct 21 15:06:59 2025, MaxMem=  4294967296 cpu:               2.0 elap:               0.3
 (Enter /lrz/sys/applications/gaussian/g16.C.01/x86_64_legacy/exe/l303.exe)
 DipDrv:  MaxL=1.
 Leave Link  303 at Tue Oct 21 15:06:59 2025, MaxMem=  4294967296 cpu:               0.3 elap:               0.1
 (Enter /lrz/sys/applications/gaussian/g16.C.01/x86_64_legacy/exe/l401.exe)
 Initial guess from the checkpoint file:  "g16_C12-a_10.chk"
 B after Tr=    -0.000000    0.000000    0.000000
         Rot=    0.999639   -0.026880    0.000343   -0.000284 Ang=  -3.08 deg.
 Guess basis will be translated and rotated to current coordinates.
 JPrj=2 DoOrth=T DoCkMO=T.
 Generating alternative initial guess.
 ExpMin= 1.22D-01 ExpMax= 2.27D+03 ExpMxC= 3.41D+02 IAcc=3 IRadAn=         5 AccDes= 0.00D+00
 Harris functional with IExCor= 4639 and IRadAn=       5 diagonalized for initial guess.
 HarFok:  IExCor= 4639 AccDes= 0.00D+00 IRadAn=         5 IDoV= 1 UseB2=F ITyADJ=14
 ICtDFT=  3500011 ScaDFX=  1.000000  1.000000  1.000000  1.000000
 FoFCou: FMM=F IPFlag=           0 FMFlag=      100000 FMFlg1=           0
         NFxFlg=           0 DoJE=T BraDBF=F KetDBF=T FulRan=T
         wScrn=  0.000000 ICntrl=       500 IOpCl=  0 I1Cent=   200000004 NGrid=           0
         NMat0=    1 NMatS0=      1 NMatT0=    0 NMatD0=    1 NMtDS0=    0 NMtDT0=    0
 Petite list used in FoFCou.
 Harris En= -472.807311633009    
 Leave Link  401 at Tue Oct 21 15:07:00 2025, MaxMem=  4294967296 cpu:              11.5 elap:               1.5
 (Enter /lrz/sys/applications/gaussian/g16.C.01/x86_64_legacy/exe/l502.exe)
 Integral symmetry usage will be decided dynamically.
 Closed shell SCF:
 Using DIIS extrapolation, IDIIS=  1040.
 NGot=  4294967296 LenX=  4294878900 LenY=  4294836434
 Requested convergence on RMS density matrix=1.00D-08 within 128 cycles.
 Requested convergence on MAX density matrix=1.00D-06.
 Requested convergence on             energy=1.00D-06.
 No special actions if energy rises.
 Fock matrices will be formed incrementally for  20 cycles.

 Cycle   1  Pass 1  IDiag  1:
 FoFJK:  IHMeth= 1 ICntrl=       0 DoSepK=T KAlg= 0 I1Cent=           0 FoldK=F
 IRaf=         1 NMat=       1 IRICut=       1 DoRegI=T DoRafI=F ISym2E= 0 IDoP0=0 IntGTp=1.
 FoFCou: FMM=F IPFlag=           0 FMFlag=      100000 FMFlg1=           0
         NFxFlg=           0 DoJE=T BraDBF=F KetDBF=F FulRan=T
         wScrn=  0.000000 ICntrl=       500 IOpCl=  0 I1Cent=           0 NGrid=           0
         NMat0=    1 NMatS0=      1 NMatT0=    0 NMatD0=    1 NMtDS0=    0 NMtDT0=    0
 Symmetry not used in FoFCou.
 Inv3:  Mode=1 IEnd=     8000067.
 Iteration    1 A*A^-1 deviation from unit magnitude is 6.66D-15 for    721.
 Iteration    1 A*A^-1 deviation from orthogonality  is 3.39D-15 for    730    182.
 Iteration    1 A^-1*A deviation from unit magnitude is 5.88D-15 for    632.
 Iteration    1 A^-1*A deviation from orthogonality  is 8.53D-15 for   1182   1181.
 E= -493.860852749737    
 DIIS: error= 3.49D-03 at cycle   1 NSaved=   1.
 NSaved= 1 IEnMin= 1 EnMin= -493.860852749737     IErMin= 1 ErrMin= 3.49D-03
 ErrMax= 3.49D-03  0.00D+00 EMaxC= 1.00D-01 BMatC= 1.85D-03 BMatP= 1.85D-03
 IDIUse=3 WtCom= 9.65D-01 WtEn= 3.49D-02
 Coeff-Com:  0.100D+01
 Coeff-En:   0.100D+01
 Coeff:      0.100D+01
 Gap=     0.781 Goal=   None    Shift=    0.000
 GapD=    0.781 DampG=2.000 DampE=1.000 DampFc=2.0000 IDamp=-1.
 RMSDP=4.64D-04 MaxDP=1.38D-02              OVMax= 9.51D-03

 Cycle   2  Pass 1  IDiag  1:
 RMSU=  4.64D-04    CP:  1.00D+00
 E= -493.863767993605     Delta-E=       -0.002915243868 Rises=F Damp=F
 DIIS: error= 6.70D-04 at cycle   2 NSaved=   2.
 NSaved= 2 IEnMin= 2 EnMin= -493.863767993605     IErMin= 2 ErrMin= 6.70D-04
 ErrMax= 6.70D-04  0.00D+00 EMaxC= 1.00D-01 BMatC= 7.12D-05 BMatP= 1.85D-03
 IDIUse=3 WtCom= 9.93D-01 WtEn= 6.70D-03
 Coeff-Com: -0.178D+00 0.118D+01
 Coeff-En:   0.000D+00 0.100D+01
 Coeff:     -0.177D+00 0.118D+01
 Gap=     0.339 Goal=   None    Shift=    0.000
 RMSDP=1.03D-04 MaxDP=2.29D-03 DE=-2.92D-03 OVMax= 3.47D-03

 Cycle   3  Pass 1  IDiag  1:
 RMSU=  6.40D-05    CP:  9.99D-01  1.17D+00
 E= -493.863959933836     Delta-E=       -0.000191940231 Rises=F Damp=F
 DIIS: error= 1.34D-04 at cycle   3 NSaved=   3.
 NSaved= 3 IEnMin= 3 EnMin= -493.863959933836     IErMin= 3 ErrMin= 1.34D-04
 ErrMax= 1.34D-04  0.00D+00 EMaxC= 1.00D-01 BMatC= 5.20D-06 BMatP= 7.12D-05
 IDIUse=3 WtCom= 9.99D-01 WtEn= 1.34D-03
 Coeff-Com: -0.339D-01 0.135D+00 0.899D+00
 Coeff-En:   0.000D+00 0.000D+00 0.100D+01
 Coeff:     -0.338D-01 0.134D+00 0.899D+00
 Gap=     0.339 Goal=   None    Shift=    0.000
 RMSDP=2.16D-05 MaxDP=8.75D-04 DE=-1.92D-04 OVMax= 8.90D-04

 Cycle   4  Pass 1  IDiag  1:
 RMSU=  1.78D-05    CP:  9.99D-01  1.19D+00  1.17D+00
 E= -493.863967830731     Delta-E=       -0.000007896895 Rises=F Damp=F
 DIIS: error= 9.05D-05 at cycle   4 NSaved=   4.
 NSaved= 4 IEnMin= 4 EnMin= -493.863967830731     IErMin= 4 ErrMin= 9.05D-05
 ErrMax= 9.05D-05  0.00D+00 EMaxC= 1.00D-01 BMatC= 2.22D-06 BMatP= 5.20D-06
 IDIUse=1 WtCom= 1.00D+00 WtEn= 0.00D+00
 Coeff-Com:  0.151D-01-0.142D+00 0.398D+00 0.729D+00
 Coeff:      0.151D-01-0.142D+00 0.398D+00 0.729D+00
 Gap=     0.339 Goal=   None    Shift=    0.000
 RMSDP=1.03D-05 MaxDP=3.84D-04 DE=-7.90D-06 OVMax= 3.29D-04

 Cycle   5  Pass 1  IDiag  1:
 RMSU=  5.32D-06    CP:  9.99D-01  1.19D+00  1.30D+00  8.64D-01
 E= -493.863970461548     Delta-E=       -0.000002630817 Rises=F Damp=F
 DIIS: error= 1.53D-05 at cycle   5 NSaved=   5.
 NSaved= 5 IEnMin= 5 EnMin= -493.863970461548     IErMin= 5 ErrMin= 1.53D-05
 ErrMax= 1.53D-05  0.00D+00 EMaxC= 1.00D-01 BMatC= 4.29D-08 BMatP= 2.22D-06
 IDIUse=1 WtCom= 1.00D+00 WtEn= 0.00D+00
 Coeff-Com:  0.273D-02-0.178D-01-0.153D-01 0.549D-01 0.976D+00
 Coeff:      0.273D-02-0.178D-01-0.153D-01 0.549D-01 0.976D+00
 Gap=     0.339 Goal=   None    Shift=    0.000
 RMSDP=2.68D-06 MaxDP=6.08D-05 DE=-2.63D-06 OVMax= 1.15D-04

 Cycle   6  Pass 1  IDiag  1:
 RMSU=  1.56D-06    CP:  9.99D-01  1.19D+00  1.32D+00  9.34D-01  1.24D+00
 E= -493.863970544204     Delta-E=       -0.000000082656 Rises=F Damp=F
 DIIS: error= 1.54D-05 at cycle   6 NSaved=   6.
 NSaved= 6 IEnMin= 6 EnMin= -493.863970544204     IErMin= 5 ErrMin= 1.53D-05
 ErrMax= 1.54D-05  0.00D+00 EMaxC= 1.00D-01 BMatC= 3.28D-08 BMatP= 4.29D-08
 IDIUse=1 WtCom= 1.00D+00 WtEn= 0.00D+00
 Coeff-Com: -0.369D-03 0.808D-02-0.600D-01-0.625D-01 0.559D+00 0.556D+00
 Coeff:     -0.369D-03 0.808D-02-0.600D-01-0.625D-01 0.559D+00 0.556D+00
 Gap=     0.339 Goal=   None    Shift=    0.000
 RMSDP=9.66D-07 MaxDP=3.83D-05 DE=-8.27D-08 OVMax= 4.95D-05

 Cycle   7  Pass 1  IDiag  1:
 RMSU=  5.96D-07    CP:  9.99D-01  1.19D+00  1.32D+00  9.50D-01  1.35D+00
                    CP:  7.57D-01
 E= -493.863970577537     Delta-E=       -0.000000033333 Rises=F Damp=F
 DIIS: error= 2.52D-06 at cycle   7 NSaved=   7.
 NSaved= 7 IEnMin= 7 EnMin= -493.863970577537     IErMin= 7 ErrMin= 2.52D-06
 ErrMax= 2.52D-06  0.00D+00 EMaxC= 1.00D-01 BMatC= 1.26D-09 BMatP= 3.28D-08
 IDIUse=1 WtCom= 1.00D+00 WtEn= 0.00D+00
 Coeff-Com: -0.498D-03 0.504D-02-0.144D-01-0.261D-01 0.622D-02 0.159D+00
 Coeff-Com:  0.870D+00
 Coeff:     -0.498D-03 0.504D-02-0.144D-01-0.261D-01 0.622D-02 0.159D+00
 Coeff:      0.870D+00
 Gap=     0.339 Goal=   None    Shift=    0.000
 RMSDP=3.68D-07 MaxDP=6.47D-06 DE=-3.33D-08 OVMax= 1.73D-05

 Cycle   8  Pass 1  IDiag  1:
 RMSU=  2.18D-07    CP:  9.99D-01  1.19D+00  1.32D+00  9.55D-01  1.39D+00
                    CP:  8.64D-01  1.12D+00
 E= -493.863970579704     Delta-E=       -0.000000002167 Rises=F Damp=F
 DIIS: error= 7.83D-07 at cycle   8 NSaved=   8.
 NSaved= 8 IEnMin= 8 EnMin= -493.863970579704     IErMin= 8 ErrMin= 7.83D-07
 ErrMax= 7.83D-07  0.00D+00 EMaxC= 1.00D-01 BMatC= 9.62D-11 BMatP= 1.26D-09
 IDIUse=1 WtCom= 1.00D+00 WtEn= 0.00D+00
 Coeff-Com: -0.118D-03 0.936D-03-0.500D-03-0.375D-02-0.313D-01 0.119D-01
 Coeff-Com:  0.245D+00 0.778D+00
 Coeff:     -0.118D-03 0.936D-03-0.500D-03-0.375D-02-0.313D-01 0.119D-01
 Coeff:      0.245D+00 0.778D+00
 Gap=     0.339 Goal=   None    Shift=    0.000
 RMSDP=1.10D-07 MaxDP=2.02D-06 DE=-2.17D-09 OVMax= 6.48D-06

 Cycle   9  Pass 1  IDiag  1:
 RMSU=  7.03D-08    CP:  9.99D-01  1.19D+00  1.32D+00  9.56D-01  1.39D+00
                    CP:  8.90D-01  1.21D+00  1.11D+00
 E= -493.863970579910     Delta-E=       -0.000000000207 Rises=F Damp=F
 DIIS: error= 4.72D-07 at cycle   9 NSaved=   9.
 NSaved= 9 IEnMin= 9 EnMin= -493.863970579910     IErMin= 9 ErrMin= 4.72D-07
 ErrMax= 4.72D-07  0.00D+00 EMaxC= 1.00D-01 BMatC= 1.72D-11 BMatP= 9.62D-11
 IDIUse=1 WtCom= 1.00D+00 WtEn= 0.00D+00
 Coeff-Com:  0.648D-04-0.733D-03 0.268D-02 0.404D-02-0.969D-02-0.279D-01
 Coeff-Com: -0.101D+00 0.210D+00 0.922D+00
 Coeff:      0.648D-04-0.733D-03 0.268D-02 0.404D-02-0.969D-02-0.279D-01
 Coeff:     -0.101D+00 0.210D+00 0.922D+00
 Gap=     0.339 Goal=   None    Shift=    0.000
 RMSDP=6.23D-08 MaxDP=1.19D-06 DE=-2.07D-10 OVMax= 5.29D-06

 Cycle  10  Pass 1  IDiag  1:
 RMSU=  2.79D-08    CP:  9.99D-01  1.19D+00  1.32D+00  9.56D-01  1.39D+00
                    CP:  8.97D-01  1.26D+00  1.31D+00  1.16D+00
 E= -493.863970579979     Delta-E=       -0.000000000069 Rises=F Damp=F
 DIIS: error= 1.91D-07 at cycle  10 NSaved=  10.
 NSaved=10 IEnMin=10 EnMin= -493.863970579979     IErMin=10 ErrMin= 1.91D-07
 ErrMax= 1.91D-07  0.00D+00 EMaxC= 1.00D-01 BMatC= 1.89D-12 BMatP= 1.72D-11
 IDIUse=1 WtCom= 1.00D+00 WtEn= 0.00D+00
 Coeff-Com:  0.193D-04-0.173D-03 0.305D-03 0.802D-03 0.263D-02-0.364D-02
 Coeff-Com: -0.365D-01-0.676D-01 0.754D-01 0.103D+01
 Coeff:      0.193D-04-0.173D-03 0.305D-03 0.802D-03 0.263D-02-0.364D-02
 Coeff:     -0.365D-01-0.676D-01 0.754D-01 0.103D+01
 Gap=     0.339 Goal=   None    Shift=    0.000
 RMSDP=2.40D-08 MaxDP=5.70D-07 DE=-6.87D-11 OVMax= 2.30D-06

 Cycle  11  Pass 1  IDiag  1:
 RMSU=  1.13D-08    CP:  9.99D-01  1.19D+00  1.32D+00  9.56D-01  1.39D+00
                    CP:  8.99D-01  1.27D+00  1.36D+00  1.33D+00  1.43D+00
 E= -493.863970579979     Delta-E=       -0.000000000000 Rises=F Damp=F
 DIIS: error= 8.02D-08 at cycle  11 NSaved=  11.
 NSaved=11 IEnMin=11 EnMin= -493.863970579979     IErMin=11 ErrMin= 8.02D-08
 ErrMax= 8.02D-08  0.00D+00 EMaxC= 1.00D-01 BMatC= 4.82D-13 BMatP= 1.89D-12
 IDIUse=1 WtCom= 1.00D+00 WtEn= 0.00D+00
 Coeff-Com: -0.973D-05 0.125D-03-0.565D-03-0.738D-03 0.325D-02 0.558D-02
 Coeff-Com:  0.129D-01-0.726D-01-0.204D+00 0.332D+00 0.924D+00
 Coeff:     -0.973D-05 0.125D-03-0.565D-03-0.738D-03 0.325D-02 0.558D-02
 Coeff:      0.129D-01-0.726D-01-0.204D+00 0.332D+00 0.924D+00
 Gap=     0.339 Goal=   None    Shift=    0.000
 RMSDP=1.22D-08 MaxDP=2.96D-07 DE=-2.27D-13 OVMax= 1.29D-06

 Cycle  12  Pass 1  IDiag  1:
 RMSU=  3.78D-09    CP:  9.99D-01  1.19D+00  1.32D+00  9.56D-01  1.39D+00
                    CP:  8.99D-01  1.27D+00  1.37D+00  1.40D+00  1.76D+00
                    CP:  1.22D+00
 E= -493.863970580001     Delta-E=       -0.000000000022 Rises=F Damp=F
 DIIS: error= 1.40D-08 at cycle  12 NSaved=  12.
 NSaved=12 IEnMin=12 EnMin= -493.863970580001     IErMin=12 ErrMin= 1.40D-08
 ErrMax= 1.40D-08  0.00D+00 EMaxC= 1.00D-01 BMatC= 2.65D-14 BMatP= 4.82D-13
 IDIUse=1 WtCom= 1.00D+00 WtEn= 0.00D+00
 Coeff-Com: -0.343D-05 0.382D-04-0.134D-03-0.205D-03 0.426D-03 0.133D-02
 Coeff-Com:  0.541D-02-0.734D-02-0.436D-01-0.231D-01 0.167D+00 0.900D+00
 Coeff:     -0.343D-05 0.382D-04-0.134D-03-0.205D-03 0.426D-03 0.133D-02
 Coeff:      0.541D-02-0.734D-02-0.436D-01-0.231D-01 0.167D+00 0.900D+00
 Gap=     0.339 Goal=   None    Shift=    0.000
 RMSDP=2.84D-09 MaxDP=5.22D-08 DE=-2.21D-11 OVMax= 2.19D-07

 Error on total polarization charges =  0.02897
 SCF Done:  E(RwB97XD) =  -493.863970580     A.U. after   12 cycles
            NFock= 12  Conv=0.28D-08     -V/T= 2.0101
 KE= 4.889092422986D+02 PE=-2.238497353601D+03 EE= 7.104996312874D+02
 SMD-CDS (non-electrostatic) energy       (kcal/mol) =       4.50
 (included in total energy above)
 Leave Link  502 at Tue Oct 21 15:07:46 2025, MaxMem=  4294967296 cpu:             364.1 elap:              45.8
 (Enter /lrz/sys/applications/gaussian/g16.C.01/x86_64_legacy/exe/l701.exe)
 ... and contract with generalized density number  0.
 Compute integral first derivatives.
 R6Disp: Adding Grimme-D2 dispersion energy 1st derivatives to the gradient.
   1 Symmetry operations used in ECPInt.
 ECPInt:  NShTT=    4095 NPrTT=   15045 LenC2=    3949 LenP2D=   11134.
 LDataN:  DoStor=T MaxTD1= 5 Len=  102
 D1PCM: PCM CHGder 1st derivatives, ID1Alg=3 FixD1E=F DoIter=F DoCFld=F I1PDM=0.
 GePol: Maximum number of non-zero 1st derivatives   =     260
 Leave Link  701 at Tue Oct 21 15:07:47 2025, MaxMem=  4294967296 cpu:               9.2 elap:               1.2
 (Enter /lrz/sys/applications/gaussian/g16.C.01/x86_64_legacy/exe/l702.exe)
 L702 exits ... SP integral derivatives will be done elsewhere.
 Leave Link  702 at Tue Oct 21 15:07:47 2025, MaxMem=  4294967296 cpu:               0.2 elap:               0.0
 (Enter /lrz/sys/applications/gaussian/g16.C.01/x86_64_legacy/exe/l703.exe)
 Integral derivatives from FoFJK, PRISM(SPDF).
 Compute integral first derivatives, UseDBF=F ICtDFT=           0.
 Calling FoFJK, ICntrl=      2127 FMM=F ISym2X=0 I1Cent= 0 IOpClX= 0 NMat=1 NMatS=1 NMatT=0.
 FoFJK:  IHMeth= 1 ICntrl=    2127 DoSepK=T KAlg= 0 I1Cent=           0 FoldK=F
 IRaf=         1 NMat=       1 IRICut=       1 DoRegI=T DoRafI=F ISym2E= 0 IDoP0=0 IntGTp=1.
 FoFCou: FMM=F IPFlag=           0 FMFlag=      100000 FMFlg1=         800
         NFxFlg=           0 DoJE=F BraDBF=F KetDBF=F FulRan=T
         wScrn=  0.000000 ICntrl=      2527 IOpCl=  0 I1Cent=           0 NGrid=           0
         NMat0=    1 NMatS0=      1 NMatT0=    0 NMatD0=    1 NMtDS0=    0 NMtDT0=    0
 Symmetry not used in FoFCou.
 Leave Link  703 at Tue Oct 21 15:07:56 2025, MaxMem=  4294967296 cpu:              66.0 elap:               8.3
 (Enter /lrz/sys/applications/gaussian/g16.C.01/x86_64_legacy/exe/l716.exe)
 Dipole        =-2.14016874D+00 1.39494534D+00 6.78609441D-01
 ***** Axes restored to original set *****
 -------------------------------------------------------------------
 Center     Atomic                   Forces (Hartrees/Bohr)
 Number     Number              X              Y              Z
 -------------------------------------------------------------------
      1        8           0.000635522    0.001001033   -0.001460494
      2        6          -0.000478848   -0.002045047    0.000336196
      3        7          -0.000113756    0.002133493    0.001890070
      4        6           0.000292639    0.001341855    0.000031366
      5        6           0.000376408   -0.000552147   -0.000095851
      6        6          -0.000509276   -0.000186908   -0.000076582
      7        6           0.000447497    0.000159171    0.000164503
      8        6          -0.000046246    0.000055390    0.000069454
      9        7          -0.000235003    0.000002839    0.000007086
     10        6           0.000110915   -0.000134908   -0.000154457
     11        6          -0.000188442   -0.000110426   -0.000379497
     12        1          -0.000416008   -0.000093875    0.000145612
     13        1           0.000055782   -0.000035321   -0.000134576
     14        1           0.000031582   -0.000683979   -0.000302984
     15        1          -0.000057989   -0.000859431   -0.000148725
     16        1           0.000038965    0.000116602    0.000083514
     17        1           0.000018466    0.000091312    0.000037458
     18        1          -0.000023392   -0.000099385   -0.000009434
     19        1           0.000061184   -0.000100268   -0.000002659
 -------------------------------------------------------------------
 Cartesian Forces:  Max     0.002133493 RMS     0.000607187
 Leave Link  716 at Tue Oct 21 15:07:56 2025, MaxMem=  4294967296 cpu:               0.2 elap:               0.0
 (Enter /lrz/sys/applications/gaussian/g16.C.01/x86_64_legacy/exe/l103.exe)

 GradGradGradGradGradGradGradGradGradGradGradGradGradGradGradGradGradGrad
 Berny optimization.
 Using GEDIIS/GDIIS optimizer.
 FormGI is forming the generalized inverse of G from B-inverse, IUseBI=4.
 Internal  Forces:  Max     0.001181460 RMS     0.000322356
 Search for a local minimum.
 Step number  10 out of a maximum of   98
 All quantities printed in internal units (Hartrees-Bohrs-Radians)
 RMS Force = .32236D-03 SwitMx=.10000D-02 MixMth= 2
 Mixed Optimization -- En-DIIS/RFO-DIIS
 Swapping is turned off.
 Update second derivatives using D2CorX and points    9   10
 DE= -1.43D-04 DEPred=-2.24D-05 R= 6.37D+00
 TightC=F SS=  1.41D+00  RLast= 1.79D-01 DXNew= 1.9915D+00 5.3792D-01
 Trust test= 6.37D+00 RLast= 1.79D-01 DXMaxT set to 1.18D+00
 ITU=  1  0  1  1  1  1  1  1  1  0
     Eigenvalues ---    0.00049   0.00283   0.01181   0.01543   0.02128
     Eigenvalues ---    0.02151   0.02225   0.02230   0.02259   0.02292
     Eigenvalues ---    0.02315   0.02319   0.03401   0.05031   0.05112
     Eigenvalues ---    0.06421   0.08709   0.08756   0.15766   0.15988
     Eigenvalues ---    0.16000   0.16003   0.16077   0.16824   0.17001
     Eigenvalues ---    0.19721   0.21360   0.22035   0.23013   0.24425
     Eigenvalues ---    0.25010   0.28302   0.31885   0.32172   0.35908
     Eigenvalues ---    0.35992   0.36168   0.36998   0.41585   0.42728
     Eigenvalues ---    0.43405   0.44036   0.45442   0.45686   0.46345
     Eigenvalues ---    0.46887   0.47878   0.48133   0.51297   0.55031
     Eigenvalues ---    1.41303
 En-DIIS/RFO-DIIS/Sim-DIIS IScMMF=       -3 using points:    10    9    8    7    6    5
 RFO step:  Lambda=-2.57315548D-04.
 NNeg= 0 NGDIIS= 6 SimSw=  2.50D-01 Rises=F DC= -1.43D-04 SmlDif=  1.00D-05
 NRisDI= 0 DoIntr=F SqrtH=F CThrHd= 10.0 CDAdj=  3.0
 RMS Error=  0.4166646030D-01 NUsed= 6 OKEnD=T EnDIS=F
 InvSVX:  RCond= 4.16D-06 Info=           0 Equed=N FErr=  3.19D-11 BErr=  3.62D-17
 Old DIIS coefficients:      1.88660      0.00977     -5.70170      4.81119     -0.20207
 Old DIIS coefficients:      0.19621
 DidBck=F Rises=F RFO-DIIS coefs:    0.84453    0.00437   -2.00000    2.15372   -0.09046
                  RFO-DIIS coefs:    0.08783
 Iteration  1 RMS(Cart)=  0.03339330 RMS(Int)=  0.00058672
 Iteration  2 RMS(Cart)=  0.00068219 RMS(Int)=  0.00007286
 Iteration  3 RMS(Cart)=  0.00000035 RMS(Int)=  0.00007286
 ITry= 1 IFail=0 DXMaxC= 1.41D-01 DCOld= 1.00D+10 DXMaxT= 1.18D+00 DXLimC= 3.00D+00 Rises=F
 Variable       Old X    -DE/DX   Delta X   Delta X   Delta X     New X
                                 (Linear)    (Quad)   (Total)
    R1        2.66769  -0.00086  -0.00080  -0.00139  -0.00219   2.66551
    R2        1.82335   0.00022   0.00052   0.00088   0.00140   1.82476
    R3        2.72660  -0.00061  -0.00015   0.00202   0.00187   2.72847
    R4        2.87224  -0.00033  -0.00167   0.00137  -0.00030   2.87194
    R5        2.09407   0.00008  -0.00019   0.00069   0.00050   2.09458
    R6        1.92614   0.00024   0.00155   0.00014   0.00169   1.92783
    R7        1.92369   0.00021   0.00185   0.00010   0.00195   1.92564
    R8        2.64477  -0.00039   0.00045  -0.00238  -0.00197   2.64280
    R9        2.63866   0.00041  -0.00014   0.00200   0.00182   2.64048
   R10        2.62382   0.00030  -0.00013   0.00168   0.00155   2.62537
   R11        2.06188   0.00014   0.00034  -0.00017   0.00017   2.06205
   R12        2.65283  -0.00017   0.00013  -0.00118  -0.00101   2.65182
   R13        2.06216   0.00008   0.00005   0.00019   0.00024   2.06240
   R14        2.71244   0.00028   0.00114   0.00044   0.00159   2.71403
   R15        2.64786   0.00022  -0.00058   0.00127   0.00072   2.64858
   R16        2.19198   0.00023   0.00018   0.00018   0.00036   2.19234
   R17        2.62890  -0.00007   0.00076  -0.00138  -0.00061   2.62828
   R18        2.06185   0.00008   0.00010   0.00016   0.00026   2.06211
   R19        2.06490   0.00010   0.00011   0.00044   0.00055   2.06545
    A1        1.88213  -0.00024  -0.00292   0.00334   0.00042   1.88255
    A2        1.86744  -0.00118  -0.00762   0.00287  -0.00474   1.86270
    A3        1.95279   0.00073  -0.00333   0.00722   0.00389   1.95667
    A4        1.89226   0.00035   0.00330  -0.00005   0.00322   1.89549
    A5        1.90797  -0.00015   0.00241  -0.00313  -0.00065   1.90731
    A6        1.96808   0.00035   0.00151  -0.00247  -0.00093   1.96715
    A7        1.87657  -0.00007   0.00354  -0.00418  -0.00063   1.87595
    A8        1.90851  -0.00060  -0.00991  -0.00055  -0.01035   1.89816
    A9        1.91714  -0.00110  -0.01272  -0.00194  -0.01454   1.90260
   A10        1.86510   0.00015  -0.01038  -0.00241  -0.01254   1.85256
   A11        2.09454   0.00037  -0.00099   0.00826   0.00763   2.10217
   A12        2.10152  -0.00043   0.00123  -0.00921  -0.00764   2.09388
   A13        2.08624   0.00006  -0.00018   0.00017   0.00015   2.08639
   A14        2.10426  -0.00003   0.00007  -0.00045  -0.00046   2.10380
   A15        2.08538   0.00006   0.00170  -0.00123   0.00051   2.08589
   A16        2.09352  -0.00003  -0.00176   0.00167  -0.00004   2.09348
   A17        2.08495   0.00000  -0.00037   0.00040   0.00002   2.08497
   A18        2.10609  -0.00007  -0.00020  -0.00046  -0.00065   2.10544
   A19        2.09215   0.00006   0.00057   0.00006   0.00063   2.09278
   A20        2.09132  -0.00016  -0.00133   0.00035  -0.00099   2.09033
   A21        2.10149   0.00009   0.00088   0.00007   0.00098   2.10247
   A22        2.09038   0.00006   0.00045  -0.00042   0.00001   2.09039
   A23        2.08337  -0.00012  -0.00078  -0.00058  -0.00137   2.08201
   A24        2.09478   0.00009   0.00085   0.00042   0.00127   2.09605
   A25        2.10504   0.00003  -0.00007   0.00016   0.00009   2.10513
   A26        2.10605  -0.00001   0.00038   0.00038   0.00068   2.10673
   A27        2.08915  -0.00001  -0.00025  -0.00048  -0.00069   2.08846
   A28        2.08798   0.00002  -0.00013   0.00010   0.00001   2.08799
   A29        3.14138  -0.00000  -0.00148   0.00320   0.00172   3.14310
   A30        3.14283  -0.00002  -0.00115   0.00134   0.00019   3.14302
    D1       -2.88970  -0.00037  -0.02923  -0.02263  -0.05191  -2.94161
    D2        1.30417   0.00014  -0.02557  -0.02482  -0.05033   1.25383
    D3       -0.76240  -0.00043  -0.03001  -0.02394  -0.05396  -0.81636
    D4        1.32521   0.00034  -0.00862   0.00228  -0.00627   1.31894
    D5       -2.91641  -0.00047  -0.03309  -0.00207  -0.03523  -2.95164
    D6       -2.84009   0.00043  -0.01576   0.01089  -0.00479  -2.84488
    D7       -0.79852  -0.00038  -0.04023   0.00654  -0.03375  -0.83227
    D8       -0.75372   0.00047  -0.00860   0.00191  -0.00662  -0.76035
    D9        1.28785  -0.00034  -0.03306  -0.00244  -0.03558   1.25227
   D10        0.69342  -0.00082   0.09203  -0.14261  -0.05057   0.64285
   D11       -2.49358  -0.00072   0.11569  -0.16240  -0.04673  -2.54031
   D12       -1.37194   0.00029   0.10195  -0.14859  -0.04665  -1.41859
   D13        1.72425   0.00040   0.12560  -0.16838  -0.04280   1.68144
   D14        2.76929  -0.00001   0.09635  -0.14111  -0.04474   2.72456
   D15       -0.41770   0.00010   0.12000  -0.16091  -0.04089  -0.45860
   D16        3.09464   0.00011   0.02271  -0.01911   0.00371   3.09835
   D17       -0.05476   0.00007   0.02551  -0.02010   0.00549  -0.04927
   D18       -0.00194   0.00002  -0.00066   0.00076   0.00008  -0.00186
   D19        3.13184  -0.00001   0.00214  -0.00023   0.00186   3.13370
   D20       -3.09364  -0.00013  -0.02435   0.01905  -0.00520  -3.09885
   D21        0.04779  -0.00005  -0.02185   0.01961  -0.00215   0.04564
   D22        0.00276  -0.00002  -0.00074  -0.00044  -0.00120   0.00156
   D23       -3.13900   0.00006   0.00176   0.00012   0.00186  -3.13714
   D24       -0.00119  -0.00000   0.00177  -0.00080   0.00099  -0.00020
   D25        3.14130  -0.00001   0.00091  -0.00043   0.00048  -3.14140
   D26       -3.13493   0.00003  -0.00104   0.00021  -0.00080  -3.13573
   D27        0.00756   0.00002  -0.00190   0.00058  -0.00131   0.00625
   D28       -3.14032  -0.00004  -0.00204   0.00074  -0.00131   3.14156
   D29        0.00356  -0.00002  -0.00150   0.00054  -0.00097   0.00258
   D30        0.00038  -0.00003  -0.00119   0.00037  -0.00081  -0.00042
   D31       -3.13893  -0.00001  -0.00065   0.00017  -0.00047  -3.13940
   D32       -0.00275   0.00002   0.00013  -0.00023  -0.00012  -0.00287
   D33        3.13804  -0.00004  -0.00057  -0.00203  -0.00259   3.13545
   D34        3.14112   0.00004   0.00067  -0.00043   0.00022   3.14134
   D35       -0.00127  -0.00001  -0.00003  -0.00223  -0.00225  -0.00352
   D36       -0.00042   0.00000   0.00100   0.00019   0.00121   0.00078
   D37        3.14133  -0.00008  -0.00150  -0.00038  -0.00185   3.13949
   D38       -3.14121   0.00006   0.00170   0.00199   0.00369  -3.13752
   D39        0.00055  -0.00002  -0.00081   0.00143   0.00064   0.00119
         Item               Value     Threshold  Converged?
 Maximum Force            0.001181     0.000450     NO 
 RMS     Force            0.000322     0.000300     NO 
 Maximum Displacement     0.141325     0.001800     NO 
 RMS     Displacement     0.033477     0.001200     NO 
 Predicted change in Energy=-1.020339D-04
 Lowest energy point so far.  Saving SCF results.
 GradGradGradGradGradGradGradGradGradGradGradGradGradGradGradGradGradGrad

 Leave Link  103 at Tue Oct 21 15:07:56 2025, MaxMem=  4294967296 cpu:               0.2 elap:               0.1
 (Enter /lrz/sys/applications/gaussian/g16.C.01/x86_64_legacy/exe/l202.exe)
                          Input orientation:                          
 ---------------------------------------------------------------------
 Center     Atomic      Atomic             Coordinates (Angstroms)
 Number     Number       Type             X           Y           Z
 ---------------------------------------------------------------------
      1          8           0        3.062857    0.183820    1.190309
      2          6           0        2.494730   -0.186789   -0.046406
      3          7           0        2.980725    0.755938   -1.026075
      4          6           0        0.976006   -0.139958   -0.015152
      5          6           0        0.312477    0.857633    0.706216
      6          6           0       -1.074714    0.933046    0.694537
      7          6           0       -1.810494   -0.002150   -0.049262
      8          6           0       -3.244803    0.069658   -0.065943
      9          7           0       -4.403299    0.129864   -0.079434
     10          6           0       -1.155579   -1.007660   -0.773435
     11          6           0        0.233762   -1.067714   -0.750505
     12          1           0        2.899670   -0.531947    1.817579
     13          1           0        2.791113   -1.230500   -0.273081
     14          1           0        3.950088    0.528150   -1.247844
     15          1           0        2.456264    0.635454   -1.891403
     16          1           0        0.892278    1.577389    1.286287
     17          1           0       -1.594083    1.711017    1.256779
     18          1           0       -1.733908   -1.735270   -1.345169
     19          1           0        0.750177   -1.850720   -1.311611
 ---------------------------------------------------------------------
                    Distance matrix (angstroms):
                    1          2          3          4          5
     1  O    0.000000
     2  C    1.410526   0.000000
     3  N    2.290507   1.443842   0.000000
     4  C    2.431649   1.519767   2.417332   0.000000
     5  C    2.872797   2.533671   3.182880   1.398510   0.000000
     6  C    4.233984   3.813654   4.408907   2.420836   1.389288
     7  C    5.031965   4.309183   4.948196   2.790114   2.411841
     8  C    6.432556   5.745293   6.336406   4.226316   3.724430
     9  N    7.573549   6.905373   7.470737   5.386452   4.835849
    10  C    4.803241   3.811451   4.503679   2.423130   2.797119
    11  C    3.651968   2.526610   3.308693   1.397283   2.415614
    12  H    0.965620   1.938440   3.122753   2.685711   3.140005
    13  H    2.053206   1.108403   2.132813   2.133172   3.385699
    14  H    2.617313   2.018083   1.020163   3.288018   4.142357
    15  H    3.173149   2.020291   1.019004   2.512517   3.375324
    16  H    2.581213   2.730614   3.222331   2.156394   1.091192
    17  H    4.901413   4.692372   5.201199   3.413104   2.160175
    18  H    5.755042   4.686785   5.341883   3.414323   3.888318
    19  H    3.968305   2.722659   3.442607   2.158359   3.405639
                    6          7          8          9         10
     6  C    0.000000
     7  C    1.403283   0.000000
     8  C    2.456228   1.436203   0.000000
     9  N    3.510501   2.596339   1.160138   0.000000
    10  C    2.434712   1.401567   2.454794   3.510453   0.000000
    11  C    2.793438   2.409595   3.723259   4.835997   1.390828
    12  H    4.382140   5.094254   6.454776   7.574299   4.835773
    13  H    4.534516   4.767990   6.177832   7.324456   3.984519
    14  H    5.402353   5.907802   7.305721   8.444104   5.352721
    15  H    4.386736   4.690975   6.012869   7.112838   4.122510
    16  H    2.152766   3.403470   4.606215   5.657177   3.888271
    17  H    1.091375   2.165068   2.677411   3.489585   3.421295
    18  H    3.422697   2.165397   2.678990   3.493775   1.091220
    19  H    3.886414   3.401142   4.604281   5.656792   2.152276
                   11         12         13         14         15
    11  C    0.000000
    12  H    3.740209   0.000000
    13  H    2.606622   2.206948   0.000000
    14  H    4.074948   3.409399   2.320826   0.000000
    15  H    3.023564   3.913564   2.492563   1.630090   0.000000
    16  H    3.402754   2.959931   3.731146   4.107667   3.664834
    17  H    3.884785   5.053633   5.497540   6.197592   5.241488
    18  H    2.161246   5.737683   4.677604   6.118853   4.845229
    19  H    1.092988   4.018869   2.372475   3.987796   3.070496
                   16         17         18         19
    16  H    0.000000
    17  H    2.490124   0.000000
    18  H    4.979470   4.320484   0.000000
    19  H    4.303626   4.977766   2.486993   0.000000
 Stoichiometry    C8H8N2O
 Framework group  C1[X(C8H8N2O)]
 Deg. of freedom    51
 Full point group                 C1      NOp   1
 RotChk:  IX=2 Diff= 4.73D-02
 Largest Abelian subgroup         C1      NOp   1
 Largest concise Abelian subgroup C1      NOp   1
                         Standard orientation:                         
 ---------------------------------------------------------------------
 Center     Atomic      Atomic             Coordinates (Angstroms)
 Number     Number       Type             X           Y           Z
 ---------------------------------------------------------------------
      1          8           0       -3.021314   -0.905352    0.712218
      2          6           0       -2.417875    0.251762    0.176933
      3          7           0       -2.909459    0.389863   -1.173605
      4          6           0       -0.901985    0.146441    0.150891
      5          6           0       -0.281206   -1.073889   -0.134164
      6          6           0        1.103323   -1.161111   -0.208967
      7          6           0        1.879763   -0.011764    0.003973
      8          6           0        3.311585   -0.094432   -0.071735
      9          7           0        4.468010   -0.162635   -0.134563
     10          6           0        1.267870    1.215583    0.293104
     11          6           0       -0.119463    1.284321    0.363704
     12          1           0       -2.851366   -0.915327    1.662712
     13          1           0       -2.680621    1.116601    0.818473
     14          1           0       -3.867403    0.739062   -1.139906
     15          1           0       -2.364196    1.104272   -1.653893
     16          1           0       -0.892449   -1.963759   -0.292953
     17          1           0        1.589359   -2.112611   -0.431489
     18          1           0        1.877687    2.104355    0.463301
     19          1           0       -0.602431    2.238164    0.590750
 ---------------------------------------------------------------------
 Rotational constants (GHZ):           3.4596448           0.5517753           0.5147375
 Leave Link  202 at Tue Oct 21 15:07:56 2025, MaxMem=  4294967296 cpu:               0.0 elap:               0.0
 (Enter /lrz/sys/applications/gaussian/g16.C.01/x86_64_legacy/exe/l301.exe)
 Standard basis: def2SVP (5D, 7F)
 Ernie: Thresh=  0.10000D-02 Tol=  0.10000D-05 Strict=F.
 There are   205 symmetry adapted cartesian basis functions of A   symmetry.
 There are   194 symmetry adapted basis functions of A   symmetry.
   194 basis functions,   331 primitive gaussians,   205 cartesian basis functions
    39 alpha electrons       39 beta electrons
       nuclear repulsion energy       545.2193036667 Hartrees.
 IExCor= 4639 DFT=T Ex+Corr=wB97XD ExCW=0 ScaHFX=  1.000000
 ScaDFX=  1.000000  1.000000  1.000000  1.000000 ScalE2=  1.000000  1.000000
 IRadAn=      5 IRanWt=     -1 IRanGd=            0 ICorTp=0 IEmpDi=121
 HFx  wShort=  0.000000 wLong=  0.200000 cFull=  0.222036 cShort=  0.000000 cLong=  0.777964
 DFx  wShort=  0.000000 wLong=  0.200000 cFull=  0.000000 cShort=  0.000000 cLong=  1.000000
 NAtoms=   19 NActive=   19 NUniq=   19 SFac= 1.00D+00 NAtFMM=   60 NAOKFM=F Big=F
 Integral buffers will be    131072 words long.
 Raffenetti 2 integral format.
 Two-electron integral symmetry is turned on.
 R6Disp:  Grimme-D2 Dispersion energy=       -0.0102959100 Hartrees.
 Nuclear repulsion after empirical dispersion term =      545.2090077568 Hartrees.
 ------------------------------------------------------------------------------
 Polarizable Continuum Model (PCM)
 =================================
 Model                : PCM.
 Atomic radii         : SMD-Coulomb.
 Polarization charges : Total charges.
 Charge compensation  : None.
 Solution method      : On-the-fly selection.
 Cavity type          : VdW (van der Waals Surface) (Alpha=1.000).
 Cavity algorithm     : GePol (No added spheres)
                        Default sphere list used, NSphG=   19.
                        Lebedev-Laikov grids with approx.  5.0 points / Ang**2.
                        Smoothing algorithm: York/Karplus (Gamma=1.0000).
                        Polarization charges: spherical gaussians, with
                                              point-specific exponents (IZeta= 3).
                        Self-potential: point-specific (ISelfS= 7).
                        Self-field    : sphere-specific E.n sum rule (ISelfD= 2).
 1st derivatives      : Analytical E(r).r(x)/FMM algorithm (CHGder, D1EAlg=3).
                        Cavity 1st derivative terms included.
 Solvent              : Water, Eps=  78.355300 Eps(inf)=   1.777849
 ------------------------------------------------------------------------------
 Spheres list:
 ISph  on   Nord     Re0    Alpha      Xe            Ye            Ze
    1   O      1    1.5200  1.000     -3.021314     -0.905352      0.712218
    2   C      2    1.8500  1.000     -2.417875      0.251762      0.176933
    3   N      3    1.8900  1.000     -2.909459      0.389863     -1.173605
    4   C      4    1.8500  1.000     -0.901985      0.146441      0.150891
    5   C      5    1.8500  1.000     -0.281206     -1.073889     -0.134164
    6   C      6    1.8500  1.000      1.103323     -1.161111     -0.208967
    7   C      7    1.8500  1.000      1.879763     -0.011764      0.003973
    8   C      8    1.8500  1.000      3.311585     -0.094432     -0.071735
    9   N      9    1.8900  1.000      4.468010     -0.162635     -0.134563
   10   C     10    1.8500  1.000      1.267870      1.215583      0.293104
   11   C     11    1.8500  1.000     -0.119463      1.284321      0.363704
   12   H     12    1.2000  1.000     -2.851366     -0.915327      1.662712
   13   H     13    1.2000  1.000     -2.680621      1.116601      0.818473
   14   H     14    1.2000  1.000     -3.867403      0.739062     -1.139906
   15   H     15    1.2000  1.000     -2.364196      1.104272     -1.653893
   16   H     16    1.2000  1.000     -0.892449     -1.963759     -0.292953
   17   H     17    1.2000  1.000      1.589359     -2.112611     -0.431489
   18   H     18    1.2000  1.000      1.877687      2.104355      0.463301
   19   H     19    1.2000  1.000     -0.602431      2.238164      0.590750
 ------------------------------------------------------------------------------
 GePol: Number of generator spheres                  =      19
 GePol: Total number of spheres                      =      19
 GePol: Number of exposed spheres                    =      19 (100.00%)
 GePol: Number of points                             =    1636
 GePol: Average weight of points                     =       0.12
 GePol: Minimum weight of points                     =   0.58D-08
 GePol: Maximum weight of points                     =    0.21991
 GePol: Number of points with low weight             =      90
 GePol: Fraction of low-weight points (<1% of avg)   =       5.50%
 GePol: Cavity surface area                          =    188.569 Ang**2
 GePol: Cavity volume                                =    161.823 Ang**3
 ------------------------------------------------------------------------------
 Atomic radii for non-electrostatic terms: SMD-CDS.
 ------------------------------------------------------------------------------
 PCM non-electrostatic energy =         0.0071009809 Hartrees.
 Nuclear repulsion after PCM non-electrostatic terms =      545.2161087377 Hartrees.
 Leave Link  301 at Tue Oct 21 15:07:56 2025, MaxMem=  4294967296 cpu:               0.6 elap:               0.1
 (Enter /lrz/sys/applications/gaussian/g16.C.01/x86_64_legacy/exe/l302.exe)
 NPDir=0 NMtPBC=     1 NCelOv=     1 NCel=       1 NClECP=     1 NCelD=      1
         NCelK=      1 NCelE2=     1 NClLst=     1 CellRange=     0.0.
 One-electron integrals computed using PRISM.
 One-electron integral symmetry used in STVInt
   1 Symmetry operations used in ECPInt.
 ECPInt:  NShTT=    4095 NPrTT=   15045 LenC2=    3949 LenP2D=   11131.
 LDataN:  DoStor=T MaxTD1= 4 Len=   56
 NBasis=   194 RedAO= T EigKep=  2.78D-04  NBF=   194
 NBsUse=   194 1.00D-06 EigRej= -1.00D+00 NBFU=   194
 Precomputing XC quadrature grid using
 IXCGrd= 4 IRadAn=           5 IRanWt=          -1 IRanGd=           0 AccXCQ= 0.00D+00.
 Generated NRdTot=       0 NPtTot=           0 NUsed=           0 NTot=          32
 NSgBfM=   204   204   204   204   204 MxSgAt=    19 MxSgA2=    19.
 Leave Link  302 at Tue Oct 21 15:07:56 2025, MaxMem=  4294967296 cpu:               2.6 elap:               0.4
 (Enter /lrz/sys/applications/gaussian/g16.C.01/x86_64_legacy/exe/l303.exe)
 DipDrv:  MaxL=1.
 Leave Link  303 at Tue Oct 21 15:07:56 2025, MaxMem=  4294967296 cpu:               0.2 elap:               0.0
 (Enter /lrz/sys/applications/gaussian/g16.C.01/x86_64_legacy/exe/l401.exe)
 Initial guess from the checkpoint file:  "g16_C12-a_10.chk"
 B after Tr=     0.000000   -0.000000    0.000000
         Rot=    0.999867   -0.016306   -0.000100   -0.000413 Ang=  -1.87 deg.
 Guess basis will be translated and rotated to current coordinates.
 JPrj=2 DoOrth=T DoCkMO=T.
 Generating alternative initial guess.
 ExpMin= 1.22D-01 ExpMax= 2.27D+03 ExpMxC= 3.41D+02 IAcc=3 IRadAn=         5 AccDes= 0.00D+00
 Harris functional with IExCor= 4639 and IRadAn=       5 diagonalized for initial guess.
 HarFok:  IExCor= 4639 AccDes= 0.00D+00 IRadAn=         5 IDoV= 1 UseB2=F ITyADJ=14
 ICtDFT=  3500011 ScaDFX=  1.000000  1.000000  1.000000  1.000000
 FoFCou: FMM=F IPFlag=           0 FMFlag=      100000 FMFlg1=           0
         NFxFlg=           0 DoJE=T BraDBF=F KetDBF=T FulRan=T
         wScrn=  0.000000 ICntrl=       500 IOpCl=  0 I1Cent=   200000004 NGrid=           0
         NMat0=    1 NMatS0=      1 NMatT0=    0 NMatD0=    1 NMtDS0=    0 NMtDT0=    0
 Petite list used in FoFCou.
 Harris En= -472.807498869498    
 Leave Link  401 at Tue Oct 21 15:07:58 2025, MaxMem=  4294967296 cpu:              11.9 elap:               1.5
 (Enter /lrz/sys/applications/gaussian/g16.C.01/x86_64_legacy/exe/l502.exe)
 Integral symmetry usage will be decided dynamically.
 Closed shell SCF:
 Using DIIS extrapolation, IDIIS=  1040.
 NGot=  4294967296 LenX=  4294878900 LenY=  4294836434
 Requested convergence on RMS density matrix=1.00D-08 within 128 cycles.
 Requested convergence on MAX density matrix=1.00D-06.
 Requested convergence on             energy=1.00D-06.
 No special actions if energy rises.
 Fock matrices will be formed incrementally for  20 cycles.

 Cycle   1  Pass 1  IDiag  1:
 FoFJK:  IHMeth= 1 ICntrl=       0 DoSepK=T KAlg= 0 I1Cent=           0 FoldK=F
 IRaf=         1 NMat=       1 IRICut=       1 DoRegI=T DoRafI=F ISym2E= 0 IDoP0=0 IntGTp=1.
 FoFCou: FMM=F IPFlag=           0 FMFlag=      100000 FMFlg1=           0
         NFxFlg=           0 DoJE=T BraDBF=F KetDBF=F FulRan=T
         wScrn=  0.000000 ICntrl=       500 IOpCl=  0 I1Cent=           0 NGrid=           0
         NMat0=    1 NMatS0=      1 NMatT0=    0 NMatD0=    1 NMtDS0=    0 NMtDT0=    0
 Symmetry not used in FoFCou.
 Inv3:  Mode=1 IEnd=     8029488.
 Iteration    1 A*A^-1 deviation from unit magnitude is 6.33D-15 for   1081.
 Iteration    1 A*A^-1 deviation from orthogonality  is 5.43D-15 for   1186    124.
 Iteration    1 A^-1*A deviation from unit magnitude is 6.77D-15 for   1081.
 Iteration    1 A^-1*A deviation from orthogonality  is 7.32D-15 for    718    179.
 E= -493.861959000751    
 DIIS: error= 3.66D-03 at cycle   1 NSaved=   1.
 NSaved= 1 IEnMin= 1 EnMin= -493.861959000751     IErMin= 1 ErrMin= 3.66D-03
 ErrMax= 3.66D-03  0.00D+00 EMaxC= 1.00D-01 BMatC= 1.34D-03 BMatP= 1.34D-03
 IDIUse=3 WtCom= 9.63D-01 WtEn= 3.66D-02
 Coeff-Com:  0.100D+01
 Coeff-En:   0.100D+01
 Coeff:      0.100D+01
 Gap=     0.780 Goal=   None    Shift=    0.000
 GapD=    0.780 DampG=2.000 DampE=1.000 DampFc=2.0000 IDamp=-1.
 RMSDP=3.71D-04 MaxDP=1.19D-02              OVMax= 8.65D-03

 Cycle   2  Pass 1  IDiag  1:
 RMSU=  3.71D-04    CP:  1.00D+00
 E= -493.863941825905     Delta-E=       -0.001982825155 Rises=F Damp=F
 DIIS: error= 5.82D-04 at cycle   2 NSaved=   2.
 NSaved= 2 IEnMin= 2 EnMin= -493.863941825905     IErMin= 2 ErrMin= 5.82D-04
 ErrMax= 5.82D-04  0.00D+00 EMaxC= 1.00D-01 BMatC= 4.85D-05 BMatP= 1.34D-03
 IDIUse=3 WtCom= 9.94D-01 WtEn= 5.82D-03
 Coeff-Com: -0.168D+00 0.117D+01
 Coeff-En:   0.000D+00 0.100D+01
 Coeff:     -0.167D+00 0.117D+01
 Gap=     0.340 Goal=   None    Shift=    0.000
 RMSDP=8.25D-05 MaxDP=2.47D-03 DE=-1.98D-03 OVMax= 3.10D-03

 Cycle   3  Pass 1  IDiag  1:
 RMSU=  5.45D-05    CP:  1.00D+00  1.17D+00
 E= -493.864060556903     Delta-E=       -0.000118730998 Rises=F Damp=F
 DIIS: error= 1.06D-04 at cycle   3 NSaved=   3.
 NSaved= 3 IEnMin= 3 EnMin= -493.864060556903     IErMin= 3 ErrMin= 1.06D-04
 ErrMax= 1.06D-04  0.00D+00 EMaxC= 1.00D-01 BMatC= 4.66D-06 BMatP= 4.85D-05
 IDIUse=3 WtCom= 9.99D-01 WtEn= 1.06D-03
 Coeff-Com: -0.440D-01 0.221D+00 0.823D+00
 Coeff-En:   0.000D+00 0.000D+00 0.100D+01
 Coeff:     -0.440D-01 0.221D+00 0.823D+00
 Gap=     0.340 Goal=   None    Shift=    0.000
 RMSDP=1.82D-05 MaxDP=6.83D-04 DE=-1.19D-04 OVMax= 7.33D-04

 Cycle   4  Pass 1  IDiag  1:
 RMSU=  1.60D-05    CP:  1.00D+00  1.18D+00  1.13D+00
 E= -493.864066304510     Delta-E=       -0.000005747607 Rises=F Damp=F
 DIIS: error= 6.04D-05 at cycle   4 NSaved=   4.
 NSaved= 4 IEnMin= 4 EnMin= -493.864066304510     IErMin= 4 ErrMin= 6.04D-05
 ErrMax= 6.04D-05  0.00D+00 EMaxC= 1.00D-01 BMatC= 1.59D-06 BMatP= 4.66D-06
 IDIUse=1 WtCom= 1.00D+00 WtEn= 0.00D+00
 Coeff-Com:  0.141D-01-0.135D+00 0.346D+00 0.775D+00
 Coeff:      0.141D-01-0.135D+00 0.346D+00 0.775D+00
 Gap=     0.340 Goal=   None    Shift=    0.000
 RMSDP=9.52D-06 MaxDP=2.71D-04 DE=-5.75D-06 OVMax= 3.42D-04

 Cycle   5  Pass 1  IDiag  1:
 RMSU=  4.72D-06    CP:  1.00D+00  1.18D+00  1.27D+00  8.99D-01
 E= -493.864068236244     Delta-E=       -0.000001931734 Rises=F Damp=F
 DIIS: error= 1.44D-05 at cycle   5 NSaved=   5.
 NSaved= 5 IEnMin= 5 EnMin= -493.864068236244     IErMin= 5 ErrMin= 1.44D-05
 ErrMax= 1.44D-05  0.00D+00 EMaxC= 1.00D-01 BMatC= 5.35D-08 BMatP= 1.59D-06
 IDIUse=1 WtCom= 1.00D+00 WtEn= 0.00D+00
 Coeff-Com:  0.525D-02-0.424D-01 0.395D-01 0.176D+00 0.821D+00
 Coeff:      0.525D-02-0.424D-01 0.395D-01 0.176D+00 0.821D+00
 Gap=     0.340 Goal=   None    Shift=    0.000
 RMSDP=2.35D-06 MaxDP=6.05D-05 DE=-1.93D-06 OVMax= 9.36D-05

 Cycle   6  Pass 1  IDiag  1:
 RMSU=  1.60D-06    CP:  1.00D+00  1.18D+00  1.29D+00  9.62D-01  1.17D+00
 E= -493.864068311256     Delta-E=       -0.000000075012 Rises=F Damp=F
 DIIS: error= 1.33D-05 at cycle   6 NSaved=   6.
 NSaved= 6 IEnMin= 6 EnMin= -493.864068311256     IErMin= 6 ErrMin= 1.33D-05
 ErrMax= 1.33D-05  0.00D+00 EMaxC= 1.00D-01 BMatC= 2.90D-08 BMatP= 5.35D-08
 IDIUse=1 WtCom= 1.00D+00 WtEn= 0.00D+00
 Coeff-Com:  0.255D-03 0.212D-02-0.451D-01-0.511D-01 0.463D+00 0.631D+00
 Coeff:      0.255D-03 0.212D-02-0.451D-01-0.511D-01 0.463D+00 0.631D+00
 Gap=     0.340 Goal=   None    Shift=    0.000
 RMSDP=1.10D-06 MaxDP=3.40D-05 DE=-7.50D-08 OVMax= 4.73D-05

 Cycle   7  Pass 1  IDiag  1:
 RMSU=  5.72D-07    CP:  1.00D+00  1.18D+00  1.30D+00  9.83D-01  1.33D+00
                    CP:  8.13D-01
 E= -493.864068344466     Delta-E=       -0.000000033210 Rises=F Damp=F
 DIIS: error= 2.38D-06 at cycle   7 NSaved=   7.
 NSaved= 7 IEnMin= 7 EnMin= -493.864068344466     IErMin= 7 ErrMin= 2.38D-06
 ErrMax= 2.38D-06  0.00D+00 EMaxC= 1.00D-01 BMatC= 1.34D-09 BMatP= 2.90D-08
 IDIUse=1 WtCom= 1.00D+00 WtEn= 0.00D+00
 Coeff-Com: -0.528D-03 0.572D-02-0.168D-01-0.351D-01 0.246D-01 0.183D+00
 Coeff-Com:  0.839D+00
 Coeff:     -0.528D-03 0.572D-02-0.168D-01-0.351D-01 0.246D-01 0.183D+00
 Coeff:      0.839D+00
 Gap=     0.340 Goal=   None    Shift=    0.000
 RMSDP=3.98D-07 MaxDP=7.57D-06 DE=-3.32D-08 OVMax= 2.14D-05

 Cycle   8  Pass 1  IDiag  1:
 RMSU=  2.43D-07    CP:  1.00D+00  1.18D+00  1.30D+00  9.88D-01  1.39D+00
                    CP:  9.09D-01  1.14D+00
 E= -493.864068346786     Delta-E=       -0.000000002320 Rises=F Damp=F
 DIIS: error= 1.07D-06 at cycle   8 NSaved=   8.
 NSaved= 8 IEnMin= 8 EnMin= -493.864068346786     IErMin= 8 ErrMin= 1.07D-06
 ErrMax= 1.07D-06  0.00D+00 EMaxC= 1.00D-01 BMatC= 2.76D-10 BMatP= 1.34D-09
 IDIUse=1 WtCom= 1.00D+00 WtEn= 0.00D+00
 Coeff-Com: -0.250D-03 0.225D-02-0.251D-02-0.991D-02-0.395D-01 0.138D-01
 Coeff-Com:  0.371D+00 0.665D+00
 Coeff:     -0.250D-03 0.225D-02-0.251D-02-0.991D-02-0.395D-01 0.138D-01
 Coeff:      0.371D+00 0.665D+00
 Gap=     0.340 Goal=   None    Shift=    0.000
 RMSDP=1.27D-07 MaxDP=2.47D-06 DE=-2.32D-09 OVMax= 7.96D-06

 Cycle   9  Pass 1  IDiag  1:
 RMSU=  8.50D-08    CP:  1.00D+00  1.18D+00  1.30D+00  9.89D-01  1.40D+00
                    CP:  9.38D-01  1.26D+00  9.76D-01
 E= -493.864068347209     Delta-E=       -0.000000000423 Rises=F Damp=F
 DIIS: error= 6.13D-07 at cycle   9 NSaved=   9.
 NSaved= 9 IEnMin= 9 EnMin= -493.864068347209     IErMin= 9 ErrMin= 6.13D-07
 ErrMax= 6.13D-07  0.00D+00 EMaxC= 1.00D-01 BMatC= 1.96D-11 BMatP= 2.76D-10
 IDIUse=1 WtCom= 1.00D+00 WtEn= 0.00D+00
 Coeff-Com:  0.529D-04-0.643D-03 0.237D-02 0.426D-02-0.913D-02-0.270D-01
 Coeff-Com: -0.804D-01 0.733D-01 0.104D+01
 Coeff:      0.529D-04-0.643D-03 0.237D-02 0.426D-02-0.913D-02-0.270D-01
 Coeff:     -0.804D-01 0.733D-01 0.104D+01
 Gap=     0.340 Goal=   None    Shift=    0.000
 RMSDP=7.79D-08 MaxDP=1.59D-06 DE=-4.23D-10 OVMax= 7.09D-06

 Cycle  10  Pass 1  IDiag  1:
 RMSU=  3.35D-08    CP:  1.00D+00  1.18D+00  1.30D+00  9.89D-01  1.40D+00
                    CP:  9.47D-01  1.33D+00  1.15D+00  1.34D+00
 E= -493.864068347298     Delta-E=       -0.000000000089 Rises=F Damp=F
 DIIS: error= 2.55D-07 at cycle  10 NSaved=  10.
 NSaved=10 IEnMin=10 EnMin= -493.864068347298     IErMin=10 ErrMin= 2.55D-07
 ErrMax= 2.55D-07  0.00D+00 EMaxC= 1.00D-01 BMatC= 4.29D-12 BMatP= 1.96D-11
 IDIUse=1 WtCom= 1.00D+00 WtEn= 0.00D+00
 Coeff-Com:  0.552D-04-0.548D-03 0.112D-02 0.284D-02 0.336D-02-0.102D-01
 Coeff-Com: -0.817D-01-0.805D-01 0.300D+00 0.866D+00
 Coeff:      0.552D-04-0.548D-03 0.112D-02 0.284D-02 0.336D-02-0.102D-01
 Coeff:     -0.817D-01-0.805D-01 0.300D+00 0.866D+00
 Gap=     0.340 Goal=   None    Shift=    0.000
 RMSDP=3.07D-08 MaxDP=6.93D-07 DE=-8.94D-11 OVMax= 3.08D-06

 Cycle  11  Pass 1  IDiag  1:
 RMSU=  1.53D-08    CP:  1.00D+00  1.18D+00  1.30D+00  9.89D-01  1.40D+00
                    CP:  9.49D-01  1.34D+00  1.20D+00  1.56D+00  1.27D+00
 E= -493.864068347322     Delta-E=       -0.000000000024 Rises=F Damp=F
 DIIS: error= 9.64D-08 at cycle  11 NSaved=  11.
 NSaved=11 IEnMin=11 EnMin= -493.864068347322     IErMin=11 ErrMin= 9.64D-08
 ErrMax= 9.64D-08  0.00D+00 EMaxC= 1.00D-01 BMatC= 5.20D-13 BMatP= 4.29D-12
 IDIUse=1 WtCom= 1.00D+00 WtEn= 0.00D+00
 Coeff-Com: -0.795D-05 0.105D-03-0.446D-03-0.735D-03 0.226D-02 0.527D-02
 Coeff-Com:  0.119D-01-0.216D-01-0.206D+00 0.596D-01 0.115D+01
 Coeff:     -0.795D-05 0.105D-03-0.446D-03-0.735D-03 0.226D-02 0.527D-02
 Coeff:      0.119D-01-0.216D-01-0.206D+00 0.596D-01 0.115D+01
 Gap=     0.340 Goal=   None    Shift=    0.000
 RMSDP=1.66D-08 MaxDP=3.90D-07 DE=-2.41D-11 OVMax= 1.67D-06

 Cycle  12  Pass 1  IDiag  1:
 RMSU=  4.61D-09    CP:  1.00D+00  1.18D+00  1.30D+00  9.89D-01  1.40D+00
                    CP:  9.50D-01  1.34D+00  1.22D+00  1.66D+00  1.60D+00
                    CP:  1.38D+00
 E= -493.864068347324     Delta-E=       -0.000000000002 Rises=F Damp=F
 DIIS: error= 1.59D-08 at cycle  12 NSaved=  12.
 NSaved=12 IEnMin=12 EnMin= -493.864068347324     IErMin=12 ErrMin= 1.59D-08
 ErrMax= 1.59D-08  0.00D+00 EMaxC= 1.00D-01 BMatC= 4.95D-14 BMatP= 5.20D-13
 IDIUse=1 WtCom= 1.00D+00 WtEn= 0.00D+00
 Coeff-Com: -0.619D-05 0.703D-04-0.219D-03-0.423D-03 0.536D-03 0.232D-02
 Coeff-Com:  0.911D-02-0.160D-02-0.839D-01-0.385D-01 0.363D+00 0.750D+00
 Coeff:     -0.619D-05 0.703D-04-0.219D-03-0.423D-03 0.536D-03 0.232D-02
 Coeff:      0.911D-02-0.160D-02-0.839D-01-0.385D-01 0.363D+00 0.750D+00
 Gap=     0.340 Goal=   None    Shift=    0.000
 RMSDP=2.89D-09 MaxDP=5.08D-08 DE=-2.05D-12 OVMax= 2.16D-07

 Error on total polarization charges =  0.02897
 SCF Done:  E(RwB97XD) =  -493.864068347     A.U. after   12 cycles
            NFock= 12  Conv=0.29D-08     -V/T= 2.0101
 KE= 4.889087211577D+02 PE=-2.238450016893D+03 EE= 7.104611186498D+02
 SMD-CDS (non-electrostatic) energy       (kcal/mol) =       4.46
 (included in total energy above)
 Leave Link  502 at Tue Oct 21 15:08:43 2025, MaxMem=  4294967296 cpu:             361.8 elap:              45.5
 (Enter /lrz/sys/applications/gaussian/g16.C.01/x86_64_legacy/exe/l701.exe)
 ... and contract with generalized density number  0.
 Compute integral first derivatives.
 R6Disp: Adding Grimme-D2 dispersion energy 1st derivatives to the gradient.
   1 Symmetry operations used in ECPInt.
 ECPInt:  NShTT=    4095 NPrTT=   15045 LenC2=    3949 LenP2D=   11131.
 LDataN:  DoStor=T MaxTD1= 5 Len=  102
 D1PCM: PCM CHGder 1st derivatives, ID1Alg=3 FixD1E=F DoIter=F DoCFld=F I1PDM=0.
 GePol: Maximum number of non-zero 1st derivatives   =     258
 Leave Link  701 at Tue Oct 21 15:08:45 2025, MaxMem=  4294967296 cpu:               8.9 elap:               1.1
 (Enter /lrz/sys/applications/gaussian/g16.C.01/x86_64_legacy/exe/l702.exe)
 L702 exits ... SP integral derivatives will be done elsewhere.
 Leave Link  702 at Tue Oct 21 15:08:45 2025, MaxMem=  4294967296 cpu:               0.2 elap:               0.0
 (Enter /lrz/sys/applications/gaussian/g16.C.01/x86_64_legacy/exe/l703.exe)
 Integral derivatives from FoFJK, PRISM(SPDF).
 Compute integral first derivatives, UseDBF=F ICtDFT=           0.
 Calling FoFJK, ICntrl=      2127 FMM=F ISym2X=0 I1Cent= 0 IOpClX= 0 NMat=1 NMatS=1 NMatT=0.
 FoFJK:  IHMeth= 1 ICntrl=    2127 DoSepK=T KAlg= 0 I1Cent=           0 FoldK=F
 IRaf=         1 NMat=       1 IRICut=       1 DoRegI=T DoRafI=F ISym2E= 0 IDoP0=0 IntGTp=1.
 FoFCou: FMM=F IPFlag=           0 FMFlag=      100000 FMFlg1=         800
         NFxFlg=           0 DoJE=F BraDBF=F KetDBF=F FulRan=T
         wScrn=  0.000000 ICntrl=      2527 IOpCl=  0 I1Cent=           0 NGrid=           0
         NMat0=    1 NMatS0=      1 NMatT0=    0 NMatD0=    1 NMtDS0=    0 NMtDT0=    0
 Symmetry not used in FoFCou.
 Leave Link  703 at Tue Oct 21 15:08:53 2025, MaxMem=  4294967296 cpu:              68.0 elap:               8.5
 (Enter /lrz/sys/applications/gaussian/g16.C.01/x86_64_legacy/exe/l716.exe)
 Dipole        =-2.10868299D+00 1.33510286D+00 7.77760456D-01
 ***** Axes restored to original set *****
 -------------------------------------------------------------------
 Center     Atomic                   Forces (Hartrees/Bohr)
 Number     Number              X              Y              Z
 -------------------------------------------------------------------
      1        8           0.000147398    0.000257333   -0.000269368
      2        6          -0.000351573   -0.000923192    0.000878501
      3        7          -0.000066271    0.000602079    0.000103220
      4        6           0.000102117   -0.000219285   -0.000309444
      5        6           0.000230064    0.000019191   -0.000054316
      6        6          -0.000033282   -0.000127067   -0.000046999
      7        6          -0.000430139    0.000073914    0.000057997
      8        6           0.000023026    0.000117071    0.000115559
      9        7           0.000244413   -0.000080646   -0.000024606
     10        6           0.000362241   -0.000008877   -0.000053658
     11        6          -0.000281794   -0.000079113   -0.000198079
     12        1          -0.000073025    0.000335357   -0.000358400
     13        1           0.000014155    0.000035263    0.000030336
     14        1          -0.000037465   -0.000090958   -0.000043452
     15        1           0.000141045    0.000022810    0.000013968
     16        1           0.000054481   -0.000032616    0.000111529
     17        1           0.000023933   -0.000005738   -0.000019669
     18        1          -0.000035942    0.000081916   -0.000005186
     19        1          -0.000033382    0.000022559    0.000072070
 -------------------------------------------------------------------
 Cartesian Forces:  Max     0.000923192 RMS     0.000243373
 Leave Link  716 at Tue Oct 21 15:08:53 2025, MaxMem=  4294967296 cpu:               0.2 elap:               0.0
 (Enter /lrz/sys/applications/gaussian/g16.C.01/x86_64_legacy/exe/l103.exe)

 GradGradGradGradGradGradGradGradGradGradGradGradGradGradGradGradGradGrad
 Berny optimization.
 Using GEDIIS/GDIIS optimizer.
 FormGI is forming the generalized inverse of G from B-inverse, IUseBI=4.
 Internal  Forces:  Max     0.000724564 RMS     0.000184724
 Search for a local minimum.
 Step number  11 out of a maximum of   98
 All quantities printed in internal units (Hartrees-Bohrs-Radians)
 RMS Force = .18472D-03 SwitMx=.10000D-02 MixMth= 2
 Mixed Optimization -- En-DIIS/RFO-DIIS
 Swapping is turned off.
 Update second derivatives using D2CorX and points    9   10   11
 DE= -9.78D-05 DEPred=-1.02D-04 R= 9.58D-01
 TightC=F SS=  1.41D+00  RLast= 1.58D-01 DXNew= 1.9915D+00 4.7549D-01
 Trust test= 9.58D-01 RLast= 1.58D-01 DXMaxT set to 1.18D+00
 ITU=  1  1  0  1  1  1  1  1  1  1  0
     Eigenvalues ---    0.00044   0.00282   0.01187   0.01557   0.02136
     Eigenvalues ---    0.02155   0.02229   0.02231   0.02264   0.02293
     Eigenvalues ---    0.02319   0.02329   0.03590   0.05031   0.05106
     Eigenvalues ---    0.06432   0.08735   0.08737   0.15883   0.15995
     Eigenvalues ---    0.16002   0.16015   0.16322   0.16712   0.16939
     Eigenvalues ---    0.19719   0.21820   0.22034   0.23009   0.24433
     Eigenvalues ---    0.25004   0.29700   0.31900   0.32185   0.35916
     Eigenvalues ---    0.35992   0.36189   0.36986   0.41629   0.42785
     Eigenvalues ---    0.43458   0.44732   0.45432   0.45680   0.46281
     Eigenvalues ---    0.46894   0.47862   0.48133   0.51461   0.55406
     Eigenvalues ---    1.41684
 En-DIIS/RFO-DIIS/Sim-DIIS IScMMF=       -3 using points:    11   10    9    8    7    6    5
 RFO step:  Lambda=-1.38576418D-04.
 NNeg= 0 NGDIIS= 7 SimSw=  2.50D-01 Rises=F DC= -9.78D-05 SmlDif=  1.00D-05
 NRisDI= 0 DoIntr=F SqrtH=F CThrHd= 10.0 CDAdj=  3.0
 RMS Error=  0.4948481315D-01 NUsed= 7 OKEnD=T EnDIS=F
 InvSVX:  RCond= 1.86D-06 Info=           0 Equed=N FErr=  1.24D-10 BErr=  4.88D-17
 DIIS inversion failure, remove point   7.
 InvSVX:  RCond= 2.21D-06 Info=           0 Equed=N FErr=  1.09D-10 BErr=  4.62D-17
 DIIS inversion failure, remove point   6.
 InvSVX:  RCond= 2.93D-06 Info=           0 Equed=N FErr=  7.99D-11 BErr=  1.85D-17
 Old DIIS coefficients:      1.26365      0.01128      0.88563     -4.40779      3.24723
 Old DIIS coefficients:      0.00000      0.00000
 RFO-DIIS uses    5 points instead of    7
 DidBck=T Rises=F RFO-DIIS coefs:    0.70102    0.00626    0.49131   -2.00000    1.80141
                  RFO-DIIS coefs:    0.00000    0.00000
 Iteration  1 RMS(Cart)=  0.06852839 RMS(Int)=  0.00143320
 Iteration  2 RMS(Cart)=  0.00213493 RMS(Int)=  0.00003895
 Iteration  3 RMS(Cart)=  0.00000102 RMS(Int)=  0.00003894
 Iteration  4 RMS(Cart)=  0.00000000 RMS(Int)=  0.00003894
 ITry= 1 IFail=0 DXMaxC= 2.72D-01 DCOld= 1.00D+10 DXMaxT= 1.18D+00 DXLimC= 3.00D+00 Rises=F
 Variable       Old X    -DE/DX   Delta X   Delta X   Delta X     New X
                                 (Linear)    (Quad)   (Total)
    R1        2.66551  -0.00036   0.00036  -0.00250  -0.00214   2.66337
    R2        1.82476  -0.00047  -0.00055   0.00041  -0.00014   1.82462
    R3        2.72847   0.00030  -0.00131   0.00324   0.00192   2.73039
    R4        2.87194  -0.00024  -0.00060   0.00091   0.00031   2.87226
    R5        2.09458  -0.00003  -0.00024   0.00048   0.00024   2.09482
    R6        1.92783  -0.00000  -0.00036   0.00055   0.00019   1.92802
    R7        1.92564  -0.00009  -0.00044   0.00062   0.00018   1.92582
    R8        2.64280  -0.00015   0.00089  -0.00239  -0.00151   2.64129
    R9        2.64048   0.00013  -0.00074   0.00209   0.00133   2.64181
   R10        2.62537  -0.00003  -0.00072   0.00176   0.00103   2.62641
   R11        2.06205   0.00007   0.00003  -0.00009  -0.00005   2.06200
   R12        2.65182  -0.00012   0.00049  -0.00149  -0.00099   2.65083
   R13        2.06240  -0.00002  -0.00015   0.00025   0.00011   2.06251
   R14        2.71403  -0.00027  -0.00057   0.00045  -0.00012   2.71391
   R15        2.64858   0.00016  -0.00036   0.00130   0.00095   2.64953
   R16        2.19234  -0.00025  -0.00024   0.00025   0.00002   2.19236
   R17        2.62828  -0.00012   0.00050  -0.00157  -0.00107   2.62721
   R18        2.06211  -0.00003  -0.00013   0.00018   0.00005   2.06215
   R19        2.06545  -0.00007  -0.00029   0.00046   0.00016   2.06561
    A1        1.88255  -0.00021  -0.00117  -0.00046  -0.00163   1.88092
    A2        1.86270  -0.00059  -0.00323   0.00344   0.00022   1.86292
    A3        1.95667   0.00029  -0.00245   0.00777   0.00532   1.96200
    A4        1.89549   0.00020   0.00105  -0.00103   0.00000   1.89549
    A5        1.90731  -0.00009   0.00043  -0.00391  -0.00345   1.90387
    A6        1.96715   0.00020   0.00158  -0.00215  -0.00056   1.96659
    A7        1.87595   0.00001   0.00250  -0.00386  -0.00136   1.87458
    A8        1.89816  -0.00012   0.00105  -0.00290  -0.00175   1.89641
    A9        1.90260   0.00013   0.00129  -0.00267  -0.00127   1.90133
   A10        1.85256  -0.00007   0.00212  -0.00499  -0.00265   1.84991
   A11        2.10217  -0.00072  -0.00444   0.00767   0.00333   2.10550
   A12        2.09388   0.00066   0.00441  -0.00868  -0.00417   2.08971
   A13        2.08639   0.00007  -0.00005   0.00017   0.00016   2.08655
   A14        2.10380   0.00002   0.00020  -0.00034  -0.00016   2.10364
   A15        2.08589  -0.00004   0.00016  -0.00087  -0.00070   2.08519
   A16        2.09348   0.00002  -0.00037   0.00120   0.00085   2.09433
   A17        2.08497   0.00003  -0.00004   0.00027   0.00022   2.08520
   A18        2.10544  -0.00003   0.00015  -0.00049  -0.00034   2.10510
   A19        2.09278   0.00000  -0.00011   0.00023   0.00011   2.09289
   A20        2.09033  -0.00003   0.00001   0.00002   0.00003   2.09036
   A21        2.10247  -0.00007  -0.00028   0.00010  -0.00017   2.10230
   A22        2.09039   0.00010   0.00027  -0.00013   0.00014   2.09053
   A23        2.08201   0.00009   0.00044  -0.00038   0.00006   2.08207
   A24        2.09605  -0.00012  -0.00041   0.00018  -0.00024   2.09581
   A25        2.10513   0.00002  -0.00003   0.00020   0.00017   2.10530
   A26        2.10673  -0.00013  -0.00027   0.00017  -0.00012   2.10661
   A27        2.08846   0.00007   0.00029  -0.00048  -0.00018   2.08828
   A28        2.08799   0.00006  -0.00002   0.00030   0.00030   2.08829
   A29        3.14310  -0.00015  -0.00096  -0.00203  -0.00299   3.14011
   A30        3.14302  -0.00002  -0.00050   0.00025  -0.00025   3.14277
    D1       -2.94161  -0.00017   0.01281  -0.02597  -0.01318  -2.95479
    D2        1.25383   0.00015   0.01566  -0.02786  -0.01217   1.24166
    D3       -0.81636  -0.00017   0.01340  -0.02712  -0.01372  -0.83008
    D4        1.31894   0.00005   0.00203   0.00565   0.00774   1.32667
    D5       -2.95164  -0.00002   0.00632  -0.00329   0.00297  -2.94867
    D6       -2.84488  -0.00000  -0.00258   0.01481   0.01230  -2.83258
    D7       -0.83227  -0.00008   0.00172   0.00588   0.00754  -0.82473
    D8       -0.76035   0.00008   0.00192   0.00593   0.00791  -0.75243
    D9        1.25227   0.00001   0.00621  -0.00300   0.00315   1.25541
   D10        0.64285  -0.00045   0.04952  -0.15288  -0.10336   0.53949
   D11       -2.54031  -0.00047   0.05730  -0.17654  -0.11925  -2.65956
   D12       -1.41859   0.00016   0.05473  -0.15939  -0.10465  -1.52324
   D13        1.68144   0.00014   0.06251  -0.18305  -0.12054   1.56090
   D14        2.72456  -0.00003   0.05095  -0.15205  -0.10109   2.62346
   D15       -0.45860  -0.00005   0.05872  -0.17571  -0.11698  -0.57558
   D16        3.09835   0.00001   0.00731  -0.02163  -0.01428   3.08407
   D17       -0.04927  -0.00006   0.00653  -0.02238  -0.01582  -0.06510
   D18       -0.00186   0.00002  -0.00045   0.00214   0.00168  -0.00017
   D19        3.13370  -0.00005  -0.00124   0.00139   0.00014   3.13384
   D20       -3.09885   0.00006  -0.00667   0.02070   0.01406  -3.08478
   D21        0.04564   0.00004  -0.00700   0.02227   0.01530   0.06094
   D22        0.00156   0.00002   0.00100  -0.00257  -0.00158  -0.00001
   D23       -3.13714   0.00000   0.00066  -0.00099  -0.00034  -3.13748
   D24       -0.00020  -0.00003   0.00001  -0.00120  -0.00118  -0.00138
   D25       -3.14140  -0.00003  -0.00021  -0.00021  -0.00042   3.14136
   D26       -3.13573   0.00004   0.00080  -0.00044   0.00038  -3.13536
   D27        0.00625   0.00004   0.00058   0.00054   0.00113   0.00738
   D28        3.14156  -0.00001  -0.00064   0.00103   0.00039  -3.14124
   D29        0.00258   0.00000  -0.00010   0.00067   0.00056   0.00315
   D30       -0.00042  -0.00001  -0.00042   0.00005  -0.00037  -0.00079
   D31       -3.13940  -0.00000   0.00012  -0.00031  -0.00019  -3.13959
   D32       -0.00287   0.00003   0.00063  -0.00108  -0.00045  -0.00332
   D33        3.13545   0.00002   0.00067  -0.00133  -0.00066   3.13479
   D34        3.14134   0.00004   0.00117  -0.00145  -0.00028   3.14107
   D35       -0.00352   0.00003   0.00121  -0.00170  -0.00049  -0.00401
   D36        0.00078  -0.00004  -0.00108   0.00204   0.00096   0.00175
   D37        3.13949  -0.00003  -0.00075   0.00046  -0.00027   3.13921
   D38       -3.13752  -0.00003  -0.00112   0.00229   0.00118  -3.13634
   D39        0.00119  -0.00001  -0.00078   0.00071  -0.00006   0.00112
         Item               Value     Threshold  Converged?
 Maximum Force            0.000725     0.000450     NO 
 RMS     Force            0.000185     0.000300     YES
 Maximum Displacement     0.272047     0.001800     NO 
 RMS     Displacement     0.068534     0.001200     NO 
 Predicted change in Energy=-6.328089D-05
 Lowest energy point so far.  Saving SCF results.
 GradGradGradGradGradGradGradGradGradGradGradGradGradGradGradGradGradGrad

 Leave Link  103 at Tue Oct 21 15:08:53 2025, MaxMem=  4294967296 cpu:               0.2 elap:               0.1
 (Enter /lrz/sys/applications/gaussian/g16.C.01/x86_64_legacy/exe/l202.exe)
                          Input orientation:                          
 ---------------------------------------------------------------------
 Center     Atomic      Atomic             Coordinates (Angstroms)
 Number     Number       Type             X           Y           Z
 ---------------------------------------------------------------------
      1          8           0        3.075224    0.278570    1.167957
      2          6           0        2.496532   -0.179966   -0.032563
      3          7           0        2.966401    0.695196   -1.081817
      4          6           0        0.977552   -0.140706    0.004260
      5          6           0        0.308144    0.827327    0.758180
      6          6           0       -1.079396    0.904127    0.736469
      7          6           0       -1.808356    0.001201   -0.051612
      8          6           0       -3.242330    0.075122   -0.079099
      9          7           0       -4.400719    0.134210   -0.103245
     10          6           0       -1.146759   -0.975008   -0.809970
     11          6           0        0.241709   -1.037076   -0.776398
     12          1           0        2.911966   -0.387986    1.847168
     13          1           0        2.797256   -1.235306   -0.189608
     14          1           0        3.932343    0.451437   -1.301998
     15          1           0        2.430636    0.512803   -1.929314
     16          1           0        0.883380    1.521645    1.372725
     17          1           0       -1.603521    1.659349    1.324819
     18          1           0       -1.720166   -1.678430   -1.415956
     19          1           0        0.763371   -1.797247   -1.363613
 ---------------------------------------------------------------------
                    Distance matrix (angstroms):
                    1          2          3          4          5
     1  O    0.000000
     2  C    1.409393   0.000000
     3  N    2.290612   1.444860   0.000000
     4  C    2.435202   1.519933   2.415329   0.000000
     5  C    2.850576   2.535538   3.235642   1.397709   0.000000
     6  C    4.223550   3.814961   4.440529   2.420505   1.389834
     7  C    5.041194   4.308740   4.933686   2.790080   2.412016
     8  C    6.442673   5.744716   6.319674   4.226220   3.724610
     9  N    7.584624   6.904764   7.452970   5.386366   4.836927
    10  C    4.827919   3.809202   4.447648   2.423165   2.797187
    11  C    3.679708   2.524312   3.243146   1.397988   2.415646
    12  H    0.965545   1.936297   3.123332   2.683172   3.072908
    13  H    2.052332   1.108531   2.133421   2.132383   3.368744
    14  H    2.620155   2.017842   1.020265   3.284468   4.185743
    15  H    3.172293   2.020380   1.019099   2.505441   3.438971
    16  H    2.528111   2.733600   3.323668   2.155221   1.091164
    17  H    4.880759   4.694251   5.254110   3.412626   2.160510
    18  H    5.788110   4.683984   5.263997   3.414571   3.888410
    19  H    4.007808   2.718665   3.338416   2.158953   3.405529
                    6          7          8          9         10
     6  C    0.000000
     7  C    1.402758   0.000000
     8  C    2.455745   1.436141   0.000000
     9  N    3.511279   2.596286   1.160146   0.000000
    10  C    2.434577   1.402070   2.455272   3.509712   0.000000
    11  C    2.793270   2.409585   3.723135   4.834996   1.390260
    12  H    4.339836   5.102771   6.465317   7.586314   4.886535
    13  H    4.523630   4.770708   6.181103   7.327611   4.000983
    14  H    5.429347   5.892521   7.287868   8.424818   5.298501
    15  H    4.424914   4.664392   5.983093   7.081333   4.032899
    16  H    2.153750   3.403811   4.606702   5.659078   3.888303
    17  H    1.091431   2.164711   2.677023   3.491380   3.421373
    18  H    3.422444   2.165727   2.679387   3.492025   1.091245
    19  H    3.886330   3.401403   4.604496   5.655694   2.152021
                   11         12         13         14         15
    11  C    0.000000
    12  H    3.799301   0.000000
    13  H    2.629532   2.208974   0.000000
    14  H    4.014063   3.415120   2.317527   0.000000
    15  H    2.919374   3.912150   2.493365   1.628623   0.000000
    16  H    3.402576   2.826119   3.701970   4.194718   3.783546
    17  H    3.884674   4.985383   5.480817   6.245399   5.308331
    18  H    2.160862   5.811185   4.701850   6.041537   4.721673
    19  H    1.093075   4.112370   2.414695   3.886226   2.904500
                   16         17         18         19
    16  H    0.000000
    17  H    2.491171   0.000000
    18  H    4.979525   4.320443   0.000000
    19  H    4.303137   4.977741   2.486929   0.000000
 Stoichiometry    C8H8N2O
 Framework group  C1[X(C8H8N2O)]
 Deg. of freedom    51
 Full point group                 C1      NOp   1
 RotChk:  IX=2 Diff= 8.16D-02
 Largest Abelian subgroup         C1      NOp   1
 Largest concise Abelian subgroup C1      NOp   1
                         Standard orientation:                         
 ---------------------------------------------------------------------
 Center     Atomic      Atomic             Coordinates (Angstroms)
 Number     Number       Type             X           Y           Z
 ---------------------------------------------------------------------
      1          8           0       -3.034731   -0.984130    0.578812
      2          6           0       -2.418716    0.226366    0.202497
      3          7           0       -2.891304    0.538074   -1.126833
      4          6           0       -0.902527    0.122320    0.179204
      5          6           0       -0.276340   -1.087705   -0.132759
      6          6           0        1.108640   -1.163945   -0.220262
      7          6           0        1.878839   -0.013533    0.005740
      8          6           0        3.310424   -0.085003   -0.083464
      9          7           0        4.466941   -0.140818   -0.156214
     10          6           0        1.260780    1.204732    0.321387
     11          6           0       -0.125787    1.262624    0.404486
     12          1           0       -2.866809   -1.120106    1.519871
     13          1           0       -2.686297    1.005031    0.944739
     14          1           0       -3.845251    0.893515   -1.059088
     15          1           0       -2.333249    1.302076   -1.505566
     16          1           0       -0.883454   -1.978593   -0.301186
     17          1           0        1.599041   -2.108157   -0.463556
     18          1           0        1.866146    2.094468    0.502268
     19          1           0       -0.613611    2.208877    0.652368
 ---------------------------------------------------------------------
 Rotational constants (GHZ):           3.4551364           0.5546200           0.5128941
 Leave Link  202 at Tue Oct 21 15:08:53 2025, MaxMem=  4294967296 cpu:               0.1 elap:               0.0
 (Enter /lrz/sys/applications/gaussian/g16.C.01/x86_64_legacy/exe/l301.exe)
 Standard basis: def2SVP (5D, 7F)
 Ernie: Thresh=  0.10000D-02 Tol=  0.10000D-05 Strict=F.
 There are   205 symmetry adapted cartesian basis functions of A   symmetry.
 There are   194 symmetry adapted basis functions of A   symmetry.
   194 basis functions,   331 primitive gaussians,   205 cartesian basis functions
    39 alpha electrons       39 beta electrons
       nuclear repulsion energy       545.3725417228 Hartrees.
 IExCor= 4639 DFT=T Ex+Corr=wB97XD ExCW=0 ScaHFX=  1.000000
 ScaDFX=  1.000000  1.000000  1.000000  1.000000 ScalE2=  1.000000  1.000000
 IRadAn=      5 IRanWt=     -1 IRanGd=            0 ICorTp=0 IEmpDi=121
 HFx  wShort=  0.000000 wLong=  0.200000 cFull=  0.222036 cShort=  0.000000 cLong=  0.777964
 DFx  wShort=  0.000000 wLong=  0.200000 cFull=  0.000000 cShort=  0.000000 cLong=  1.000000
 NAtoms=   19 NActive=   19 NUniq=   19 SFac= 1.00D+00 NAtFMM=   60 NAOKFM=F Big=F
 Integral buffers will be    131072 words long.
 Raffenetti 2 integral format.
 Two-electron integral symmetry is turned on.
 R6Disp:  Grimme-D2 Dispersion energy=       -0.0103338709 Hartrees.
 Nuclear repulsion after empirical dispersion term =      545.3622078519 Hartrees.
 ------------------------------------------------------------------------------
 Polarizable Continuum Model (PCM)
 =================================
 Model                : PCM.
 Atomic radii         : SMD-Coulomb.
 Polarization charges : Total charges.
 Charge compensation  : None.
 Solution method      : On-the-fly selection.
 Cavity type          : VdW (van der Waals Surface) (Alpha=1.000).
 Cavity algorithm     : GePol (No added spheres)
                        Default sphere list used, NSphG=   19.
                        Lebedev-Laikov grids with approx.  5.0 points / Ang**2.
                        Smoothing algorithm: York/Karplus (Gamma=1.0000).
                        Polarization charges: spherical gaussians, with
                                              point-specific exponents (IZeta= 3).
                        Self-potential: point-specific (ISelfS= 7).
                        Self-field    : sphere-specific E.n sum rule (ISelfD= 2).
 1st derivatives      : Analytical E(r).r(x)/FMM algorithm (CHGder, D1EAlg=3).
                        Cavity 1st derivative terms included.
 Solvent              : Water, Eps=  78.355300 Eps(inf)=   1.777849
 ------------------------------------------------------------------------------
 Spheres list:
 ISph  on   Nord     Re0    Alpha      Xe            Ye            Ze
    1   O      1    1.5200  1.000     -3.034731     -0.984130      0.578812
    2   C      2    1.8500  1.000     -2.418716      0.226366      0.202497
    3   N      3    1.8900  1.000     -2.891304      0.538074     -1.126833
    4   C      4    1.8500  1.000     -0.902527      0.122320      0.179204
    5   C      5    1.8500  1.000     -0.276340     -1.087705     -0.132759
    6   C      6    1.8500  1.000      1.108640     -1.163945     -0.220262
    7   C      7    1.8500  1.000      1.878839     -0.013533      0.005740
    8   C      8    1.8500  1.000      3.310424     -0.085003     -0.083464
    9   N      9    1.8900  1.000      4.466941     -0.140818     -0.156214
   10   C     10    1.8500  1.000      1.260780      1.204732      0.321387
   11   C     11    1.8500  1.000     -0.125787      1.262624      0.404486
   12   H     12    1.2000  1.000     -2.866809     -1.120106      1.519871
   13   H     13    1.2000  1.000     -2.686297      1.005031      0.944739
   14   H     14    1.2000  1.000     -3.845251      0.893515     -1.059088
   15   H     15    1.2000  1.000     -2.333249      1.302076     -1.505566
   16   H     16    1.2000  1.000     -0.883454     -1.978593     -0.301186
   17   H     17    1.2000  1.000      1.599041     -2.108157     -0.463556
   18   H     18    1.2000  1.000      1.866146      2.094468      0.502268
   19   H     19    1.2000  1.000     -0.613611      2.208877      0.652368
 ------------------------------------------------------------------------------
 GePol: Number of generator spheres                  =      19
 GePol: Total number of spheres                      =      19
 GePol: Number of exposed spheres                    =      19 (100.00%)
 GePol: Number of points                             =    1639
 GePol: Average weight of points                     =       0.11
 GePol: Minimum weight of points                     =   0.30D-09
 GePol: Maximum weight of points                     =    0.21991
 GePol: Number of points with low weight             =      94
 GePol: Fraction of low-weight points (<1% of avg)   =       5.74%
 GePol: Cavity surface area                          =    188.175 Ang**2
 GePol: Cavity volume                                =    161.868 Ang**3
 ------------------------------------------------------------------------------
 Atomic radii for non-electrostatic terms: SMD-CDS.
 ------------------------------------------------------------------------------
 PCM non-electrostatic energy =         0.0070130941 Hartrees.
 Nuclear repulsion after PCM non-electrostatic terms =      545.3692209461 Hartrees.
 Leave Link  301 at Tue Oct 21 15:08:53 2025, MaxMem=  4294967296 cpu:               0.6 elap:               0.1
 (Enter /lrz/sys/applications/gaussian/g16.C.01/x86_64_legacy/exe/l302.exe)
 NPDir=0 NMtPBC=     1 NCelOv=     1 NCel=       1 NClECP=     1 NCelD=      1
         NCelK=      1 NCelE2=     1 NClLst=     1 CellRange=     0.0.
 One-electron integrals computed using PRISM.
 One-electron integral symmetry used in STVInt
   1 Symmetry operations used in ECPInt.
 ECPInt:  NShTT=    4095 NPrTT=   15045 LenC2=    3950 LenP2D=   11137.
 LDataN:  DoStor=T MaxTD1= 4 Len=   56
 NBasis=   194 RedAO= T EigKep=  2.77D-04  NBF=   194
 NBsUse=   194 1.00D-06 EigRej= -1.00D+00 NBFU=   194
 Precomputing XC quadrature grid using
 IXCGrd= 4 IRadAn=           5 IRanWt=          -1 IRanGd=           0 AccXCQ= 0.00D+00.
 Generated NRdTot=       0 NPtTot=           0 NUsed=           0 NTot=          32
 NSgBfM=   204   204   204   204   204 MxSgAt=    19 MxSgA2=    19.
 Leave Link  302 at Tue Oct 21 15:08:54 2025, MaxMem=  4294967296 cpu:               2.0 elap:               0.3
 (Enter /lrz/sys/applications/gaussian/g16.C.01/x86_64_legacy/exe/l303.exe)
 DipDrv:  MaxL=1.
 Leave Link  303 at Tue Oct 21 15:08:54 2025, MaxMem=  4294967296 cpu:               0.3 elap:               0.1
 (Enter /lrz/sys/applications/gaussian/g16.C.01/x86_64_legacy/exe/l401.exe)
 Initial guess from the checkpoint file:  "g16_C12-a_10.chk"
 B after Tr=    -0.000000    0.000000   -0.000000
         Rot=    0.999540   -0.030320    0.000781   -0.000057 Ang=  -3.48 deg.
 Guess basis will be translated and rotated to current coordinates.
 JPrj=2 DoOrth=T DoCkMO=T.
 Generating alternative initial guess.
 ExpMin= 1.22D-01 ExpMax= 2.27D+03 ExpMxC= 3.41D+02 IAcc=3 IRadAn=         5 AccDes= 0.00D+00
 Harris functional with IExCor= 4639 and IRadAn=       5 diagonalized for initial guess.
 HarFok:  IExCor= 4639 AccDes= 0.00D+00 IRadAn=         5 IDoV= 1 UseB2=F ITyADJ=14
 ICtDFT=  3500011 ScaDFX=  1.000000  1.000000  1.000000  1.000000
 FoFCou: FMM=F IPFlag=           0 FMFlag=      100000 FMFlg1=           0
         NFxFlg=           0 DoJE=T BraDBF=F KetDBF=T FulRan=T
         wScrn=  0.000000 ICntrl=       500 IOpCl=  0 I1Cent=   200000004 NGrid=           0
         NMat0=    1 NMatS0=      1 NMatT0=    0 NMatD0=    1 NMtDS0=    0 NMtDT0=    0
 Petite list used in FoFCou.
 Harris En= -472.807542494040    
 Leave Link  401 at Tue Oct 21 15:08:55 2025, MaxMem=  4294967296 cpu:              11.4 elap:               1.4
 (Enter /lrz/sys/applications/gaussian/g16.C.01/x86_64_legacy/exe/l502.exe)
 Integral symmetry usage will be decided dynamically.
 Closed shell SCF:
 Using DIIS extrapolation, IDIIS=  1040.
 NGot=  4294967296 LenX=  4294878900 LenY=  4294836434
 Requested convergence on RMS density matrix=1.00D-08 within 128 cycles.
 Requested convergence on MAX density matrix=1.00D-06.
 Requested convergence on             energy=1.00D-06.
 No special actions if energy rises.
 Fock matrices will be formed incrementally for  20 cycles.

 Cycle   1  Pass 1  IDiag  1:
 FoFJK:  IHMeth= 1 ICntrl=       0 DoSepK=T KAlg= 0 I1Cent=           0 FoldK=F
 IRaf=         1 NMat=       1 IRICut=       1 DoRegI=T DoRafI=F ISym2E= 0 IDoP0=0 IntGTp=1.
 FoFCou: FMM=F IPFlag=           0 FMFlag=      100000 FMFlg1=           0
         NFxFlg=           0 DoJE=T BraDBF=F KetDBF=F FulRan=T
         wScrn=  0.000000 ICntrl=       500 IOpCl=  0 I1Cent=           0 NGrid=           0
         NMat0=    1 NMatS0=      1 NMatT0=    0 NMatD0=    1 NMtDS0=    0 NMtDT0=    0
 Symmetry not used in FoFCou.
 Inv3:  Mode=1 IEnd=     8058963.
 Iteration    1 A*A^-1 deviation from unit magnitude is 6.99D-15 for    498.
 Iteration    1 A*A^-1 deviation from orthogonality  is 3.84D-15 for   1332    927.
 Iteration    1 A^-1*A deviation from unit magnitude is 6.99D-15 for    498.
 Iteration    1 A^-1*A deviation from orthogonality  is 3.67D-15 for    608    289.
 E= -493.856412423046    
 DIIS: error= 4.57D-03 at cycle   1 NSaved=   1.
 NSaved= 1 IEnMin= 1 EnMin= -493.856412423046     IErMin= 1 ErrMin= 4.57D-03
 ErrMax= 4.57D-03  0.00D+00 EMaxC= 1.00D-01 BMatC= 4.43D-03 BMatP= 4.43D-03
 IDIUse=3 WtCom= 9.54D-01 WtEn= 4.57D-02
 Coeff-Com:  0.100D+01
 Coeff-En:   0.100D+01
 Coeff:      0.100D+01
 Gap=     0.779 Goal=   None    Shift=    0.000
 GapD=    0.779 DampG=2.000 DampE=1.000 DampFc=2.0000 IDamp=-1.
 RMSDP=6.58D-04 MaxDP=1.88D-02              OVMax= 1.56D-02

 Cycle   2  Pass 1  IDiag  1:
 RMSU=  6.58D-04    CP:  1.00D+00
 E= -493.863590892768     Delta-E=       -0.007178469722 Rises=F Damp=F
 DIIS: error= 9.15D-04 at cycle   2 NSaved=   2.
 NSaved= 2 IEnMin= 2 EnMin= -493.863590892768     IErMin= 2 ErrMin= 9.15D-04
 ErrMax= 9.15D-04  0.00D+00 EMaxC= 1.00D-01 BMatC= 1.75D-04 BMatP= 4.43D-03
 IDIUse=3 WtCom= 9.91D-01 WtEn= 9.15D-03
 Coeff-Com: -0.184D+00 0.118D+01
 Coeff-En:   0.000D+00 0.100D+01
 Coeff:     -0.182D+00 0.118D+01
 Gap=     0.340 Goal=   None    Shift=    0.000
 RMSDP=1.59D-04 MaxDP=3.18D-03 DE=-7.18D-03 OVMax= 5.56D-03

 Cycle   3  Pass 1  IDiag  1:
 RMSU=  9.10D-05    CP:  9.99D-01  1.20D+00
 E= -493.864078396622     Delta-E=       -0.000487503853 Rises=F Damp=F
 DIIS: error= 2.12D-04 at cycle   3 NSaved=   3.
 NSaved= 3 IEnMin= 3 EnMin= -493.864078396622     IErMin= 3 ErrMin= 2.12D-04
 ErrMax= 2.12D-04  0.00D+00 EMaxC= 1.00D-01 BMatC= 1.07D-05 BMatP= 1.75D-04
 IDIUse=3 WtCom= 9.98D-01 WtEn= 2.12D-03
 Coeff-Com: -0.264D-01 0.792D-01 0.947D+00
 Coeff-En:   0.000D+00 0.000D+00 0.100D+01
 Coeff:     -0.263D-01 0.791D-01 0.947D+00
 Gap=     0.339 Goal=   None    Shift=    0.000
 RMSDP=3.37D-05 MaxDP=1.19D-03 DE=-4.88D-04 OVMax= 1.32D-03

 Cycle   4  Pass 1  IDiag  1:
 RMSU=  2.64D-05    CP:  9.99D-01  1.22D+00  1.18D+00
 E= -493.864096750881     Delta-E=       -0.000018354260 Rises=F Damp=F
 DIIS: error= 1.19D-04 at cycle   4 NSaved=   4.
 NSaved= 4 IEnMin= 4 EnMin= -493.864096750881     IErMin= 4 ErrMin= 1.19D-04
 ErrMax= 1.19D-04  0.00D+00 EMaxC= 1.00D-01 BMatC= 5.13D-06 BMatP= 1.07D-05
 IDIUse=3 WtCom= 9.99D-01 WtEn= 1.19D-03
 Coeff-Com:  0.157D-01-0.144D+00 0.432D+00 0.697D+00
 Coeff-En:   0.000D+00 0.000D+00 0.000D+00 0.100D+01
 Coeff:      0.157D-01-0.144D+00 0.432D+00 0.697D+00
 Gap=     0.340 Goal=   None    Shift=    0.000
 RMSDP=1.48D-05 MaxDP=5.54D-04 DE=-1.84D-05 OVMax= 4.84D-04

 Cycle   5  Pass 1  IDiag  1:
 RMSU=  7.76D-06    CP:  9.99D-01  1.22D+00  1.31D+00  8.40D-01
 E= -493.864102624350     Delta-E=       -0.000005873469 Rises=F Damp=F
 DIIS: error= 2.50D-05 at cycle   5 NSaved=   5.
 NSaved= 5 IEnMin= 5 EnMin= -493.864102624350     IErMin= 5 ErrMin= 2.50D-05
 ErrMax= 2.50D-05  0.00D+00 EMaxC= 1.00D-01 BMatC= 7.01D-08 BMatP= 5.13D-06
 IDIUse=1 WtCom= 1.00D+00 WtEn= 0.00D+00
 Coeff-Com:  0.474D-03 0.378D-02-0.804D-01-0.363D-01 0.111D+01
 Coeff:      0.474D-03 0.378D-02-0.804D-01-0.363D-01 0.111D+01
 Gap=     0.340 Goal=   None    Shift=    0.000
 RMSDP=4.18D-06 MaxDP=6.66D-05 DE=-5.87D-06 OVMax= 1.73D-04

 Cycle   6  Pass 1  IDiag  1:
 RMSU=  1.68D-06    CP:  9.99D-01  1.22D+00  1.34D+00  9.26D-01  1.29D+00
 E= -493.864102852307     Delta-E=       -0.000000227957 Rises=F Damp=F
 DIIS: error= 7.79D-06 at cycle   6 NSaved=   6.
 NSaved= 6 IEnMin= 6 EnMin= -493.864102852307     IErMin= 6 ErrMin= 7.79D-06
 ErrMax= 7.79D-06  0.00D+00 EMaxC= 1.00D-01 BMatC= 2.03D-08 BMatP= 7.01D-08
 IDIUse=1 WtCom= 1.00D+00 WtEn= 0.00D+00
 Coeff-Com: -0.773D-03 0.107D-01-0.599D-01-0.583D-01 0.457D+00 0.651D+00
 Coeff:     -0.773D-03 0.107D-01-0.599D-01-0.583D-01 0.457D+00 0.651D+00
 Gap=     0.340 Goal=   None    Shift=    0.000
 RMSDP=1.04D-06 MaxDP=2.71D-05 DE=-2.28D-07 OVMax= 4.46D-05

 Cycle   7  Pass 1  IDiag  1:
 RMSU=  7.97D-07    CP:  9.99D-01  1.22D+00  1.34D+00  9.35D-01  1.36D+00
                    CP:  8.66D-01
 E= -493.864102875241     Delta-E=       -0.000000022934 Rises=F Damp=F
 DIIS: error= 4.14D-06 at cycle   7 NSaved=   7.
 NSaved= 7 IEnMin= 7 EnMin= -493.864102875241     IErMin= 7 ErrMin= 4.14D-06
 ErrMax= 4.14D-06  0.00D+00 EMaxC= 1.00D-01 BMatC= 3.77D-09 BMatP= 2.03D-08
 IDIUse=1 WtCom= 1.00D+00 WtEn= 0.00D+00
 Coeff-Com: -0.443D-03 0.431D-02-0.130D-01-0.208D-01 0.315D-02 0.306D+00
 Coeff-Com:  0.721D+00
 Coeff:     -0.443D-03 0.431D-02-0.130D-01-0.208D-01 0.315D-02 0.306D+00
 Coeff:      0.721D+00
 Gap=     0.340 Goal=   None    Shift=    0.000
 RMSDP=4.53D-07 MaxDP=1.26D-05 DE=-2.29D-08 OVMax= 2.32D-05

 Cycle   8  Pass 1  IDiag  1:
 RMSU=  2.78D-07    CP:  9.99D-01  1.22D+00  1.34D+00  9.39D-01  1.38D+00
                    CP:  1.03D+00  1.04D+00
 E= -493.864102880172     Delta-E=       -0.000000004931 Rises=F Damp=F
 DIIS: error= 1.43D-06 at cycle   8 NSaved=   8.
 NSaved= 8 IEnMin= 8 EnMin= -493.864102880172     IErMin= 8 ErrMin= 1.43D-06
 ErrMax= 1.43D-06  0.00D+00 EMaxC= 1.00D-01 BMatC= 3.91D-10 BMatP= 3.77D-09
 IDIUse=1 WtCom= 1.00D+00 WtEn= 0.00D+00
 Coeff-Com: -0.117D-03 0.848D-03-0.558D-04-0.355D-02-0.405D-01 0.714D-01
 Coeff-Com:  0.302D+00 0.670D+00
 Coeff:     -0.117D-03 0.848D-03-0.558D-04-0.355D-02-0.405D-01 0.714D-01
 Coeff:      0.302D+00 0.670D+00
 Gap=     0.340 Goal=   None    Shift=    0.000
 RMSDP=1.62D-07 MaxDP=3.68D-06 DE=-4.93D-09 OVMax= 1.02D-05

 Cycle   9  Pass 1  IDiag  1:
 RMSU=  1.15D-07    CP:  9.99D-01  1.22D+00  1.34D+00  9.40D-01  1.39D+00
                    CP:  1.08D+00  1.12D+00  1.07D+00
 E= -493.864102880806     Delta-E=       -0.000000000633 Rises=F Damp=F
 DIIS: error= 8.23D-07 at cycle   9 NSaved=   9.
 NSaved= 9 IEnMin= 9 EnMin= -493.864102880806     IErMin= 9 ErrMin= 8.23D-07
 ErrMax= 8.23D-07  0.00D+00 EMaxC= 1.00D-01 BMatC= 6.47D-11 BMatP= 3.91D-10
 IDIUse=1 WtCom= 1.00D+00 WtEn= 0.00D+00
 Coeff-Com:  0.844D-04-0.928D-03 0.368D-02 0.463D-02-0.148D-01-0.604D-01
 Coeff-Com: -0.946D-01 0.231D+00 0.931D+00
 Coeff:      0.844D-04-0.928D-03 0.368D-02 0.463D-02-0.148D-01-0.604D-01
 Coeff:     -0.946D-01 0.231D+00 0.931D+00
 Gap=     0.340 Goal=   None    Shift=    0.000
 RMSDP=1.15D-07 MaxDP=2.36D-06 DE=-6.33D-10 OVMax= 1.01D-05

 Cycle  10  Pass 1  IDiag  1:
 RMSU=  4.80D-08    CP:  9.99D-01  1.22D+00  1.34D+00  9.40D-01  1.39D+00
                    CP:  1.10D+00  1.20D+00  1.31D+00  1.17D+00
 E= -493.864102881046     Delta-E=       -0.000000000241 Rises=F Damp=F
 DIIS: error= 3.38D-07 at cycle  10 NSaved=  10.
 NSaved=10 IEnMin=10 EnMin= -493.864102881046     IErMin=10 ErrMin= 3.38D-07
 ErrMax= 3.38D-07  0.00D+00 EMaxC= 1.00D-01 BMatC= 4.96D-12 BMatP= 6.47D-11
 IDIUse=1 WtCom= 1.00D+00 WtEn= 0.00D+00
 Coeff-Com:  0.861D-05-0.487D-04-0.153D-03 0.180D-03 0.479D-02-0.460D-02
 Coeff-Com: -0.269D-01-0.846D-01-0.549D-01 0.117D+01
 Coeff:      0.861D-05-0.487D-04-0.153D-03 0.180D-03 0.479D-02-0.460D-02
 Coeff:     -0.269D-01-0.846D-01-0.549D-01 0.117D+01
 Gap=     0.340 Goal=   None    Shift=    0.000
 RMSDP=4.61D-08 MaxDP=1.10D-06 DE=-2.41D-10 OVMax= 4.68D-06

 Cycle  11  Pass 1  IDiag  1:
 RMSU=  1.74D-08    CP:  9.99D-01  1.22D+00  1.34D+00  9.40D-01  1.39D+00
                    CP:  1.11D+00  1.22D+00  1.38D+00  1.36D+00  1.57D+00
 E= -493.864102881062     Delta-E=       -0.000000000016 Rises=F Damp=F
 DIIS: error= 1.01D-07 at cycle  11 NSaved=  11.
 NSaved=11 IEnMin=11 EnMin= -493.864102881062     IErMin=11 ErrMin= 1.01D-07
 ErrMax= 1.01D-07  0.00D+00 EMaxC= 1.00D-01 BMatC= 1.66D-12 BMatP= 4.96D-12
 IDIUse=1 WtCom= 1.00D+00 WtEn= 0.00D+00
 Coeff-Com: -0.126D-04 0.160D-03-0.788D-03-0.823D-03 0.500D-02 0.987D-02
 Coeff-Com:  0.698D-02-0.820D-01-0.208D+00 0.509D+00 0.760D+00
 Coeff:     -0.126D-04 0.160D-03-0.788D-03-0.823D-03 0.500D-02 0.987D-02
 Coeff:      0.698D-02-0.820D-01-0.208D+00 0.509D+00 0.760D+00
 Gap=     0.340 Goal=   None    Shift=    0.000
 RMSDP=1.66D-08 MaxDP=3.84D-07 DE=-1.61D-11 OVMax= 1.62D-06

 Cycle  12  Pass 1  IDiag  1:
 RMSU=  6.02D-09    CP:  9.99D-01  1.22D+00  1.34D+00  9.40D-01  1.39D+00
                    CP:  1.11D+00  1.22D+00  1.39D+00  1.41D+00  1.84D+00
                    CP:  1.02D+00
 E= -493.864102881088     Delta-E=       -0.000000000025 Rises=F Damp=F
 DIIS: error= 2.21D-08 at cycle  12 NSaved=  12.
 NSaved=12 IEnMin=12 EnMin= -493.864102881088     IErMin=12 ErrMin= 2.21D-08
 ErrMax= 2.21D-08  0.00D+00 EMaxC= 1.00D-01 BMatC= 6.83D-14 BMatP= 1.66D-12
 IDIUse=1 WtCom= 1.00D+00 WtEn= 0.00D+00
 Coeff-Com: -0.228D-05 0.237D-04-0.825D-04-0.117D-03 0.158D-03 0.158D-02
 Coeff-Com:  0.344D-02-0.169D-02-0.202D-01-0.480D-01 0.998D-01 0.965D+00
 Coeff:     -0.228D-05 0.237D-04-0.825D-04-0.117D-03 0.158D-03 0.158D-02
 Coeff:      0.344D-02-0.169D-02-0.202D-01-0.480D-01 0.998D-01 0.965D+00
 Gap=     0.340 Goal=   None    Shift=    0.000
 RMSDP=4.75D-09 MaxDP=8.67D-08 DE=-2.52D-11 OVMax= 3.88D-07

 Error on total polarization charges =  0.02903
 SCF Done:  E(RwB97XD) =  -493.864102881     A.U. after   12 cycles
            NFock= 12  Conv=0.47D-08     -V/T= 2.0101
 KE= 4.889094366433D+02 PE=-2.238734300051D+03 EE= 7.105915395804D+02
 SMD-CDS (non-electrostatic) energy       (kcal/mol) =       4.40
 (included in total energy above)
 Leave Link  502 at Tue Oct 21 15:09:42 2025, MaxMem=  4294967296 cpu:             372.6 elap:              46.9
 (Enter /lrz/sys/applications/gaussian/g16.C.01/x86_64_legacy/exe/l701.exe)
 ... and contract with generalized density number  0.
 Compute integral first derivatives.
 R6Disp: Adding Grimme-D2 dispersion energy 1st derivatives to the gradient.
   1 Symmetry operations used in ECPInt.
 ECPInt:  NShTT=    4095 NPrTT=   15045 LenC2=    3950 LenP2D=   11137.
 LDataN:  DoStor=T MaxTD1= 5 Len=  102
 D1PCM: PCM CHGder 1st derivatives, ID1Alg=3 FixD1E=F DoIter=F DoCFld=F I1PDM=0.
 GePol: Maximum number of non-zero 1st derivatives   =     266
 Leave Link  701 at Tue Oct 21 15:09:43 2025, MaxMem=  4294967296 cpu:               9.7 elap:               1.2
 (Enter /lrz/sys/applications/gaussian/g16.C.01/x86_64_legacy/exe/l702.exe)
 L702 exits ... SP integral derivatives will be done elsewhere.
 Leave Link  702 at Tue Oct 21 15:09:43 2025, MaxMem=  4294967296 cpu:               0.2 elap:               0.0
 (Enter /lrz/sys/applications/gaussian/g16.C.01/x86_64_legacy/exe/l703.exe)
 Integral derivatives from FoFJK, PRISM(SPDF).
 Compute integral first derivatives, UseDBF=F ICtDFT=           0.
 Calling FoFJK, ICntrl=      2127 FMM=F ISym2X=0 I1Cent= 0 IOpClX= 0 NMat=1 NMatS=1 NMatT=0.
 FoFJK:  IHMeth= 1 ICntrl=    2127 DoSepK=T KAlg= 0 I1Cent=           0 FoldK=F
 IRaf=         1 NMat=       1 IRICut=       1 DoRegI=T DoRafI=F ISym2E= 0 IDoP0=0 IntGTp=1.
 FoFCou: FMM=F IPFlag=           0 FMFlag=      100000 FMFlg1=         800
         NFxFlg=           0 DoJE=F BraDBF=F KetDBF=F FulRan=T
         wScrn=  0.000000 ICntrl=      2527 IOpCl=  0 I1Cent=           0 NGrid=           0
         NMat0=    1 NMatS0=      1 NMatT0=    0 NMatD0=    1 NMtDS0=    0 NMtDT0=    0
 Symmetry not used in FoFCou.
 Leave Link  703 at Tue Oct 21 15:09:52 2025, MaxMem=  4294967296 cpu:              69.4 elap:               8.7
 (Enter /lrz/sys/applications/gaussian/g16.C.01/x86_64_legacy/exe/l716.exe)
 Dipole        =-2.10369924D+00 1.21765005D+00 9.45749136D-01
 ***** Axes restored to original set *****
 -------------------------------------------------------------------
 Center     Atomic                   Forces (Hartrees/Bohr)
 Number     Number              X              Y              Z
 -------------------------------------------------------------------
      1        8          -0.000116962    0.000096118   -0.000071807
      2        6          -0.000170162   -0.000721771    0.000661879
      3        7           0.000124564    0.000024697   -0.000037852
      4        6           0.000089198    0.000606557   -0.000853275
      5        6           0.000192041   -0.000079190    0.000249524
      6        6          -0.000087160   -0.000189587   -0.000018984
      7        6          -0.000424603    0.000226852    0.000193803
      8        6          -0.000006884   -0.000111137   -0.000043082
      9        7           0.000250248    0.000021498    0.000044310
     10        6           0.000405784   -0.000106446   -0.000013780
     11        6          -0.000357929   -0.000329202    0.000171556
     12        1          -0.000056837    0.000220319   -0.000168811
     13        1           0.000041466   -0.000002067   -0.000040962
     14        1          -0.000055872    0.000016588   -0.000017489
     15        1           0.000178811    0.000228218    0.000085533
     16        1           0.000022351   -0.000029686   -0.000075720
     17        1           0.000041795   -0.000038727   -0.000030654
     18        1          -0.000017678    0.000104071   -0.000014600
     19        1          -0.000052171    0.000062898   -0.000019590
 -------------------------------------------------------------------
 Cartesian Forces:  Max     0.000853275 RMS     0.000240105
 Leave Link  716 at Tue Oct 21 15:09:52 2025, MaxMem=  4294967296 cpu:               0.2 elap:               0.0
 (Enter /lrz/sys/applications/gaussian/g16.C.01/x86_64_legacy/exe/l103.exe)

 GradGradGradGradGradGradGradGradGradGradGradGradGradGradGradGradGradGrad
 Berny optimization.
 Using GEDIIS/GDIIS optimizer.
 FormGI is forming the generalized inverse of G from B-inverse, IUseBI=4.
 Internal  Forces:  Max     0.000518729 RMS     0.000161850
 Search for a local minimum.
 Step number  12 out of a maximum of   98
 All quantities printed in internal units (Hartrees-Bohrs-Radians)
 RMS Force = .16185D-03 SwitMx=.10000D-02 MixMth= 2
 Mixed Optimization -- En-DIIS/RFO-DIIS
 Swapping is turned off.
 Update second derivatives using D2CorX and points    9   10   11   12
 DE= -3.45D-05 DEPred=-6.33D-05 R= 5.46D-01
 TightC=F SS=  1.41D+00  RLast= 2.76D-01 DXNew= 1.9915D+00 8.2792D-01
 Trust test= 5.46D-01 RLast= 2.76D-01 DXMaxT set to 1.18D+00
 ITU=  1  1  1  0  1  1  1  1  1  1  1  0
     Eigenvalues ---    0.00096   0.00224   0.01108   0.01793   0.02144
     Eigenvalues ---    0.02168   0.02230   0.02248   0.02263   0.02292
     Eigenvalues ---    0.02318   0.02337   0.03573   0.05031   0.05140
     Eigenvalues ---    0.06498   0.08676   0.08722   0.15892   0.15991
     Eigenvalues ---    0.16004   0.16014   0.16366   0.16581   0.16967
     Eigenvalues ---    0.20373   0.21719   0.22033   0.23005   0.24452
     Eigenvalues ---    0.25009   0.29426   0.31892   0.32150   0.35913
     Eigenvalues ---    0.35992   0.36182   0.36983   0.41665   0.42779
     Eigenvalues ---    0.43446   0.44755   0.45315   0.45675   0.46182
     Eigenvalues ---    0.46894   0.47892   0.48142   0.51466   0.55362
     Eigenvalues ---    1.41713
 En-DIIS/RFO-DIIS/Sim-DIIS IScMMF=       -3 using points:    12   11   10    9    8    7    6    5
 RFO step:  Lambda=-3.00247065D-05.
 NNeg= 0 NGDIIS= 8 SimSw=  2.50D-01 Rises=F DC= -3.45D-05 SmlDif=  1.00D-05
 NRisDI= 0 DoIntr=F SqrtH=F CThrHd= 10.0 CDAdj=  3.0
 RMS Error=  0.6035851974D-02 NUsed= 8 OKEnD=T EnDIS=F
 InvSVX:  RCond= 7.65D-07 Info=           0 Equed=N FErr=  1.04D-10 BErr=  8.00D-17
 DIIS inversion failure, remove point   8.
 InvSVX:  RCond= 1.00D-06 Info=           0 Equed=N FErr=  8.32D-11 BErr=  8.60D-17
 Old DIIS coefficients:      0.13040      1.34957      0.05182      0.44243     -3.33344
 Old DIIS coefficients:      2.51196     -0.15274      0.00000
 RFO-DIIS uses    7 points instead of    8
 DidBck=T Rises=F RFO-DIIS coefs:    0.09027    0.93429    0.03588    0.30629   -2.00000
                  RFO-DIIS coefs:    1.73900   -0.10574    0.00000
 Iteration  1 RMS(Cart)=  0.00901600 RMS(Int)=  0.00003725
 Iteration  2 RMS(Cart)=  0.00004787 RMS(Int)=  0.00002010
 Iteration  3 RMS(Cart)=  0.00000000 RMS(Int)=  0.00002010
 ITry= 1 IFail=0 DXMaxC= 3.79D-02 DCOld= 1.00D+10 DXMaxT= 1.18D+00 DXLimC= 3.00D+00 Rises=F
 Variable       Old X    -DE/DX   Delta X   Delta X   Delta X     New X
                                 (Linear)    (Quad)   (Total)
    R1        2.66337  -0.00017   0.00113  -0.00142  -0.00030   2.66307
    R2        1.82462  -0.00027   0.00002  -0.00011  -0.00009   1.82453
    R3        2.73039   0.00023  -0.00288   0.00404   0.00116   2.73155
    R4        2.87226  -0.00006  -0.00031   0.00011  -0.00020   2.87206
    R5        2.09482   0.00002  -0.00015   0.00026   0.00011   2.09492
    R6        1.92802  -0.00005  -0.00019   0.00034   0.00016   1.92818
    R7        1.92582  -0.00020  -0.00030   0.00037   0.00007   1.92589
    R8        2.64129  -0.00010   0.00123  -0.00154  -0.00031   2.64097
    R9        2.64181   0.00015  -0.00105   0.00139   0.00034   2.64216
   R10        2.62641   0.00003  -0.00075   0.00087   0.00012   2.62652
   R11        2.06200  -0.00005   0.00010  -0.00021  -0.00011   2.06189
   R12        2.65083  -0.00015   0.00080  -0.00110  -0.00029   2.65053
   R13        2.06251  -0.00006  -0.00003  -0.00009  -0.00012   2.06239
   R14        2.71391  -0.00025   0.00024  -0.00058  -0.00034   2.71358
   R15        2.64953   0.00015  -0.00076   0.00102   0.00027   2.64979
   R16        2.19236  -0.00025   0.00005  -0.00019  -0.00014   2.19222
   R17        2.62721  -0.00020   0.00093  -0.00126  -0.00034   2.62687
   R18        2.06215  -0.00005   0.00001  -0.00010  -0.00009   2.06206
   R19        2.06561  -0.00006  -0.00006  -0.00005  -0.00011   2.06550
    A1        1.88092  -0.00002   0.00021  -0.00016   0.00005   1.88097
    A2        1.86292  -0.00040  -0.00236   0.00072  -0.00162   1.86130
    A3        1.96200  -0.00024  -0.00323   0.00199  -0.00124   1.96076
    A4        1.89549   0.00025   0.00077   0.00013   0.00088   1.89637
    A5        1.90387   0.00043   0.00152  -0.00019   0.00136   1.90522
    A6        1.96659  -0.00001   0.00112  -0.00089   0.00025   1.96684
    A7        1.87458  -0.00004   0.00204  -0.00170   0.00034   1.87493
    A8        1.89641   0.00000   0.00113  -0.00277  -0.00159   1.89482
    A9        1.90133   0.00036  -0.00004  -0.00031  -0.00029   1.90103
   A10        1.84991  -0.00010   0.00246  -0.00448  -0.00190   1.84801
   A11        2.10550  -0.00049  -0.00254   0.00198  -0.00052   2.10499
   A12        2.08971   0.00052   0.00310  -0.00219   0.00095   2.09066
   A13        2.08655  -0.00001  -0.00017   0.00026   0.00011   2.08666
   A14        2.10364   0.00002   0.00020  -0.00028  -0.00010   2.10355
   A15        2.08519  -0.00007   0.00056  -0.00067  -0.00010   2.08508
   A16        2.09433   0.00005  -0.00075   0.00094   0.00020   2.09453
   A17        2.08520   0.00004  -0.00024   0.00039   0.00015   2.08534
   A18        2.10510  -0.00004   0.00028  -0.00047  -0.00019   2.10491
   A19        2.09289  -0.00001  -0.00004   0.00008   0.00004   2.09293
   A20        2.09036   0.00006  -0.00002  -0.00002  -0.00004   2.09032
   A21        2.10230  -0.00010   0.00016  -0.00031  -0.00015   2.10215
   A22        2.09053   0.00003  -0.00014   0.00033   0.00018   2.09071
   A23        2.08207   0.00010  -0.00004   0.00019   0.00015   2.08221
   A24        2.09581  -0.00011   0.00022  -0.00049  -0.00027   2.09554
   A25        2.10530   0.00001  -0.00018   0.00030   0.00012   2.10542
   A26        2.10661  -0.00006   0.00010  -0.00025  -0.00016   2.10645
   A27        2.08828   0.00006   0.00014   0.00000   0.00015   2.08843
   A28        2.08829  -0.00000  -0.00024   0.00024   0.00001   2.08830
   A29        3.14011   0.00012   0.00187  -0.00093   0.00094   3.14105
   A30        3.14277  -0.00003   0.00002  -0.00045  -0.00042   3.14235
    D1       -2.95479   0.00001   0.01601  -0.02754  -0.01154  -2.96634
    D2        1.24166  -0.00012   0.01745  -0.02892  -0.01145   1.23021
    D3       -0.83008  -0.00009   0.01642  -0.02811  -0.01170  -0.84178
    D4        1.32667   0.00009   0.00090  -0.00365  -0.00272   1.32396
    D5       -2.94867   0.00017   0.00467  -0.01061  -0.00597  -2.95464
    D6       -2.83258  -0.00018  -0.00348  -0.00095  -0.00440  -2.83697
    D7       -0.82473  -0.00011   0.00029  -0.00791  -0.00765  -0.83238
    D8       -0.75243   0.00005   0.00084  -0.00377  -0.00290  -0.75533
    D9        1.25541   0.00013   0.00461  -0.01073  -0.00615   1.24926
   D10        0.53949  -0.00032   0.06764  -0.06797  -0.00034   0.53914
   D11       -2.65956  -0.00004   0.07907  -0.06698   0.01208  -2.64747
   D12       -1.52324   0.00004   0.07151  -0.06996   0.00154  -1.52170
   D13        1.56090   0.00033   0.08294  -0.06897   0.01397   1.57487
   D14        2.62346  -0.00018   0.06796  -0.06774   0.00023   2.62369
   D15       -0.57558   0.00010   0.07940  -0.06675   0.01266  -0.56292
   D16        3.08407   0.00030   0.01032   0.00064   0.01096   3.09503
   D17       -0.06510   0.00024   0.01091  -0.00056   0.01034  -0.05476
   D18       -0.00017   0.00000  -0.00120  -0.00027  -0.00147  -0.00165
   D19        3.13384  -0.00006  -0.00061  -0.00148  -0.00209   3.13176
   D20       -3.08478  -0.00023  -0.01031   0.00027  -0.01004  -3.09482
   D21        0.06094  -0.00022  -0.01031   0.00035  -0.00995   0.05098
   D22       -0.00001   0.00003   0.00092   0.00131   0.00223   0.00222
   D23       -3.13748   0.00004   0.00092   0.00140   0.00232  -3.13516
   D24       -0.00138  -0.00001   0.00090  -0.00053   0.00037  -0.00101
   D25        3.14136  -0.00003   0.00032  -0.00050  -0.00018   3.14118
   D26       -3.13536   0.00005   0.00031   0.00068   0.00099  -3.13437
   D27        0.00738   0.00003  -0.00027   0.00071   0.00044   0.00782
   D28       -3.14124  -0.00004  -0.00062  -0.00040  -0.00102   3.14092
   D29        0.00315  -0.00001  -0.00033   0.00032  -0.00001   0.00314
   D30       -0.00079  -0.00002  -0.00004  -0.00043  -0.00047  -0.00126
   D31       -3.13959   0.00001   0.00025   0.00029   0.00054  -3.13905
   D32       -0.00332   0.00004   0.00005   0.00070   0.00075  -0.00257
   D33        3.13479   0.00001  -0.00003  -0.00016  -0.00018   3.13461
   D34        3.14107   0.00007   0.00034   0.00142   0.00176  -3.14036
   D35       -0.00401   0.00004   0.00027   0.00056   0.00083  -0.00318
   D36        0.00175  -0.00005  -0.00035  -0.00152  -0.00187  -0.00012
   D37        3.13921  -0.00007  -0.00035  -0.00160  -0.00196   3.13726
   D38       -3.13634  -0.00002  -0.00027  -0.00066  -0.00093  -3.13728
   D39        0.00112  -0.00004  -0.00028  -0.00074  -0.00102   0.00010
         Item               Value     Threshold  Converged?
 Maximum Force            0.000519     0.000450     NO 
 RMS     Force            0.000162     0.000300     YES
 Maximum Displacement     0.037917     0.001800     NO 
 RMS     Displacement     0.009020     0.001200     NO 
 Predicted change in Energy=-1.338830D-05
 Lowest energy point so far.  Saving SCF results.
 GradGradGradGradGradGradGradGradGradGradGradGradGradGradGradGradGradGrad

 Leave Link  103 at Tue Oct 21 15:09:52 2025, MaxMem=  4294967296 cpu:               0.2 elap:               0.1
 (Enter /lrz/sys/applications/gaussian/g16.C.01/x86_64_legacy/exe/l202.exe)
                          Input orientation:                          
 ---------------------------------------------------------------------
 Center     Atomic      Atomic             Coordinates (Angstroms)
 Number     Number       Type             X           Y           Z
 ---------------------------------------------------------------------
      1          8           0        3.069806    0.271823    1.169610
      2          6           0        2.496030   -0.180625   -0.035387
      3          7           0        2.975494    0.698356   -1.077936
      4          6           0        0.977170   -0.135979   -0.004617
      5          6           0        0.308905    0.831727    0.750429
      6          6           0       -1.078918    0.905799    0.733819
      7          6           0       -1.809181    0.000265   -0.049773
      8          6           0       -3.243259    0.070751   -0.070824
      9          7           0       -4.401795    0.127658   -0.088776
     10          6           0       -1.148483   -0.976084   -0.808994
     11          6           0        0.239998   -1.036118   -0.779989
     12          1           0        2.891901   -0.391660    1.848086
     13          1           0        2.793945   -1.236355   -0.195526
     14          1           0        3.942827    0.452931   -1.290403
     15          1           0        2.448069    0.517640   -1.931050
     16          1           0        0.885211    1.527512    1.362200
     17          1           0       -1.602100    1.660736    1.323254
     18          1           0       -1.723033   -1.681630   -1.411328
     19          1           0        0.760681   -1.797486   -1.366411
 ---------------------------------------------------------------------
                    Distance matrix (angstroms):
                    1          2          3          4          5
     1  O    0.000000
     2  C    1.409236   0.000000
     3  N    2.289605   1.445476   0.000000
     4  C    2.433976   1.519828   2.416905   0.000000
     5  C    2.848119   2.534931   3.235955   1.397543   0.000000
     6  C    4.219449   3.814740   4.445643   2.420348   1.389897
     7  C    5.036384   4.309033   4.943437   2.790045   2.412041
     8  C    6.436917   5.744901   6.330960   4.226007   3.724434
     9  N    7.578202   6.904917   7.465154   5.386079   4.836390
    10  C    4.823496   3.809685   4.459065   2.423056   2.797134
    11  C    3.676883   2.525071   3.252708   1.398168   2.415734
    12  H    0.965500   1.936161   3.123576   2.676579   3.061600
    13  H    2.052875   1.108586   2.134177   2.132591   3.368563
    14  H    2.616606   2.017345   1.020348   3.285603   4.184958
    15  H    3.171920   2.020745   1.019136   2.510360   3.444561
    16  H    2.527113   2.732346   3.318289   2.154958   1.091105
    17  H    4.876412   4.693738   5.257971   3.412339   2.160399
    18  H    5.783470   4.684732   5.277464   3.414523   3.888306
    19  H    4.005684   2.719798   3.349304   2.159156   3.405565
                    6          7          8          9         10
     6  C    0.000000
     7  C    1.402603   0.000000
     8  C    2.455429   1.435963   0.000000
     9  N    3.510510   2.596035   1.160072   0.000000
    10  C    2.434460   1.402211   2.455371   3.510128   0.000000
    11  C    2.793241   2.409655   3.723057   4.835120   1.390081
    12  H    4.323469   5.084845   6.444860   7.564332   4.870968
    13  H    4.522341   4.768568   6.178342   7.324657   3.998352
    14  H    5.433276   5.901667   7.298854   8.436968   5.309923
    15  H    4.437547   4.683061   6.004279   7.103991   4.052827
    16  H    2.153878   3.403807   4.606515   5.658388   3.888186
    17  H    1.091368   2.164544   2.676735   3.490337   3.421267
    18  H    3.422181   2.165646   2.679343   3.492625   1.091195
    19  H    3.886237   3.401417   4.604389   5.655943   2.151819
                   11         12         13         14         15
    11  C    0.000000
    12  H    3.788759   0.000000
    13  H    2.627611   2.213471   0.000000
    14  H    4.023523   3.415830   2.317837   0.000000
    15  H    2.935078   3.912248   2.491620   1.627550   0.000000
    16  H    3.402569   2.818884   3.702531   4.188083   3.782573
    17  H    3.884582   4.968281   5.479511   6.247896   5.319871
    18  H    2.160732   5.795292   4.698886   6.055819   4.743942
    19  H    1.093016   4.105050   2.412468   3.898231   2.919915
                   16         17         18         19
    16  H    0.000000
    17  H    2.491181   0.000000
    18  H    4.979356   4.320182   0.000000
    19  H    4.303073   4.977583   2.486820   0.000000
 Stoichiometry    C8H8N2O
 Framework group  C1[X(C8H8N2O)]
 Deg. of freedom    51
 Full point group                 C1      NOp   1
 RotChk:  IX=2 Diff= 4.16D-03
 Largest Abelian subgroup         C1      NOp   1
 Largest concise Abelian subgroup C1      NOp   1
                         Standard orientation:                         
 ---------------------------------------------------------------------
 Center     Atomic      Atomic             Coordinates (Angstroms)
 Number     Number       Type             X           Y           Z
 ---------------------------------------------------------------------
      1          8           0       -3.027316   -0.983261    0.591527
      2          6           0       -2.418219    0.227032    0.204048
      3          7           0       -2.903202    0.528033   -1.123955
      4          6           0       -0.902124    0.126018    0.170456
      5          6           0       -0.276341   -1.084673   -0.138976
      6          6           0        1.108834   -1.162015   -0.223373
      7          6           0        1.879492   -0.012298    0.003628
      8          6           0        3.311082   -0.085440   -0.081180
      9          7           0        4.467626   -0.143759   -0.150245
     10          6           0        1.261599    1.206738    0.317245
     11          6           0       -0.124871    1.265714    0.398154
     12          1           0       -2.843100   -1.118792    1.529549
     13          1           0       -2.682492    1.009617    0.943429
     14          1           0       -3.858895    0.877587   -1.049311
     15          1           0       -2.354871    1.295478   -1.509960
     16          1           0       -0.883858   -1.975236   -0.307292
     17          1           0        1.598866   -2.106889   -0.464546
     18          1           0        1.867465    2.095879    0.499076
     19          1           0       -0.612277    2.212064    0.646227
 ---------------------------------------------------------------------
 Rotational constants (GHZ):           3.4580694           0.5543145           0.5127440
 Leave Link  202 at Tue Oct 21 15:09:52 2025, MaxMem=  4294967296 cpu:               0.0 elap:               0.0
 (Enter /lrz/sys/applications/gaussian/g16.C.01/x86_64_legacy/exe/l301.exe)
 Standard basis: def2SVP (5D, 7F)
 Ernie: Thresh=  0.10000D-02 Tol=  0.10000D-05 Strict=F.
 There are   205 symmetry adapted cartesian basis functions of A   symmetry.
 There are   194 symmetry adapted basis functions of A   symmetry.
   194 basis functions,   331 primitive gaussians,   205 cartesian basis functions
    39 alpha electrons       39 beta electrons
       nuclear repulsion energy       545.3498096194 Hartrees.
 IExCor= 4639 DFT=T Ex+Corr=wB97XD ExCW=0 ScaHFX=  1.000000
 ScaDFX=  1.000000  1.000000  1.000000  1.000000 ScalE2=  1.000000  1.000000
 IRadAn=      5 IRanWt=     -1 IRanGd=            0 ICorTp=0 IEmpDi=121
 HFx  wShort=  0.000000 wLong=  0.200000 cFull=  0.222036 cShort=  0.000000 cLong=  0.777964
 DFx  wShort=  0.000000 wLong=  0.200000 cFull=  0.000000 cShort=  0.000000 cLong=  1.000000
 NAtoms=   19 NActive=   19 NUniq=   19 SFac= 1.00D+00 NAtFMM=   60 NAOKFM=F Big=F
 Integral buffers will be    131072 words long.
 Raffenetti 2 integral format.
 Two-electron integral symmetry is turned on.
 R6Disp:  Grimme-D2 Dispersion energy=       -0.0103305269 Hartrees.
 Nuclear repulsion after empirical dispersion term =      545.3394790926 Hartrees.
 ------------------------------------------------------------------------------
 Polarizable Continuum Model (PCM)
 =================================
 Model                : PCM.
 Atomic radii         : SMD-Coulomb.
 Polarization charges : Total charges.
 Charge compensation  : None.
 Solution method      : On-the-fly selection.
 Cavity type          : VdW (van der Waals Surface) (Alpha=1.000).
 Cavity algorithm     : GePol (No added spheres)
                        Default sphere list used, NSphG=   19.
                        Lebedev-Laikov grids with approx.  5.0 points / Ang**2.
                        Smoothing algorithm: York/Karplus (Gamma=1.0000).
                        Polarization charges: spherical gaussians, with
                                              point-specific exponents (IZeta= 3).
                        Self-potential: point-specific (ISelfS= 7).
                        Self-field    : sphere-specific E.n sum rule (ISelfD= 2).
 1st derivatives      : Analytical E(r).r(x)/FMM algorithm (CHGder, D1EAlg=3).
                        Cavity 1st derivative terms included.
 Solvent              : Water, Eps=  78.355300 Eps(inf)=   1.777849
 ------------------------------------------------------------------------------
 Spheres list:
 ISph  on   Nord     Re0    Alpha      Xe            Ye            Ze
    1   O      1    1.5200  1.000     -3.027316     -0.983261      0.591527
    2   C      2    1.8500  1.000     -2.418219      0.227032      0.204048
    3   N      3    1.8900  1.000     -2.903202      0.528033     -1.123955
    4   C      4    1.8500  1.000     -0.902124      0.126018      0.170456
    5   C      5    1.8500  1.000     -0.276341     -1.084673     -0.138976
    6   C      6    1.8500  1.000      1.108834     -1.162015     -0.223373
    7   C      7    1.8500  1.000      1.879492     -0.012298      0.003628
    8   C      8    1.8500  1.000      3.311082     -0.085440     -0.081180
    9   N      9    1.8900  1.000      4.467626     -0.143759     -0.150245
   10   C     10    1.8500  1.000      1.261599      1.206738      0.317245
   11   C     11    1.8500  1.000     -0.124871      1.265714      0.398154
   12   H     12    1.2000  1.000     -2.843100     -1.118792      1.529549
   13   H     13    1.2000  1.000     -2.682492      1.009617      0.943429
   14   H     14    1.2000  1.000     -3.858895      0.877587     -1.049311
   15   H     15    1.2000  1.000     -2.354871      1.295478     -1.509960
   16   H     16    1.2000  1.000     -0.883858     -1.975236     -0.307292
   17   H     17    1.2000  1.000      1.598866     -2.106889     -0.464546
   18   H     18    1.2000  1.000      1.867465      2.095879      0.499076
   19   H     19    1.2000  1.000     -0.612277      2.212064      0.646227
 ------------------------------------------------------------------------------
 GePol: Number of generator spheres                  =      19
 GePol: Total number of spheres                      =      19
 GePol: Number of exposed spheres                    =      19 (100.00%)
 GePol: Number of points                             =    1635
 GePol: Average weight of points                     =       0.12
 GePol: Minimum weight of points                     =   0.20D-07
 GePol: Maximum weight of points                     =    0.21991
 GePol: Number of points with low weight             =      90
 GePol: Fraction of low-weight points (<1% of avg)   =       5.50%
 GePol: Cavity surface area                          =    188.209 Ang**2
 GePol: Cavity volume                                =    161.896 Ang**3
 ------------------------------------------------------------------------------
 Atomic radii for non-electrostatic terms: SMD-CDS.
 ------------------------------------------------------------------------------
 PCM non-electrostatic energy =         0.0070168594 Hartrees.
 Nuclear repulsion after PCM non-electrostatic terms =      545.3464959519 Hartrees.
 Leave Link  301 at Tue Oct 21 15:09:52 2025, MaxMem=  4294967296 cpu:               0.6 elap:               0.1
 (Enter /lrz/sys/applications/gaussian/g16.C.01/x86_64_legacy/exe/l302.exe)
 NPDir=0 NMtPBC=     1 NCelOv=     1 NCel=       1 NClECP=     1 NCelD=      1
         NCelK=      1 NCelE2=     1 NClLst=     1 CellRange=     0.0.
 One-electron integrals computed using PRISM.
 One-electron integral symmetry used in STVInt
   1 Symmetry operations used in ECPInt.
 ECPInt:  NShTT=    4095 NPrTT=   15045 LenC2=    3950 LenP2D=   11135.
 LDataN:  DoStor=T MaxTD1= 4 Len=   56
 NBasis=   194 RedAO= T EigKep=  2.77D-04  NBF=   194
 NBsUse=   194 1.00D-06 EigRej= -1.00D+00 NBFU=   194
 Precomputing XC quadrature grid using
 IXCGrd= 4 IRadAn=           5 IRanWt=          -1 IRanGd=           0 AccXCQ= 0.00D+00.
 Generated NRdTot=       0 NPtTot=           0 NUsed=           0 NTot=          32
 NSgBfM=   204   204   204   204   204 MxSgAt=    19 MxSgA2=    19.
 Leave Link  302 at Tue Oct 21 15:09:52 2025, MaxMem=  4294967296 cpu:               2.0 elap:               0.3
 (Enter /lrz/sys/applications/gaussian/g16.C.01/x86_64_legacy/exe/l303.exe)
 DipDrv:  MaxL=1.
 Leave Link  303 at Tue Oct 21 15:09:52 2025, MaxMem=  4294967296 cpu:               0.3 elap:               0.1
 (Enter /lrz/sys/applications/gaussian/g16.C.01/x86_64_legacy/exe/l401.exe)
 Initial guess from the checkpoint file:  "g16_C12-a_10.chk"
 B after Tr=     0.000000   -0.000000   -0.000000
         Rot=    0.999999    0.001497   -0.000458   -0.000280 Ang=   0.18 deg.
 Guess basis will be translated and rotated to current coordinates.
 JPrj=2 DoOrth=T DoCkMO=T.
 Generating alternative initial guess.
 ExpMin= 1.22D-01 ExpMax= 2.27D+03 ExpMxC= 3.41D+02 IAcc=3 IRadAn=         5 AccDes= 0.00D+00
 Harris functional with IExCor= 4639 and IRadAn=       5 diagonalized for initial guess.
 HarFok:  IExCor= 4639 AccDes= 0.00D+00 IRadAn=         5 IDoV= 1 UseB2=F ITyADJ=14
 ICtDFT=  3500011 ScaDFX=  1.000000  1.000000  1.000000  1.000000
 FoFCou: FMM=F IPFlag=           0 FMFlag=      100000 FMFlg1=           0
         NFxFlg=           0 DoJE=T BraDBF=F KetDBF=T FulRan=T
         wScrn=  0.000000 ICntrl=       500 IOpCl=  0 I1Cent=   200000004 NGrid=           0
         NMat0=    1 NMatS0=      1 NMatT0=    0 NMatD0=    1 NMtDS0=    0 NMtDT0=    0
 Petite list used in FoFCou.
 Harris En= -472.807522547902    
 Leave Link  401 at Tue Oct 21 15:09:54 2025, MaxMem=  4294967296 cpu:              13.4 elap:               1.7
 (Enter /lrz/sys/applications/gaussian/g16.C.01/x86_64_legacy/exe/l502.exe)
 Integral symmetry usage will be decided dynamically.
 Closed shell SCF:
 Using DIIS extrapolation, IDIIS=  1040.
 NGot=  4294967296 LenX=  4294878900 LenY=  4294836434
 Requested convergence on RMS density matrix=1.00D-08 within 128 cycles.
 Requested convergence on MAX density matrix=1.00D-06.
 Requested convergence on             energy=1.00D-06.
 No special actions if energy rises.
 Fock matrices will be formed incrementally for  20 cycles.

 Cycle   1  Pass 1  IDiag  1:
 FoFJK:  IHMeth= 1 ICntrl=       0 DoSepK=T KAlg= 0 I1Cent=           0 FoldK=F
 IRaf=         1 NMat=       1 IRICut=       1 DoRegI=T DoRafI=F ISym2E= 0 IDoP0=0 IntGTp=1.
 FoFCou: FMM=F IPFlag=           0 FMFlag=      100000 FMFlg1=           0
         NFxFlg=           0 DoJE=T BraDBF=F KetDBF=F FulRan=T
         wScrn=  0.000000 ICntrl=       500 IOpCl=  0 I1Cent=           0 NGrid=           0
         NMat0=    1 NMatS0=      1 NMatT0=    0 NMatD0=    1 NMtDS0=    0 NMtDT0=    0
 Symmetry not used in FoFCou.
 Inv3:  Mode=1 IEnd=     8019675.
 Iteration    1 A*A^-1 deviation from unit magnitude is 6.22D-15 for   1100.
 Iteration    1 A*A^-1 deviation from orthogonality  is 3.92D-15 for   1407     78.
 Iteration    1 A^-1*A deviation from unit magnitude is 6.33D-15 for    140.
 Iteration    1 A^-1*A deviation from orthogonality  is 3.34D-15 for    715    183.
 E= -493.863966324680    
 DIIS: error= 6.73D-04 at cycle   1 NSaved=   1.
 NSaved= 1 IEnMin= 1 EnMin= -493.863966324680     IErMin= 1 ErrMin= 6.73D-04
 ErrMax= 6.73D-04  0.00D+00 EMaxC= 1.00D-01 BMatC= 1.09D-04 BMatP= 1.09D-04
 IDIUse=3 WtCom= 9.93D-01 WtEn= 6.73D-03
 Coeff-Com:  0.100D+01
 Coeff-En:   0.100D+01
 Coeff:      0.100D+01
 Gap=     0.780 Goal=   None    Shift=    0.000
 RMSDP=8.70D-05 MaxDP=3.52D-03              OVMax= 2.13D-03

 Cycle   2  Pass 1  IDiag  1:
 RMSU=  8.70D-05    CP:  1.00D+00
 E= -493.864109801534     Delta-E=       -0.000143476854 Rises=F Damp=F
 DIIS: error= 1.22D-04 at cycle   2 NSaved=   2.
 NSaved= 2 IEnMin= 2 EnMin= -493.864109801534     IErMin= 2 ErrMin= 1.22D-04
 ErrMax= 1.22D-04  0.00D+00 EMaxC= 1.00D-01 BMatC= 3.23D-06 BMatP= 1.09D-04
 IDIUse=3 WtCom= 9.99D-01 WtEn= 1.22D-03
 Coeff-Com: -0.150D+00 0.115D+01
 Coeff-En:   0.000D+00 0.100D+01
 Coeff:     -0.150D+00 0.115D+01
 Gap=     0.340 Goal=   None    Shift=    0.000
 RMSDP=2.05D-05 MaxDP=7.26D-04 DE=-1.43D-04 OVMax= 7.15D-04

 Cycle   3  Pass 1  IDiag  1:
 RMSU=  1.21D-05    CP:  1.00D+00  1.19D+00
 E= -493.864117841392     Delta-E=       -0.000008039857 Rises=F Damp=F
 DIIS: error= 2.61D-05 at cycle   3 NSaved=   3.
 NSaved= 3 IEnMin= 3 EnMin= -493.864117841392     IErMin= 3 ErrMin= 2.61D-05
 ErrMax= 2.61D-05  0.00D+00 EMaxC= 1.00D-01 BMatC= 1.23D-07 BMatP= 3.23D-06
 IDIUse=1 WtCom= 1.00D+00 WtEn= 0.00D+00
 Coeff-Com: -0.117D-02-0.872D-01 0.109D+01
 Coeff:     -0.117D-02-0.872D-01 0.109D+01
 Gap=     0.340 Goal=   None    Shift=    0.000
 RMSDP=4.83D-06 MaxDP=9.18D-05 DE=-8.04D-06 OVMax= 1.68D-04

 Cycle   4  Pass 1  IDiag  1:
 RMSU=  2.92D-06    CP:  1.00D+00  1.21D+00  1.28D+00
 E= -493.864118126881     Delta-E=       -0.000000285489 Rises=F Damp=F
 DIIS: error= 1.41D-05 at cycle   4 NSaved=   4.
 NSaved= 4 IEnMin= 4 EnMin= -493.864118126881     IErMin= 4 ErrMin= 1.41D-05
 ErrMax= 1.41D-05  0.00D+00 EMaxC= 1.00D-01 BMatC= 5.72D-08 BMatP= 1.23D-07
 IDIUse=1 WtCom= 1.00D+00 WtEn= 0.00D+00
 Coeff-Com:  0.958D-02-0.117D+00 0.477D+00 0.630D+00
 Coeff:      0.958D-02-0.117D+00 0.477D+00 0.630D+00
 Gap=     0.340 Goal=   None    Shift=    0.000
 RMSDP=1.49D-06 MaxDP=5.51D-05 DE=-2.85D-07 OVMax= 5.48D-05

 Cycle   5  Pass 1  IDiag  1:
 RMSU=  9.20D-07    CP:  1.00D+00  1.21D+00  1.36D+00  7.78D-01
 E= -493.864118187102     Delta-E=       -0.000000060221 Rises=F Damp=F
 DIIS: error= 3.94D-06 at cycle   5 NSaved=   5.
 NSaved= 5 IEnMin= 5 EnMin= -493.864118187102     IErMin= 5 ErrMin= 3.94D-06
 ErrMax= 3.94D-06  0.00D+00 EMaxC= 1.00D-01 BMatC= 3.62D-09 BMatP= 5.72D-08
 IDIUse=1 WtCom= 1.00D+00 WtEn= 0.00D+00
 Coeff-Com:  0.275D-02-0.236D-01 0.202D-01 0.175D+00 0.825D+00
 Coeff:      0.275D-02-0.236D-01 0.202D-01 0.175D+00 0.825D+00
 Gap=     0.340 Goal=   None    Shift=    0.000
 RMSDP=5.31D-07 MaxDP=1.65D-05 DE=-6.02D-08 OVMax= 2.04D-05

 Cycle   6  Pass 1  IDiag  1:
 RMSU=  3.53D-07    CP:  1.00D+00  1.21D+00  1.38D+00  8.69D-01  1.08D+00
 E= -493.864118191499     Delta-E=       -0.000000004396 Rises=F Damp=F
 DIIS: error= 3.20D-06 at cycle   6 NSaved=   6.
 NSaved= 6 IEnMin= 6 EnMin= -493.864118191499     IErMin= 6 ErrMin= 3.20D-06
 ErrMax= 3.20D-06  0.00D+00 EMaxC= 1.00D-01 BMatC= 1.52D-09 BMatP= 3.62D-09
 IDIUse=1 WtCom= 1.00D+00 WtEn= 0.00D+00
 Coeff-Com: -0.141D-03 0.723D-02-0.717D-01-0.112D-01 0.456D+00 0.620D+00
 Coeff:     -0.141D-03 0.723D-02-0.717D-01-0.112D-01 0.456D+00 0.620D+00
 Gap=     0.340 Goal=   None    Shift=    0.000
 RMSDP=2.25D-07 MaxDP=7.96D-06 DE=-4.40D-09 OVMax= 9.72D-06

 Cycle   7  Pass 1  IDiag  1:
 RMSU=  1.26D-07    CP:  1.00D+00  1.21D+00  1.39D+00  9.00D-01  1.21D+00
                    CP:  7.87D-01
 E= -493.864118193077     Delta-E=       -0.000000001578 Rises=F Damp=F
 DIIS: error= 5.08D-07 at cycle   7 NSaved=   7.
 NSaved= 7 IEnMin= 7 EnMin= -493.864118193077     IErMin= 7 ErrMin= 5.08D-07
 ErrMax= 5.08D-07  0.00D+00 EMaxC= 1.00D-01 BMatC= 6.49D-11 BMatP= 1.52D-09
 IDIUse=1 WtCom= 1.00D+00 WtEn= 0.00D+00
 Coeff-Com: -0.354D-03 0.506D-02-0.257D-01-0.237D-01 0.535D-01 0.200D+00
 Coeff-Com:  0.792D+00
 Coeff:     -0.354D-03 0.506D-02-0.257D-01-0.237D-01 0.535D-01 0.200D+00
 Coeff:      0.792D+00
 Gap=     0.340 Goal=   None    Shift=    0.000
 RMSDP=7.04D-08 MaxDP=1.74D-06 DE=-1.58D-09 OVMax= 2.68D-06

 Cycle   8  Pass 1  IDiag  1:
 RMSU=  4.73D-08    CP:  1.00D+00  1.21D+00  1.39D+00  9.07D-01  1.25D+00
                    CP:  8.75D-01  1.07D+00
 E= -493.864118193167     Delta-E=       -0.000000000091 Rises=F Damp=F
 DIIS: error= 1.58D-07 at cycle   8 NSaved=   8.
 NSaved= 8 IEnMin= 8 EnMin= -493.864118193167     IErMin= 8 ErrMin= 1.58D-07
 ErrMax= 1.58D-07  0.00D+00 EMaxC= 1.00D-01 BMatC= 8.20D-12 BMatP= 6.49D-11
 IDIUse=1 WtCom= 1.00D+00 WtEn= 0.00D+00
 Coeff-Com: -0.114D-03 0.109D-02-0.188D-02-0.776D-02-0.291D-01 0.892D-02
 Coeff-Com:  0.296D+00 0.733D+00
 Coeff:     -0.114D-03 0.109D-02-0.188D-02-0.776D-02-0.291D-01 0.892D-02
 Coeff:      0.296D+00 0.733D+00
 Gap=     0.340 Goal=   None    Shift=    0.000
 RMSDP=2.62D-08 MaxDP=5.57D-07 DE=-9.07D-11 OVMax= 1.17D-06

 Cycle   9  Pass 1  IDiag  1:
 RMSU=  1.48D-08    CP:  1.00D+00  1.21D+00  1.39D+00  9.08D-01  1.26D+00
                    CP:  9.05D-01  1.20D+00  1.00D+00
 E= -493.864118193173     Delta-E=       -0.000000000006 Rises=F Damp=F
 DIIS: error= 5.47D-08 at cycle   9 NSaved=   9.
 NSaved= 9 IEnMin= 9 EnMin= -493.864118193173     IErMin= 9 ErrMin= 5.47D-08
 ErrMax= 5.47D-08  0.00D+00 EMaxC= 1.00D-01 BMatC= 5.04D-13 BMatP= 8.20D-12
 IDIUse=1 WtCom= 1.00D+00 WtEn= 0.00D+00
 Coeff-Com:  0.179D-04-0.357D-03 0.256D-02 0.108D-02-0.122D-01-0.201D-01
 Coeff-Com: -0.220D-01 0.150D+00 0.901D+00
 Coeff:      0.179D-04-0.357D-03 0.256D-02 0.108D-02-0.122D-01-0.201D-01
 Coeff:     -0.220D-01 0.150D+00 0.901D+00
 Gap=     0.340 Goal=   None    Shift=    0.000
 RMSDP=1.01D-08 MaxDP=1.85D-07 DE=-5.91D-12 OVMax= 5.87D-07

 Cycle  10  Pass 1  IDiag  1:
 RMSU=  5.11D-09    CP:  1.00D+00  1.21D+00  1.39D+00  9.09D-01  1.26D+00
                    CP:  9.12D-01  1.25D+00  1.12D+00  1.11D+00
 E= -493.864118193186     Delta-E=       -0.000000000013 Rises=F Damp=F
 DIIS: error= 2.46D-08 at cycle  10 NSaved=  10.
 NSaved=10 IEnMin=10 EnMin= -493.864118193186     IErMin=10 ErrMin= 2.46D-08
 ErrMax= 2.46D-08  0.00D+00 EMaxC= 1.00D-01 BMatC= 1.11D-13 BMatP= 5.04D-13
 IDIUse=1 WtCom= 1.00D+00 WtEn= 0.00D+00
 Coeff-Com:  0.191D-04-0.259D-03 0.125D-02 0.121D-02-0.204D-02-0.892D-02
 Coeff-Com: -0.381D-01-0.166D-01 0.343D+00 0.721D+00
 Coeff:      0.191D-04-0.259D-03 0.125D-02 0.121D-02-0.204D-02-0.892D-02
 Coeff:     -0.381D-01-0.166D-01 0.343D+00 0.721D+00
 Gap=     0.340 Goal=   None    Shift=    0.000
 RMSDP=3.46D-09 MaxDP=6.26D-08 DE=-1.32D-11 OVMax= 2.55D-07

 Error on total polarization charges =  0.02902
 SCF Done:  E(RwB97XD) =  -493.864118193     A.U. after   10 cycles
            NFock= 10  Conv=0.35D-08     -V/T= 2.0101
 KE= 4.889109484453D+02 PE=-2.238686504163D+03 EE= 7.105649415725D+02
 SMD-CDS (non-electrostatic) energy       (kcal/mol) =       4.40
 (included in total energy above)
 Leave Link  502 at Tue Oct 21 15:10:33 2025, MaxMem=  4294967296 cpu:             310.8 elap:              39.1
 (Enter /lrz/sys/applications/gaussian/g16.C.01/x86_64_legacy/exe/l701.exe)
 ... and contract with generalized density number  0.
 Compute integral first derivatives.
 R6Disp: Adding Grimme-D2 dispersion energy 1st derivatives to the gradient.
   1 Symmetry operations used in ECPInt.
 ECPInt:  NShTT=    4095 NPrTT=   15045 LenC2=    3950 LenP2D=   11135.
 LDataN:  DoStor=T MaxTD1= 5 Len=  102
 D1PCM: PCM CHGder 1st derivatives, ID1Alg=3 FixD1E=F DoIter=F DoCFld=F I1PDM=0.
 GePol: Maximum number of non-zero 1st derivatives   =     262
 Leave Link  701 at Tue Oct 21 15:10:35 2025, MaxMem=  4294967296 cpu:              10.0 elap:               1.3
 (Enter /lrz/sys/applications/gaussian/g16.C.01/x86_64_legacy/exe/l702.exe)
 L702 exits ... SP integral derivatives will be done elsewhere.
 Leave Link  702 at Tue Oct 21 15:10:35 2025, MaxMem=  4294967296 cpu:               0.2 elap:               0.0
 (Enter /lrz/sys/applications/gaussian/g16.C.01/x86_64_legacy/exe/l703.exe)
 Integral derivatives from FoFJK, PRISM(SPDF).
 Compute integral first derivatives, UseDBF=F ICtDFT=           0.
 Calling FoFJK, ICntrl=      2127 FMM=F ISym2X=0 I1Cent= 0 IOpClX= 0 NMat=1 NMatS=1 NMatT=0.
 FoFJK:  IHMeth= 1 ICntrl=    2127 DoSepK=T KAlg= 0 I1Cent=           0 FoldK=F
 IRaf=         1 NMat=       1 IRICut=       1 DoRegI=T DoRafI=F ISym2E= 0 IDoP0=0 IntGTp=1.
 FoFCou: FMM=F IPFlag=           0 FMFlag=      100000 FMFlg1=         800
         NFxFlg=           0 DoJE=F BraDBF=F KetDBF=F FulRan=T
         wScrn=  0.000000 ICntrl=      2527 IOpCl=  0 I1Cent=           0 NGrid=           0
         NMat0=    1 NMatS0=      1 NMatT0=    0 NMatD0=    1 NMtDS0=    0 NMtDT0=    0
 Symmetry not used in FoFCou.
 Leave Link  703 at Tue Oct 21 15:10:43 2025, MaxMem=  4294967296 cpu:              66.4 elap:               8.3
 (Enter /lrz/sys/applications/gaussian/g16.C.01/x86_64_legacy/exe/l716.exe)
 Dipole        =-2.09635692D+00 1.22082148D+00 9.35940684D-01
 ***** Axes restored to original set *****
 -------------------------------------------------------------------
 Center     Atomic                   Forces (Hartrees/Bohr)
 Number     Number              X              Y              Z
 -------------------------------------------------------------------
      1        8          -0.000025740    0.000059323    0.000042027
      2        6          -0.000085937   -0.000071803    0.000183310
      3        7           0.000114255   -0.000351580    0.000025598
      4        6           0.000060938   -0.000193215   -0.000334556
      5        6           0.000060637    0.000070662    0.000086765
      6        6           0.000016254   -0.000047071   -0.000017763
      7        6          -0.000271784    0.000085170    0.000078497
      8        6           0.000052040   -0.000064817   -0.000013005
      9        7           0.000069708    0.000009131    0.000008478
     10        6           0.000212655   -0.000017525    0.000007440
     11        6          -0.000159656   -0.000029127    0.000037917
     12        1          -0.000025499    0.000120628   -0.000113034
     13        1           0.000016059    0.000058922   -0.000037187
     14        1          -0.000025229    0.000093086    0.000013070
     15        1           0.000030766    0.000205999    0.000101219
     16        1          -0.000001328   -0.000013221   -0.000024402
     17        1           0.000010161   -0.000011873   -0.000003266
     18        1          -0.000025109    0.000055831   -0.000020747
     19        1          -0.000023193    0.000041479   -0.000020360
 -------------------------------------------------------------------
 Cartesian Forces:  Max     0.000351580 RMS     0.000105812
 Leave Link  716 at Tue Oct 21 15:10:43 2025, MaxMem=  4294967296 cpu:               0.2 elap:               0.0
 (Enter /lrz/sys/applications/gaussian/g16.C.01/x86_64_legacy/exe/l103.exe)

 GradGradGradGradGradGradGradGradGradGradGradGradGradGradGradGradGradGrad
 Berny optimization.
 Using GEDIIS/GDIIS optimizer.
 FormGI is forming the generalized inverse of G from B-inverse, IUseBI=4.
 Internal  Forces:  Max     0.000398338 RMS     0.000089556
 Search for a local minimum.
 Step number  13 out of a maximum of   98
 All quantities printed in internal units (Hartrees-Bohrs-Radians)
 RMS Force = .89556D-04 SwitMx=.10000D-02 MixMth= 2
 Mixed Optimization -- En-DIIS/RFO-DIIS
 Swapping is turned off.
 Update second derivatives using D2CorX and points    9   10   11   12   13
 DE= -1.53D-05 DEPred=-1.34D-05 R= 1.14D+00
 TightC=F SS=  1.41D+00  RLast= 3.94D-02 DXNew= 1.9915D+00 1.1814D-01
 Trust test= 1.14D+00 RLast= 3.94D-02 DXMaxT set to 1.18D+00
 ITU=  1  1  1  1  0  1  1  1  1  1  1  1  0
     Eigenvalues ---    0.00095   0.00305   0.01072   0.01874   0.02080
     Eigenvalues ---    0.02153   0.02227   0.02237   0.02262   0.02294
     Eigenvalues ---    0.02316   0.02332   0.03775   0.05030   0.05098
     Eigenvalues ---    0.06516   0.08717   0.08892   0.15881   0.15987
     Eigenvalues ---    0.16000   0.16010   0.16360   0.16709   0.16962
     Eigenvalues ---    0.19941   0.21893   0.22031   0.22958   0.24369
     Eigenvalues ---    0.25003   0.28037   0.31888   0.32217   0.35912
     Eigenvalues ---    0.35992   0.36188   0.37001   0.41924   0.42778
     Eigenvalues ---    0.43440   0.44459   0.45387   0.45557   0.46038
     Eigenvalues ---    0.46924   0.47549   0.48148   0.51485   0.55277
     Eigenvalues ---    1.41472
 En-DIIS/RFO-DIIS/Sim-DIIS IScMMF=       -3 using points:    13   12   11   10    9    8    7    6    5
 RFO step:  Lambda=-6.49052079D-06.
 NNeg= 0 NGDIIS= 9 SimSw=  2.50D-01 Rises=F DC= -1.53D-05 SmlDif=  1.00D-05
 NRisDI= 0 DoIntr=F SqrtH=F CThrHd= 10.0 CDAdj=  3.0
 RMS Error=  0.2435190254D-02 NUsed= 9 OKEnD=T EnDIS=F
 InvSVX:  RCond= 3.16D-07 Info=           0 Equed=N FErr=  2.13D-10 BErr=  6.64D-17
 DIIS inversion failure, remove point   9.
 InvSVX:  RCond= 3.90D-07 Info=           0 Equed=N FErr=  1.74D-10 BErr=  8.72D-17
 DIIS inversion failure, remove point   8.
 InvSVX:  RCond= 5.16D-07 Info=           0 Equed=N FErr=  1.39D-10 BErr=  4.59D-17
 DIIS inversion failure, remove point   7.
 InvSVX:  RCond= 2.31D-06 Info=           0 Equed=N FErr=  4.82D-12 BErr=  8.09D-17
 RFO-DIIS uses    6 points instead of    9
 DidBck=F Rises=F RFO-DIIS coefs:    1.45545   -0.33587   -0.00476   -0.41102    0.36231
                  RFO-DIIS coefs:   -0.06610    0.00000    0.00000    0.00000
 Iteration  1 RMS(Cart)=  0.00565042 RMS(Int)=  0.00001794
 Iteration  2 RMS(Cart)=  0.00001840 RMS(Int)=  0.00001453
 Iteration  3 RMS(Cart)=  0.00000000 RMS(Int)=  0.00001453
 ITry= 1 IFail=0 DXMaxC= 2.04D-02 DCOld= 1.00D+10 DXMaxT= 1.18D+00 DXLimC= 3.00D+00 Rises=F
 Variable       Old X    -DE/DX   Delta X   Delta X   Delta X     New X
                                 (Linear)    (Quad)   (Total)
    R1        2.66307  -0.00002  -0.00003  -0.00014  -0.00017   2.66290
    R2        1.82453  -0.00017  -0.00016  -0.00018  -0.00034   1.82419
    R3        2.73155  -0.00009   0.00058  -0.00057   0.00001   2.73157
    R4        2.87206  -0.00001  -0.00007   0.00004  -0.00002   2.87204
    R5        2.09492  -0.00005   0.00011  -0.00028  -0.00016   2.09476
    R6        1.92818  -0.00005  -0.00017  -0.00001  -0.00018   1.92800
    R7        1.92589  -0.00013  -0.00034   0.00001  -0.00033   1.92555
    R8        2.64097   0.00005  -0.00030   0.00036   0.00006   2.64103
    R9        2.64216   0.00001   0.00031  -0.00024   0.00007   2.64222
   R10        2.62652  -0.00000   0.00004  -0.00001   0.00003   2.62656
   R11        2.06189  -0.00002  -0.00002  -0.00012  -0.00014   2.06175
   R12        2.65053  -0.00004  -0.00016  -0.00004  -0.00021   2.65033
   R13        2.06239  -0.00001  -0.00007   0.00002  -0.00006   2.06233
   R14        2.71358  -0.00012  -0.00051   0.00002  -0.00049   2.71308
   R15        2.64979   0.00007   0.00035  -0.00008   0.00027   2.65006
   R16        2.19222  -0.00007  -0.00016   0.00006  -0.00010   2.19212
   R17        2.62687  -0.00006  -0.00028  -0.00004  -0.00032   2.62655
   R18        2.06206  -0.00001  -0.00006  -0.00000  -0.00006   2.06200
   R19        2.06550  -0.00003  -0.00013   0.00000  -0.00013   2.06537
    A1        1.88097  -0.00003   0.00085  -0.00141  -0.00056   1.88041
    A2        1.86130  -0.00021  -0.00174   0.00096  -0.00078   1.86052
    A3        1.96076  -0.00009  -0.00003  -0.00062  -0.00065   1.96011
    A4        1.89637   0.00013   0.00099  -0.00037   0.00062   1.89699
    A5        1.90522   0.00022  -0.00004   0.00086   0.00083   1.90605
    A6        1.96684  -0.00003   0.00051  -0.00062  -0.00011   1.96673
    A7        1.87493  -0.00003   0.00031  -0.00024   0.00007   1.87500
    A8        1.89482   0.00011  -0.00010   0.00137   0.00131   1.89613
    A9        1.90103   0.00020   0.00085   0.00143   0.00232   1.90335
   A10        1.84801  -0.00002  -0.00007   0.00120   0.00122   1.84923
   A11        2.10499  -0.00036  -0.00110  -0.00043  -0.00156   2.10343
   A12        2.09066   0.00040   0.00118   0.00065   0.00180   2.09247
   A13        2.08666  -0.00003   0.00016  -0.00027  -0.00012   2.08655
   A14        2.10355   0.00004  -0.00011   0.00027   0.00017   2.10371
   A15        2.08508  -0.00003  -0.00032   0.00008  -0.00024   2.08485
   A16        2.09453  -0.00000   0.00041  -0.00035   0.00006   2.09459
   A17        2.08534   0.00001   0.00022  -0.00014   0.00009   2.08543
   A18        2.10491  -0.00001  -0.00015   0.00005  -0.00010   2.10481
   A19        2.09293   0.00000  -0.00008   0.00009   0.00001   2.09294
   A20        2.09032   0.00006   0.00011   0.00020   0.00032   2.09063
   A21        2.10215  -0.00007  -0.00029  -0.00014  -0.00043   2.10172
   A22        2.09071   0.00001   0.00018  -0.00007   0.00012   2.09083
   A23        2.08221   0.00009   0.00024   0.00029   0.00053   2.08274
   A24        2.09554  -0.00009  -0.00040  -0.00024  -0.00064   2.09490
   A25        2.10542  -0.00000   0.00016  -0.00005   0.00011   2.10553
   A26        2.10645  -0.00003  -0.00023  -0.00001  -0.00023   2.10622
   A27        2.08843   0.00003   0.00017   0.00004   0.00020   2.08863
   A28        2.08830   0.00000   0.00006  -0.00004   0.00002   2.08832
   A29        3.14105   0.00004   0.00076  -0.00044   0.00031   3.14137
   A30        3.14235  -0.00001  -0.00004  -0.00038  -0.00042   3.14193
    D1       -2.96634   0.00003  -0.00045  -0.00150  -0.00196  -2.96830
    D2        1.23021  -0.00006   0.00072  -0.00282  -0.00210   1.22811
    D3       -0.84178  -0.00005  -0.00029  -0.00190  -0.00219  -0.84397
    D4        1.32396   0.00000   0.00299   0.00025   0.00327   1.32722
    D5       -2.95464   0.00013   0.00352   0.00316   0.00665  -2.94799
    D6       -2.83697  -0.00010   0.00191   0.00056   0.00250  -2.83448
    D7       -0.83238   0.00003   0.00244   0.00347   0.00588  -0.82650
    D8       -0.75533  -0.00001   0.00260   0.00045   0.00307  -0.75225
    D9        1.24926   0.00012   0.00313   0.00336   0.00646   1.25572
   D10        0.53914  -0.00013  -0.01089   0.00150  -0.00939   0.52975
   D11       -2.64747  -0.00007  -0.00611   0.00029  -0.00582  -2.65329
   D12       -1.52170   0.00004  -0.00870   0.00013  -0.00857  -1.53026
   D13        1.57487   0.00010  -0.00392  -0.00108  -0.00500   1.56987
   D14        2.62369  -0.00004  -0.00949   0.00052  -0.00897   2.61473
   D15       -0.56292   0.00002  -0.00471  -0.00069  -0.00540  -0.56832
   D16        3.09503   0.00010   0.00399   0.00097   0.00496   3.09998
   D17       -0.05476   0.00007   0.00251   0.00116   0.00366  -0.05109
   D18       -0.00165   0.00003  -0.00081   0.00216   0.00135  -0.00029
   D19        3.13176  -0.00000  -0.00229   0.00234   0.00006   3.13182
   D20       -3.09482  -0.00007  -0.00268  -0.00182  -0.00450  -3.09932
   D21        0.05098  -0.00007  -0.00336  -0.00057  -0.00393   0.04706
   D22        0.00222  -0.00002   0.00202  -0.00303  -0.00100   0.00122
   D23       -3.13516  -0.00001   0.00134  -0.00178  -0.00043  -3.13559
   D24       -0.00101  -0.00001  -0.00029   0.00003  -0.00026  -0.00127
   D25        3.14118  -0.00002  -0.00048  -0.00055  -0.00103   3.14015
   D26       -3.13437   0.00002   0.00120  -0.00016   0.00104  -3.13333
   D27        0.00782   0.00001   0.00101  -0.00074   0.00027   0.00809
   D28        3.14092  -0.00003  -0.00049  -0.00106  -0.00155   3.13938
   D29        0.00314  -0.00002   0.00019  -0.00139  -0.00120   0.00194
   D30       -0.00126  -0.00001  -0.00030  -0.00048  -0.00078  -0.00205
   D31       -3.13905  -0.00001   0.00038  -0.00082  -0.00044  -3.13948
   D32       -0.00257   0.00003   0.00100   0.00054   0.00154  -0.00103
   D33        3.13461   0.00002   0.00006   0.00117   0.00123   3.13584
   D34       -3.14036   0.00004   0.00168   0.00021   0.00189  -3.13847
   D35       -0.00318   0.00003   0.00074   0.00084   0.00158  -0.00160
   D36       -0.00012  -0.00001  -0.00211   0.00168  -0.00043  -0.00056
   D37        3.13726  -0.00002  -0.00143   0.00043  -0.00100   3.13625
   D38       -3.13728  -0.00000  -0.00116   0.00104  -0.00012  -3.13739
   D39        0.00010  -0.00001  -0.00048  -0.00020  -0.00069  -0.00058
         Item               Value     Threshold  Converged?
 Maximum Force            0.000398     0.000450     YES
 RMS     Force            0.000090     0.000300     YES
 Maximum Displacement     0.020366     0.001800     NO 
 RMS     Displacement     0.005653     0.001200     NO 
 Predicted change in Energy=-3.102203D-06
 Lowest energy point so far.  Saving SCF results.
 GradGradGradGradGradGradGradGradGradGradGradGradGradGradGradGradGradGrad

 Leave Link  103 at Tue Oct 21 15:10:43 2025, MaxMem=  4294967296 cpu:               0.2 elap:               0.0
 (Enter /lrz/sys/applications/gaussian/g16.C.01/x86_64_legacy/exe/l202.exe)
                          Input orientation:                          
 ---------------------------------------------------------------------
 Center     Atomic      Atomic             Coordinates (Angstroms)
 Number     Number       Type             X           Y           Z
 ---------------------------------------------------------------------
      1          8           0        3.065999    0.278105    1.169779
      2          6           0        2.496101   -0.180673   -0.034560
      3          7           0        2.980097    0.692912   -1.079558
      4          6           0        0.977202   -0.134967   -0.008170
      5          6           0        0.309310    0.831105    0.749350
      6          6           0       -1.078594    0.904428    0.734931
      7          6           0       -1.809558    0.000057   -0.049153
      8          6           0       -3.243531    0.068284   -0.066670
      9          7           0       -4.402149    0.123411   -0.081235
     10          6           0       -1.148881   -0.973530   -0.812191
     11          6           0        0.239481   -1.033295   -0.785184
     12          1           0        2.883716   -0.380883    1.851210
     13          1           0        2.793861   -1.237267   -0.188574
     14          1           0        3.947050    0.444810   -1.290191
     15          1           0        2.452886    0.514446   -1.933066
     16          1           0        0.886109    1.525375    1.362246
     17          1           0       -1.601245    1.657538    1.327112
     18          1           0       -1.724131   -1.677404   -1.415756
     19          1           0        0.759544   -1.793191   -1.373937
 ---------------------------------------------------------------------
                    Distance matrix (angstroms):
                    1          2          3          4          5
     1  O    0.000000
     2  C    1.409146   0.000000
     3  N    2.288878   1.445484   0.000000
     4  C    2.433365   1.519816   2.417611   0.000000
     5  C    2.842869   2.533825   3.239924   1.397573   0.000000
     6  C    4.214145   3.814185   4.450852   2.420504   1.389914
     7  C    5.033306   4.309476   4.947988   2.790331   2.412022
     8  C    6.432962   5.745119   6.336375   4.226029   3.724307
     9  N    7.573784   6.905107   7.471180   5.386048   4.836171
    10  C    4.822864   3.810411   4.460603   2.422782   2.796684
    11  C    3.678431   2.526408   3.252295   1.398205   2.415711
    12  H    0.965319   1.935577   3.122776   2.674428   3.051324
    13  H    2.053177   1.108500   2.134040   2.132572   3.366135
    14  H    2.618300   2.018190   1.020254   3.286292   4.188330
    15  H    3.171657   2.022222   1.018959   2.510897   3.448267
    16  H    2.518858   2.730154   3.322678   2.154778   1.091031
    17  H    4.869369   4.692698   5.264148   3.412395   2.160328
    18  H    5.783973   4.685965   5.278370   3.414324   3.887825
    19  H    4.010049   2.722090   3.346374   2.159259   3.405582
                    6          7          8          9         10
     6  C    0.000000
     7  C    1.402493   0.000000
     8  C    2.455332   1.435702   0.000000
     9  N    3.510290   2.595722   1.160020   0.000000
    10  C    2.434185   1.402352   2.455349   3.510175   0.000000
    11  C    2.793357   2.410004   3.723052   4.835105   1.389911
    12  H    4.312540   5.077728   6.436084   7.554633   4.868961
    13  H    4.520579   4.768845   6.178142   7.324311   4.000460
    14  H    5.437781   5.905634   7.303645   8.442393   5.311185
    15  H    4.443157   4.688513   6.010961   7.111518   4.055016
    16  H    2.153870   3.403713   4.606391   5.658163   3.887658
    17  H    1.091337   2.164427   2.676837   3.490279   3.421077
    18  H    3.421700   2.165358   2.678813   3.492229   1.091165
    19  H    3.886287   3.401628   4.604199   5.655751   2.151625
                   11         12         13         14         15
    11  C    0.000000
    12  H    3.790540   0.000000
    13  H    2.631046   2.214088   0.000000
    14  H    4.023169   3.417725   2.317927   0.000000
    15  H    2.934671   3.912540   2.495599   1.628086   0.000000
    16  H    3.402407   2.804165   3.698209   4.191944   3.786270
    17  H    3.884668   4.954262   5.476692   6.253364   5.326480
    18  H    2.160618   5.795367   4.702334   6.056554   4.745448
    19  H    1.092948   4.111969   2.419211   3.895620   2.916370
                   16         17         18         19
    16  H    0.000000
    17  H    2.491110   0.000000
    18  H    4.978798   4.319752   0.000000
    19  H    4.302974   4.977601   2.486724   0.000000
 Stoichiometry    C8H8N2O
 Framework group  C1[X(C8H8N2O)]
 Deg. of freedom    51
 Full point group                 C1      NOp   1
 RotChk:  IX=2 Diff= 4.63D-03
 Largest Abelian subgroup         C1      NOp   1
 Largest concise Abelian subgroup C1      NOp   1
                         Standard orientation:                         
 ---------------------------------------------------------------------
 Center     Atomic      Atomic             Coordinates (Angstroms)
 Number     Number       Type             X           Y           Z
 ---------------------------------------------------------------------
      1          8           0       -3.022712   -0.990536    0.586549
      2          6           0       -2.418260    0.224685    0.207647
      3          7           0       -2.909056    0.534930   -1.116095
      4          6           0       -0.902069    0.127287    0.168691
      5          6           0       -0.276421   -1.083110   -0.142296
      6          6           0        1.108767   -1.160841   -0.226408
      7          6           0        1.879810   -0.011819    0.002123
      8          6           0        3.311244   -0.085465   -0.080417
      9          7           0        4.467818   -0.144642   -0.147358
     10          6           0        1.261692    1.207300    0.315603
     11          6           0       -0.124577    1.266809    0.396667
     12          1           0       -2.833292   -1.134095    1.522151
     13          1           0       -2.682065    1.000540    0.954125
     14          1           0       -3.864405    0.883985   -1.036170
     15          1           0       -2.361738    1.302757   -1.502309
     16          1           0       -0.884173   -1.973378   -0.310846
     17          1           0        1.598455   -2.105787   -0.467858
     18          1           0        1.868012    2.096085    0.497473
     19          1           0       -0.611540    2.213096    0.645552
 ---------------------------------------------------------------------
 Rotational constants (GHZ):           3.4592313           0.5544918           0.5125128
 Leave Link  202 at Tue Oct 21 15:10:43 2025, MaxMem=  4294967296 cpu:               0.0 elap:               0.0
 (Enter /lrz/sys/applications/gaussian/g16.C.01/x86_64_legacy/exe/l301.exe)
 Standard basis: def2SVP (5D, 7F)
 Ernie: Thresh=  0.10000D-02 Tol=  0.10000D-05 Strict=F.
 There are   205 symmetry adapted cartesian basis functions of A   symmetry.
 There are   194 symmetry adapted basis functions of A   symmetry.
   194 basis functions,   331 primitive gaussians,   205 cartesian basis functions
    39 alpha electrons       39 beta electrons
       nuclear repulsion energy       545.3706358571 Hartrees.
 IExCor= 4639 DFT=T Ex+Corr=wB97XD ExCW=0 ScaHFX=  1.000000
 ScaDFX=  1.000000  1.000000  1.000000  1.000000 ScalE2=  1.000000  1.000000
 IRadAn=      5 IRanWt=     -1 IRanGd=            0 ICorTp=0 IEmpDi=121
 HFx  wShort=  0.000000 wLong=  0.200000 cFull=  0.222036 cShort=  0.000000 cLong=  0.777964
 DFx  wShort=  0.000000 wLong=  0.200000 cFull=  0.000000 cShort=  0.000000 cLong=  1.000000
 NAtoms=   19 NActive=   19 NUniq=   19 SFac= 1.00D+00 NAtFMM=   60 NAOKFM=F Big=F
 Integral buffers will be    131072 words long.
 Raffenetti 2 integral format.
 Two-electron integral symmetry is turned on.
 R6Disp:  Grimme-D2 Dispersion energy=       -0.0103311185 Hartrees.
 Nuclear repulsion after empirical dispersion term =      545.3603047386 Hartrees.
 ------------------------------------------------------------------------------
 Polarizable Continuum Model (PCM)
 =================================
 Model                : PCM.
 Atomic radii         : SMD-Coulomb.
 Polarization charges : Total charges.
 Charge compensation  : None.
 Solution method      : On-the-fly selection.
 Cavity type          : VdW (van der Waals Surface) (Alpha=1.000).
 Cavity algorithm     : GePol (No added spheres)
                        Default sphere list used, NSphG=   19.
                        Lebedev-Laikov grids with approx.  5.0 points / Ang**2.
                        Smoothing algorithm: York/Karplus (Gamma=1.0000).
                        Polarization charges: spherical gaussians, with
                                              point-specific exponents (IZeta= 3).
                        Self-potential: point-specific (ISelfS= 7).
                        Self-field    : sphere-specific E.n sum rule (ISelfD= 2).
 1st derivatives      : Analytical E(r).r(x)/FMM algorithm (CHGder, D1EAlg=3).
                        Cavity 1st derivative terms included.
 Solvent              : Water, Eps=  78.355300 Eps(inf)=   1.777849
 ------------------------------------------------------------------------------
 Spheres list:
 ISph  on   Nord     Re0    Alpha      Xe            Ye            Ze
    1   O      1    1.5200  1.000     -3.022712     -0.990536      0.586549
    2   C      2    1.8500  1.000     -2.418260      0.224685      0.207647
    3   N      3    1.8900  1.000     -2.909056      0.534930     -1.116095
    4   C      4    1.8500  1.000     -0.902069      0.127287      0.168691
    5   C      5    1.8500  1.000     -0.276421     -1.083110     -0.142296
    6   C      6    1.8500  1.000      1.108767     -1.160841     -0.226408
    7   C      7    1.8500  1.000      1.879810     -0.011819      0.002123
    8   C      8    1.8500  1.000      3.311244     -0.085465     -0.080417
    9   N      9    1.8900  1.000      4.467818     -0.144642     -0.147358
   10   C     10    1.8500  1.000      1.261692      1.207300      0.315603
   11   C     11    1.8500  1.000     -0.124577      1.266809      0.396667
   12   H     12    1.2000  1.000     -2.833292     -1.134095      1.522151
   13   H     13    1.2000  1.000     -2.682065      1.000540      0.954125
   14   H     14    1.2000  1.000     -3.864405      0.883985     -1.036170
   15   H     15    1.2000  1.000     -2.361738      1.302757     -1.502309
   16   H     16    1.2000  1.000     -0.884173     -1.973378     -0.310846
   17   H     17    1.2000  1.000      1.598455     -2.105787     -0.467858
   18   H     18    1.2000  1.000      1.868012      2.096085      0.497473
   19   H     19    1.2000  1.000     -0.611540      2.213096      0.645552
 ------------------------------------------------------------------------------
 GePol: Number of generator spheres                  =      19
 GePol: Total number of spheres                      =      19
 GePol: Number of exposed spheres                    =      19 (100.00%)
 GePol: Number of points                             =    1639
 GePol: Average weight of points                     =       0.11
 GePol: Minimum weight of points                     =   0.15D-09
 GePol: Maximum weight of points                     =    0.21991
 GePol: Number of points with low weight             =      96
 GePol: Fraction of low-weight points (<1% of avg)   =       5.86%
 GePol: Cavity surface area                          =    188.164 Ang**2
 GePol: Cavity volume                                =    161.896 Ang**3
 ------------------------------------------------------------------------------
 Atomic radii for non-electrostatic terms: SMD-CDS.
 ------------------------------------------------------------------------------
 PCM non-electrostatic energy =         0.0070184074 Hartrees.
 Nuclear repulsion after PCM non-electrostatic terms =      545.3673231460 Hartrees.
 Leave Link  301 at Tue Oct 21 15:10:43 2025, MaxMem=  4294967296 cpu:               0.6 elap:               0.1
 (Enter /lrz/sys/applications/gaussian/g16.C.01/x86_64_legacy/exe/l302.exe)
 NPDir=0 NMtPBC=     1 NCelOv=     1 NCel=       1 NClECP=     1 NCelD=      1
         NCelK=      1 NCelE2=     1 NClLst=     1 CellRange=     0.0.
 One-electron integrals computed using PRISM.
 One-electron integral symmetry used in STVInt
   1 Symmetry operations used in ECPInt.
 ECPInt:  NShTT=    4095 NPrTT=   15045 LenC2=    3950 LenP2D=   11135.
 LDataN:  DoStor=T MaxTD1= 4 Len=   56
 NBasis=   194 RedAO= T EigKep=  2.77D-04  NBF=   194
 NBsUse=   194 1.00D-06 EigRej= -1.00D+00 NBFU=   194
 Precomputing XC quadrature grid using
 IXCGrd= 4 IRadAn=           5 IRanWt=          -1 IRanGd=           0 AccXCQ= 0.00D+00.
 Generated NRdTot=       0 NPtTot=           0 NUsed=           0 NTot=          32
 NSgBfM=   204   204   204   204   204 MxSgAt=    19 MxSgA2=    19.
 Leave Link  302 at Tue Oct 21 15:10:43 2025, MaxMem=  4294967296 cpu:               2.0 elap:               0.3
 (Enter /lrz/sys/applications/gaussian/g16.C.01/x86_64_legacy/exe/l303.exe)
 DipDrv:  MaxL=1.
 Leave Link  303 at Tue Oct 21 15:10:44 2025, MaxMem=  4294967296 cpu:               0.3 elap:               0.0
 (Enter /lrz/sys/applications/gaussian/g16.C.01/x86_64_legacy/exe/l401.exe)
 Initial guess from the checkpoint file:  "g16_C12-a_10.chk"
 B after Tr=     0.000000   -0.000000    0.000000
         Rot=    0.999999   -0.001571   -0.000210   -0.000142 Ang=  -0.18 deg.
 Guess basis will be translated and rotated to current coordinates.
 JPrj=2 DoOrth=T DoCkMO=T.
 Generating alternative initial guess.
 ExpMin= 1.22D-01 ExpMax= 2.27D+03 ExpMxC= 3.41D+02 IAcc=3 IRadAn=         5 AccDes= 0.00D+00
 Harris functional with IExCor= 4639 and IRadAn=       5 diagonalized for initial guess.
 HarFok:  IExCor= 4639 AccDes= 0.00D+00 IRadAn=         5 IDoV= 1 UseB2=F ITyADJ=14
 ICtDFT=  3500011 ScaDFX=  1.000000  1.000000  1.000000  1.000000
 FoFCou: FMM=F IPFlag=           0 FMFlag=      100000 FMFlg1=           0
         NFxFlg=           0 DoJE=T BraDBF=F KetDBF=T FulRan=T
         wScrn=  0.000000 ICntrl=       500 IOpCl=  0 I1Cent=   200000004 NGrid=           0
         NMat0=    1 NMatS0=      1 NMatT0=    0 NMatD0=    1 NMtDS0=    0 NMtDT0=    0
 Petite list used in FoFCou.
 Harris En= -472.807465668725    
 Leave Link  401 at Tue Oct 21 15:10:45 2025, MaxMem=  4294967296 cpu:              11.7 elap:               1.5
 (Enter /lrz/sys/applications/gaussian/g16.C.01/x86_64_legacy/exe/l502.exe)
 Integral symmetry usage will be decided dynamically.
 Closed shell SCF:
 Using DIIS extrapolation, IDIIS=  1040.
 NGot=  4294967296 LenX=  4294878900 LenY=  4294836434
 Requested convergence on RMS density matrix=1.00D-08 within 128 cycles.
 Requested convergence on MAX density matrix=1.00D-06.
 Requested convergence on             energy=1.00D-06.
 No special actions if energy rises.
 Fock matrices will be formed incrementally for  20 cycles.

 Cycle   1  Pass 1  IDiag  1:
 FoFJK:  IHMeth= 1 ICntrl=       0 DoSepK=T KAlg= 0 I1Cent=           0 FoldK=F
 IRaf=         1 NMat=       1 IRICut=       1 DoRegI=T DoRafI=F ISym2E= 0 IDoP0=0 IntGTp=1.
 FoFCou: FMM=F IPFlag=           0 FMFlag=      100000 FMFlg1=           0
         NFxFlg=           0 DoJE=T BraDBF=F KetDBF=F FulRan=T
         wScrn=  0.000000 ICntrl=       500 IOpCl=  0 I1Cent=           0 NGrid=           0
         NMat0=    1 NMatS0=      1 NMatT0=    0 NMatD0=    1 NMtDS0=    0 NMtDT0=    0
 Symmetry not used in FoFCou.
 Inv3:  Mode=1 IEnd=     8058963.
 Iteration    1 A*A^-1 deviation from unit magnitude is 6.00D-15 for   1443.
 Iteration    1 A*A^-1 deviation from orthogonality  is 3.03D-15 for   1249     58.
 Iteration    1 A^-1*A deviation from unit magnitude is 6.22D-15 for   1443.
 Iteration    1 A^-1*A deviation from orthogonality  is 3.09D-15 for   1323   1212.
 E= -493.864065685454    
 DIIS: error= 2.92D-04 at cycle   1 NSaved=   1.
 NSaved= 1 IEnMin= 1 EnMin= -493.864065685454     IErMin= 1 ErrMin= 2.92D-04
 ErrMax= 2.92D-04  0.00D+00 EMaxC= 1.00D-01 BMatC= 3.71D-05 BMatP= 3.71D-05
 IDIUse=3 WtCom= 9.97D-01 WtEn= 2.92D-03
 Coeff-Com:  0.100D+01
 Coeff-En:   0.100D+01
 Coeff:      0.100D+01
 Gap=     0.780 Goal=   None    Shift=    0.000
 RMSDP=5.25D-05 MaxDP=1.23D-03              OVMax= 1.41D-03

 Cycle   2  Pass 1  IDiag  1:
 RMSU=  5.24D-05    CP:  1.00D+00
 E= -493.864117921415     Delta-E=       -0.000052235962 Rises=F Damp=F
 DIIS: error= 7.09D-05 at cycle   2 NSaved=   2.
 NSaved= 2 IEnMin= 2 EnMin= -493.864117921415     IErMin= 2 ErrMin= 7.09D-05
 ErrMax= 7.09D-05  0.00D+00 EMaxC= 1.00D-01 BMatC= 1.22D-06 BMatP= 3.71D-05
 IDIUse=1 WtCom= 1.00D+00 WtEn= 0.00D+00
 Coeff-Com: -0.155D+00 0.116D+01
 Coeff:     -0.155D+00 0.116D+01
 Gap=     0.340 Goal=   None    Shift=    0.000
 RMSDP=1.27D-05 MaxDP=2.62D-04 DE=-5.22D-05 OVMax= 4.57D-04

 Cycle   3  Pass 1  IDiag  1:
 RMSU=  7.96D-06    CP:  1.00D+00  1.19D+00
 E= -493.864121120585     Delta-E=       -0.000003199169 Rises=F Damp=F
 DIIS: error= 1.50D-05 at cycle   3 NSaved=   3.
 NSaved= 3 IEnMin= 3 EnMin= -493.864121120585     IErMin= 3 ErrMin= 1.50D-05
 ErrMax= 1.50D-05  0.00D+00 EMaxC= 1.00D-01 BMatC= 8.67D-08 BMatP= 1.22D-06
 IDIUse=1 WtCom= 1.00D+00 WtEn= 0.00D+00
 Coeff-Com: -0.245D-01 0.795D-01 0.945D+00
 Coeff:     -0.245D-01 0.795D-01 0.945D+00
 Gap=     0.340 Goal=   None    Shift=    0.000
 RMSDP=3.09D-06 MaxDP=7.25D-05 DE=-3.20D-06 OVMax= 1.04D-04

 Cycle   4  Pass 1  IDiag  1:
 RMSU=  2.52D-06    CP:  1.00D+00  1.20D+00  1.20D+00
 E= -493.864121238512     Delta-E=       -0.000000117927 Rises=F Damp=F
 DIIS: error= 1.21D-05 at cycle   4 NSaved=   4.
 NSaved= 4 IEnMin= 4 EnMin= -493.864121238512     IErMin= 4 ErrMin= 1.21D-05
 ErrMax= 1.21D-05  0.00D+00 EMaxC= 1.00D-01 BMatC= 5.67D-08 BMatP= 8.67D-08
 IDIUse=1 WtCom= 1.00D+00 WtEn= 0.00D+00
 Coeff-Com:  0.108D-01-0.135D+00 0.489D+00 0.635D+00
 Coeff:      0.108D-01-0.135D+00 0.489D+00 0.635D+00
 Gap=     0.340 Goal=   None    Shift=    0.000
 RMSDP=1.35D-06 MaxDP=3.81D-05 DE=-1.18D-07 OVMax= 4.29D-05

 Cycle   5  Pass 1  IDiag  1:
 RMSU=  6.90D-07    CP:  1.00D+00  1.21D+00  1.32D+00  7.60D-01
 E= -493.864121293014     Delta-E=       -0.000000054502 Rises=F Damp=F
 DIIS: error= 3.63D-06 at cycle   5 NSaved=   5.
 NSaved= 5 IEnMin= 5 EnMin= -493.864121293014     IErMin= 5 ErrMin= 3.63D-06
 ErrMax= 3.63D-06  0.00D+00 EMaxC= 1.00D-01 BMatC= 2.03D-09 BMatP= 5.67D-08
 IDIUse=1 WtCom= 1.00D+00 WtEn= 0.00D+00
 Coeff-Com:  0.478D-02-0.477D-01 0.107D+00 0.202D+00 0.733D+00
 Coeff:      0.478D-02-0.477D-01 0.107D+00 0.202D+00 0.733D+00
 Gap=     0.340 Goal=   None    Shift=    0.000
 RMSDP=3.49D-07 MaxDP=1.26D-05 DE=-5.45D-08 OVMax= 1.58D-05

 Cycle   6  Pass 1  IDiag  1:
 RMSU=  2.84D-07    CP:  1.00D+00  1.21D+00  1.34D+00  8.04D-01  1.08D+00
 E= -493.864121295264     Delta-E=       -0.000000002250 Rises=F Damp=F
 DIIS: error= 2.20D-06 at cycle   6 NSaved=   6.
 NSaved= 6 IEnMin= 6 EnMin= -493.864121295264     IErMin= 6 ErrMin= 2.20D-06
 ErrMax= 2.20D-06  0.00D+00 EMaxC= 1.00D-01 BMatC= 8.07D-10 BMatP= 2.03D-09
 IDIUse=1 WtCom= 1.00D+00 WtEn= 0.00D+00
 Coeff-Com: -0.281D-03 0.998D-02-0.711D-01-0.595D-01 0.403D+00 0.718D+00
 Coeff:     -0.281D-03 0.998D-02-0.711D-01-0.595D-01 0.403D+00 0.718D+00
 Gap=     0.340 Goal=   None    Shift=    0.000
 RMSDP=1.95D-07 MaxDP=5.11D-06 DE=-2.25D-09 OVMax= 7.89D-06

 Cycle   7  Pass 1  IDiag  1:
 RMSU=  9.08D-08    CP:  1.00D+00  1.21D+00  1.35D+00  8.33D-01  1.27D+00
                    CP:  8.74D-01
 E= -493.864121296248     Delta-E=       -0.000000000984 Rises=F Damp=F
 DIIS: error= 3.40D-07 at cycle   7 NSaved=   7.
 NSaved= 7 IEnMin= 7 EnMin= -493.864121296248     IErMin= 7 ErrMin= 3.40D-07
 ErrMax= 3.40D-07  0.00D+00 EMaxC= 1.00D-01 BMatC= 2.63D-11 BMatP= 8.07D-10
 IDIUse=1 WtCom= 1.00D+00 WtEn= 0.00D+00
 Coeff-Com: -0.449D-03 0.643D-02-0.277D-01-0.326D-01 0.489D-01 0.192D+00
 Coeff-Com:  0.813D+00
 Coeff:     -0.449D-03 0.643D-02-0.277D-01-0.326D-01 0.489D-01 0.192D+00
 Coeff:      0.813D+00
 Gap=     0.340 Goal=   None    Shift=    0.000
 RMSDP=5.18D-08 MaxDP=9.48D-07 DE=-9.84D-10 OVMax= 3.01D-06

 Cycle   8  Pass 1  IDiag  1:
 RMSU=  3.55D-08    CP:  1.00D+00  1.21D+00  1.35D+00  8.37D-01  1.31D+00
                    CP:  9.44D-01  1.08D+00
 E= -493.864121296292     Delta-E=       -0.000000000045 Rises=F Damp=F
 DIIS: error= 1.48D-07 at cycle   8 NSaved=   8.
 NSaved= 8 IEnMin= 8 EnMin= -493.864121296292     IErMin= 8 ErrMin= 1.48D-07
 ErrMax= 1.48D-07  0.00D+00 EMaxC= 1.00D-01 BMatC= 5.28D-12 BMatP= 2.63D-11
 IDIUse=1 WtCom= 1.00D+00 WtEn= 0.00D+00
 Coeff-Com: -0.137D-03 0.123D-02-0.180D-02-0.526D-02-0.312D-01-0.145D-01
 Coeff-Com:  0.315D+00 0.736D+00
 Coeff:     -0.137D-03 0.123D-02-0.180D-02-0.526D-02-0.312D-01-0.145D-01
 Coeff:      0.315D+00 0.736D+00
 Gap=     0.340 Goal=   None    Shift=    0.000
 RMSDP=2.10D-08 MaxDP=3.56D-07 DE=-4.46D-11 OVMax= 1.35D-06

 Cycle   9  Pass 1  IDiag  1:
 RMSU=  1.26D-08    CP:  1.00D+00  1.21D+00  1.35D+00  8.38D-01  1.32D+00
                    CP:  9.68D-01  1.23D+00  1.06D+00
 E= -493.864121296306     Delta-E=       -0.000000000014 Rises=F Damp=F
 DIIS: error= 1.03D-07 at cycle   9 NSaved=   9.
 NSaved= 9 IEnMin= 9 EnMin= -493.864121296306     IErMin= 9 ErrMin= 1.03D-07
 ErrMax= 1.03D-07  0.00D+00 EMaxC= 1.00D-01 BMatC= 4.62D-13 BMatP= 5.28D-12
 IDIUse=1 WtCom= 1.00D+00 WtEn= 0.00D+00
 Coeff-Com:  0.629D-04-0.966D-03 0.461D-02 0.491D-02-0.125D-01-0.347D-01
 Coeff-Com: -0.948D-01 0.881D-01 0.105D+01
 Coeff:      0.629D-04-0.966D-03 0.461D-02 0.491D-02-0.125D-01-0.347D-01
 Coeff:     -0.948D-01 0.881D-01 0.105D+01
 Gap=     0.340 Goal=   None    Shift=    0.000
 RMSDP=1.22D-08 MaxDP=2.53D-07 DE=-1.36D-11 OVMax= 1.13D-06

 Cycle  10  Pass 1  IDiag  1:
 RMSU=  4.96D-09    CP:  1.00D+00  1.21D+00  1.35D+00  8.38D-01  1.32D+00
                    CP:  9.76D-01  1.30D+00  1.28D+00  1.28D+00
 E= -493.864121296310     Delta-E=       -0.000000000005 Rises=F Damp=F
 DIIS: error= 3.09D-08 at cycle  10 NSaved=  10.
 NSaved=10 IEnMin=10 EnMin= -493.864121296310     IErMin=10 ErrMin= 3.09D-08
 ErrMax= 3.09D-08  0.00D+00 EMaxC= 1.00D-01 BMatC= 6.37D-14 BMatP= 4.62D-13
 IDIUse=1 WtCom= 1.00D+00 WtEn= 0.00D+00
 Coeff-Com:  0.230D-04-0.254D-03 0.777D-03 0.117D-02 0.167D-02-0.238D-02
 Coeff-Com: -0.433D-01-0.662D-01 0.998D-01 0.101D+01
 Coeff:      0.230D-04-0.254D-03 0.777D-03 0.117D-02 0.167D-02-0.238D-02
 Coeff:     -0.433D-01-0.662D-01 0.998D-01 0.101D+01
 Gap=     0.340 Goal=   None    Shift=    0.000
 RMSDP=4.40D-09 MaxDP=1.03D-07 DE=-4.55D-12 OVMax= 4.35D-07

 Error on total polarization charges =  0.02903
 SCF Done:  E(RwB97XD) =  -493.864121296     A.U. after   10 cycles
            NFock= 10  Conv=0.44D-08     -V/T= 2.0101
 KE= 4.889126028437D+02 PE=-2.238727881358D+03 EE= 7.105838340725D+02
 SMD-CDS (non-electrostatic) energy       (kcal/mol) =       4.40
 (included in total energy above)
 Leave Link  502 at Tue Oct 21 15:11:24 2025, MaxMem=  4294967296 cpu:             310.8 elap:              39.1
 (Enter /lrz/sys/applications/gaussian/g16.C.01/x86_64_legacy/exe/l701.exe)
 ... and contract with generalized density number  0.
 Compute integral first derivatives.
 R6Disp: Adding Grimme-D2 dispersion energy 1st derivatives to the gradient.
   1 Symmetry operations used in ECPInt.
 ECPInt:  NShTT=    4095 NPrTT=   15045 LenC2=    3950 LenP2D=   11135.
 LDataN:  DoStor=T MaxTD1= 5 Len=  102
 D1PCM: PCM CHGder 1st derivatives, ID1Alg=3 FixD1E=F DoIter=F DoCFld=F I1PDM=0.
 GePol: Maximum number of non-zero 1st derivatives   =     268
 Leave Link  701 at Tue Oct 21 15:11:25 2025, MaxMem=  4294967296 cpu:               8.9 elap:               1.1
 (Enter /lrz/sys/applications/gaussian/g16.C.01/x86_64_legacy/exe/l702.exe)
 L702 exits ... SP integral derivatives will be done elsewhere.
 Leave Link  702 at Tue Oct 21 15:11:25 2025, MaxMem=  4294967296 cpu:               0.2 elap:               0.0
 (Enter /lrz/sys/applications/gaussian/g16.C.01/x86_64_legacy/exe/l703.exe)
 Integral derivatives from FoFJK, PRISM(SPDF).
 Compute integral first derivatives, UseDBF=F ICtDFT=           0.
 Calling FoFJK, ICntrl=      2127 FMM=F ISym2X=0 I1Cent= 0 IOpClX= 0 NMat=1 NMatS=1 NMatT=0.
 FoFJK:  IHMeth= 1 ICntrl=    2127 DoSepK=T KAlg= 0 I1Cent=           0 FoldK=F
 IRaf=         1 NMat=       1 IRICut=       1 DoRegI=T DoRafI=F ISym2E= 0 IDoP0=0 IntGTp=1.
 FoFCou: FMM=F IPFlag=           0 FMFlag=      100000 FMFlg1=         800
         NFxFlg=           0 DoJE=F BraDBF=F KetDBF=F FulRan=T
         wScrn=  0.000000 ICntrl=      2527 IOpCl=  0 I1Cent=           0 NGrid=           0
         NMat0=    1 NMatS0=      1 NMatT0=    0 NMatD0=    1 NMtDS0=    0 NMtDT0=    0
 Symmetry not used in FoFCou.
 Leave Link  703 at Tue Oct 21 15:11:34 2025, MaxMem=  4294967296 cpu:              67.5 elap:               8.5
 (Enter /lrz/sys/applications/gaussian/g16.C.01/x86_64_legacy/exe/l716.exe)
 Dipole        =-2.09353832D+00 1.21461616D+00 9.38732371D-01
 ***** Axes restored to original set *****
 -------------------------------------------------------------------
 Center     Atomic                   Forces (Hartrees/Bohr)
 Number     Number              X              Y              Z
 -------------------------------------------------------------------
      1        8           0.000052766   -0.000035146    0.000033790
      2        6          -0.000040691    0.000159782   -0.000265411
      3        7           0.000067450   -0.000182834    0.000083215
      4        6          -0.000002980   -0.000063516   -0.000032132
      5        6          -0.000032788   -0.000006745    0.000040196
      6        6           0.000001061   -0.000003384    0.000027958
      7        6           0.000018837    0.000016687   -0.000024367
      8        6           0.000021749   -0.000023665   -0.000017748
      9        7          -0.000061309    0.000009240   -0.000006182
     10        6          -0.000010036   -0.000001999    0.000000065
     11        6           0.000020789    0.000030328    0.000044213
     12        1           0.000002146    0.000000838    0.000100767
     13        1           0.000042638    0.000002758    0.000005191
     14        1          -0.000037867    0.000020981    0.000006788
     15        1          -0.000028382    0.000056391    0.000073921
     16        1          -0.000009517    0.000005544   -0.000014240
     17        1          -0.000002947    0.000009874    0.000007359
     18        1          -0.000005333   -0.000002639   -0.000024795
     19        1           0.000004413    0.000007506   -0.000038588
 -------------------------------------------------------------------
 Cartesian Forces:  Max     0.000265411 RMS     0.000058076
 Leave Link  716 at Tue Oct 21 15:11:34 2025, MaxMem=  4294967296 cpu:               0.2 elap:               0.0
 (Enter /lrz/sys/applications/gaussian/g16.C.01/x86_64_legacy/exe/l103.exe)

 GradGradGradGradGradGradGradGradGradGradGradGradGradGradGradGradGradGrad
 Berny optimization.
 Using GEDIIS/GDIIS optimizer.
 FormGI is forming the generalized inverse of G from B-inverse, IUseBI=4.
 Internal  Forces:  Max     0.000179491 RMS     0.000035268
 Search for a local minimum.
 Step number  14 out of a maximum of   98
 All quantities printed in internal units (Hartrees-Bohrs-Radians)
 RMS Force = .35268D-04 SwitMx=.10000D-02 MixMth= 2
 Mixed Optimization -- En-DIIS/RFO-DIIS
 Swapping is turned off.
 Update second derivatives using D2CorX and points    9   10   11   12   13
                                                     14
 DE= -3.10D-06 DEPred=-3.10D-06 R= 1.00D+00
 TightC=F SS=  1.41D+00  RLast= 2.46D-02 DXNew= 1.9915D+00 7.3743D-02
 Trust test= 1.00D+00 RLast= 2.46D-02 DXMaxT set to 1.18D+00
 ITU=  1  1  1  1  1  0  1  1  1  1  1  1  1  0
     Eigenvalues ---    0.00098   0.00315   0.00954   0.01927   0.02093
     Eigenvalues ---    0.02159   0.02222   0.02234   0.02272   0.02295
     Eigenvalues ---    0.02331   0.02400   0.03496   0.05029   0.05113
     Eigenvalues ---    0.06499   0.08708   0.09238   0.15878   0.15969
     Eigenvalues ---    0.15994   0.16008   0.16334   0.16833   0.17125
     Eigenvalues ---    0.20201   0.21878   0.21986   0.22953   0.24167
     Eigenvalues ---    0.24982   0.26686   0.32007   0.32335   0.35906
     Eigenvalues ---    0.35993   0.36223   0.37004   0.41986   0.42799
     Eigenvalues ---    0.43466   0.44216   0.45461   0.45891   0.46195
     Eigenvalues ---    0.46975   0.47499   0.48163   0.51570   0.55490
     Eigenvalues ---    1.41503
 En-DIIS/RFO-DIIS/Sim-DIIS IScMMF=       -3 using points:    14   13   12   11   10    9    8    7    6    5
 RFO step:  Lambda=-9.39099808D-07.
 NNeg= 0 NGDIIS=10 SimSw=  2.50D-01 Rises=F DC= -3.10D-06 SmlDif=  1.00D-05
 NRisDI= 0 DoIntr=F SqrtH=F CThrHd= 10.0 CDAdj=  3.0
 RMS Error=  0.1148642860D-02 NUsed=10 OKEnD=F EnDIS=F
 InvSVX:  RCond= 1.24D-07 Info=           0 Equed=N FErr=  1.21D-10 BErr=  4.39D-17
 DIIS inversion failure, remove point  10.
 InvSVX:  RCond= 1.49D-07 Info=           0 Equed=N FErr=  9.33D-11 BErr=  5.09D-17
 RFO-DIIS uses    9 points instead of   10
 DidBck=F Rises=F RFO-DIIS coefs:    1.40578   -0.49744    0.14911    0.02107   -0.20421
                  RFO-DIIS coefs:    0.04553    0.30669   -0.19917   -0.02735    0.00000
 Iteration  1 RMS(Cart)=  0.00121910 RMS(Int)=  0.00000704
 Iteration  2 RMS(Cart)=  0.00000255 RMS(Int)=  0.00000660
 Iteration  3 RMS(Cart)=  0.00000000 RMS(Int)=  0.00000660
 ITry= 1 IFail=0 DXMaxC= 6.00D-03 DCOld= 1.00D+10 DXMaxT= 1.18D+00 DXLimC= 3.00D+00 Rises=F
 Variable       Old X    -DE/DX   Delta X   Delta X   Delta X     New X
                                 (Linear)    (Quad)   (Total)
    R1        2.66290   0.00013  -0.00009   0.00040   0.00031   2.66321
    R2        1.82419   0.00006  -0.00005   0.00004  -0.00001   1.82418
    R3        2.73157  -0.00018  -0.00006  -0.00030  -0.00035   2.73122
    R4        2.87204   0.00006   0.00000   0.00011   0.00011   2.87215
    R5        2.09476   0.00001  -0.00003   0.00002  -0.00000   2.09476
    R6        1.92800  -0.00004  -0.00014  -0.00000  -0.00015   1.92785
    R7        1.92555  -0.00005  -0.00021   0.00002  -0.00020   1.92536
    R8        2.64103   0.00005  -0.00001   0.00011   0.00010   2.64114
    R9        2.64222  -0.00002   0.00011  -0.00015  -0.00004   2.64218
   R10        2.62656   0.00002   0.00003  -0.00002   0.00001   2.62657
   R11        2.06175  -0.00001  -0.00005   0.00001  -0.00004   2.06171
   R12        2.65033   0.00003  -0.00005   0.00006   0.00001   2.65034
   R13        2.06233   0.00001  -0.00001   0.00002   0.00001   2.06234
   R14        2.71308   0.00004  -0.00032   0.00028  -0.00003   2.71305
   R15        2.65006   0.00000   0.00022  -0.00017   0.00004   2.65010
   R16        2.19212   0.00006  -0.00008   0.00010   0.00002   2.19214
   R17        2.62655   0.00002  -0.00014   0.00010  -0.00004   2.62651
   R18        2.06200   0.00002  -0.00000   0.00003   0.00002   2.06203
   R19        2.06537   0.00002  -0.00007   0.00008   0.00001   2.06538
    A1        1.88041   0.00014  -0.00002   0.00086   0.00084   1.88124
    A2        1.86052  -0.00002  -0.00076   0.00053  -0.00023   1.86030
    A3        1.96011   0.00003   0.00009  -0.00007   0.00002   1.96012
    A4        1.89699  -0.00001   0.00031  -0.00047  -0.00016   1.89683
    A5        1.90605   0.00003   0.00015   0.00012   0.00027   1.90632
    A6        1.96673  -0.00001   0.00009  -0.00009  -0.00000   1.96673
    A7        1.87500  -0.00001   0.00013  -0.00003   0.00010   1.87510
    A8        1.89613   0.00003   0.00022   0.00037   0.00058   1.89671
    A9        1.90335  -0.00002   0.00029   0.00043   0.00071   1.90406
   A10        1.84923   0.00002   0.00049   0.00008   0.00054   1.84977
   A11        2.10343   0.00005  -0.00082   0.00056  -0.00026   2.10317
   A12        2.09247  -0.00003   0.00090  -0.00047   0.00042   2.09289
   A13        2.08655  -0.00003  -0.00001  -0.00010  -0.00011   2.08644
   A14        2.10371   0.00001   0.00001   0.00008   0.00009   2.10380
   A15        2.08485  -0.00000  -0.00013   0.00010  -0.00003   2.08482
   A16        2.09459  -0.00001   0.00012  -0.00018  -0.00006   2.09453
   A17        2.08543  -0.00001   0.00013  -0.00014  -0.00001   2.08542
   A18        2.10481  -0.00000  -0.00009   0.00003  -0.00005   2.10476
   A19        2.09294   0.00001  -0.00004   0.00010   0.00006   2.09301
   A20        2.09063   0.00002   0.00011   0.00002   0.00014   2.09077
   A21        2.10172  -0.00001  -0.00025   0.00015  -0.00011   2.10161
   A22        2.09083  -0.00001   0.00014  -0.00017  -0.00003   2.09080
   A23        2.08274   0.00001   0.00023  -0.00011   0.00012   2.08286
   A24        2.09490  -0.00000  -0.00030   0.00018  -0.00012   2.09478
   A25        2.10553  -0.00000   0.00007  -0.00007   0.00001   2.10554
   A26        2.10622   0.00002  -0.00010   0.00011   0.00001   2.10623
   A27        2.08863  -0.00000   0.00008   0.00001   0.00008   2.08871
   A28        2.08832  -0.00002   0.00003  -0.00012  -0.00009   2.08823
   A29        3.14137   0.00001   0.00018   0.00010   0.00028   3.14165
   A30        3.14193   0.00000  -0.00017   0.00010  -0.00007   3.14186
    D1       -2.96830   0.00001   0.00145  -0.00078   0.00067  -2.96763
    D2        1.22811  -0.00003   0.00171  -0.00123   0.00047   1.22858
    D3       -0.84397  -0.00002   0.00129  -0.00085   0.00044  -0.84353
    D4        1.32722  -0.00002   0.00356   0.00019   0.00374   1.33096
    D5       -2.94799   0.00001   0.00434   0.00072   0.00507  -2.94291
    D6       -2.83448   0.00002   0.00329   0.00049   0.00378  -2.83070
    D7       -0.82650   0.00005   0.00408   0.00102   0.00511  -0.82139
    D8       -0.75225   0.00002   0.00361   0.00048   0.00408  -0.74817
    D9        1.25572   0.00005   0.00440   0.00100   0.00542   1.26114
   D10        0.52975   0.00001  -0.00183   0.00074  -0.00109   0.52867
   D11       -2.65329   0.00001  -0.00011   0.00043   0.00032  -2.65297
   D12       -1.53026   0.00000  -0.00103   0.00004  -0.00099  -1.53125
   D13        1.56987  -0.00000   0.00069  -0.00027   0.00042   1.57030
   D14        2.61473   0.00001  -0.00131   0.00010  -0.00121   2.61352
   D15       -0.56832   0.00000   0.00041  -0.00021   0.00020  -0.56812
   D16        3.09998  -0.00001   0.00211  -0.00092   0.00121   3.10119
   D17       -0.05109   0.00001   0.00153   0.00003   0.00158  -0.04951
   D18       -0.00029  -0.00000   0.00040  -0.00061  -0.00021  -0.00050
   D19        3.13182   0.00001  -0.00018   0.00035   0.00016   3.13198
   D20       -3.09932   0.00000  -0.00187   0.00080  -0.00104  -3.10036
   D21        0.04706  -0.00001  -0.00171   0.00009  -0.00159   0.04546
   D22        0.00122  -0.00000  -0.00016   0.00051   0.00035   0.00157
   D23       -3.13559  -0.00001  -0.00000  -0.00020  -0.00020  -3.13579
   D24       -0.00127   0.00000  -0.00008   0.00004  -0.00004  -0.00131
   D25        3.14015   0.00001  -0.00037   0.00071   0.00034   3.14049
   D26       -3.13333  -0.00002   0.00050  -0.00092  -0.00041  -3.13374
   D27        0.00809  -0.00001   0.00022  -0.00025  -0.00003   0.00807
   D28        3.13938   0.00000  -0.00068   0.00050  -0.00018   3.13920
   D29        0.00194   0.00000  -0.00048   0.00063   0.00015   0.00209
   D30       -0.00205  -0.00001  -0.00040  -0.00016  -0.00056  -0.00260
   D31       -3.13948  -0.00001  -0.00019  -0.00004  -0.00023  -3.13971
   D32       -0.00103  -0.00000   0.00071  -0.00072  -0.00001  -0.00104
   D33        3.13584   0.00000   0.00041  -0.00019   0.00023   3.13606
   D34       -3.13847  -0.00000   0.00091  -0.00060   0.00031  -3.13815
   D35       -0.00160   0.00000   0.00062  -0.00006   0.00056  -0.00104
   D36       -0.00056   0.00000  -0.00039   0.00015  -0.00024  -0.00079
   D37        3.13625   0.00001  -0.00055   0.00086   0.00031   3.13657
   D38       -3.13739  -0.00000  -0.00009  -0.00039  -0.00048  -3.13787
   D39       -0.00058   0.00001  -0.00025   0.00032   0.00007  -0.00051
         Item               Value     Threshold  Converged?
 Maximum Force            0.000179     0.000450     YES
 RMS     Force            0.000035     0.000300     YES
 Maximum Displacement     0.006002     0.001800     NO 
 RMS     Displacement     0.001219     0.001200     NO 
 Predicted change in Energy=-3.919186D-07
 Lowest energy point so far.  Saving SCF results.
 GradGradGradGradGradGradGradGradGradGradGradGradGradGradGradGradGradGrad

 Leave Link  103 at Tue Oct 21 15:11:34 2025, MaxMem=  4294967296 cpu:               0.2 elap:               0.1
 (Enter /lrz/sys/applications/gaussian/g16.C.01/x86_64_legacy/exe/l202.exe)
                          Input orientation:                          
 ---------------------------------------------------------------------
 Center     Atomic      Atomic             Coordinates (Angstroms)
 Number     Number       Type             X           Y           Z
 ---------------------------------------------------------------------
      1          8           0        3.065482    0.278394    1.170350
      2          6           0        2.496252   -0.180771   -0.034346
      3          7           0        2.981499    0.692193   -1.079026
      4          6           0        0.977285   -0.134709   -0.009052
      5          6           0        0.309365    0.831174    0.748785
      6          6           0       -1.078560    0.904318    0.734813
      7          6           0       -1.809643   -0.000028   -0.049199
      8          6           0       -3.243627    0.067712   -0.066221
      9          7           0       -4.402272    0.122654   -0.080132
     10          6           0       -1.148930   -0.973478   -0.812422
     11          6           0        0.239421   -1.033172   -0.785732
     12          1           0        2.883334   -0.380036    1.852351
     13          1           0        2.793989   -1.237480   -0.187609
     14          1           0        3.947328    0.441709   -1.291608
     15          1           0        2.452155    0.517622   -1.931895
     16          1           0        0.886215    1.525684    1.361326
     17          1           0       -1.601061    1.657514    1.327026
     18          1           0       -1.724283   -1.677194   -1.416095
     19          1           0        0.759317   -1.792845   -1.374930
 ---------------------------------------------------------------------
                    Distance matrix (angstroms):
                    1          2          3          4          5
     1  O    0.000000
     2  C    1.409308   0.000000
     3  N    2.288663   1.445299   0.000000
     4  C    2.433560   1.519875   2.417743   0.000000
     5  C    2.842440   2.533733   3.240449   1.397629   0.000000
     6  C    4.213616   3.814224   4.451863   2.420622   1.389921
     7  C    5.033058   4.309712   4.949218   2.790470   2.412026
     8  C    6.432601   5.745343   6.337818   4.226150   3.724361
     9  N    7.573329   6.905345   7.472766   5.386179   4.836179
    10  C    4.822847   3.810662   4.461612   2.422753   2.796563
    11  C    3.678735   2.526747   3.252982   1.398181   2.415662
    12  H    0.965316   1.936276   3.122865   2.675450   3.051263
    13  H    2.053202   1.108499   2.133875   2.132698   3.365936
    14  H    2.620222   2.018369   1.020176   3.286086   4.189232
    15  H    3.171329   2.022472   1.018855   2.509601   3.446144
    16  H    2.518216   2.729855   3.322686   2.154793   1.091011
    17  H    4.868588   4.692611   5.265054   3.412483   2.160307
    18  H    5.784105   4.686302   5.279393   3.414308   3.887716
    19  H    4.010845   2.722662   3.346799   2.159293   3.405598
                    6          7          8          9         10
     6  C    0.000000
     7  C    1.402498   0.000000
     8  C    2.455419   1.435684   0.000000
     9  N    3.510299   2.595714   1.160030   0.000000
    10  C    2.434134   1.402375   2.455330   3.510268   0.000000
    11  C    2.793385   2.410090   3.723073   4.835196   1.389891
    12  H    4.312199   5.077828   6.435919   7.554286   4.869533
    13  H    4.520487   4.769054   6.178274   7.324458   4.000838
    14  H    5.438744   5.906050   7.304196   8.443062   5.310765
    15  H    4.441487   4.687795   6.010415   7.111131   4.055171
    16  H    2.153823   3.403679   4.606427   5.658125   3.887519
    17  H    1.091342   2.164474   2.677056   3.490368   3.421079
    18  H    3.421632   2.165312   2.678668   3.492259   1.091177
    19  H    3.886322   3.401663   4.604124   5.655761   2.151555
                   11         12         13         14         15
    11  C    0.000000
    12  H    3.791615   0.000000
    13  H    2.631598   2.214640   0.000000
    14  H    4.022407   3.419331   2.317042   0.000000
    15  H    2.935105   3.913084   2.497953   1.628274   0.000000
    16  H    3.402344   2.803812   3.697821   4.193266   3.783340
    17  H    3.884703   4.953522   5.476457   6.254603   5.324329
    18  H    2.160614   5.796162   4.702904   6.055776   4.746145
    19  H    1.092954   4.113735   2.420341   3.894045   2.917904
                   16         17         18         19
    16  H    0.000000
    17  H    2.491003   0.000000
    18  H    4.978673   4.319742   0.000000
    19  H    4.303003   4.977643   2.486632   0.000000
 Stoichiometry    C8H8N2O
 Framework group  C1[X(C8H8N2O)]
 Deg. of freedom    51
 Full point group                 C1      NOp   1
 RotChk:  IX=2 Diff= 2.44D-04
 Largest Abelian subgroup         C1      NOp   1
 Largest concise Abelian subgroup C1      NOp   1
                         Standard orientation:                         
 ---------------------------------------------------------------------
 Center     Atomic      Atomic             Coordinates (Angstroms)
 Number     Number       Type             X           Y           Z
 ---------------------------------------------------------------------
      1          8           0       -3.022094   -0.991314    0.586695
      2          6           0       -2.418341    0.224508    0.208000
      3          7           0       -2.910510    0.535100   -1.114948
      4          6           0       -0.902077    0.127781    0.167927
      5          6           0       -0.276418   -1.082703   -0.142949
      6          6           0        1.108780   -1.160653   -0.226795
      7          6           0        1.879950   -0.011731    0.001843
      8          6           0        3.311394   -0.085444   -0.080161
      9          7           0        4.467982   -0.145006   -0.146680
     10          6           0        1.261814    1.207402    0.315336
     11          6           0       -0.124433    1.267092    0.396296
     12          1           0       -2.832740   -1.135788    1.522166
     13          1           0       -2.682067    0.999729    0.955163
     14          1           0       -3.864627    0.887094   -1.034196
     15          1           0       -2.361233    1.300039   -1.503830
     16          1           0       -0.884229   -1.972818   -0.311968
     17          1           0        1.598302   -2.105633   -0.468473
     18          1           0        1.868242    2.096154    0.497079
     19          1           0       -0.611214    2.213550    0.644912
 ---------------------------------------------------------------------
 Rotational constants (GHZ):           3.4594990           0.5544516           0.5124466
 Leave Link  202 at Tue Oct 21 15:11:34 2025, MaxMem=  4294967296 cpu:               0.1 elap:               0.0
 (Enter /lrz/sys/applications/gaussian/g16.C.01/x86_64_legacy/exe/l301.exe)
 Standard basis: def2SVP (5D, 7F)
 Ernie: Thresh=  0.10000D-02 Tol=  0.10000D-05 Strict=F.
 There are   205 symmetry adapted cartesian basis functions of A   symmetry.
 There are   194 symmetry adapted basis functions of A   symmetry.
   194 basis functions,   331 primitive gaussians,   205 cartesian basis functions
    39 alpha electrons       39 beta electrons
       nuclear repulsion energy       545.3600200079 Hartrees.
 IExCor= 4639 DFT=T Ex+Corr=wB97XD ExCW=0 ScaHFX=  1.000000
 ScaDFX=  1.000000  1.000000  1.000000  1.000000 ScalE2=  1.000000  1.000000
 IRadAn=      5 IRanWt=     -1 IRanGd=            0 ICorTp=0 IEmpDi=121
 HFx  wShort=  0.000000 wLong=  0.200000 cFull=  0.222036 cShort=  0.000000 cLong=  0.777964
 DFx  wShort=  0.000000 wLong=  0.200000 cFull=  0.000000 cShort=  0.000000 cLong=  1.000000
 NAtoms=   19 NActive=   19 NUniq=   19 SFac= 1.00D+00 NAtFMM=   60 NAOKFM=F Big=F
 Integral buffers will be    131072 words long.
 Raffenetti 2 integral format.
 Two-electron integral symmetry is turned on.
 R6Disp:  Grimme-D2 Dispersion energy=       -0.0103306683 Hartrees.
 Nuclear repulsion after empirical dispersion term =      545.3496893396 Hartrees.
 ------------------------------------------------------------------------------
 Polarizable Continuum Model (PCM)
 =================================
 Model                : PCM.
 Atomic radii         : SMD-Coulomb.
 Polarization charges : Total charges.
 Charge compensation  : None.
 Solution method      : On-the-fly selection.
 Cavity type          : VdW (van der Waals Surface) (Alpha=1.000).
 Cavity algorithm     : GePol (No added spheres)
                        Default sphere list used, NSphG=   19.
                        Lebedev-Laikov grids with approx.  5.0 points / Ang**2.
                        Smoothing algorithm: York/Karplus (Gamma=1.0000).
                        Polarization charges: spherical gaussians, with
                                              point-specific exponents (IZeta= 3).
                        Self-potential: point-specific (ISelfS= 7).
                        Self-field    : sphere-specific E.n sum rule (ISelfD= 2).
 1st derivatives      : Analytical E(r).r(x)/FMM algorithm (CHGder, D1EAlg=3).
                        Cavity 1st derivative terms included.
 Solvent              : Water, Eps=  78.355300 Eps(inf)=   1.777849
 ------------------------------------------------------------------------------
 Spheres list:
 ISph  on   Nord     Re0    Alpha      Xe            Ye            Ze
    1   O      1    1.5200  1.000     -3.022094     -0.991314      0.586695
    2   C      2    1.8500  1.000     -2.418341      0.224508      0.208000
    3   N      3    1.8900  1.000     -2.910510      0.535100     -1.114948
    4   C      4    1.8500  1.000     -0.902077      0.127781      0.167927
    5   C      5    1.8500  1.000     -0.276418     -1.082703     -0.142949
    6   C      6    1.8500  1.000      1.108780     -1.160653     -0.226795
    7   C      7    1.8500  1.000      1.879950     -0.011731      0.001843
    8   C      8    1.8500  1.000      3.311394     -0.085444     -0.080161
    9   N      9    1.8900  1.000      4.467982     -0.145006     -0.146680
   10   C     10    1.8500  1.000      1.261814      1.207402      0.315336
   11   C     11    1.8500  1.000     -0.124433      1.267092      0.396296
   12   H     12    1.2000  1.000     -2.832740     -1.135788      1.522166
   13   H     13    1.2000  1.000     -2.682067      0.999729      0.955163
   14   H     14    1.2000  1.000     -3.864627      0.887094     -1.034196
   15   H     15    1.2000  1.000     -2.361233      1.300039     -1.503830
   16   H     16    1.2000  1.000     -0.884229     -1.972818     -0.311968
   17   H     17    1.2000  1.000      1.598302     -2.105633     -0.468473
   18   H     18    1.2000  1.000      1.868242      2.096154      0.497079
   19   H     19    1.2000  1.000     -0.611214      2.213550      0.644912
 ------------------------------------------------------------------------------
 GePol: Number of generator spheres                  =      19
 GePol: Total number of spheres                      =      19
 GePol: Number of exposed spheres                    =      19 (100.00%)
 GePol: Number of points                             =    1639
 GePol: Average weight of points                     =       0.11
 GePol: Minimum weight of points                     =   0.24D-08
 GePol: Maximum weight of points                     =    0.21991
 GePol: Number of points with low weight             =      95
 GePol: Fraction of low-weight points (<1% of avg)   =       5.80%
 GePol: Cavity surface area                          =    188.166 Ang**2
 GePol: Cavity volume                                =    161.899 Ang**3
 ------------------------------------------------------------------------------
 Atomic radii for non-electrostatic terms: SMD-CDS.
 ------------------------------------------------------------------------------
 PCM non-electrostatic energy =         0.0070200536 Hartrees.
 Nuclear repulsion after PCM non-electrostatic terms =      545.3567093932 Hartrees.
 Leave Link  301 at Tue Oct 21 15:11:34 2025, MaxMem=  4294967296 cpu:               0.6 elap:               0.1
 (Enter /lrz/sys/applications/gaussian/g16.C.01/x86_64_legacy/exe/l302.exe)
 NPDir=0 NMtPBC=     1 NCelOv=     1 NCel=       1 NClECP=     1 NCelD=      1
         NCelK=      1 NCelE2=     1 NClLst=     1 CellRange=     0.0.
 One-electron integrals computed using PRISM.
 One-electron integral symmetry used in STVInt
   1 Symmetry operations used in ECPInt.
 ECPInt:  NShTT=    4095 NPrTT=   15045 LenC2=    3950 LenP2D=   11135.
 LDataN:  DoStor=T MaxTD1= 4 Len=   56
 NBasis=   194 RedAO= T EigKep=  2.77D-04  NBF=   194
 NBsUse=   194 1.00D-06 EigRej= -1.00D+00 NBFU=   194
 Precomputing XC quadrature grid using
 IXCGrd= 4 IRadAn=           5 IRanWt=          -1 IRanGd=           0 AccXCQ= 0.00D+00.
 Generated NRdTot=       0 NPtTot=           0 NUsed=           0 NTot=          32
 NSgBfM=   204   204   204   204   204 MxSgAt=    19 MxSgA2=    19.
 Leave Link  302 at Tue Oct 21 15:11:34 2025, MaxMem=  4294967296 cpu:               2.1 elap:               0.3
 (Enter /lrz/sys/applications/gaussian/g16.C.01/x86_64_legacy/exe/l303.exe)
 DipDrv:  MaxL=1.
 Leave Link  303 at Tue Oct 21 15:11:34 2025, MaxMem=  4294967296 cpu:               0.3 elap:               0.0
 (Enter /lrz/sys/applications/gaussian/g16.C.01/x86_64_legacy/exe/l401.exe)
 Initial guess from the checkpoint file:  "g16_C12-a_10.chk"
 B after Tr=    -0.000000    0.000000    0.000000
         Rot=    1.000000   -0.000074   -0.000032   -0.000014 Ang=  -0.01 deg.
 Guess basis will be translated and rotated to current coordinates.
 JPrj=2 DoOrth=T DoCkMO=T.
 Leave Link  401 at Tue Oct 21 15:11:34 2025, MaxMem=  4294967296 cpu:               1.0 elap:               0.1
 (Enter /lrz/sys/applications/gaussian/g16.C.01/x86_64_legacy/exe/l502.exe)
 Integral symmetry usage will be decided dynamically.
 Closed shell SCF:
 Using DIIS extrapolation, IDIIS=  1040.
 NGot=  4294967296 LenX=  4294878900 LenY=  4294836434
 Requested convergence on RMS density matrix=1.00D-08 within 128 cycles.
 Requested convergence on MAX density matrix=1.00D-06.
 Requested convergence on             energy=1.00D-06.
 No special actions if energy rises.
 Fock matrices will be formed incrementally for  20 cycles.

 Cycle   1  Pass 1  IDiag  1:
 FoFJK:  IHMeth= 1 ICntrl=       0 DoSepK=T KAlg= 0 I1Cent=           0 FoldK=F
 IRaf=         1 NMat=       1 IRICut=       1 DoRegI=T DoRafI=F ISym2E= 0 IDoP0=0 IntGTp=1.
 FoFCou: FMM=F IPFlag=           0 FMFlag=      100000 FMFlg1=           0
         NFxFlg=           0 DoJE=T BraDBF=F KetDBF=F FulRan=T
         wScrn=  0.000000 ICntrl=       500 IOpCl=  0 I1Cent=           0 NGrid=           0
         NMat0=    1 NMatS0=      1 NMatT0=    0 NMatD0=    1 NMtDS0=    0 NMtDT0=    0
 Symmetry not used in FoFCou.
 Inv3:  Mode=1 IEnd=     8058963.
 Iteration    1 A*A^-1 deviation from unit magnitude is 5.77D-15 for    620.
 Iteration    1 A*A^-1 deviation from orthogonality  is 2.98D-15 for    621    293.
 Iteration    1 A^-1*A deviation from unit magnitude is 6.22D-15 for    620.
 Iteration    1 A^-1*A deviation from orthogonality  is 4.07D-15 for    717    183.
 E= -493.864117393324    
 DIIS: error= 9.99D-05 at cycle   1 NSaved=   1.
 NSaved= 1 IEnMin= 1 EnMin= -493.864117393324     IErMin= 1 ErrMin= 9.99D-05
 ErrMax= 9.99D-05  0.00D+00 EMaxC= 1.00D-01 BMatC= 3.05D-06 BMatP= 3.05D-06
 IDIUse=1 WtCom= 1.00D+00 WtEn= 0.00D+00
 Coeff-Com:  0.100D+01
 Coeff:      0.100D+01
 Gap=     0.780 Goal=   None    Shift=    0.000
 RMSDP=1.66D-05 MaxDP=5.75D-04              OVMax= 5.78D-04

 Cycle   2  Pass 1  IDiag  1:
 RMSU=  1.66D-05    CP:  1.00D+00
 E= -493.864121562035     Delta-E=       -0.000004168711 Rises=F Damp=F
 DIIS: error= 2.69D-05 at cycle   2 NSaved=   2.
 NSaved= 2 IEnMin= 2 EnMin= -493.864121562035     IErMin= 2 ErrMin= 2.69D-05
 ErrMax= 2.69D-05  0.00D+00 EMaxC= 1.00D-01 BMatC= 9.81D-08 BMatP= 3.05D-06
 IDIUse=1 WtCom= 1.00D+00 WtEn= 0.00D+00
 Coeff-Com: -0.159D+00 0.116D+01
 Coeff:     -0.159D+00 0.116D+01
 Gap=     0.340 Goal=   None    Shift=    0.000
 RMSDP=3.78D-06 MaxDP=1.31D-04 DE=-4.17D-06 OVMax= 2.19D-04

 Cycle   3  Pass 1  IDiag  1:
 RMSU=  2.50D-06    CP:  1.00D+00  1.17D+00
 E= -493.864121797677     Delta-E=       -0.000000235642 Rises=F Damp=F
 DIIS: error= 6.84D-06 at cycle   3 NSaved=   3.
 NSaved= 3 IEnMin= 3 EnMin= -493.864121797677     IErMin= 3 ErrMin= 6.84D-06
 ErrMax= 6.84D-06  0.00D+00 EMaxC= 1.00D-01 BMatC= 5.65D-09 BMatP= 9.81D-08
 IDIUse=1 WtCom= 1.00D+00 WtEn= 0.00D+00
 Coeff-Com: -0.194D-01 0.603D-01 0.959D+00
 Coeff:     -0.194D-01 0.603D-01 0.959D+00
 Gap=     0.340 Goal=   None    Shift=    0.000
 RMSDP=9.24D-07 MaxDP=2.51D-05 DE=-2.36D-07 OVMax= 4.94D-05

 Cycle   4  Pass 1  IDiag  1:
 RMSU=  6.54D-07    CP:  1.00D+00  1.19D+00  1.23D+00
 E= -493.864121806265     Delta-E=       -0.000000008588 Rises=F Damp=F
 DIIS: error= 2.86D-06 at cycle   4 NSaved=   4.
 NSaved= 4 IEnMin= 4 EnMin= -493.864121806265     IErMin= 4 ErrMin= 2.86D-06
 ErrMax= 2.86D-06  0.00D+00 EMaxC= 1.00D-01 BMatC= 3.32D-09 BMatP= 5.65D-09
 IDIUse=1 WtCom= 1.00D+00 WtEn= 0.00D+00
 Coeff-Com:  0.119D-01-0.127D+00 0.466D+00 0.649D+00
 Coeff:      0.119D-01-0.127D+00 0.466D+00 0.649D+00
 Gap=     0.340 Goal=   None    Shift=    0.000
 RMSDP=3.97D-07 MaxDP=9.24D-06 DE=-8.59D-09 OVMax= 1.96D-05

 Cycle   5  Pass 1  IDiag  1:
 RMSU=  2.17D-07    CP:  1.00D+00  1.19D+00  1.35D+00  8.24D-01
 E= -493.864121809664     Delta-E=       -0.000000003399 Rises=F Damp=F
 DIIS: error= 6.17D-07 at cycle   5 NSaved=   5.
 NSaved= 5 IEnMin= 5 EnMin= -493.864121809664     IErMin= 5 ErrMin= 6.17D-07
 ErrMax= 6.17D-07  0.00D+00 EMaxC= 1.00D-01 BMatC= 1.02D-10 BMatP= 3.32D-09
 IDIUse=1 WtCom= 1.00D+00 WtEn= 0.00D+00
 Coeff-Com:  0.384D-02-0.336D-01 0.408D-01 0.145D+00 0.844D+00
 Coeff:      0.384D-02-0.336D-01 0.408D-01 0.145D+00 0.844D+00
 Gap=     0.340 Goal=   None    Shift=    0.000
 RMSDP=1.29D-07 MaxDP=4.20D-06 DE=-3.40D-09 OVMax= 6.92D-06

 Cycle   6  Pass 1  IDiag  1:
 RMSU=  6.93D-08    CP:  1.00D+00  1.19D+00  1.38D+00  9.11D-01  1.18D+00
 E= -493.864121809812     Delta-E=       -0.000000000148 Rises=F Damp=F
 DIIS: error= 5.50D-07 at cycle   6 NSaved=   6.
 NSaved= 6 IEnMin= 6 EnMin= -493.864121809812     IErMin= 6 ErrMin= 5.50D-07
 ErrMax= 5.50D-07  0.00D+00 EMaxC= 1.00D-01 BMatC= 4.98D-11 BMatP= 1.02D-10
 IDIUse=1 WtCom= 1.00D+00 WtEn= 0.00D+00
 Coeff-Com:  0.792D-04 0.344D-02-0.590D-01-0.324D-01 0.463D+00 0.625D+00
 Coeff:      0.792D-04 0.344D-02-0.590D-01-0.324D-01 0.463D+00 0.625D+00
 Gap=     0.340 Goal=   None    Shift=    0.000
 RMSDP=5.46D-08 MaxDP=1.76D-06 DE=-1.48D-10 OVMax= 3.00D-06

 Cycle   7  Pass 1  IDiag  1:
 RMSU=  2.85D-08    CP:  1.00D+00  1.19D+00  1.39D+00  9.44D-01  1.32D+00
                    CP:  8.91D-01
 E= -493.864121809875     Delta-E=       -0.000000000063 Rises=F Damp=F
 DIIS: error= 1.13D-07 at cycle   7 NSaved=   7.
 NSaved= 7 IEnMin= 7 EnMin= -493.864121809875     IErMin= 7 ErrMin= 1.13D-07
 ErrMax= 1.13D-07  0.00D+00 EMaxC= 1.00D-01 BMatC= 2.70D-12 BMatP= 4.98D-11
 IDIUse=1 WtCom= 1.00D+00 WtEn= 0.00D+00
 Coeff-Com: -0.484D-03 0.596D-02-0.247D-01-0.303D-01 0.335D-01 0.207D+00
 Coeff-Com:  0.809D+00
 Coeff:     -0.484D-03 0.596D-02-0.247D-01-0.303D-01 0.335D-01 0.207D+00
 Coeff:      0.809D+00
 Gap=     0.340 Goal=   None    Shift=    0.000
 RMSDP=1.93D-08 MaxDP=6.12D-07 DE=-6.34D-11 OVMax= 1.19D-06

 Cycle   8  Pass 1  IDiag  1:
 RMSU=  8.95D-09    CP:  1.00D+00  1.19D+00  1.40D+00  9.53D-01  1.38D+00
                    CP:  1.01D+00  1.06D+00
 E= -493.864121809877     Delta-E=       -0.000000000002 Rises=F Damp=F
 DIIS: error= 2.69D-08 at cycle   8 NSaved=   8.
 NSaved= 8 IEnMin= 8 EnMin= -493.864121809877     IErMin= 8 ErrMin= 2.69D-08
 ErrMax= 2.69D-08  0.00D+00 EMaxC= 1.00D-01 BMatC= 3.78D-13 BMatP= 2.70D-12
 IDIUse=1 WtCom= 1.00D+00 WtEn= 0.00D+00
 Coeff-Com: -0.217D-03 0.233D-02-0.616D-02-0.105D-01-0.214D-01 0.398D-01
 Coeff-Com:  0.345D+00 0.651D+00
 Coeff:     -0.217D-03 0.233D-02-0.616D-02-0.105D-01-0.214D-01 0.398D-01
 Coeff:      0.345D+00 0.651D+00
 Gap=     0.340 Goal=   None    Shift=    0.000
 RMSDP=5.04D-09 MaxDP=1.09D-07 DE=-1.59D-12 OVMax= 2.62D-07

 Error on total polarization charges =  0.02903
 SCF Done:  E(RwB97XD) =  -493.864121810     A.U. after    8 cycles
            NFock=  8  Conv=0.50D-08     -V/T= 2.0101
 KE= 4.889122767040D+02 PE=-2.238706540440D+03 EE= 7.105734325329D+02
 SMD-CDS (non-electrostatic) energy       (kcal/mol) =       4.41
 (included in total energy above)
 Leave Link  502 at Tue Oct 21 15:12:06 2025, MaxMem=  4294967296 cpu:             251.6 elap:              31.7
 (Enter /lrz/sys/applications/gaussian/g16.C.01/x86_64_legacy/exe/l701.exe)
 ... and contract with generalized density number  0.
 Compute integral first derivatives.
 R6Disp: Adding Grimme-D2 dispersion energy 1st derivatives to the gradient.
   1 Symmetry operations used in ECPInt.
 ECPInt:  NShTT=    4095 NPrTT=   15045 LenC2=    3950 LenP2D=   11135.
 LDataN:  DoStor=T MaxTD1= 5 Len=  102
 D1PCM: PCM CHGder 1st derivatives, ID1Alg=3 FixD1E=F DoIter=F DoCFld=F I1PDM=0.
 GePol: Maximum number of non-zero 1st derivatives   =     269
 Leave Link  701 at Tue Oct 21 15:12:07 2025, MaxMem=  4294967296 cpu:              10.3 elap:               1.3
 (Enter /lrz/sys/applications/gaussian/g16.C.01/x86_64_legacy/exe/l702.exe)
 L702 exits ... SP integral derivatives will be done elsewhere.
 Leave Link  702 at Tue Oct 21 15:12:08 2025, MaxMem=  4294967296 cpu:               0.2 elap:               0.0
 (Enter /lrz/sys/applications/gaussian/g16.C.01/x86_64_legacy/exe/l703.exe)
 Integral derivatives from FoFJK, PRISM(SPDF).
 Compute integral first derivatives, UseDBF=F ICtDFT=           0.
 Calling FoFJK, ICntrl=      2127 FMM=F ISym2X=0 I1Cent= 0 IOpClX= 0 NMat=1 NMatS=1 NMatT=0.
 FoFJK:  IHMeth= 1 ICntrl=    2127 DoSepK=T KAlg= 0 I1Cent=           0 FoldK=F
 IRaf=         1 NMat=       1 IRICut=       1 DoRegI=T DoRafI=F ISym2E= 0 IDoP0=0 IntGTp=1.
 FoFCou: FMM=F IPFlag=           0 FMFlag=      100000 FMFlg1=         800
         NFxFlg=           0 DoJE=F BraDBF=F KetDBF=F FulRan=T
         wScrn=  0.000000 ICntrl=      2527 IOpCl=  0 I1Cent=           0 NGrid=           0
         NMat0=    1 NMatS0=      1 NMatT0=    0 NMatD0=    1 NMtDS0=    0 NMtDT0=    0
 Symmetry not used in FoFCou.
 Leave Link  703 at Tue Oct 21 15:12:16 2025, MaxMem=  4294967296 cpu:              68.6 elap:               8.6
 (Enter /lrz/sys/applications/gaussian/g16.C.01/x86_64_legacy/exe/l716.exe)
 Dipole        =-2.09127852D+00 1.21519780D+00 9.36436140D-01
 ***** Axes restored to original set *****
 -------------------------------------------------------------------
 Center     Atomic                   Forces (Hartrees/Bohr)
 Number     Number              X              Y              Z
 -------------------------------------------------------------------
      1        8           0.000032099   -0.000026323   -0.000015104
      2        6           0.000004578    0.000156288   -0.000169709
      3        7           0.000052375   -0.000093324    0.000067503
      4        6          -0.000001693   -0.000061009    0.000153480
      5        6          -0.000030637   -0.000004405   -0.000017322
      6        6          -0.000003407    0.000023100   -0.000006843
      7        6           0.000062292   -0.000027611   -0.000011770
      8        6          -0.000006020    0.000010262   -0.000003869
      9        7          -0.000038697   -0.000000720   -0.000014561
     10        6          -0.000053851    0.000014631   -0.000017757
     11        6           0.000057840    0.000044457   -0.000030840
     12        1          -0.000039393   -0.000042557    0.000046194
     13        1           0.000017864    0.000007631    0.000005205
     14        1          -0.000011712    0.000010232   -0.000004498
     15        1          -0.000045003    0.000008476    0.000025804
     16        1          -0.000005060   -0.000003837    0.000008775
     17        1          -0.000005859   -0.000003454    0.000014686
     18        1           0.000005832   -0.000011241   -0.000011965
     19        1           0.000008449   -0.000000597   -0.000017409
 -------------------------------------------------------------------
 Cartesian Forces:  Max     0.000169709 RMS     0.000047142
 Leave Link  716 at Tue Oct 21 15:12:16 2025, MaxMem=  4294967296 cpu:               0.2 elap:               0.0
 (Enter /lrz/sys/applications/gaussian/g16.C.01/x86_64_legacy/exe/l103.exe)

 GradGradGradGradGradGradGradGradGradGradGradGradGradGradGradGradGradGrad
 Berny optimization.
 Using GEDIIS/GDIIS optimizer.
 FormGI is forming the generalized inverse of G from B-inverse, IUseBI=4.
 Internal  Forces:  Max     0.000109835 RMS     0.000027338
 Search for a local minimum.
 Step number  15 out of a maximum of   98
 All quantities printed in internal units (Hartrees-Bohrs-Radians)
 RMS Force = .27338D-04 SwitMx=.10000D-02 MixMth= 2
 Mixed Optimization -- En-DIIS/RFO-DIIS
 Swapping is turned off.
 Update second derivatives using D2CorX and points    9   10   11   12   13
                                                     14   15
 DE= -5.14D-07 DEPred=-3.92D-07 R= 1.31D+00
 Trust test= 1.31D+00 RLast= 1.20D-02 DXMaxT set to 1.18D+00
 ITU=  0  1  1  1  1  1  0  1  1  1  1  1  1  1  0
     Eigenvalues ---    0.00090   0.00268   0.00704   0.02028   0.02154
     Eigenvalues ---    0.02180   0.02232   0.02271   0.02292   0.02332
     Eigenvalues ---    0.02357   0.02458   0.03438   0.05031   0.05177
     Eigenvalues ---    0.06510   0.08783   0.09140   0.15883   0.15979
     Eigenvalues ---    0.15990   0.16008   0.16486   0.16647   0.17562
     Eigenvalues ---    0.20278   0.21861   0.22037   0.22936   0.24345
     Eigenvalues ---    0.25007   0.29779   0.32016   0.32259   0.35908
     Eigenvalues ---    0.35993   0.36213   0.37014   0.41818   0.42813
     Eigenvalues ---    0.43461   0.44306   0.45542   0.45710   0.46185
     Eigenvalues ---    0.47057   0.47518   0.48145   0.51552   0.55591
     Eigenvalues ---    1.41449
 En-DIIS/RFO-DIIS/Sim-DIIS IScMMF=       -3 using points:    15   14   13   12   11   10    9    8    7    6
 RFO step:  Lambda=-5.47520809D-07.
 NNeg= 0 NGDIIS=10 SimSw=  2.50D-01 Rises=F DC= -5.14D-07 SmlDif=  1.00D-05
 NRisDI= 0 DoIntr=F SqrtH=F CThrHd= 10.0 CDAdj=  3.0
 RMS Error=  0.1171889431D-02 NUsed=10 OKEnD=F EnDIS=F
 InvSVX:  RCond= 1.28D-07 Info=           0 Equed=N FErr=  6.15D-11 BErr=  4.43D-17
 DidBck=F Rises=F RFO-DIIS coefs:    1.77715   -0.57562   -0.41509    0.26323   -0.00468
                  RFO-DIIS coefs:   -0.10379   -0.00563    0.21049   -0.15351    0.00744
 Iteration  1 RMS(Cart)=  0.00114542 RMS(Int)=  0.00000725
 Iteration  2 RMS(Cart)=  0.00000240 RMS(Int)=  0.00000685
 Iteration  3 RMS(Cart)=  0.00000000 RMS(Int)=  0.00000685
 ITry= 1 IFail=0 DXMaxC= 6.50D-03 DCOld= 1.00D+10 DXMaxT= 1.18D+00 DXLimC= 3.00D+00 Rises=F
 Variable       Old X    -DE/DX   Delta X   Delta X   Delta X     New X
                                 (Linear)    (Quad)   (Total)
    R1        2.66321   0.00000   0.00019  -0.00011   0.00008   2.66329
    R2        1.82418   0.00006   0.00002   0.00001   0.00003   1.82421
    R3        2.73122  -0.00011  -0.00028  -0.00004  -0.00031   2.73091
    R4        2.87215   0.00001   0.00006  -0.00008  -0.00001   2.87214
    R5        2.09476  -0.00000  -0.00004   0.00003  -0.00001   2.09475
    R6        1.92785  -0.00001  -0.00011   0.00003  -0.00008   1.92777
    R7        1.92536   0.00001  -0.00014   0.00006  -0.00008   1.92528
    R8        2.64114   0.00001   0.00008  -0.00005   0.00003   2.64116
    R9        2.64218  -0.00001  -0.00000  -0.00002  -0.00002   2.64216
   R10        2.62657   0.00001   0.00004  -0.00002   0.00001   2.62658
   R11        2.06171   0.00000  -0.00003   0.00002  -0.00001   2.06170
   R12        2.65034   0.00002  -0.00000   0.00001   0.00001   2.65035
   R13        2.06234   0.00001   0.00002  -0.00001   0.00001   2.06234
   R14        2.71305   0.00005  -0.00007   0.00011   0.00005   2.71310
   R15        2.65010  -0.00001   0.00009  -0.00009   0.00000   2.65010
   R16        2.19214   0.00004   0.00000   0.00002   0.00002   2.19216
   R17        2.62651   0.00003  -0.00005   0.00007   0.00001   2.62653
   R18        2.06203   0.00001   0.00003  -0.00001   0.00001   2.06204
   R19        2.06538   0.00001   0.00000   0.00002   0.00002   2.06540
    A1        1.88124  -0.00001   0.00059  -0.00043   0.00016   1.88141
    A2        1.86030   0.00005  -0.00036   0.00046   0.00010   1.86039
    A3        1.96012  -0.00000   0.00015  -0.00032  -0.00017   1.95996
    A4        1.89683  -0.00002  -0.00000  -0.00020  -0.00020   1.89663
    A5        1.90632   0.00000   0.00021   0.00012   0.00033   1.90665
    A6        1.96673  -0.00002  -0.00007   0.00005  -0.00002   1.96671
    A7        1.87510  -0.00001   0.00007  -0.00012  -0.00005   1.87505
    A8        1.89671   0.00003   0.00037   0.00013   0.00048   1.89719
    A9        1.90406  -0.00006   0.00022   0.00001   0.00022   1.90428
   A10        1.84977   0.00002   0.00033  -0.00004   0.00026   1.85003
   A11        2.10317   0.00011  -0.00035   0.00046   0.00013   2.10330
   A12        2.09289  -0.00011   0.00043  -0.00052  -0.00008   2.09281
   A13        2.08644  -0.00000  -0.00011   0.00006  -0.00004   2.08640
   A14        2.10380  -0.00000   0.00009  -0.00005   0.00003   2.10384
   A15        2.08482   0.00000  -0.00002   0.00002   0.00000   2.08482
   A16        2.09453  -0.00000  -0.00007   0.00003  -0.00004   2.09449
   A17        2.08542  -0.00000   0.00002  -0.00003  -0.00002   2.08541
   A18        2.10476   0.00000  -0.00007   0.00003  -0.00004   2.10472
   A19        2.09301   0.00000   0.00005   0.00000   0.00006   2.09306
   A20        2.09077  -0.00000   0.00011  -0.00007   0.00004   2.09081
   A21        2.10161   0.00001  -0.00013   0.00013  -0.00000   2.10161
   A22        2.09080  -0.00001   0.00002  -0.00005  -0.00003   2.09076
   A23        2.08286  -0.00002   0.00013  -0.00013  -0.00000   2.08286
   A24        2.09478   0.00002  -0.00015   0.00017   0.00003   2.09480
   A25        2.10554  -0.00000   0.00002  -0.00005  -0.00003   2.10551
   A26        2.10623   0.00001   0.00001   0.00002   0.00003   2.10626
   A27        2.08871  -0.00001   0.00005  -0.00001   0.00004   2.08876
   A28        2.08823  -0.00001  -0.00006  -0.00001  -0.00007   2.08816
   A29        3.14165  -0.00001   0.00013  -0.00027  -0.00014   3.14150
   A30        3.14186   0.00000  -0.00008   0.00009   0.00001   3.14187
    D1       -2.96763  -0.00000  -0.00027  -0.00038  -0.00065  -2.96828
    D2        1.22858  -0.00003  -0.00038  -0.00064  -0.00102   1.22757
    D3       -0.84353  -0.00001  -0.00056  -0.00016  -0.00072  -0.84426
    D4        1.33096   0.00000   0.00346   0.00023   0.00367   1.33464
    D5       -2.94291   0.00001   0.00410   0.00025   0.00436  -2.93855
    D6       -2.83070   0.00003   0.00354   0.00018   0.00372  -2.82698
    D7       -0.82139   0.00003   0.00418   0.00021   0.00440  -0.81699
    D8       -0.74817   0.00001   0.00374   0.00014   0.00387  -0.74430
    D9        1.26114   0.00001   0.00438   0.00017   0.00455   1.26569
   D10        0.52867   0.00005   0.00011   0.00045   0.00056   0.52923
   D11       -2.65297   0.00002   0.00053   0.00032   0.00086  -2.65212
   D12       -1.53125  -0.00001   0.00033  -0.00000   0.00033  -1.53092
   D13        1.57030  -0.00004   0.00076  -0.00013   0.00062   1.57092
   D14        2.61352   0.00001   0.00024  -0.00007   0.00018   2.61370
   D15       -0.56812  -0.00002   0.00067  -0.00019   0.00047  -0.56764
   D16        3.10119  -0.00003   0.00074  -0.00040   0.00035   3.10155
   D17       -0.04951  -0.00002   0.00102  -0.00048   0.00055  -0.04896
   D18       -0.00050   0.00000   0.00033  -0.00026   0.00006  -0.00044
   D19        3.13198   0.00001   0.00060  -0.00034   0.00026   3.13224
   D20       -3.10036   0.00002  -0.00072   0.00028  -0.00042  -3.10079
   D21        0.04546   0.00002  -0.00101   0.00046  -0.00053   0.04493
   D22        0.00157  -0.00001  -0.00029   0.00016  -0.00013   0.00144
   D23       -3.13579  -0.00001  -0.00057   0.00034  -0.00024  -3.13603
   D24       -0.00131   0.00000  -0.00008   0.00018   0.00010  -0.00121
   D25        3.14049   0.00000   0.00013  -0.00009   0.00004   3.14054
   D26       -3.13374  -0.00001  -0.00036   0.00026  -0.00010  -3.13384
   D27        0.00807  -0.00001  -0.00015  -0.00001  -0.00016   0.00791
   D28        3.13920   0.00000  -0.00035   0.00025  -0.00011   3.13910
   D29        0.00209  -0.00001  -0.00020  -0.00000  -0.00021   0.00189
   D30       -0.00260   0.00000  -0.00057   0.00052  -0.00005  -0.00265
   D31       -3.13971  -0.00000  -0.00041   0.00026  -0.00015  -3.13986
   D32       -0.00104  -0.00000   0.00024  -0.00010   0.00014  -0.00090
   D33        3.13606  -0.00000   0.00040  -0.00031   0.00010   3.13616
   D34       -3.13815  -0.00001   0.00039  -0.00035   0.00004  -3.13811
   D35       -0.00104  -0.00001   0.00056  -0.00056  -0.00001  -0.00105
   D36       -0.00079   0.00001   0.00001   0.00002   0.00002  -0.00077
   D37        3.13657   0.00001   0.00029  -0.00016   0.00014   3.13670
   D38       -3.13787   0.00001  -0.00016   0.00023   0.00007  -3.13780
   D39       -0.00051   0.00001   0.00013   0.00005   0.00018  -0.00033
         Item               Value     Threshold  Converged?
 Maximum Force            0.000110     0.000450     YES
 RMS     Force            0.000027     0.000300     YES
 Maximum Displacement     0.006499     0.001800     NO 
 RMS     Displacement     0.001146     0.001200     YES
 Predicted change in Energy=-1.693786D-07
 Lowest energy point so far.  Saving SCF results.
 GradGradGradGradGradGradGradGradGradGradGradGradGradGradGradGradGradGrad

 Leave Link  103 at Tue Oct 21 15:12:16 2025, MaxMem=  4294967296 cpu:               0.3 elap:               0.1
 (Enter /lrz/sys/applications/gaussian/g16.C.01/x86_64_legacy/exe/l202.exe)
                          Input orientation:                          
 ---------------------------------------------------------------------
 Center     Atomic      Atomic             Coordinates (Angstroms)
 Number     Number       Type             X           Y           Z
 ---------------------------------------------------------------------
      1          8           0        3.065381    0.277670    1.170857
      2          6           0        2.496445   -0.180836   -0.034279
      3          7           0        2.982418    0.692089   -1.078427
      4          6           0        0.977490   -0.134478   -0.009201
      5          6           0        0.309487    0.831528    0.748433
      6          6           0       -1.078449    0.904569    0.734511
      7          6           0       -1.809492   -0.000109   -0.049168
      8          6           0       -3.243515    0.067381   -0.066084
      9          7           0       -4.402185    0.121997   -0.080024
     10          6           0       -1.148714   -0.973602   -0.812280
     11          6           0        0.239654   -1.033118   -0.785682
     12          1           0        2.882200   -0.380553    1.852805
     13          1           0        2.793943   -1.237595   -0.187620
     14          1           0        3.947048    0.439298   -1.293496
     15          1           0        2.450668    0.521061   -1.930467
     16          1           0        0.886289    1.526358    1.360648
     17          1           0       -1.600940    1.657909    1.326555
     18          1           0       -1.724004   -1.677534   -1.415772
     19          1           0        0.759543   -1.792774   -1.374926
 ---------------------------------------------------------------------
                    Distance matrix (angstroms):
                    1          2          3          4          5
     1  O    0.000000
     2  C    1.409350   0.000000
     3  N    2.288646   1.445134   0.000000
     4  C    2.433452   1.519870   2.417891   0.000000
     5  C    2.842560   2.533832   3.240589   1.397643   0.000000
     6  C    4.213636   3.814317   4.452250   2.420663   1.389927
     7  C    5.032893   4.309754   4.949840   2.790506   2.412025
     8  C    6.432450   5.745413   6.338560   4.226212   3.724404
     9  N    7.573207   6.905425   7.473565   5.386250   4.836283
    10  C    4.822562   3.810636   4.462243   2.422768   2.796546
    11  C    3.678442   2.526677   3.253427   1.398169   2.415635
    12  H    0.965332   1.936434   3.122935   2.674984   3.050840
    13  H    2.053087   1.108494   2.133715   2.132652   3.366005
    14  H    2.622307   2.018525   1.020132   3.285865   4.189889
    15  H    3.171012   2.022445   1.018813   2.508236   3.443479
    16  H    2.518667   2.730006   3.322476   2.154803   1.091006
    17  H    4.868660   4.692698   5.265350   3.412505   2.160292
    18  H    5.783743   4.686237   5.280088   3.414313   3.887707
    19  H    4.010565   2.722592   3.347182   2.159317   3.405608
                    6          7          8          9         10
     6  C    0.000000
     7  C    1.402504   0.000000
     8  C    2.455473   1.435710   0.000000
     9  N    3.510427   2.595749   1.160040   0.000000
    10  C    2.434137   1.402375   2.455330   3.510214   0.000000
    11  C    2.793387   2.410096   3.723089   4.835175   1.389898
    12  H    4.311480   5.076831   6.434840   7.553187   4.868537
    13  H    4.520466   4.768874   6.178077   7.324229   4.000555
    14  H    5.439201   5.905861   7.304044   8.442919   5.309863
    15  H    4.438902   4.686136   6.008783   7.109499   4.054616
    16  H    2.153803   3.403662   4.606458   5.658243   3.887499
    17  H    1.091345   2.164517   2.677177   3.490625   3.421107
    18  H    3.421653   2.165333   2.678674   3.492160   1.091184
    19  H    3.886334   3.401650   4.604098   5.655666   2.151525
                   11         12         13         14         15
    11  C    0.000000
    12  H    3.790844   0.000000
    13  H    2.631327   2.214869   0.000000
    14  H    4.021275   3.421296   2.316157   0.000000
    15  H    2.935061   3.913089   2.499645   1.628364   0.000000
    16  H    3.402320   2.803959   3.698069   4.194571   3.780124
    17  H    3.884708   4.952858   5.476465   6.255385   5.321291
    18  H    2.160611   5.795073   4.702526   6.054483   4.746222
    19  H    1.092964   4.113184   2.420063   3.892167   2.919308
                   16         17         18         19
    16  H    0.000000
    17  H    2.490938   0.000000
    18  H    4.978660   4.319801   0.000000
    19  H    4.303029   4.977659   2.486555   0.000000
 Stoichiometry    C8H8N2O
 Framework group  C1[X(C8H8N2O)]
 Deg. of freedom    51
 Full point group                 C1      NOp   1
 RotChk:  IX=2 Diff= 2.12D-04
 Largest Abelian subgroup         C1      NOp   1
 Largest concise Abelian subgroup C1      NOp   1
                         Standard orientation:                         
 ---------------------------------------------------------------------
 Center     Atomic      Atomic             Coordinates (Angstroms)
 Number     Number       Type             X           Y           Z
 ---------------------------------------------------------------------
      1          8           0       -3.021850   -0.991123    0.587601
      2          6           0       -2.418375    0.224583    0.207938
      3          7           0       -2.911274    0.534617   -1.114689
      4          6           0       -0.902129    0.127803    0.167509
      5          6           0       -0.276420   -1.082660   -0.143413
      6          6           0        1.108791   -1.160632   -0.227139
      7          6           0        1.879954   -0.011757    0.001793
      8          6           0        3.311439   -0.085450   -0.079943
      9          7           0        4.468061   -0.144830   -0.146217
     10          6           0        1.261782    1.207378    0.315209
     11          6           0       -0.124483    1.267079    0.395968
     12          1           0       -2.831470   -1.135582    1.522883
     13          1           0       -2.681838    1.000006    0.954976
     14          1           0       -3.864071    0.889984   -1.033693
     15          1           0       -2.359694    1.296589   -1.506017
     16          1           0       -0.884209   -1.972722   -0.312752
     17          1           0        1.598276   -2.105615   -0.468897
     18          1           0        1.868174    2.096133    0.497101
     19          1           0       -0.611232    2.213612    0.644405
 ---------------------------------------------------------------------
 Rotational constants (GHZ):           3.4597041           0.5544232           0.5124390
 Leave Link  202 at Tue Oct 21 15:12:16 2025, MaxMem=  4294967296 cpu:               0.1 elap:               0.0
 (Enter /lrz/sys/applications/gaussian/g16.C.01/x86_64_legacy/exe/l301.exe)
 Standard basis: def2SVP (5D, 7F)
 Ernie: Thresh=  0.10000D-02 Tol=  0.10000D-05 Strict=F.
 There are   205 symmetry adapted cartesian basis functions of A   symmetry.
 There are   194 symmetry adapted basis functions of A   symmetry.
   194 basis functions,   331 primitive gaussians,   205 cartesian basis functions
    39 alpha electrons       39 beta electrons
       nuclear repulsion energy       545.3590738424 Hartrees.
 IExCor= 4639 DFT=T Ex+Corr=wB97XD ExCW=0 ScaHFX=  1.000000
 ScaDFX=  1.000000  1.000000  1.000000  1.000000 ScalE2=  1.000000  1.000000
 IRadAn=      5 IRanWt=     -1 IRanGd=            0 ICorTp=0 IEmpDi=121
 HFx  wShort=  0.000000 wLong=  0.200000 cFull=  0.222036 cShort=  0.000000 cLong=  0.777964
 DFx  wShort=  0.000000 wLong=  0.200000 cFull=  0.000000 cShort=  0.000000 cLong=  1.000000
 NAtoms=   19 NActive=   19 NUniq=   19 SFac= 1.00D+00 NAtFMM=   60 NAOKFM=F Big=F
 Integral buffers will be    131072 words long.
 Raffenetti 2 integral format.
 Two-electron integral symmetry is turned on.
 R6Disp:  Grimme-D2 Dispersion energy=       -0.0103309002 Hartrees.
 Nuclear repulsion after empirical dispersion term =      545.3487429422 Hartrees.
 ------------------------------------------------------------------------------
 Polarizable Continuum Model (PCM)
 =================================
 Model                : PCM.
 Atomic radii         : SMD-Coulomb.
 Polarization charges : Total charges.
 Charge compensation  : None.
 Solution method      : On-the-fly selection.
 Cavity type          : VdW (van der Waals Surface) (Alpha=1.000).
 Cavity algorithm     : GePol (No added spheres)
                        Default sphere list used, NSphG=   19.
                        Lebedev-Laikov grids with approx.  5.0 points / Ang**2.
                        Smoothing algorithm: York/Karplus (Gamma=1.0000).
                        Polarization charges: spherical gaussians, with
                                              point-specific exponents (IZeta= 3).
                        Self-potential: point-specific (ISelfS= 7).
                        Self-field    : sphere-specific E.n sum rule (ISelfD= 2).
 1st derivatives      : Analytical E(r).r(x)/FMM algorithm (CHGder, D1EAlg=3).
                        Cavity 1st derivative terms included.
 Solvent              : Water, Eps=  78.355300 Eps(inf)=   1.777849
 ------------------------------------------------------------------------------
 Spheres list:
 ISph  on   Nord     Re0    Alpha      Xe            Ye            Ze
    1   O      1    1.5200  1.000     -3.021850     -0.991123      0.587601
    2   C      2    1.8500  1.000     -2.418375      0.224583      0.207938
    3   N      3    1.8900  1.000     -2.911274      0.534617     -1.114689
    4   C      4    1.8500  1.000     -0.902129      0.127803      0.167509
    5   C      5    1.8500  1.000     -0.276420     -1.082660     -0.143413
    6   C      6    1.8500  1.000      1.108791     -1.160632     -0.227139
    7   C      7    1.8500  1.000      1.879954     -0.011757      0.001793
    8   C      8    1.8500  1.000      3.311439     -0.085450     -0.079943
    9   N      9    1.8900  1.000      4.468061     -0.144830     -0.146217
   10   C     10    1.8500  1.000      1.261782      1.207378      0.315209
   11   C     11    1.8500  1.000     -0.124483      1.267079      0.395968
   12   H     12    1.2000  1.000     -2.831470     -1.135582      1.522883
   13   H     13    1.2000  1.000     -2.681838      1.000006      0.954976
   14   H     14    1.2000  1.000     -3.864071      0.889984     -1.033693
   15   H     15    1.2000  1.000     -2.359694      1.296589     -1.506017
   16   H     16    1.2000  1.000     -0.884209     -1.972722     -0.312752
   17   H     17    1.2000  1.000      1.598276     -2.105615     -0.468897
   18   H     18    1.2000  1.000      1.868174      2.096133      0.497101
   19   H     19    1.2000  1.000     -0.611232      2.213612      0.644405
 ------------------------------------------------------------------------------
 GePol: Number of generator spheres                  =      19
 GePol: Total number of spheres                      =      19
 GePol: Number of exposed spheres                    =      19 (100.00%)
 GePol: Number of points                             =    1639
 GePol: Average weight of points                     =       0.11
 GePol: Minimum weight of points                     =   0.47D-09
 GePol: Maximum weight of points                     =    0.21991
 GePol: Number of points with low weight             =      95
 GePol: Fraction of low-weight points (<1% of avg)   =       5.80%
 GePol: Cavity surface area                          =    188.168 Ang**2
 GePol: Cavity volume                                =    161.901 Ang**3
 ------------------------------------------------------------------------------
 Atomic radii for non-electrostatic terms: SMD-CDS.
 ------------------------------------------------------------------------------
 PCM non-electrostatic energy =         0.0070200723 Hartrees.
 Nuclear repulsion after PCM non-electrostatic terms =      545.3557630145 Hartrees.
 Leave Link  301 at Tue Oct 21 15:12:16 2025, MaxMem=  4294967296 cpu:               0.6 elap:               0.1
 (Enter /lrz/sys/applications/gaussian/g16.C.01/x86_64_legacy/exe/l302.exe)
 NPDir=0 NMtPBC=     1 NCelOv=     1 NCel=       1 NClECP=     1 NCelD=      1
         NCelK=      1 NCelE2=     1 NClLst=     1 CellRange=     0.0.
 One-electron integrals computed using PRISM.
 One-electron integral symmetry used in STVInt
   1 Symmetry operations used in ECPInt.
 ECPInt:  NShTT=    4095 NPrTT=   15045 LenC2=    3950 LenP2D=   11135.
 LDataN:  DoStor=T MaxTD1= 4 Len=   56
 NBasis=   194 RedAO= T EigKep=  2.77D-04  NBF=   194
 NBsUse=   194 1.00D-06 EigRej= -1.00D+00 NBFU=   194
 Precomputing XC quadrature grid using
 IXCGrd= 4 IRadAn=           5 IRanWt=          -1 IRanGd=           0 AccXCQ= 0.00D+00.
 Generated NRdTot=       0 NPtTot=           0 NUsed=           0 NTot=          32
 NSgBfM=   204   204   204   204   204 MxSgAt=    19 MxSgA2=    19.
 Leave Link  302 at Tue Oct 21 15:12:17 2025, MaxMem=  4294967296 cpu:               2.1 elap:               0.3
 (Enter /lrz/sys/applications/gaussian/g16.C.01/x86_64_legacy/exe/l303.exe)
 DipDrv:  MaxL=1.
 Leave Link  303 at Tue Oct 21 15:12:17 2025, MaxMem=  4294967296 cpu:               0.3 elap:               0.0
 (Enter /lrz/sys/applications/gaussian/g16.C.01/x86_64_legacy/exe/l401.exe)
 Initial guess from the checkpoint file:  "g16_C12-a_10.chk"
 B after Tr=     0.000000    0.000000   -0.000000
         Rot=    1.000000    0.000082   -0.000012   -0.000009 Ang=   0.01 deg.
 Guess basis will be translated and rotated to current coordinates.
 JPrj=2 DoOrth=T DoCkMO=T.
 Leave Link  401 at Tue Oct 21 15:12:17 2025, MaxMem=  4294967296 cpu:               1.0 elap:               0.1
 (Enter /lrz/sys/applications/gaussian/g16.C.01/x86_64_legacy/exe/l502.exe)
 Integral symmetry usage will be decided dynamically.
 Closed shell SCF:
 Using DIIS extrapolation, IDIIS=  1040.
 NGot=  4294967296 LenX=  4294878900 LenY=  4294836434
 Requested convergence on RMS density matrix=1.00D-08 within 128 cycles.
 Requested convergence on MAX density matrix=1.00D-06.
 Requested convergence on             energy=1.00D-06.
 No special actions if energy rises.
 Fock matrices will be formed incrementally for  20 cycles.

 Cycle   1  Pass 1  IDiag  1:
 FoFJK:  IHMeth= 1 ICntrl=       0 DoSepK=T KAlg= 0 I1Cent=           0 FoldK=F
 IRaf=         1 NMat=       1 IRICut=       1 DoRegI=T DoRafI=F ISym2E= 0 IDoP0=0 IntGTp=1.
 FoFCou: FMM=F IPFlag=           0 FMFlag=      100000 FMFlg1=           0
         NFxFlg=           0 DoJE=T BraDBF=F KetDBF=F FulRan=T
         wScrn=  0.000000 ICntrl=       500 IOpCl=  0 I1Cent=           0 NGrid=           0
         NMat0=    1 NMatS0=      1 NMatT0=    0 NMatD0=    1 NMtDS0=    0 NMtDT0=    0
 Symmetry not used in FoFCou.
 Inv3:  Mode=1 IEnd=     8058963.
 Iteration    1 A*A^-1 deviation from unit magnitude is 6.00D-15 for   1040.
 Iteration    1 A*A^-1 deviation from orthogonality  is 2.96D-15 for   1208    271.
 Iteration    1 A^-1*A deviation from unit magnitude is 5.44D-15 for   1248.
 Iteration    1 A^-1*A deviation from orthogonality  is 2.86D-15 for   1258     65.
 E= -493.864118288930    
 DIIS: error= 9.68D-05 at cycle   1 NSaved=   1.
 NSaved= 1 IEnMin= 1 EnMin= -493.864118288930     IErMin= 1 ErrMin= 9.68D-05
 ErrMax= 9.68D-05  0.00D+00 EMaxC= 1.00D-01 BMatC= 2.60D-06 BMatP= 2.60D-06
 IDIUse=1 WtCom= 1.00D+00 WtEn= 0.00D+00
 Coeff-Com:  0.100D+01
 Coeff:      0.100D+01
 Gap=     0.780 Goal=   None    Shift=    0.000
 RMSDP=1.35D-05 MaxDP=5.87D-04              OVMax= 5.50D-04

 Cycle   2  Pass 1  IDiag  1:
 RMSU=  1.35D-05    CP:  1.00D+00
 E= -493.864121961115     Delta-E=       -0.000003672186 Rises=F Damp=F
 DIIS: error= 2.64D-05 at cycle   2 NSaved=   2.
 NSaved= 2 IEnMin= 2 EnMin= -493.864121961115     IErMin= 2 ErrMin= 2.64D-05
 ErrMax= 2.64D-05  0.00D+00 EMaxC= 1.00D-01 BMatC= 8.79D-08 BMatP= 2.60D-06
 IDIUse=1 WtCom= 1.00D+00 WtEn= 0.00D+00
 Coeff-Com: -0.169D+00 0.117D+01
 Coeff:     -0.169D+00 0.117D+01
 Gap=     0.340 Goal=   None    Shift=    0.000
 RMSDP=3.59D-06 MaxDP=1.38D-04 DE=-3.67D-06 OVMax= 2.08D-04

 Cycle   3  Pass 1  IDiag  1:
 RMSU=  2.18D-06    CP:  1.00D+00  1.21D+00
 E= -493.864122170418     Delta-E=       -0.000000209303 Rises=F Damp=F
 DIIS: error= 6.59D-06 at cycle   3 NSaved=   3.
 NSaved= 3 IEnMin= 3 EnMin= -493.864122170418     IErMin= 3 ErrMin= 6.59D-06
 ErrMax= 6.59D-06  0.00D+00 EMaxC= 1.00D-01 BMatC= 5.26D-09 BMatP= 8.79D-08
 IDIUse=1 WtCom= 1.00D+00 WtEn= 0.00D+00
 Coeff-Com: -0.240D-01 0.954D-01 0.929D+00
 Coeff:     -0.240D-01 0.954D-01 0.929D+00
 Gap=     0.340 Goal=   None    Shift=    0.000
 RMSDP=8.45D-07 MaxDP=2.40D-05 DE=-2.09D-07 OVMax= 4.30D-05

 Cycle   4  Pass 1  IDiag  1:
 RMSU=  6.20D-07    CP:  1.00D+00  1.24D+00  1.20D+00
 E= -493.864122177911     Delta-E=       -0.000000007492 Rises=F Damp=F
 DIIS: error= 3.12D-06 at cycle   4 NSaved=   4.
 NSaved= 4 IEnMin= 4 EnMin= -493.864122177911     IErMin= 4 ErrMin= 3.12D-06
 ErrMax= 3.12D-06  0.00D+00 EMaxC= 1.00D-01 BMatC= 2.93D-09 BMatP= 5.26D-09
 IDIUse=1 WtCom= 1.00D+00 WtEn= 0.00D+00
 Coeff-Com:  0.142D-01-0.134D+00 0.448D+00 0.671D+00
 Coeff:      0.142D-01-0.134D+00 0.448D+00 0.671D+00
 Gap=     0.340 Goal=   None    Shift=    0.000
 RMSDP=3.85D-07 MaxDP=9.58D-06 DE=-7.49D-09 OVMax= 2.00D-05

 Cycle   5  Pass 1  IDiag  1:
 RMSU=  1.99D-07    CP:  1.00D+00  1.25D+00  1.34D+00  8.55D-01
 E= -493.864122180924     Delta-E=       -0.000000003013 Rises=F Damp=F
 DIIS: error= 4.68D-07 at cycle   5 NSaved=   5.
 NSaved= 5 IEnMin= 5 EnMin= -493.864122180924     IErMin= 5 ErrMin= 4.68D-07
 ErrMax= 4.68D-07  0.00D+00 EMaxC= 1.00D-01 BMatC= 5.76D-11 BMatP= 2.93D-09
 IDIUse=1 WtCom= 1.00D+00 WtEn= 0.00D+00
 Coeff-Com:  0.334D-02-0.259D-01 0.224D-02 0.865D-01 0.934D+00
 Coeff:      0.334D-02-0.259D-01 0.224D-02 0.865D-01 0.934D+00
 Gap=     0.340 Goal=   None    Shift=    0.000
 RMSDP=1.26D-07 MaxDP=4.32D-06 DE=-3.01D-09 OVMax= 6.84D-06

 Cycle   6  Pass 1  IDiag  1:
 RMSU=  5.51D-08    CP:  1.00D+00  1.25D+00  1.37D+00  9.53D-01  1.21D+00
 E= -493.864122181039     Delta-E=       -0.000000000115 Rises=F Damp=F
 DIIS: error= 2.75D-07 at cycle   6 NSaved=   6.
 NSaved= 6 IEnMin= 6 EnMin= -493.864122181039     IErMin= 6 ErrMin= 2.75D-07
 ErrMax= 2.75D-07  0.00D+00 EMaxC= 1.00D-01 BMatC= 1.86D-11 BMatP= 5.76D-11
 IDIUse=1 WtCom= 1.00D+00 WtEn= 0.00D+00
 Coeff-Com: -0.106D-03 0.381D-02-0.489D-01-0.376D-01 0.395D+00 0.688D+00
 Coeff:     -0.106D-03 0.381D-02-0.489D-01-0.376D-01 0.395D+00 0.688D+00
 Gap=     0.340 Goal=   None    Shift=    0.000
 RMSDP=4.14D-08 MaxDP=1.35D-06 DE=-1.15D-10 OVMax= 2.30D-06

 Cycle   7  Pass 1  IDiag  1:
 RMSU=  2.30D-08    CP:  1.00D+00  1.25D+00  1.38D+00  9.77D-01  1.34D+00
                    CP:  9.80D-01
 E= -493.864122181051     Delta-E=       -0.000000000012 Rises=F Damp=F
 DIIS: error= 1.37D-07 at cycle   7 NSaved=   7.
 NSaved= 7 IEnMin= 7 EnMin= -493.864122181051     IErMin= 7 ErrMin= 1.37D-07
 ErrMax= 1.37D-07  0.00D+00 EMaxC= 1.00D-01 BMatC= 3.23D-12 BMatP= 1.86D-11
 IDIUse=1 WtCom= 1.00D+00 WtEn= 0.00D+00
 Coeff-Com: -0.594D-03 0.620D-02-0.216D-01-0.311D-01 0.113D-01 0.318D+00
 Coeff-Com:  0.718D+00
 Coeff:     -0.594D-03 0.620D-02-0.216D-01-0.311D-01 0.113D-01 0.318D+00
 Coeff:      0.718D+00
 Gap=     0.340 Goal=   None    Shift=    0.000
 RMSDP=1.62D-08 MaxDP=4.69D-07 DE=-1.21D-11 OVMax= 8.70D-07

 Cycle   8  Pass 1  IDiag  1:
 RMSU=  7.70D-09    CP:  1.00D+00  1.25D+00  1.38D+00  9.86D-01  1.39D+00
                    CP:  1.12D+00  9.56D-01
 E= -493.864122181059     Delta-E=       -0.000000000008 Rises=F Damp=F
 DIIS: error= 3.57D-08 at cycle   8 NSaved=   8.
 NSaved= 8 IEnMin= 8 EnMin= -493.864122181059     IErMin= 8 ErrMin= 3.57D-08
 ErrMax= 3.57D-08  0.00D+00 EMaxC= 1.00D-01 BMatC= 3.55D-13 BMatP= 3.23D-12
 IDIUse=1 WtCom= 1.00D+00 WtEn= 0.00D+00
 Coeff-Com: -0.272D-03 0.265D-02-0.651D-02-0.118D-01-0.246D-01 0.962D-01
 Coeff-Com:  0.340D+00 0.605D+00
 Coeff:     -0.272D-03 0.265D-02-0.651D-02-0.118D-01-0.246D-01 0.962D-01
 Coeff:      0.340D+00 0.605D+00
 Gap=     0.340 Goal=   None    Shift=    0.000
 RMSDP=4.06D-09 MaxDP=9.51D-08 DE=-7.73D-12 OVMax= 2.08D-07

 Error on total polarization charges =  0.02903
 SCF Done:  E(RwB97XD) =  -493.864122181     A.U. after    8 cycles
            NFock=  8  Conv=0.41D-08     -V/T= 2.0101
 KE= 4.889123229015D+02 PE=-2.238703836917D+03 EE= 7.105716288198D+02
 SMD-CDS (non-electrostatic) energy       (kcal/mol) =       4.41
 (included in total energy above)
 Leave Link  502 at Tue Oct 21 15:12:49 2025, MaxMem=  4294967296 cpu:             255.9 elap:              32.3
 (Enter /lrz/sys/applications/gaussian/g16.C.01/x86_64_legacy/exe/l701.exe)
 ... and contract with generalized density number  0.
 Compute integral first derivatives.
 R6Disp: Adding Grimme-D2 dispersion energy 1st derivatives to the gradient.
   1 Symmetry operations used in ECPInt.
 ECPInt:  NShTT=    4095 NPrTT=   15045 LenC2=    3950 LenP2D=   11135.
 LDataN:  DoStor=T MaxTD1= 5 Len=  102
 D1PCM: PCM CHGder 1st derivatives, ID1Alg=3 FixD1E=F DoIter=F DoCFld=F I1PDM=0.
 GePol: Maximum number of non-zero 1st derivatives   =     269
 Leave Link  701 at Tue Oct 21 15:12:50 2025, MaxMem=  4294967296 cpu:               9.1 elap:               1.2
 (Enter /lrz/sys/applications/gaussian/g16.C.01/x86_64_legacy/exe/l702.exe)
 L702 exits ... SP integral derivatives will be done elsewhere.
 Leave Link  702 at Tue Oct 21 15:12:50 2025, MaxMem=  4294967296 cpu:               0.2 elap:               0.0
 (Enter /lrz/sys/applications/gaussian/g16.C.01/x86_64_legacy/exe/l703.exe)
 Integral derivatives from FoFJK, PRISM(SPDF).
 Compute integral first derivatives, UseDBF=F ICtDFT=           0.
 Calling FoFJK, ICntrl=      2127 FMM=F ISym2X=0 I1Cent= 0 IOpClX= 0 NMat=1 NMatS=1 NMatT=0.
 FoFJK:  IHMeth= 1 ICntrl=    2127 DoSepK=T KAlg= 0 I1Cent=           0 FoldK=F
 IRaf=         1 NMat=       1 IRICut=       1 DoRegI=T DoRafI=F ISym2E= 0 IDoP0=0 IntGTp=1.
 FoFCou: FMM=F IPFlag=           0 FMFlag=      100000 FMFlg1=         800
         NFxFlg=           0 DoJE=F BraDBF=F KetDBF=F FulRan=T
         wScrn=  0.000000 ICntrl=      2527 IOpCl=  0 I1Cent=           0 NGrid=           0
         NMat0=    1 NMatS0=      1 NMatT0=    0 NMatD0=    1 NMtDS0=    0 NMtDT0=    0
 Symmetry not used in FoFCou.
 Leave Link  703 at Tue Oct 21 15:12:59 2025, MaxMem=  4294967296 cpu:              66.1 elap:               8.3
 (Enter /lrz/sys/applications/gaussian/g16.C.01/x86_64_legacy/exe/l716.exe)
 Dipole        =-2.08780724D+00 1.21600286D+00 9.33553498D-01
 ***** Axes restored to original set *****
 -------------------------------------------------------------------
 Center     Atomic                   Forces (Hartrees/Bohr)
 Number     Number              X              Y              Z
 -------------------------------------------------------------------
      1        8           0.000045774   -0.000009931    0.000019814
      2        6           0.000009924    0.000113029   -0.000084448
      3        7           0.000019537   -0.000039959    0.000021014
      4        6          -0.000009952   -0.000063176    0.000152366
      5        6          -0.000015610    0.000005080   -0.000032873
      6        6           0.000001121    0.000012388   -0.000006800
      7        6           0.000046724   -0.000014887   -0.000012037
      8        6          -0.000012301    0.000006001   -0.000009928
      9        7          -0.000013948    0.000001753   -0.000010226
     10        6          -0.000047306    0.000011010   -0.000013814
     11        6           0.000038643    0.000034866   -0.000057398
     12        1          -0.000041060   -0.000045755    0.000023727
     13        1           0.000007381    0.000008273   -0.000010177
     14        1           0.000001560    0.000006252   -0.000000582
     15        1          -0.000034993   -0.000003900    0.000002176
     16        1          -0.000002245   -0.000009019    0.000020822
     17        1          -0.000008728   -0.000007048    0.000011752
     18        1           0.000006326   -0.000006150   -0.000009394
     19        1           0.000009152    0.000001173   -0.000003994
 -------------------------------------------------------------------
 Cartesian Forces:  Max     0.000152366 RMS     0.000035656
 Leave Link  716 at Tue Oct 21 15:12:59 2025, MaxMem=  4294967296 cpu:               0.2 elap:               0.0
 (Enter /lrz/sys/applications/gaussian/g16.C.01/x86_64_legacy/exe/l103.exe)

 GradGradGradGradGradGradGradGradGradGradGradGradGradGradGradGradGradGrad
 Berny optimization.
 Using GEDIIS/GDIIS optimizer.
 FormGI is forming the generalized inverse of G from B-inverse, IUseBI=4.
 Internal  Forces:  Max     0.000084395 RMS     0.000022605
 Search for a local minimum.
 Step number  16 out of a maximum of   98
 All quantities printed in internal units (Hartrees-Bohrs-Radians)
 RMS Force = .22605D-04 SwitMx=.10000D-02 MixMth= 2
 Mixed Optimization -- En-DIIS/RFO-DIIS
 Swapping is turned off.
 Update second derivatives using D2CorX and points    9   10   11   12   13
                                                     14   15   16
 DE= -3.71D-07 DEPred=-1.69D-07 R= 2.19D+00
 Trust test= 2.19D+00 RLast= 1.04D-02 DXMaxT set to 1.18D+00
 ITU=  0  0  1  1  1  1  1  0  1  1  1  1  1  1  1  0
     Eigenvalues ---    0.00092   0.00216   0.00490   0.01981   0.02144
     Eigenvalues ---    0.02209   0.02232   0.02283   0.02291   0.02309
     Eigenvalues ---    0.02338   0.02420   0.03487   0.05029   0.05169
     Eigenvalues ---    0.06662   0.08765   0.08899   0.15859   0.15975
     Eigenvalues ---    0.16000   0.16010   0.16457   0.16525   0.18314
     Eigenvalues ---    0.20353   0.21984   0.22324   0.22946   0.24567
     Eigenvalues ---    0.25000   0.27008   0.32073   0.32290   0.35905
     Eigenvalues ---    0.35994   0.36216   0.37095   0.42442   0.42941
     Eigenvalues ---    0.43485   0.44204   0.45452   0.46035   0.46443
     Eigenvalues ---    0.47142   0.47672   0.48414   0.51631   0.55250
     Eigenvalues ---    1.41580
 En-DIIS/RFO-DIIS/Sim-DIIS IScMMF=       -3 using points:    16   15   14   13   12   11   10    9    8    7
 RFO step:  Lambda=-5.61863895D-07.
 NNeg= 0 NGDIIS=10 SimSw=  2.50D-01 Rises=F DC= -3.71D-07 SmlDif=  1.00D-05
 NRisDI= 0 DoIntr=F SqrtH=F CThrHd= 10.0 CDAdj=  3.0
 RMS Error=  0.1225553004D-02 NUsed=10 OKEnD=F EnDIS=F
 InvSVX:  RCond= 2.35D-08 Info=           0 Equed=N FErr=  2.31D-11 BErr=  4.78D-17
 DIIS inversion failure, remove point  10.
 InvSVX:  RCond= 2.82D-08 Info=           0 Equed=N FErr=  5.25D-12 BErr=  3.38D-17
 DIIS inversion failure, remove point   9.
 InvSVX:  RCond= 3.27D-08 Info=           0 Equed=N FErr=  3.71D-12 BErr=  3.02D-17
 DIIS inversion failure, remove point   8.
 InvSVX:  RCond= 3.75D-08 Info=           0 Equed=N FErr=  3.59D-12 BErr=  7.05D-17
 DIIS inversion failure, remove point   7.
 InvSVX:  RCond= 8.65D-08 Info=           0 Equed=N FErr=  1.24D-12 BErr=  4.50D-17
 DIIS inversion failure, remove point   6.
 InvSVX:  RCond= 1.04D-07 Info=           0 Equed=N FErr=  1.57D-12 BErr=  5.75D-17
 Old DIIS coefficients:      2.41219     -2.19443      0.97409     -0.28688      0.09503
 Old DIIS coefficients:      0.00000      0.00000      0.00000      0.00000      0.00000
 RFO-DIIS uses    5 points instead of   10
 DidBck=F Rises=F RFO-DIIS coefs:    2.26537   -2.00000    0.91480   -0.26942    0.08925
                  RFO-DIIS coefs:    0.00000    0.00000    0.00000    0.00000    0.00000
 Iteration  1 RMS(Cart)=  0.00164012 RMS(Int)=  0.00000228
 Iteration  2 RMS(Cart)=  0.00000234 RMS(Int)=  0.00000070
 Iteration  3 RMS(Cart)=  0.00000000 RMS(Int)=  0.00000070
 ITry= 1 IFail=0 DXMaxC= 7.00D-03 DCOld= 1.00D+10 DXMaxT= 1.18D+00 DXLimC= 3.00D+00 Rises=F
 Variable       Old X    -DE/DX   Delta X   Delta X   Delta X     New X
                                 (Linear)    (Quad)   (Total)
    R1        2.66329   0.00002  -0.00013   0.00031   0.00018   2.66347
    R2        1.82421   0.00005  -0.00001   0.00009   0.00008   1.82430
    R3        2.73091  -0.00004  -0.00024  -0.00006  -0.00030   2.73060
    R4        2.87214   0.00001  -0.00008   0.00013   0.00004   2.87218
    R5        2.09475  -0.00000  -0.00005   0.00006   0.00001   2.09476
    R6        1.92777   0.00000  -0.00004  -0.00002  -0.00006   1.92771
    R7        1.92528   0.00003  -0.00002   0.00001  -0.00002   1.92526
    R8        2.64116  -0.00000  -0.00000  -0.00001  -0.00002   2.64114
    R9        2.64216   0.00000  -0.00001   0.00005   0.00004   2.64219
   R10        2.62658   0.00001   0.00000   0.00003   0.00003   2.62661
   R11        2.06170   0.00001  -0.00000   0.00002   0.00002   2.06172
   R12        2.65035   0.00001  -0.00000   0.00002   0.00002   2.65037
   R13        2.06234   0.00001  -0.00000   0.00002   0.00002   2.06236
   R14        2.71310   0.00003   0.00003   0.00006   0.00008   2.71318
   R15        2.65010  -0.00001  -0.00001  -0.00002  -0.00002   2.65008
   R16        2.19216   0.00001   0.00000   0.00001   0.00002   2.19217
   R17        2.62653   0.00002   0.00002   0.00002   0.00004   2.62657
   R18        2.06204   0.00000  -0.00000   0.00002   0.00001   2.06205
   R19        2.06540   0.00000   0.00000   0.00002   0.00002   2.06542
    A1        1.88141  -0.00004  -0.00051   0.00038  -0.00013   1.88127
    A2        1.86039   0.00007   0.00030   0.00025   0.00055   1.86094
    A3        1.95996   0.00000  -0.00023   0.00037   0.00014   1.96009
    A4        1.89663  -0.00002  -0.00011  -0.00007  -0.00018   1.89644
    A5        1.90665  -0.00003   0.00025  -0.00024   0.00001   1.90666
    A6        1.96671  -0.00002  -0.00006  -0.00026  -0.00032   1.96639
    A7        1.87505   0.00000  -0.00015  -0.00004  -0.00019   1.87485
    A8        1.89719   0.00002   0.00056  -0.00014   0.00043   1.89762
    A9        1.90428  -0.00005   0.00020  -0.00021  -0.00001   1.90427
   A10        1.85003   0.00001   0.00032  -0.00008   0.00024   1.85028
   A11        2.10330   0.00008   0.00012   0.00025   0.00037   2.10367
   A12        2.09281  -0.00008  -0.00017  -0.00025  -0.00042   2.09240
   A13        2.08640   0.00000  -0.00000  -0.00000  -0.00001   2.08639
   A14        2.10384  -0.00001   0.00001  -0.00003  -0.00002   2.10382
   A15        2.08482   0.00001  -0.00001   0.00002   0.00001   2.08483
   A16        2.09449   0.00000  -0.00001   0.00002   0.00001   2.09450
   A17        2.08541   0.00000  -0.00001   0.00002   0.00000   2.08541
   A18        2.10472   0.00000  -0.00001   0.00001   0.00000   2.10472
   A19        2.09306  -0.00000   0.00002  -0.00003  -0.00001   2.09306
   A20        2.09081  -0.00001   0.00001   0.00001   0.00001   2.09082
   A21        2.10161   0.00001   0.00001   0.00004   0.00005   2.10166
   A22        2.09076  -0.00001  -0.00001  -0.00005  -0.00007   2.09070
   A23        2.08286  -0.00002  -0.00001  -0.00007  -0.00008   2.08278
   A24        2.09480   0.00002   0.00003   0.00007   0.00010   2.09491
   A25        2.10551  -0.00000  -0.00003   0.00000  -0.00002   2.10549
   A26        2.10626   0.00001   0.00000   0.00005   0.00005   2.10631
   A27        2.08876  -0.00001   0.00002  -0.00006  -0.00004   2.08872
   A28        2.08816   0.00000  -0.00002   0.00000  -0.00002   2.08814
   A29        3.14150  -0.00000  -0.00041   0.00071   0.00030   3.14180
   A30        3.14187   0.00000   0.00003   0.00001   0.00004   3.14192
    D1       -2.96828  -0.00001  -0.00063  -0.00067  -0.00130  -2.96958
    D2        1.22757  -0.00002  -0.00099  -0.00075  -0.00174   1.22582
    D3       -0.84426  -0.00001  -0.00059  -0.00087  -0.00147  -0.84572
    D4        1.33464  -0.00000   0.00273   0.00048   0.00321   1.33784
    D5       -2.93855  -0.00000   0.00352   0.00020   0.00372  -2.93483
    D6       -2.82698   0.00003   0.00277   0.00093   0.00370  -2.82328
    D7       -0.81699   0.00003   0.00356   0.00065   0.00421  -0.81277
    D8       -0.74430  -0.00000   0.00271   0.00055   0.00326  -0.74104
    D9        1.26569  -0.00001   0.00350   0.00028   0.00378   1.26947
   D10        0.52923   0.00005  -0.00015   0.00004  -0.00011   0.52912
   D11       -2.65212   0.00002  -0.00128  -0.00029  -0.00157  -2.65368
   D12       -1.53092  -0.00002  -0.00054  -0.00034  -0.00088  -1.53180
   D13        1.57092  -0.00005  -0.00167  -0.00067  -0.00234   1.56858
   D14        2.61370   0.00002  -0.00052   0.00014  -0.00038   2.61332
   D15       -0.56764  -0.00001  -0.00165  -0.00019  -0.00184  -0.56948
   D16        3.10155  -0.00003  -0.00053  -0.00076  -0.00128   3.10027
   D17       -0.04896  -0.00003  -0.00072  -0.00047  -0.00119  -0.05016
   D18       -0.00044   0.00000   0.00061  -0.00042   0.00018  -0.00025
   D19        3.13224   0.00001   0.00041  -0.00014   0.00027   3.13251
   D20       -3.10079   0.00002   0.00032   0.00074   0.00105  -3.09973
   D21        0.04493   0.00003   0.00068   0.00053   0.00120   0.04613
   D22        0.00144  -0.00001  -0.00080   0.00042  -0.00038   0.00106
   D23       -3.13603  -0.00000  -0.00044   0.00021  -0.00023  -3.13626
   D24       -0.00121   0.00000   0.00008  -0.00012  -0.00004  -0.00125
   D25        3.14054   0.00000  -0.00036   0.00040   0.00004   3.14057
   D26       -3.13384  -0.00000   0.00028  -0.00040  -0.00012  -3.13396
   D27        0.00791  -0.00000  -0.00017   0.00012  -0.00005   0.00786
   D28        3.13910   0.00000  -0.00019   0.00031   0.00011   3.13921
   D29        0.00189  -0.00000  -0.00059   0.00067   0.00008   0.00197
   D30       -0.00265   0.00000   0.00025  -0.00021   0.00004  -0.00261
   D31       -3.13986   0.00000  -0.00015   0.00016   0.00001  -3.13985
   D32       -0.00090  -0.00000   0.00040  -0.00068  -0.00028  -0.00118
   D33        3.13616  -0.00000   0.00019  -0.00039  -0.00020   3.13596
   D34       -3.13811  -0.00001   0.00001  -0.00031  -0.00031  -3.13842
   D35       -0.00105  -0.00001  -0.00020  -0.00003  -0.00023  -0.00128
   D36       -0.00077   0.00001   0.00030   0.00013   0.00043  -0.00034
   D37        3.13670   0.00000  -0.00006   0.00034   0.00028   3.13698
   D38       -3.13780   0.00001   0.00051  -0.00016   0.00035  -3.13745
   D39       -0.00033   0.00000   0.00015   0.00005   0.00020  -0.00013
         Item               Value     Threshold  Converged?
 Maximum Force            0.000084     0.000450     YES
 RMS     Force            0.000023     0.000300     YES
 Maximum Displacement     0.007004     0.001800     NO 
 RMS     Displacement     0.001640     0.001200     NO 
 Predicted change in Energy=-2.524325D-07
 Lowest energy point so far.  Saving SCF results.
 GradGradGradGradGradGradGradGradGradGradGradGradGradGradGradGradGradGrad

 Leave Link  103 at Tue Oct 21 15:12:59 2025, MaxMem=  4294967296 cpu:               0.2 elap:               0.0
 (Enter /lrz/sys/applications/gaussian/g16.C.01/x86_64_legacy/exe/l202.exe)
                          Input orientation:                          
 ---------------------------------------------------------------------
 Center     Atomic      Atomic             Coordinates (Angstroms)
 Number     Number       Type             X           Y           Z
 ---------------------------------------------------------------------
      1          8           0        3.066467    0.278414    1.170851
      2          6           0        2.496783   -0.180647   -0.033833
      3          7           0        2.981842    0.691186   -1.079096
      4          6           0        0.977806   -0.134727   -0.007925
      5          6           0        0.309490    0.831045    0.749713
      6          6           0       -1.078447    0.904221    0.735020
      7          6           0       -1.809128   -0.000054   -0.049476
      8          6           0       -3.243174    0.067657   -0.067310
      9          7           0       -4.401823    0.122744   -0.081801
     10          6           0       -1.148079   -0.973362   -0.812569
     11          6           0        0.240300   -1.032845   -0.785356
     12          1           0        2.882474   -0.378985    1.853438
     13          1           0        2.794305   -1.237468   -0.186721
     14          1           0        3.945246    0.436463   -1.297202
     15          1           0        2.446971    0.521892   -1.929516
     16          1           0        0.886022    1.525632    1.362475
     17          1           0       -1.601214    1.657403    1.327039
     18          1           0       -1.723053   -1.677126   -1.416571
     19          1           0        0.760480   -1.792183   -1.374773
 ---------------------------------------------------------------------
                    Distance matrix (angstroms):
                    1          2          3          4          5
     1  O    0.000000
     2  C    1.409446   0.000000
     3  N    2.289061   1.444974   0.000000
     4  C    2.433661   1.519892   2.417788   0.000000
     5  C    2.843181   2.534110   3.241229   1.397632   0.000000
     6  C    4.214486   3.814491   4.452229   2.420652   1.389942
     7  C    5.033703   4.309725   4.948871   2.790495   2.412047
     8  C    6.433431   5.745423   6.337454   4.226246   3.724474
     9  N    7.574215   6.905441   7.472365   5.386293   4.836277
    10  C    4.823204   3.810492   4.460718   2.422839   2.796625
    11  C    3.678772   2.526409   3.251863   1.398188   2.415638
    12  H    0.965377   1.936462   3.123282   2.674340   3.050021
    13  H    2.053040   1.108497   2.133356   2.132528   3.366000
    14  H    2.624599   2.018656   1.020099   3.285452   4.190976
    15  H    3.171014   2.022290   1.018804   2.506413   3.441317
    16  H    2.519249   2.730497   3.324159   2.154811   1.091017
    17  H    4.869625   4.692971   5.265687   3.412507   2.160316
    18  H    5.784323   4.685983   5.278146   3.414369   3.887794
    19  H    4.010630   2.722117   3.344995   2.159320   3.405606
                    6          7          8          9         10
     6  C    0.000000
     7  C    1.402513   0.000000
     8  C    2.455528   1.435754   0.000000
     9  N    3.510375   2.595803   1.160049   0.000000
    10  C    2.434172   1.402363   2.455311   3.510316   0.000000
    11  C    2.793360   2.410048   3.723075   4.835255   1.389920
    12  H    4.311191   5.076987   6.435241   7.553666   4.868905
    13  H    4.520470   4.768818   6.178087   7.324305   4.000479
    14  H    5.439321   5.904252   7.302194   8.440923   5.307018
    15  H    4.435594   4.682024   6.004322   7.104882   4.050646
    16  H    2.153831   3.403697   4.606542   5.658209   3.887589
    17  H    1.091355   2.164530   2.677225   3.490476   3.421137
    18  H    3.421727   2.165393   2.678720   3.492414   1.091191
    19  H    3.886319   3.401621   4.604097   5.655802   2.151544
                   11         12         13         14         15
    11  C    0.000000
    12  H    3.791022   0.000000
    13  H    2.631193   2.215178   0.000000
    14  H    4.018392   3.423590   2.315141   0.000000
    15  H    2.931843   3.913052   2.500664   1.628480   0.000000
    16  H    3.402343   2.802576   3.698145   4.197502   3.779055
    17  H    3.884691   4.952517   5.476526   6.256241   5.318114
    18  H    2.160622   5.795602   4.702378   6.050713   4.742140
    19  H    1.092975   4.113554   2.419839   3.887880   2.916664
                   16         17         18         19
    16  H    0.000000
    17  H    2.490976   0.000000
    18  H    4.978758   4.319876   0.000000
    19  H    4.303043   4.977653   2.486548   0.000000
 Stoichiometry    C8H8N2O
 Framework group  C1[X(C8H8N2O)]
 Deg. of freedom    51
 Full point group                 C1      NOp   1
 RotChk:  IX=2 Diff= 1.01D-03
 Largest Abelian subgroup         C1      NOp   1
 Largest concise Abelian subgroup C1      NOp   1
                         Standard orientation:                         
 ---------------------------------------------------------------------
 Center     Atomic      Atomic             Coordinates (Angstroms)
 Number     Number       Type             X           Y           Z
 ---------------------------------------------------------------------
      1          8           0       -3.022951   -0.991601    0.585769
      2          6           0       -2.418496    0.224243    0.207754
      3          7           0       -2.910101    0.536734   -1.114601
      4          6           0       -0.902232    0.126923    0.168449
      5          6           0       -0.276274   -1.083275   -0.142957
      6          6           0        1.108956   -1.160825   -0.227007
      7          6           0        1.879843   -0.011777    0.002047
      8          6           0        3.311371   -0.084990   -0.080157
      9          7           0        4.467976   -0.144310   -0.146924
     10          6           0        1.261467    1.207101    0.316007
     11          6           0       -0.124832    1.266403    0.396849
     12          1           0       -2.832018   -1.137739    1.520723
     13          1           0       -2.682063    0.998879    0.955575
     14          1           0       -3.861538    0.895702   -1.033915
     15          1           0       -2.355306    1.296463   -1.505724
     16          1           0       -0.883861   -1.973449   -0.312500
     17          1           0        1.598667   -2.105595   -0.469179
     18          1           0        1.867610    2.095977    0.498184
     19          1           0       -0.611824    2.212779    0.645454
 ---------------------------------------------------------------------
 Rotational constants (GHZ):           3.4592086           0.5544624           0.5124386
 Leave Link  202 at Tue Oct 21 15:12:59 2025, MaxMem=  4294967296 cpu:               0.0 elap:               0.0
 (Enter /lrz/sys/applications/gaussian/g16.C.01/x86_64_legacy/exe/l301.exe)
 Standard basis: def2SVP (5D, 7F)
 Ernie: Thresh=  0.10000D-02 Tol=  0.10000D-05 Strict=F.
 There are   205 symmetry adapted cartesian basis functions of A   symmetry.
 There are   194 symmetry adapted basis functions of A   symmetry.
   194 basis functions,   331 primitive gaussians,   205 cartesian basis functions
    39 alpha electrons       39 beta electrons
       nuclear repulsion energy       545.3593720971 Hartrees.
 IExCor= 4639 DFT=T Ex+Corr=wB97XD ExCW=0 ScaHFX=  1.000000
 ScaDFX=  1.000000  1.000000  1.000000  1.000000 ScalE2=  1.000000  1.000000
 IRadAn=      5 IRanWt=     -1 IRanGd=            0 ICorTp=0 IEmpDi=121
 HFx  wShort=  0.000000 wLong=  0.200000 cFull=  0.222036 cShort=  0.000000 cLong=  0.777964
 DFx  wShort=  0.000000 wLong=  0.200000 cFull=  0.000000 cShort=  0.000000 cLong=  1.000000
 NAtoms=   19 NActive=   19 NUniq=   19 SFac= 1.00D+00 NAtFMM=   60 NAOKFM=F Big=F
 Integral buffers will be    131072 words long.
 Raffenetti 2 integral format.
 Two-electron integral symmetry is turned on.
 R6Disp:  Grimme-D2 Dispersion energy=       -0.0103325583 Hartrees.
 Nuclear repulsion after empirical dispersion term =      545.3490395388 Hartrees.
 ------------------------------------------------------------------------------
 Polarizable Continuum Model (PCM)
 =================================
 Model                : PCM.
 Atomic radii         : SMD-Coulomb.
 Polarization charges : Total charges.
 Charge compensation  : None.
 Solution method      : On-the-fly selection.
 Cavity type          : VdW (van der Waals Surface) (Alpha=1.000).
 Cavity algorithm     : GePol (No added spheres)
                        Default sphere list used, NSphG=   19.
                        Lebedev-Laikov grids with approx.  5.0 points / Ang**2.
                        Smoothing algorithm: York/Karplus (Gamma=1.0000).
                        Polarization charges: spherical gaussians, with
                                              point-specific exponents (IZeta= 3).
                        Self-potential: point-specific (ISelfS= 7).
                        Self-field    : sphere-specific E.n sum rule (ISelfD= 2).
 1st derivatives      : Analytical E(r).r(x)/FMM algorithm (CHGder, D1EAlg=3).
                        Cavity 1st derivative terms included.
 Solvent              : Water, Eps=  78.355300 Eps(inf)=   1.777849
 ------------------------------------------------------------------------------
 Spheres list:
 ISph  on   Nord     Re0    Alpha      Xe            Ye            Ze
    1   O      1    1.5200  1.000     -3.022951     -0.991601      0.585769
    2   C      2    1.8500  1.000     -2.418496      0.224243      0.207754
    3   N      3    1.8900  1.000     -2.910101      0.536734     -1.114601
    4   C      4    1.8500  1.000     -0.902232      0.126923      0.168449
    5   C      5    1.8500  1.000     -0.276274     -1.083275     -0.142957
    6   C      6    1.8500  1.000      1.108956     -1.160825     -0.227007
    7   C      7    1.8500  1.000      1.879843     -0.011777      0.002047
    8   C      8    1.8500  1.000      3.311371     -0.084990     -0.080157
    9   N      9    1.8900  1.000      4.467976     -0.144310     -0.146924
   10   C     10    1.8500  1.000      1.261467      1.207101      0.316007
   11   C     11    1.8500  1.000     -0.124832      1.266403      0.396849
   12   H     12    1.2000  1.000     -2.832018     -1.137739      1.520723
   13   H     13    1.2000  1.000     -2.682063      0.998879      0.955575
   14   H     14    1.2000  1.000     -3.861538      0.895702     -1.033915
   15   H     15    1.2000  1.000     -2.355306      1.296463     -1.505724
   16   H     16    1.2000  1.000     -0.883861     -1.973449     -0.312500
   17   H     17    1.2000  1.000      1.598667     -2.105595     -0.469179
   18   H     18    1.2000  1.000      1.867610      2.095977      0.498184
   19   H     19    1.2000  1.000     -0.611824      2.212779      0.645454
 ------------------------------------------------------------------------------
 GePol: Number of generator spheres                  =      19
 GePol: Total number of spheres                      =      19
 GePol: Number of exposed spheres                    =      19 (100.00%)
 GePol: Number of points                             =    1638
 GePol: Average weight of points                     =       0.11
 GePol: Minimum weight of points                     =   0.93D-09
 GePol: Maximum weight of points                     =    0.21991
 GePol: Number of points with low weight             =      94
 GePol: Fraction of low-weight points (<1% of avg)   =       5.74%
 GePol: Cavity surface area                          =    188.161 Ang**2
 GePol: Cavity volume                                =    161.897 Ang**3
 ------------------------------------------------------------------------------
 Atomic radii for non-electrostatic terms: SMD-CDS.
 ------------------------------------------------------------------------------
 PCM non-electrostatic energy =         0.0070175155 Hartrees.
 Nuclear repulsion after PCM non-electrostatic terms =      545.3560570544 Hartrees.
 Leave Link  301 at Tue Oct 21 15:12:59 2025, MaxMem=  4294967296 cpu:               0.6 elap:               0.1
 (Enter /lrz/sys/applications/gaussian/g16.C.01/x86_64_legacy/exe/l302.exe)
 NPDir=0 NMtPBC=     1 NCelOv=     1 NCel=       1 NClECP=     1 NCelD=      1
         NCelK=      1 NCelE2=     1 NClLst=     1 CellRange=     0.0.
 One-electron integrals computed using PRISM.
 One-electron integral symmetry used in STVInt
   1 Symmetry operations used in ECPInt.
 ECPInt:  NShTT=    4095 NPrTT=   15045 LenC2=    3950 LenP2D=   11136.
 LDataN:  DoStor=T MaxTD1= 4 Len=   56
 NBasis=   194 RedAO= T EigKep=  2.77D-04  NBF=   194
 NBsUse=   194 1.00D-06 EigRej= -1.00D+00 NBFU=   194
 Precomputing XC quadrature grid using
 IXCGrd= 4 IRadAn=           5 IRanWt=          -1 IRanGd=           0 AccXCQ= 0.00D+00.
 Generated NRdTot=       0 NPtTot=           0 NUsed=           0 NTot=          32
 NSgBfM=   204   204   204   204   204 MxSgAt=    19 MxSgA2=    19.
 Leave Link  302 at Tue Oct 21 15:12:59 2025, MaxMem=  4294967296 cpu:               1.9 elap:               0.3
 (Enter /lrz/sys/applications/gaussian/g16.C.01/x86_64_legacy/exe/l303.exe)
 DipDrv:  MaxL=1.
 Leave Link  303 at Tue Oct 21 15:12:59 2025, MaxMem=  4294967296 cpu:               0.3 elap:               0.0
 (Enter /lrz/sys/applications/gaussian/g16.C.01/x86_64_legacy/exe/l401.exe)
 Initial guess from the checkpoint file:  "g16_C12-a_10.chk"
 B after Tr=    -0.000000   -0.000000   -0.000000
         Rot=    1.000000   -0.000371    0.000057    0.000020 Ang=  -0.04 deg.
 Guess basis will be translated and rotated to current coordinates.
 JPrj=2 DoOrth=T DoCkMO=T.
 Leave Link  401 at Tue Oct 21 15:12:59 2025, MaxMem=  4294967296 cpu:               1.0 elap:               0.1
 (Enter /lrz/sys/applications/gaussian/g16.C.01/x86_64_legacy/exe/l502.exe)
 Integral symmetry usage will be decided dynamically.
 Closed shell SCF:
 Using DIIS extrapolation, IDIIS=  1040.
 NGot=  4294967296 LenX=  4294878900 LenY=  4294836434
 Requested convergence on RMS density matrix=1.00D-08 within 128 cycles.
 Requested convergence on MAX density matrix=1.00D-06.
 Requested convergence on             energy=1.00D-06.
 No special actions if energy rises.
 Fock matrices will be formed incrementally for  20 cycles.

 Cycle   1  Pass 1  IDiag  1:
 FoFJK:  IHMeth= 1 ICntrl=       0 DoSepK=T KAlg= 0 I1Cent=           0 FoldK=F
 IRaf=         1 NMat=       1 IRICut=       1 DoRegI=T DoRafI=F ISym2E= 0 IDoP0=0 IntGTp=1.
 FoFCou: FMM=F IPFlag=           0 FMFlag=      100000 FMFlg1=           0
         NFxFlg=           0 DoJE=T BraDBF=F KetDBF=F FulRan=T
         wScrn=  0.000000 ICntrl=       500 IOpCl=  0 I1Cent=           0 NGrid=           0
         NMat0=    1 NMatS0=      1 NMatT0=    0 NMatD0=    1 NMtDS0=    0 NMtDT0=    0
 Symmetry not used in FoFCou.
 Inv3:  Mode=1 IEnd=     8049132.
 Iteration    1 A*A^-1 deviation from unit magnitude is 8.55D-15 for   1215.
 Iteration    1 A*A^-1 deviation from orthogonality  is 2.96D-15 for    842    470.
 Iteration    1 A^-1*A deviation from unit magnitude is 8.10D-15 for   1215.
 Iteration    1 A^-1*A deviation from orthogonality  is 2.92D-15 for    717    183.
 E= -493.864117088633    
 DIIS: error= 1.29D-04 at cycle   1 NSaved=   1.
 NSaved= 1 IEnMin= 1 EnMin= -493.864117088633     IErMin= 1 ErrMin= 1.29D-04
 ErrMax= 1.29D-04  0.00D+00 EMaxC= 1.00D-01 BMatC= 3.41D-06 BMatP= 3.41D-06
 IDIUse=3 WtCom= 9.99D-01 WtEn= 1.29D-03
 Coeff-Com:  0.100D+01
 Coeff-En:   0.100D+01
 Coeff:      0.100D+01
 Gap=     0.780 Goal=   None    Shift=    0.000
 RMSDP=1.69D-05 MaxDP=6.28D-04              OVMax= 4.80D-04

 Cycle   2  Pass 1  IDiag  1:
 RMSU=  1.69D-05    CP:  1.00D+00
 E= -493.864121877623     Delta-E=       -0.000004788990 Rises=F Damp=F
 DIIS: error= 2.45D-05 at cycle   2 NSaved=   2.
 NSaved= 2 IEnMin= 2 EnMin= -493.864121877623     IErMin= 2 ErrMin= 2.45D-05
 ErrMax= 2.45D-05  0.00D+00 EMaxC= 1.00D-01 BMatC= 1.12D-07 BMatP= 3.41D-06
 IDIUse=1 WtCom= 1.00D+00 WtEn= 0.00D+00
 Coeff-Com: -0.164D+00 0.116D+01
 Coeff:     -0.164D+00 0.116D+01
 Gap=     0.340 Goal=   None    Shift=    0.000
 RMSDP=3.92D-06 MaxDP=1.47D-04 DE=-4.79D-06 OVMax= 1.88D-04

 Cycle   3  Pass 1  IDiag  1:
 RMSU=  2.48D-06    CP:  1.00D+00  1.18D+00
 E= -493.864122158013     Delta-E=       -0.000000280390 Rises=F Damp=F
 DIIS: error= 5.96D-06 at cycle   3 NSaved=   3.
 NSaved= 3 IEnMin= 3 EnMin= -493.864122158013     IErMin= 3 ErrMin= 5.96D-06
 ErrMax= 5.96D-06  0.00D+00 EMaxC= 1.00D-01 BMatC= 5.67D-09 BMatP= 1.12D-07
 IDIUse=1 WtCom= 1.00D+00 WtEn= 0.00D+00
 Coeff-Com: -0.137D-01 0.136D-01 0.100D+01
 Coeff:     -0.137D-01 0.136D-01 0.100D+01
 Gap=     0.340 Goal=   None    Shift=    0.000
 RMSDP=9.69D-07 MaxDP=2.29D-05 DE=-2.80D-07 OVMax= 4.18D-05

 Cycle   4  Pass 1  IDiag  1:
 RMSU=  6.68D-07    CP:  1.00D+00  1.20D+00  1.25D+00
 E= -493.864122167381     Delta-E=       -0.000000009368 Rises=F Damp=F
 DIIS: error= 3.27D-06 at cycle   4 NSaved=   4.
 NSaved= 4 IEnMin= 4 EnMin= -493.864122167381     IErMin= 4 ErrMin= 3.27D-06
 ErrMax= 3.27D-06  0.00D+00 EMaxC= 1.00D-01 BMatC= 3.75D-09 BMatP= 5.67D-09
 IDIUse=1 WtCom= 1.00D+00 WtEn= 0.00D+00
 Coeff-Com:  0.128D-01-0.133D+00 0.503D+00 0.617D+00
 Coeff:      0.128D-01-0.133D+00 0.503D+00 0.617D+00
 Gap=     0.340 Goal=   None    Shift=    0.000
 RMSDP=3.74D-07 MaxDP=9.97D-06 DE=-9.37D-09 OVMax= 1.72D-05

 Cycle   5  Pass 1  IDiag  1:
 RMSU=  2.09D-07    CP:  1.00D+00  1.20D+00  1.36D+00  7.84D-01
 E= -493.864122170958     Delta-E=       -0.000000003577 Rises=F Damp=F
 DIIS: error= 7.51D-07 at cycle   5 NSaved=   5.
 NSaved= 5 IEnMin= 5 EnMin= -493.864122170958     IErMin= 5 ErrMin= 7.51D-07
 ErrMax= 7.51D-07  0.00D+00 EMaxC= 1.00D-01 BMatC= 1.15D-10 BMatP= 3.75D-09
 IDIUse=1 WtCom= 1.00D+00 WtEn= 0.00D+00
 Coeff-Com:  0.408D-02-0.347D-01 0.519D-01 0.149D+00 0.830D+00
 Coeff:      0.408D-02-0.347D-01 0.519D-01 0.149D+00 0.830D+00
 Gap=     0.340 Goal=   None    Shift=    0.000
 RMSDP=1.19D-07 MaxDP=3.24D-06 DE=-3.58D-09 OVMax= 5.81D-06

 Cycle   6  Pass 1  IDiag  1:
 RMSU=  7.12D-08    CP:  1.00D+00  1.20D+00  1.39D+00  8.59D-01  1.14D+00
 E= -493.864122171109     Delta-E=       -0.000000000151 Rises=F Damp=F
 DIIS: error= 6.03D-07 at cycle   6 NSaved=   6.
 NSaved= 6 IEnMin= 6 EnMin= -493.864122171109     IErMin= 6 ErrMin= 6.03D-07
 ErrMax= 6.03D-07  0.00D+00 EMaxC= 1.00D-01 BMatC= 5.63D-11 BMatP= 1.15D-10
 IDIUse=1 WtCom= 1.00D+00 WtEn= 0.00D+00
 Coeff-Com:  0.715D-04 0.377D-02-0.590D-01-0.239D-01 0.460D+00 0.619D+00
 Coeff:      0.715D-04 0.377D-02-0.590D-01-0.239D-01 0.460D+00 0.619D+00
 Gap=     0.340 Goal=   None    Shift=    0.000
 RMSDP=5.19D-08 MaxDP=1.49D-06 DE=-1.51D-10 OVMax= 2.60D-06

 Cycle   7  Pass 1  IDiag  1:
 RMSU=  2.79D-08    CP:  1.00D+00  1.20D+00  1.40D+00  8.87D-01  1.28D+00
                    CP:  8.48D-01
 E= -493.864122171175     Delta-E=       -0.000000000066 Rises=F Damp=F
 DIIS: error= 9.80D-08 at cycle   7 NSaved=   7.
 NSaved= 7 IEnMin= 7 EnMin= -493.864122171175     IErMin= 7 ErrMin= 9.80D-08
 ErrMax= 9.80D-08  0.00D+00 EMaxC= 1.00D-01 BMatC= 2.47D-12 BMatP= 5.63D-11
 IDIUse=1 WtCom= 1.00D+00 WtEn= 0.00D+00
 Coeff-Com: -0.509D-03 0.579D-02-0.230D-01-0.258D-01 0.123D-01 0.175D+00
 Coeff-Com:  0.856D+00
 Coeff:     -0.509D-03 0.579D-02-0.230D-01-0.258D-01 0.123D-01 0.175D+00
 Coeff:      0.856D+00
 Gap=     0.340 Goal=   None    Shift=    0.000
 RMSDP=1.92D-08 MaxDP=4.98D-07 DE=-6.57D-11 OVMax= 1.15D-06

 Cycle   8  Pass 1  IDiag  1:
 RMSU=  9.83D-09    CP:  1.00D+00  1.20D+00  1.40D+00  8.95D-01  1.33D+00
                    CP:  9.68D-01  1.10D+00
 E= -493.864122171175     Delta-E=       -0.000000000000 Rises=F Damp=F
 DIIS: error= 3.76D-08 at cycle   8 NSaved=   8.
 NSaved= 8 IEnMin= 8 EnMin= -493.864122171175     IErMin= 8 ErrMin= 3.76D-08
 ErrMax= 3.76D-08  0.00D+00 EMaxC= 1.00D-01 BMatC= 3.38D-13 BMatP= 2.47D-12
 IDIUse=1 WtCom= 1.00D+00 WtEn= 0.00D+00
 Coeff-Com: -0.199D-03 0.194D-02-0.467D-02-0.796D-02-0.281D-01 0.207D-01
 Coeff-Com:  0.326D+00 0.692D+00
 Coeff:     -0.199D-03 0.194D-02-0.467D-02-0.796D-02-0.281D-01 0.207D-01
 Coeff:      0.326D+00 0.692D+00
 Gap=     0.340 Goal=   None    Shift=    0.000
 RMSDP=5.29D-09 MaxDP=1.07D-07 DE=-2.27D-13 OVMax= 2.98D-07

 Error on total polarization charges =  0.02903
 SCF Done:  E(RwB97XD) =  -493.864122171     A.U. after    8 cycles
            NFock=  8  Conv=0.53D-08     -V/T= 2.0101
 KE= 4.889119248882D+02 PE=-2.238702510660D+03 EE= 7.105704065462D+02
 SMD-CDS (non-electrostatic) energy       (kcal/mol) =       4.40
 (included in total energy above)
 Leave Link  502 at Tue Oct 21 15:13:31 2025, MaxMem=  4294967296 cpu:             253.4 elap:              31.9
 (Enter /lrz/sys/applications/gaussian/g16.C.01/x86_64_legacy/exe/l701.exe)
 ... and contract with generalized density number  0.
 Compute integral first derivatives.
 R6Disp: Adding Grimme-D2 dispersion energy 1st derivatives to the gradient.
   1 Symmetry operations used in ECPInt.
 ECPInt:  NShTT=    4095 NPrTT=   15045 LenC2=    3950 LenP2D=   11136.
 LDataN:  DoStor=T MaxTD1= 5 Len=  102
 D1PCM: PCM CHGder 1st derivatives, ID1Alg=3 FixD1E=F DoIter=F DoCFld=F I1PDM=0.
 GePol: Maximum number of non-zero 1st derivatives   =     268
 Leave Link  701 at Tue Oct 21 15:13:32 2025, MaxMem=  4294967296 cpu:               9.4 elap:               1.2
 (Enter /lrz/sys/applications/gaussian/g16.C.01/x86_64_legacy/exe/l702.exe)
 L702 exits ... SP integral derivatives will be done elsewhere.
 Leave Link  702 at Tue Oct 21 15:13:33 2025, MaxMem=  4294967296 cpu:               0.2 elap:               0.0
 (Enter /lrz/sys/applications/gaussian/g16.C.01/x86_64_legacy/exe/l703.exe)
 Integral derivatives from FoFJK, PRISM(SPDF).
 Compute integral first derivatives, UseDBF=F ICtDFT=           0.
 Calling FoFJK, ICntrl=      2127 FMM=F ISym2X=0 I1Cent= 0 IOpClX= 0 NMat=1 NMatS=1 NMatT=0.
 FoFJK:  IHMeth= 1 ICntrl=    2127 DoSepK=T KAlg= 0 I1Cent=           0 FoldK=F
 IRaf=         1 NMat=       1 IRICut=       1 DoRegI=T DoRafI=F ISym2E= 0 IDoP0=0 IntGTp=1.
 FoFCou: FMM=F IPFlag=           0 FMFlag=      100000 FMFlg1=         800
         NFxFlg=           0 DoJE=F BraDBF=F KetDBF=F FulRan=T
         wScrn=  0.000000 ICntrl=      2527 IOpCl=  0 I1Cent=           0 NGrid=           0
         NMat0=    1 NMatS0=      1 NMatT0=    0 NMatD0=    1 NMtDS0=    0 NMtDT0=    0
 Symmetry not used in FoFCou.
 Leave Link  703 at Tue Oct 21 15:13:41 2025, MaxMem=  4294967296 cpu:              68.6 elap:               8.6
 (Enter /lrz/sys/applications/gaussian/g16.C.01/x86_64_legacy/exe/l716.exe)
 Dipole        =-2.08408791D+00 1.21497932D+00 9.33834216D-01
 ***** Axes restored to original set *****
 -------------------------------------------------------------------
 Center     Atomic                   Forces (Hartrees/Bohr)
 Number     Number              X              Y              Z
 -------------------------------------------------------------------
      1        8          -0.000008873   -0.000010589   -0.000023595
      2        6          -0.000010595   -0.000019037    0.000033381
      3        7           0.000010915    0.000040756   -0.000000961
      4        6           0.000001646   -0.000000336    0.000040844
      5        6           0.000006231   -0.000007563   -0.000006558
      6        6          -0.000009336    0.000002568   -0.000009313
      7        6           0.000002961   -0.000019355   -0.000002004
      8        6          -0.000005929    0.000029916    0.000015092
      9        7           0.000009037   -0.000009899   -0.000018127
     10        6           0.000008245    0.000010781   -0.000016817
     11        6           0.000000011   -0.000002411   -0.000022899
     12        1          -0.000017975   -0.000018181   -0.000002564
     13        1           0.000005140    0.000003863    0.000004240
     14        1           0.000007333    0.000002699    0.000000459
     15        1          -0.000001565    0.000004256    0.000000212
     16        1          -0.000002501   -0.000010775    0.000016397
     17        1          -0.000004517   -0.000010941    0.000006298
     18        1           0.000004561    0.000007677   -0.000011356
     19        1           0.000005211    0.000006572   -0.000002728
 -------------------------------------------------------------------
 Cartesian Forces:  Max     0.000040844 RMS     0.000013776
 Leave Link  716 at Tue Oct 21 15:13:41 2025, MaxMem=  4294967296 cpu:               0.2 elap:               0.0
 (Enter /lrz/sys/applications/gaussian/g16.C.01/x86_64_legacy/exe/l103.exe)

 GradGradGradGradGradGradGradGradGradGradGradGradGradGradGradGradGradGrad
 Berny optimization.
 Using GEDIIS/GDIIS optimizer.
 FormGI is forming the generalized inverse of G from B-inverse, IUseBI=4.
 Internal  Forces:  Max     0.000041436 RMS     0.000009152
 Search for a local minimum.
 Step number  17 out of a maximum of   98
 All quantities printed in internal units (Hartrees-Bohrs-Radians)
 RMS Force = .91515D-05 SwitMx=.10000D-02 MixMth= 2
 Mixed Optimization -- En-DIIS/RFO-DIIS
 Swapping is turned off.
 Update second derivatives using D2CorX and points    9   10   11   12   13
                                                     14   15   16   17
 DE=  9.88D-09 DEPred=-2.52D-07 R=-3.92D-02
 Trust test=-3.92D-02 RLast= 1.04D-02 DXMaxT set to 5.92D-01
 ITU= -1  0  0  1  1  1  1  1  0  1  1  1  1  1  1  1  0
     Eigenvalues ---    0.00097   0.00192   0.00476   0.01841   0.02101
     Eigenvalues ---    0.02166   0.02227   0.02247   0.02289   0.02294
     Eigenvalues ---    0.02351   0.02408   0.03367   0.05030   0.05374
     Eigenvalues ---    0.06664   0.08759   0.08909   0.15847   0.15968
     Eigenvalues ---    0.15997   0.16019   0.16444   0.16524   0.17770
     Eigenvalues ---    0.20712   0.21964   0.22292   0.22935   0.24107
     Eigenvalues ---    0.24972   0.25424   0.32072   0.32469   0.35906
     Eigenvalues ---    0.35993   0.36244   0.37084   0.42383   0.43039
     Eigenvalues ---    0.43484   0.44690   0.45513   0.46330   0.46886
     Eigenvalues ---    0.47240   0.47777   0.48743   0.52239   0.55513
     Eigenvalues ---    1.42130
 En-DIIS/RFO-DIIS/Sim-DIIS IScMMF=       -3 using points:    17   16   15   14   13   12   11   10    9    8
 RFO step:  Lambda=-7.72659194D-08.
 NNeg= 0 NGDIIS=10 SimSw=  2.50D-03 Rises=F DC=  9.88D-09 SmlDif=  1.00D-05
 NRisDI= 0 DoIntr=F SqrtH=F CThrHd= 10.0 CDAdj=  3.0
 RMS Error=  0.3955077611D-03 NUsed=10 OKEnD=F EnDIS=F
 InvSVX:  RCond= 2.28D-08 Info=           0 Equed=N FErr=  6.52D-12 BErr=  8.04D-17
 DIIS inversion failure, remove point  10.
 InvSVX:  RCond= 2.71D-08 Info=           0 Equed=N FErr=  5.41D-12 BErr=  6.74D-17
 DIIS inversion failure, remove point   9.
 InvSVX:  RCond= 3.03D-08 Info=           0 Equed=N FErr=  4.29D-12 BErr=  5.73D-17
 DIIS inversion failure, remove point   8.
 InvSVX:  RCond= 3.97D-08 Info=           0 Equed=N FErr=  2.59D-12 BErr=  8.55D-17
 DIIS inversion failure, remove point   7.
 InvSVX:  RCond= 5.01D-08 Info=           0 Equed=N FErr=  1.94D-12 BErr=  6.92D-17
 DIIS inversion failure, remove point   6.
 InvSVX:  RCond= 7.23D-08 Info=           0 Equed=N FErr=  1.78D-12 BErr=  8.82D-17
 DIIS inversion failure, remove point   5.
 InvSVX:  RCond= 9.69D-08 Info=           0 Equed=N FErr=  8.03D-13 BErr=  1.05D-16
 DIIS inversion failure, remove point   4.
 InvSVX:  RCond= 2.13D-06 Info=           0 Equed=N FErr=  1.69D-14 BErr=  7.85D-17
 RFO-DIIS uses    3 points instead of   10
 DidBck=F Rises=F RFO-DIIS coefs:    1.47260   -0.69073    0.21813    0.00000    0.00000
                  RFO-DIIS coefs:    0.00000    0.00000    0.00000    0.00000    0.00000
 Iteration  1 RMS(Cart)=  0.00071838 RMS(Int)=  0.00000021
 Iteration  2 RMS(Cart)=  0.00000028 RMS(Int)=  0.00000005
 ITry= 1 IFail=0 DXMaxC= 2.64D-03 DCOld= 1.00D+10 DXMaxT= 5.92D-01 DXLimC= 3.00D+00 Rises=F
 Variable       Old X    -DE/DX   Delta X   Delta X   Delta X     New X
                                 (Linear)    (Quad)   (Total)
    R1        2.66347  -0.00004   0.00007  -0.00015  -0.00008   2.66339
    R2        1.82430   0.00000   0.00003  -0.00001   0.00002   1.82432
    R3        2.73060   0.00004  -0.00008   0.00015   0.00007   2.73068
    R4        2.87218  -0.00002   0.00002  -0.00006  -0.00004   2.87214
    R5        2.09476  -0.00000   0.00000  -0.00001  -0.00000   2.09475
    R6        1.92771   0.00001  -0.00001   0.00002   0.00001   1.92772
    R7        1.92526   0.00001   0.00001   0.00000   0.00001   1.92527
    R8        2.64114  -0.00001  -0.00002  -0.00002  -0.00003   2.64111
    R9        2.64219   0.00000   0.00002   0.00001   0.00003   2.64222
   R10        2.62661  -0.00000   0.00001   0.00001   0.00002   2.62663
   R11        2.06172   0.00000   0.00001  -0.00000   0.00001   2.06173
   R12        2.65037  -0.00001   0.00001  -0.00004  -0.00003   2.65033
   R13        2.06236  -0.00000   0.00001  -0.00000   0.00001   2.06237
   R14        2.71318  -0.00000   0.00003  -0.00002   0.00001   2.71320
   R15        2.65008   0.00001  -0.00001   0.00004   0.00003   2.65011
   R16        2.19217  -0.00001   0.00000  -0.00000   0.00000   2.19218
   R17        2.62657  -0.00000   0.00002  -0.00004  -0.00002   2.62655
   R18        2.06205  -0.00000   0.00000  -0.00000   0.00000   2.06205
   R19        2.06542  -0.00000   0.00001  -0.00000   0.00000   2.06543
    A1        1.88127  -0.00003  -0.00010  -0.00001  -0.00011   1.88117
    A2        1.86094   0.00001   0.00024  -0.00019   0.00005   1.86099
    A3        1.96009  -0.00001   0.00010  -0.00015  -0.00005   1.96004
    A4        1.89644  -0.00000  -0.00004  -0.00002  -0.00007   1.89638
    A5        1.90666  -0.00001  -0.00007   0.00007   0.00001   1.90667
    A6        1.96639   0.00000  -0.00015   0.00017   0.00002   1.96641
    A7        1.87485   0.00001  -0.00008   0.00012   0.00004   1.87489
    A8        1.89762   0.00001   0.00010  -0.00005   0.00005   1.89766
    A9        1.90427  -0.00001  -0.00005  -0.00003  -0.00009   1.90418
   A10        1.85028  -0.00000   0.00006  -0.00013  -0.00008   1.85020
   A11        2.10367   0.00000   0.00015  -0.00005   0.00009   2.10376
   A12        2.09240  -0.00001  -0.00018   0.00005  -0.00014   2.09226
   A13        2.08639   0.00001   0.00001   0.00002   0.00003   2.08642
   A14        2.10382  -0.00000  -0.00002   0.00000  -0.00001   2.10380
   A15        2.08483   0.00000   0.00001   0.00001   0.00001   2.08485
   A16        2.09450   0.00000   0.00001  -0.00001  -0.00000   2.09450
   A17        2.08541  -0.00000   0.00000  -0.00001  -0.00000   2.08540
   A18        2.10472   0.00000   0.00001   0.00000   0.00001   2.10474
   A19        2.09306  -0.00000  -0.00001   0.00001  -0.00001   2.09305
   A20        2.09082  -0.00002  -0.00000  -0.00006  -0.00007   2.09075
   A21        2.10166   0.00000   0.00003  -0.00001   0.00002   2.10168
   A22        2.09070   0.00001  -0.00002   0.00007   0.00005   2.09075
   A23        2.08278  -0.00000  -0.00004   0.00003  -0.00001   2.08277
   A24        2.09491   0.00000   0.00004  -0.00003   0.00002   2.09493
   A25        2.10549  -0.00000  -0.00001  -0.00000  -0.00001   2.10548
   A26        2.10631  -0.00001   0.00002  -0.00003  -0.00002   2.10629
   A27        2.08872  -0.00000  -0.00003   0.00000  -0.00002   2.08870
   A28        2.08814   0.00001   0.00001   0.00003   0.00004   2.08819
   A29        3.14180  -0.00003   0.00017  -0.00083  -0.00066   3.14114
   A30        3.14192   0.00000   0.00002   0.00004   0.00006   3.14197
    D1       -2.96958  -0.00001  -0.00047  -0.00048  -0.00095  -2.97053
    D2        1.22582  -0.00000  -0.00060  -0.00036  -0.00096   1.22486
    D3       -0.84572  -0.00000  -0.00053  -0.00040  -0.00094  -0.84666
    D4        1.33784   0.00001   0.00071   0.00016   0.00087   1.33872
    D5       -2.93483   0.00000   0.00081  -0.00005   0.00076  -2.93407
    D6       -2.82328  -0.00000   0.00094  -0.00009   0.00085  -2.82244
    D7       -0.81277  -0.00001   0.00103  -0.00030   0.00074  -0.81204
    D8       -0.74104   0.00000   0.00070   0.00021   0.00091  -0.74013
    D9        1.26947  -0.00000   0.00079   0.00001   0.00080   1.27027
   D10        0.52912   0.00001  -0.00017  -0.00051  -0.00068   0.52844
   D11       -2.65368  -0.00000  -0.00093  -0.00017  -0.00110  -2.65478
   D12       -1.53180   0.00000  -0.00049  -0.00023  -0.00071  -1.53252
   D13        1.56858  -0.00000  -0.00124   0.00011  -0.00113   1.56745
   D14        2.61332  -0.00000  -0.00022  -0.00055  -0.00077   2.61255
   D15       -0.56948  -0.00001  -0.00097  -0.00021  -0.00119  -0.57067
   D16        3.10027  -0.00001  -0.00068   0.00024  -0.00044   3.09983
   D17       -0.05016  -0.00001  -0.00068   0.00027  -0.00041  -0.05057
   D18       -0.00025  -0.00000   0.00007  -0.00009  -0.00002  -0.00027
   D19        3.13251  -0.00000   0.00007  -0.00006   0.00001   3.13252
   D20       -3.09973   0.00001   0.00059  -0.00018   0.00041  -3.09932
   D21        0.04613   0.00001   0.00069  -0.00028   0.00041   0.04654
   D22        0.00106   0.00000  -0.00015   0.00015  -0.00000   0.00106
   D23       -3.13626   0.00000  -0.00006   0.00005  -0.00001  -3.13627
   D24       -0.00125   0.00000  -0.00004   0.00011   0.00007  -0.00117
   D25        3.14057  -0.00000   0.00001   0.00001   0.00001   3.14059
   D26       -3.13396   0.00000  -0.00004   0.00008   0.00004  -3.13392
   D27        0.00786  -0.00000   0.00001  -0.00003  -0.00002   0.00785
   D28        3.13921   0.00000   0.00008   0.00001   0.00008   3.13929
   D29        0.00197  -0.00000   0.00008  -0.00019  -0.00010   0.00187
   D30       -0.00261   0.00000   0.00003   0.00011   0.00014  -0.00247
   D31       -3.13985  -0.00000   0.00004  -0.00008  -0.00005  -3.13990
   D32       -0.00118   0.00000  -0.00016   0.00025   0.00008  -0.00110
   D33        3.13596   0.00000  -0.00012   0.00014   0.00003   3.13599
   D34       -3.13842  -0.00000  -0.00015   0.00005  -0.00010  -3.13852
   D35       -0.00128  -0.00000  -0.00011  -0.00005  -0.00016  -0.00144
   D36       -0.00034  -0.00000   0.00020  -0.00023  -0.00003  -0.00037
   D37        3.13698  -0.00000   0.00010  -0.00013  -0.00003   3.13695
   D38       -3.13745   0.00000   0.00015  -0.00012   0.00003  -3.13743
   D39       -0.00013   0.00000   0.00005  -0.00002   0.00003  -0.00010
         Item               Value     Threshold  Converged?
 Maximum Force            0.000041     0.000450     YES
 RMS     Force            0.000009     0.000300     YES
 Maximum Displacement     0.002643     0.001800     NO 
 RMS     Displacement     0.000718     0.001200     YES
 Predicted change in Energy=-3.826292D-08
 GradGradGradGradGradGradGradGradGradGradGradGradGradGradGradGradGradGrad

 Leave Link  103 at Tue Oct 21 15:13:41 2025, MaxMem=  4294967296 cpu:               0.2 elap:               0.1
 (Enter /lrz/sys/applications/gaussian/g16.C.01/x86_64_legacy/exe/l202.exe)
                          Input orientation:                          
 ---------------------------------------------------------------------
 Center     Atomic      Atomic             Coordinates (Angstroms)
 Number     Number       Type             X           Y           Z
 ---------------------------------------------------------------------
      1          8           0        3.066685    0.279124    1.170576
      2          6           0        2.496860   -0.180620   -0.033731
      3          7           0        2.981622    0.690700   -1.079613
      4          6           0        0.977906   -0.134835   -0.007512
      5          6           0        0.309553    0.830701    0.750362
      6          6           0       -1.078388    0.903980    0.735459
      7          6           0       -1.808987   -0.000005   -0.049418
      8          6           0       -3.243026    0.067945   -0.067495
      9          7           0       -4.401684    0.122666   -0.082707
     10          6           0       -1.147884   -0.973071   -0.812799
     11          6           0        0.240478   -1.032649   -0.785393
     12          1           0        2.882080   -0.377587    1.853678
     13          1           0        2.794491   -1.237491   -0.186040
     14          1           0        3.944743    0.435450   -1.298384
     15          1           0        2.446065    0.521315   -1.929590
     16          1           0        0.886031    1.525045    1.363458
     17          1           0       -1.601218    1.656987    1.327650
     18          1           0       -1.722801   -1.676603   -1.417126
     19          1           0        0.760743   -1.791792   -1.374990
 ---------------------------------------------------------------------
                    Distance matrix (angstroms):
                    1          2          3          4          5
     1  O    0.000000
     2  C    1.409404   0.000000
     3  N    2.289100   1.445013   0.000000
     4  C    2.433568   1.519871   2.417806   0.000000
     5  C    2.842990   2.534144   3.241660   1.397615   0.000000
     6  C    4.214427   3.814500   4.452376   2.420637   1.389954
     7  C    5.033734   4.309662   4.948566   2.790467   2.412039
     8  C    6.433495   5.745365   6.337069   4.226225   3.724446
     9  N    7.574413   6.905382   7.471927   5.386274   4.836431
    10  C    4.823314   3.810392   4.460060   2.422830   2.796638
    11  C    3.678860   2.526304   3.251210   1.398202   2.415655
    12  H    0.965390   1.936363   3.123354   2.673731   3.048797
    13  H    2.052954   1.108494   2.133403   2.132535   3.365886
    14  H    2.625107   2.018726   1.020105   3.285376   4.191442
    15  H    3.170940   2.022270   1.018811   2.506075   3.441300
    16  H    2.518884   2.730605   3.325091   2.154809   1.091021
    17  H    4.869548   4.693016   5.266028   3.412501   2.160337
    18  H    5.784483   4.685861   5.277276   3.414364   3.887807
    19  H    4.010732   2.721940   3.343997   2.159320   3.405608
                    6          7          8          9         10
     6  C    0.000000
     7  C    1.402496   0.000000
     8  C    2.455472   1.435761   0.000000
     9  N    3.510576   2.595811   1.160049   0.000000
    10  C    2.434183   1.402378   2.455364   3.510113   0.000000
    11  C    2.793372   2.410045   3.723101   4.835099   1.389909
    12  H    4.310236   5.076461   6.434775   7.553348   4.868810
    13  H    4.520426   4.768863   6.178174   7.324319   4.000633
    14  H    5.439474   5.903807   7.301655   8.440293   5.306088
    15  H    4.435165   4.681056   6.003224   7.103630   4.049306
    16  H    2.153845   3.403692   4.606503   5.658444   3.887607
    17  H    1.091358   2.164511   2.677128   3.490824   3.421145
    18  H    3.421739   2.165417   2.678812   3.492056   1.091192
    19  H    3.886333   3.401640   4.604165   5.655599   2.151562
                   11         12         13         14         15
    11  C    0.000000
    12  H    3.791025   0.000000
    13  H    2.631382   2.215301   0.000000
    14  H    4.017468   3.424292   2.314977   0.000000
    15  H    2.930632   3.912960   2.500953   1.628444   0.000000
    16  H    3.402367   2.800810   3.697942   4.198612   3.779597
    17  H    3.884705   4.951380   5.476452   6.256667   5.317881
    18  H    2.160608   5.795734   4.702587   6.049456   4.740560
    19  H    1.092977   4.113921   2.420121   3.886429   2.915193
                   16         17         18         19
    16  H    0.000000
    17  H    2.491003   0.000000
    18  H    4.978775   4.319884   0.000000
    19  H    4.303046   4.977670   2.486571   0.000000
 Stoichiometry    C8H8N2O
 Framework group  C1[X(C8H8N2O)]
 Deg. of freedom    51
 Full point group                 C1      NOp   1
 RotChk:  IX=2 Diff= 6.28D-04
 Largest Abelian subgroup         C1      NOp   1
 Largest concise Abelian subgroup C1      NOp   1
                         Standard orientation:                         
 ---------------------------------------------------------------------
 Center     Atomic      Atomic             Coordinates (Angstroms)
 Number     Number       Type             X           Y           Z
 ---------------------------------------------------------------------
      1          8           0       -3.023166   -0.991986    0.584556
      2          6           0       -2.418499    0.224116    0.207869
      3          7           0       -2.909724    0.538002   -1.114340
      4          6           0       -0.902262    0.126595    0.168870
      5          6           0       -0.276298   -1.083533   -0.142718
      6          6           0        1.108937   -1.160992   -0.226964
      7          6           0        1.879773   -0.011946    0.002163
      8          6           0        3.311292   -0.085128   -0.080361
      9          7           0        4.467930   -0.143666   -0.147264
     10          6           0        1.261374    1.206898    0.316273
     11          6           0       -0.124908    1.266119    0.397285
     12          1           0       -2.831689   -1.139391    1.519214
     13          1           0       -2.682183    0.998006    0.956417
     14          1           0       -3.860841    0.897807   -1.033519
     15          1           0       -2.354209    1.297566   -1.504775
     16          1           0       -0.883857   -1.973729   -0.312279
     17          1           0        1.598687   -2.105705   -0.469293
     18          1           0        1.867486    2.095790    0.498482
     19          1           0       -0.611962    2.212430    0.646028
 ---------------------------------------------------------------------
 Rotational constants (GHZ):           3.4590947           0.5545027           0.5124421
 Leave Link  202 at Tue Oct 21 15:13:41 2025, MaxMem=  4294967296 cpu:               0.1 elap:               0.0
 (Enter /lrz/sys/applications/gaussian/g16.C.01/x86_64_legacy/exe/l301.exe)
 Standard basis: def2SVP (5D, 7F)
 Ernie: Thresh=  0.10000D-02 Tol=  0.10000D-05 Strict=F.
 There are   205 symmetry adapted cartesian basis functions of A   symmetry.
 There are   194 symmetry adapted basis functions of A   symmetry.
   194 basis functions,   331 primitive gaussians,   205 cartesian basis functions
    39 alpha electrons       39 beta electrons
       nuclear repulsion energy       545.3648464319 Hartrees.
 IExCor= 4639 DFT=T Ex+Corr=wB97XD ExCW=0 ScaHFX=  1.000000
 ScaDFX=  1.000000  1.000000  1.000000  1.000000 ScalE2=  1.000000  1.000000
 IRadAn=      5 IRanWt=     -1 IRanGd=            0 ICorTp=0 IEmpDi=121
 HFx  wShort=  0.000000 wLong=  0.200000 cFull=  0.222036 cShort=  0.000000 cLong=  0.777964
 DFx  wShort=  0.000000 wLong=  0.200000 cFull=  0.000000 cShort=  0.000000 cLong=  1.000000
 NAtoms=   19 NActive=   19 NUniq=   19 SFac= 1.00D+00 NAtFMM=   60 NAOKFM=F Big=F
 Integral buffers will be    131072 words long.
 Raffenetti 2 integral format.
 Two-electron integral symmetry is turned on.
 R6Disp:  Grimme-D2 Dispersion energy=       -0.0103333254 Hartrees.
 Nuclear repulsion after empirical dispersion term =      545.3545131065 Hartrees.
 ------------------------------------------------------------------------------
 Polarizable Continuum Model (PCM)
 =================================
 Model                : PCM.
 Atomic radii         : SMD-Coulomb.
 Polarization charges : Total charges.
 Charge compensation  : None.
 Solution method      : On-the-fly selection.
 Cavity type          : VdW (van der Waals Surface) (Alpha=1.000).
 Cavity algorithm     : GePol (No added spheres)
                        Default sphere list used, NSphG=   19.
                        Lebedev-Laikov grids with approx.  5.0 points / Ang**2.
                        Smoothing algorithm: York/Karplus (Gamma=1.0000).
                        Polarization charges: spherical gaussians, with
                                              point-specific exponents (IZeta= 3).
                        Self-potential: point-specific (ISelfS= 7).
                        Self-field    : sphere-specific E.n sum rule (ISelfD= 2).
 1st derivatives      : Analytical E(r).r(x)/FMM algorithm (CHGder, D1EAlg=3).
                        Cavity 1st derivative terms included.
 Solvent              : Water, Eps=  78.355300 Eps(inf)=   1.777849
 ------------------------------------------------------------------------------
 Spheres list:
 ISph  on   Nord     Re0    Alpha      Xe            Ye            Ze
    1   O      1    1.5200  1.000     -3.023166     -0.991986      0.584556
    2   C      2    1.8500  1.000     -2.418499      0.224116      0.207869
    3   N      3    1.8900  1.000     -2.909724      0.538002     -1.114340
    4   C      4    1.8500  1.000     -0.902262      0.126595      0.168870
    5   C      5    1.8500  1.000     -0.276298     -1.083533     -0.142718
    6   C      6    1.8500  1.000      1.108937     -1.160992     -0.226964
    7   C      7    1.8500  1.000      1.879773     -0.011946      0.002163
    8   C      8    1.8500  1.000      3.311292     -0.085128     -0.080361
    9   N      9    1.8900  1.000      4.467930     -0.143666     -0.147264
   10   C     10    1.8500  1.000      1.261374      1.206898      0.316273
   11   C     11    1.8500  1.000     -0.124908      1.266119      0.397285
   12   H     12    1.2000  1.000     -2.831689     -1.139391      1.519214
   13   H     13    1.2000  1.000     -2.682183      0.998006      0.956417
   14   H     14    1.2000  1.000     -3.860841      0.897807     -1.033519
   15   H     15    1.2000  1.000     -2.354209      1.297566     -1.504775
   16   H     16    1.2000  1.000     -0.883857     -1.973729     -0.312279
   17   H     17    1.2000  1.000      1.598687     -2.105705     -0.469293
   18   H     18    1.2000  1.000      1.867486      2.095790      0.498482
   19   H     19    1.2000  1.000     -0.611962      2.212430      0.646028
 ------------------------------------------------------------------------------
 GePol: Number of generator spheres                  =      19
 GePol: Total number of spheres                      =      19
 GePol: Number of exposed spheres                    =      19 (100.00%)
 GePol: Number of points                             =    1638
 GePol: Average weight of points                     =       0.11
 GePol: Minimum weight of points                     =   0.15D-09
 GePol: Maximum weight of points                     =    0.21991
 GePol: Number of points with low weight             =      94
 GePol: Fraction of low-weight points (<1% of avg)   =       5.74%
 GePol: Cavity surface area                          =    188.154 Ang**2
 GePol: Cavity volume                                =    161.896 Ang**3
 ------------------------------------------------------------------------------
 Atomic radii for non-electrostatic terms: SMD-CDS.
 ------------------------------------------------------------------------------
 PCM non-electrostatic energy =         0.0070163266 Hartrees.
 Nuclear repulsion after PCM non-electrostatic terms =      545.3615294331 Hartrees.
 Leave Link  301 at Tue Oct 21 15:13:41 2025, MaxMem=  4294967296 cpu:               0.6 elap:               0.1
 (Enter /lrz/sys/applications/gaussian/g16.C.01/x86_64_legacy/exe/l302.exe)
 NPDir=0 NMtPBC=     1 NCelOv=     1 NCel=       1 NClECP=     1 NCelD=      1
         NCelK=      1 NCelE2=     1 NClLst=     1 CellRange=     0.0.
 One-electron integrals computed using PRISM.
 One-electron integral symmetry used in STVInt
   1 Symmetry operations used in ECPInt.
 ECPInt:  NShTT=    4095 NPrTT=   15045 LenC2=    3950 LenP2D=   11136.
 LDataN:  DoStor=T MaxTD1= 4 Len=   56
 NBasis=   194 RedAO= T EigKep=  2.77D-04  NBF=   194
 NBsUse=   194 1.00D-06 EigRej= -1.00D+00 NBFU=   194
 Precomputing XC quadrature grid using
 IXCGrd= 4 IRadAn=           5 IRanWt=          -1 IRanGd=           0 AccXCQ= 0.00D+00.
 Generated NRdTot=       0 NPtTot=           0 NUsed=           0 NTot=          32
 NSgBfM=   204   204   204   204   204 MxSgAt=    19 MxSgA2=    19.
 Leave Link  302 at Tue Oct 21 15:13:42 2025, MaxMem=  4294967296 cpu:               2.0 elap:               0.3
 (Enter /lrz/sys/applications/gaussian/g16.C.01/x86_64_legacy/exe/l303.exe)
 DipDrv:  MaxL=1.
 Leave Link  303 at Tue Oct 21 15:13:42 2025, MaxMem=  4294967296 cpu:               0.3 elap:               0.1
 (Enter /lrz/sys/applications/gaussian/g16.C.01/x86_64_legacy/exe/l401.exe)
 Initial guess from the checkpoint file:  "g16_C12-a_10.chk"
 B after Tr=     0.000000   -0.000000   -0.000000
         Rot=    1.000000   -0.000236    0.000013    0.000006 Ang=  -0.03 deg.
 Guess basis will be translated and rotated to current coordinates.
 JPrj=2 DoOrth=T DoCkMO=T.
 Leave Link  401 at Tue Oct 21 15:13:42 2025, MaxMem=  4294967296 cpu:               1.0 elap:               0.1
 (Enter /lrz/sys/applications/gaussian/g16.C.01/x86_64_legacy/exe/l502.exe)
 Integral symmetry usage will be decided dynamically.
 Closed shell SCF:
 Using DIIS extrapolation, IDIIS=  1040.
 NGot=  4294967296 LenX=  4294878900 LenY=  4294836434
 Requested convergence on RMS density matrix=1.00D-08 within 128 cycles.
 Requested convergence on MAX density matrix=1.00D-06.
 Requested convergence on             energy=1.00D-06.
 No special actions if energy rises.
 Fock matrices will be formed incrementally for  20 cycles.

 Cycle   1  Pass 1  IDiag  1:
 FoFJK:  IHMeth= 1 ICntrl=       0 DoSepK=T KAlg= 0 I1Cent=           0 FoldK=F
 IRaf=         1 NMat=       1 IRICut=       1 DoRegI=T DoRafI=F ISym2E= 0 IDoP0=0 IntGTp=1.
 FoFCou: FMM=F IPFlag=           0 FMFlag=      100000 FMFlg1=           0
         NFxFlg=           0 DoJE=T BraDBF=F KetDBF=F FulRan=T
         wScrn=  0.000000 ICntrl=       500 IOpCl=  0 I1Cent=           0 NGrid=           0
         NMat0=    1 NMatS0=      1 NMatT0=    0 NMatD0=    1 NMtDS0=    0 NMtDT0=    0
 Symmetry not used in FoFCou.
 Inv3:  Mode=1 IEnd=     8049132.
 Iteration    1 A*A^-1 deviation from unit magnitude is 6.22D-15 for   1081.
 Iteration    1 A*A^-1 deviation from orthogonality  is 3.67D-15 for   1276    172.
 Iteration    1 A^-1*A deviation from unit magnitude is 6.33D-15 for   1440.
 Iteration    1 A^-1*A deviation from orthogonality  is 2.22D-15 for    578    509.
 E= -493.864120867736    
 DIIS: error= 5.53D-05 at cycle   1 NSaved=   1.
 NSaved= 1 IEnMin= 1 EnMin= -493.864120867736     IErMin= 1 ErrMin= 5.53D-05
 ErrMax= 5.53D-05  0.00D+00 EMaxC= 1.00D-01 BMatC= 8.16D-07 BMatP= 8.16D-07
 IDIUse=1 WtCom= 1.00D+00 WtEn= 0.00D+00
 Coeff-Com:  0.100D+01
 Coeff:      0.100D+01
 Gap=     0.780 Goal=   None    Shift=    0.000
 RMSDP=8.24D-06 MaxDP=1.86D-04              OVMax= 1.72D-04

 Cycle   2  Pass 1  IDiag  1:
 RMSU=  8.24D-06    CP:  1.00D+00
 E= -493.864121927219     Delta-E=       -0.000001059482 Rises=F Damp=F
 DIIS: error= 9.24D-06 at cycle   2 NSaved=   2.
 NSaved= 2 IEnMin= 2 EnMin= -493.864121927219     IErMin= 2 ErrMin= 9.24D-06
 ErrMax= 9.24D-06  0.00D+00 EMaxC= 1.00D-01 BMatC= 2.48D-08 BMatP= 8.16D-07
 IDIUse=1 WtCom= 1.00D+00 WtEn= 0.00D+00
 Coeff-Com: -0.146D+00 0.115D+01
 Coeff:     -0.146D+00 0.115D+01
 Gap=     0.340 Goal=   None    Shift=    0.000
 RMSDP=1.79D-06 MaxDP=4.52D-05 DE=-1.06D-06 OVMax= 6.91D-05

 Cycle   3  Pass 1  IDiag  1:
 RMSU=  1.09D-06    CP:  1.00D+00  1.17D+00
 E= -493.864121993676     Delta-E=       -0.000000066457 Rises=F Damp=F
 DIIS: error= 2.07D-06 at cycle   3 NSaved=   3.
 NSaved= 3 IEnMin= 3 EnMin= -493.864121993676     IErMin= 3 ErrMin= 2.07D-06
 ErrMax= 2.07D-06  0.00D+00 EMaxC= 1.00D-01 BMatC= 1.05D-09 BMatP= 2.48D-08
 IDIUse=1 WtCom= 1.00D+00 WtEn= 0.00D+00
 Coeff-Com:  0.377D-02-0.141D+00 0.114D+01
 Coeff:      0.377D-02-0.141D+00 0.114D+01
 Gap=     0.340 Goal=   None    Shift=    0.000
 RMSDP=4.58D-07 MaxDP=8.74D-06 DE=-6.65D-08 OVMax= 1.96D-05

 Cycle   4  Pass 1  IDiag  1:
 RMSU=  2.47D-07    CP:  1.00D+00  1.19D+00  1.32D+00
 E= -493.864121996687     Delta-E=       -0.000000003011 Rises=F Damp=F
 DIIS: error= 8.95D-07 at cycle   4 NSaved=   4.
 NSaved= 4 IEnMin= 4 EnMin= -493.864121996687     IErMin= 4 ErrMin= 8.95D-07
 ErrMax= 8.95D-07  0.00D+00 EMaxC= 1.00D-01 BMatC= 4.43D-10 BMatP= 1.05D-09
 IDIUse=1 WtCom= 1.00D+00 WtEn= 0.00D+00
 Coeff-Com:  0.104D-01-0.131D+00 0.495D+00 0.626D+00
 Coeff:      0.104D-01-0.131D+00 0.495D+00 0.626D+00
 Gap=     0.340 Goal=   None    Shift=    0.000
 RMSDP=1.32D-07 MaxDP=4.63D-06 DE=-3.01D-09 OVMax= 4.82D-06

 Cycle   5  Pass 1  IDiag  1:
 RMSU=  9.16D-08    CP:  1.00D+00  1.19D+00  1.40D+00  8.00D-01
 E= -493.864121997178     Delta-E=       -0.000000000491 Rises=F Damp=F
 DIIS: error= 3.16D-07 at cycle   5 NSaved=   5.
 NSaved= 5 IEnMin= 5 EnMin= -493.864121997178     IErMin= 5 ErrMin= 3.16D-07
 ErrMax= 3.16D-07  0.00D+00 EMaxC= 1.00D-01 BMatC= 2.86D-11 BMatP= 4.43D-10
 IDIUse=1 WtCom= 1.00D+00 WtEn= 0.00D+00
 Coeff-Com:  0.167D-02-0.967D-02-0.451D-01 0.142D+00 0.911D+00
 Coeff:      0.167D-02-0.967D-02-0.451D-01 0.142D+00 0.911D+00
 Gap=     0.340 Goal=   None    Shift=    0.000
 RMSDP=5.39D-08 MaxDP=1.37D-06 DE=-4.91D-10 OVMax= 2.47D-06

 Cycle   6  Pass 1  IDiag  1:
 RMSU=  3.08D-08    CP:  1.00D+00  1.19D+00  1.42D+00  9.27D-01  1.13D+00
 E= -493.864121997209     Delta-E=       -0.000000000031 Rises=F Damp=F
 DIIS: error= 2.97D-07 at cycle   6 NSaved=   6.
 NSaved= 6 IEnMin= 6 EnMin= -493.864121997209     IErMin= 6 ErrMin= 2.97D-07
 ErrMax= 2.97D-07  0.00D+00 EMaxC= 1.00D-01 BMatC= 1.27D-11 BMatP= 2.86D-11
 IDIUse=1 WtCom= 1.00D+00 WtEn= 0.00D+00
 Coeff-Com: -0.322D-03 0.106D-01-0.856D-01 0.496D-02 0.512D+00 0.558D+00
 Coeff:     -0.322D-03 0.106D-01-0.856D-01 0.496D-02 0.512D+00 0.558D+00
 Gap=     0.340 Goal=   None    Shift=    0.000
 RMSDP=1.86D-08 MaxDP=7.45D-07 DE=-3.14D-11 OVMax= 9.08D-07

 Cycle   7  Pass 1  IDiag  1:
 RMSU=  1.22D-08    CP:  1.00D+00  1.19D+00  1.43D+00  9.54D-01  1.23D+00
                    CP:  7.78D-01
 E= -493.864121997243     Delta-E=       -0.000000000033 Rises=F Damp=F
 DIIS: error= 5.32D-08 at cycle   7 NSaved=   7.
 NSaved= 7 IEnMin= 7 EnMin= -493.864121997243     IErMin= 7 ErrMin= 5.32D-08
 ErrMax= 5.32D-08  0.00D+00 EMaxC= 1.00D-01 BMatC= 4.64D-13 BMatP= 1.27D-11
 IDIUse=1 WtCom= 1.00D+00 WtEn= 0.00D+00
 Coeff-Com: -0.324D-03 0.433D-02-0.167D-01-0.197D-01 0.378D-02 0.146D+00
 Coeff-Com:  0.882D+00
 Coeff:     -0.324D-03 0.433D-02-0.167D-01-0.197D-01 0.378D-02 0.146D+00
 Coeff:      0.882D+00
 Gap=     0.340 Goal=   None    Shift=    0.000
 RMSDP=7.43D-09 MaxDP=1.11D-07 DE=-3.34D-11 OVMax= 4.68D-07

 Error on total polarization charges =  0.02903
 SCF Done:  E(RwB97XD) =  -493.864121997     A.U. after    7 cycles
            NFock=  7  Conv=0.74D-08     -V/T= 2.0101
 KE= 4.889119812775D+02 PE=-2.238712859291D+03 EE= 7.105752265833D+02
 SMD-CDS (non-electrostatic) energy       (kcal/mol) =       4.40
 (included in total energy above)
 Leave Link  502 at Tue Oct 21 15:14:11 2025, MaxMem=  4294967296 cpu:             230.0 elap:              29.0
 (Enter /lrz/sys/applications/gaussian/g16.C.01/x86_64_legacy/exe/l701.exe)
 ... and contract with generalized density number  0.
 Compute integral first derivatives.
 R6Disp: Adding Grimme-D2 dispersion energy 1st derivatives to the gradient.
   1 Symmetry operations used in ECPInt.
 ECPInt:  NShTT=    4095 NPrTT=   15045 LenC2=    3950 LenP2D=   11136.
 LDataN:  DoStor=T MaxTD1= 5 Len=  102
 D1PCM: PCM CHGder 1st derivatives, ID1Alg=3 FixD1E=F DoIter=F DoCFld=F I1PDM=0.
 GePol: Maximum number of non-zero 1st derivatives   =     268
 Leave Link  701 at Tue Oct 21 15:14:12 2025, MaxMem=  4294967296 cpu:               9.4 elap:               1.2
 (Enter /lrz/sys/applications/gaussian/g16.C.01/x86_64_legacy/exe/l702.exe)
 L702 exits ... SP integral derivatives will be done elsewhere.
 Leave Link  702 at Tue Oct 21 15:14:12 2025, MaxMem=  4294967296 cpu:               0.2 elap:               0.0
 (Enter /lrz/sys/applications/gaussian/g16.C.01/x86_64_legacy/exe/l703.exe)
 Integral derivatives from FoFJK, PRISM(SPDF).
 Compute integral first derivatives, UseDBF=F ICtDFT=           0.
 Calling FoFJK, ICntrl=      2127 FMM=F ISym2X=0 I1Cent= 0 IOpClX= 0 NMat=1 NMatS=1 NMatT=0.
 FoFJK:  IHMeth= 1 ICntrl=    2127 DoSepK=T KAlg= 0 I1Cent=           0 FoldK=F
 IRaf=         1 NMat=       1 IRICut=       1 DoRegI=T DoRafI=F ISym2E= 0 IDoP0=0 IntGTp=1.
 FoFCou: FMM=F IPFlag=           0 FMFlag=      100000 FMFlg1=         800
         NFxFlg=           0 DoJE=F BraDBF=F KetDBF=F FulRan=T
         wScrn=  0.000000 ICntrl=      2527 IOpCl=  0 I1Cent=           0 NGrid=           0
         NMat0=    1 NMatS0=      1 NMatT0=    0 NMatD0=    1 NMtDS0=    0 NMtDT0=    0
 Symmetry not used in FoFCou.
 Leave Link  703 at Tue Oct 21 15:14:21 2025, MaxMem=  4294967296 cpu:              69.0 elap:               8.7
 (Enter /lrz/sys/applications/gaussian/g16.C.01/x86_64_legacy/exe/l716.exe)
 Dipole        =-2.08298952D+00 1.21346513D+00 9.34853392D-01
 ***** Axes restored to original set *****
 -------------------------------------------------------------------
 Center     Atomic                   Forces (Hartrees/Bohr)
 Number     Number              X              Y              Z
 -------------------------------------------------------------------
      1        8           0.000003795   -0.000008051    0.000023773
      2        6          -0.000010764   -0.000013634    0.000022874
      3        7          -0.000001645    0.000011553   -0.000003718
      4        6          -0.000001706    0.000005223   -0.000005959
      5        6           0.000006161   -0.000000963    0.000003058
      6        6           0.000002171   -0.000008118    0.000002509
      7        6          -0.000005131    0.000013914    0.000003629
      8        6          -0.000005411   -0.000021854   -0.000026523
      9        7           0.000011677    0.000010656    0.000001100
     10        6          -0.000000270    0.000000691   -0.000007211
     11        6          -0.000006612    0.000001869   -0.000010405
     12        1          -0.000001497   -0.000006551   -0.000000961
     13        1           0.000001715    0.000002795   -0.000010508
     14        1           0.000003410    0.000005355    0.000008277
     15        1           0.000004789    0.000010936    0.000002427
     16        1          -0.000002634   -0.000011800    0.000010043
     17        1          -0.000001597   -0.000011065    0.000005059
     18        1           0.000002561    0.000010153   -0.000011700
     19        1           0.000000988    0.000008891   -0.000005764
 -------------------------------------------------------------------
 Cartesian Forces:  Max     0.000026523 RMS     0.000009267
 Leave Link  716 at Tue Oct 21 15:14:21 2025, MaxMem=  4294967296 cpu:               0.2 elap:               0.0
 (Enter /lrz/sys/applications/gaussian/g16.C.01/x86_64_legacy/exe/l103.exe)

 GradGradGradGradGradGradGradGradGradGradGradGradGradGradGradGradGradGrad
 Berny optimization.
 Using GEDIIS/GDIIS optimizer.
 FormGI is forming the generalized inverse of G from B-inverse, IUseBI=4.
 Internal  Forces:  Max     0.000030367 RMS     0.000005214
 Search for a local minimum.
 Step number  18 out of a maximum of   98
 All quantities printed in internal units (Hartrees-Bohrs-Radians)
 RMS Force = .52139D-05 SwitMx=.10000D-02 MixMth= 2
 Mixed Optimization -- En-DIIS/RFO-DIIS
 Swapping is turned off.
 Update second derivatives using D2CorX and points    9   10   11   12   13
                                                     14   15   16   17   18
 DE=  1.74D-07 DEPred=-3.83D-08 R=-4.55D+00
 Trust test=-4.55D+00 RLast= 3.68D-03 DXMaxT set to 2.96D-01
 ITU= -1 -1  0  0  1  1  1  1  1  0  1  1  1  1  1  1  1  0
     Eigenvalues ---    0.00093   0.00182   0.00459   0.01744   0.02085
     Eigenvalues ---    0.02167   0.02230   0.02237   0.02292   0.02295
     Eigenvalues ---    0.02359   0.02403   0.03349   0.05028   0.06319
     Eigenvalues ---    0.07418   0.08836   0.09055   0.15881   0.15955
     Eigenvalues ---    0.15988   0.16007   0.16495   0.16568   0.17529
     Eigenvalues ---    0.20955   0.21990   0.22355   0.22973   0.24115
     Eigenvalues ---    0.25420   0.25836   0.32046   0.32355   0.35908
     Eigenvalues ---    0.35993   0.36238   0.37082   0.42193   0.42938
     Eigenvalues ---    0.43515   0.44733   0.45552   0.46271   0.46883
     Eigenvalues ---    0.47420   0.47948   0.48734   0.52279   0.55743
     Eigenvalues ---    1.42122
 En-DIIS/RFO-DIIS/Sim-DIIS IScMMF=       -3 using points:    18   17   16   15   14   13   12   11   10    9
 RFO step:  Lambda=-1.04761212D-08.
 NNeg= 0 NGDIIS=10 SimSw=  2.50D-03 Rises=F DC=  1.74D-07 SmlDif=  1.00D-05
 NRisDI= 0 DoIntr=F SqrtH=F CThrHd= 10.0 CDAdj=  3.0
 RMS Error=  0.6524236972D-04 NUsed=10 OKEnD=F EnDIS=F
 InvSVX:  RCond= 7.87D-09 Info=           0 Equed=N FErr=  7.27D-12 BErr=  6.13D-17
 DIIS inversion failure, remove point  10.
 InvSVX:  RCond= 1.06D-08 Info=           0 Equed=N FErr=  4.54D-12 BErr=  7.42D-17
 DIIS inversion failure, remove point   9.
 InvSVX:  RCond= 1.25D-08 Info=           0 Equed=N FErr=  2.58D-12 BErr=  4.47D-17
 DIIS inversion failure, remove point   8.
 InvSVX:  RCond= 2.04D-08 Info=           0 Equed=N FErr=  1.64D-12 BErr=  6.54D-17
 DIIS inversion failure, remove point   7.
 InvSVX:  RCond= 2.40D-08 Info=           0 Equed=N FErr=  8.89D-13 BErr=  1.04D-16
 DIIS inversion failure, remove point   6.
 InvSVX:  RCond= 6.82D-08 Info=           0 Equed=N FErr=  5.10D-13 BErr=  3.78D-17
 DIIS inversion failure, remove point   5.
 InvSVX:  RCond= 1.17D-07 Info=           0 Equed=N FErr=  7.23D-14 BErr=  5.35D-17
 RFO-DIIS uses    4 points instead of   10
 DidBck=F Rises=F RFO-DIIS coefs:    0.83786    0.26250   -0.19145    0.09108    0.00000
                  RFO-DIIS coefs:    0.00000    0.00000    0.00000    0.00000    0.00000
 Iteration  1 RMS(Cart)=  0.00009840 RMS(Int)=  0.00000002
 Iteration  2 RMS(Cart)=  0.00000001 RMS(Int)=  0.00000002
 ITry= 1 IFail=0 DXMaxC= 5.90D-04 DCOld= 1.00D+10 DXMaxT= 2.96D-01 DXLimC= 3.00D+00 Rises=F
 Variable       Old X    -DE/DX   Delta X   Delta X   Delta X     New X
                                 (Linear)    (Quad)   (Total)
    R1        2.66339   0.00002   0.00002  -0.00001   0.00001   2.66340
    R2        1.82432  -0.00001   0.00000  -0.00001  -0.00001   1.82431
    R3        2.73068   0.00002  -0.00001   0.00005   0.00003   2.73071
    R4        2.87214  -0.00000   0.00001  -0.00002  -0.00001   2.87213
    R5        2.09475  -0.00000   0.00000  -0.00001  -0.00000   2.09475
    R6        1.92772   0.00000  -0.00000   0.00001   0.00001   1.92773
    R7        1.92527   0.00000   0.00000   0.00000   0.00001   1.92528
    R8        2.64111  -0.00001   0.00000  -0.00001  -0.00001   2.64110
    R9        2.64222   0.00000   0.00000   0.00000   0.00001   2.64222
   R10        2.62663  -0.00000  -0.00000   0.00000   0.00000   2.62663
   R11        2.06173  -0.00000   0.00000  -0.00000  -0.00000   2.06173
   R12        2.65033   0.00000   0.00001  -0.00000   0.00000   2.65033
   R13        2.06237  -0.00000   0.00000  -0.00000  -0.00000   2.06236
   R14        2.71320  -0.00001   0.00000  -0.00001  -0.00001   2.71319
   R15        2.65011  -0.00000  -0.00001   0.00000  -0.00001   2.65010
   R16        2.19218  -0.00001  -0.00000  -0.00000  -0.00000   2.19217
   R17        2.62655  -0.00000   0.00001  -0.00001  -0.00001   2.62654
   R18        2.06205  -0.00000   0.00000  -0.00000  -0.00000   2.06205
   R19        2.06543  -0.00000  -0.00000  -0.00000  -0.00000   2.06542
    A1        1.88117   0.00000  -0.00001   0.00001  -0.00000   1.88117
    A2        1.86099   0.00000   0.00004  -0.00003   0.00001   1.86100
    A3        1.96004   0.00000   0.00004  -0.00001   0.00003   1.96007
    A4        1.89638   0.00000   0.00001   0.00002   0.00003   1.89640
    A5        1.90667  -0.00001  -0.00003  -0.00002  -0.00005   1.90662
    A6        1.96641  -0.00000  -0.00003  -0.00000  -0.00004   1.96638
    A7        1.87489   0.00000  -0.00002   0.00004   0.00002   1.87491
    A8        1.89766  -0.00000  -0.00001  -0.00002  -0.00003   1.89764
    A9        1.90418   0.00001  -0.00001   0.00001  -0.00000   1.90418
   A10        1.85020  -0.00000   0.00001  -0.00004  -0.00002   1.85018
   A11        2.10376  -0.00001   0.00001  -0.00002  -0.00001   2.10375
   A12        2.09226   0.00001  -0.00001   0.00002   0.00000   2.09227
   A13        2.08642   0.00000  -0.00000   0.00001   0.00001   2.08643
   A14        2.10380  -0.00000  -0.00000  -0.00001  -0.00001   2.10379
   A15        2.08485   0.00000  -0.00000   0.00000   0.00000   2.08485
   A16        2.09450   0.00000   0.00000   0.00000   0.00001   2.09451
   A17        2.08540   0.00000   0.00000   0.00000   0.00001   2.08541
   A18        2.10474  -0.00000   0.00000  -0.00000   0.00000   2.10474
   A19        2.09305  -0.00000  -0.00000  -0.00000  -0.00001   2.09304
   A20        2.09075   0.00001   0.00001   0.00000   0.00001   2.09077
   A21        2.10168   0.00000   0.00000  -0.00000   0.00000   2.10168
   A22        2.09075  -0.00001  -0.00001  -0.00000  -0.00002   2.09073
   A23        2.08277  -0.00000  -0.00001  -0.00000  -0.00001   2.08276
   A24        2.09493  -0.00000   0.00001  -0.00001  -0.00000   2.09493
   A25        2.10548   0.00000   0.00000   0.00001   0.00001   2.10549
   A26        2.10629   0.00000   0.00001  -0.00000   0.00000   2.10630
   A27        2.08870  -0.00000  -0.00000  -0.00000  -0.00001   2.08869
   A28        2.08819   0.00000  -0.00000   0.00001   0.00001   2.08819
   A29        3.14114   0.00003   0.00015   0.00021   0.00036   3.14150
   A30        3.14197  -0.00000  -0.00001   0.00000  -0.00000   3.14197
    D1       -2.97053  -0.00000   0.00008  -0.00006   0.00003  -2.97050
    D2        1.22486   0.00000   0.00007  -0.00001   0.00006   1.22492
    D3       -0.84666  -0.00000   0.00007  -0.00007   0.00001  -0.84665
    D4        1.33872  -0.00000  -0.00015   0.00004  -0.00011   1.33860
    D5       -2.93407  -0.00000  -0.00015  -0.00001  -0.00016  -2.93423
    D6       -2.82244   0.00000  -0.00010   0.00000  -0.00010  -2.82254
    D7       -0.81204   0.00000  -0.00010  -0.00005  -0.00014  -0.81218
    D8       -0.74013  -0.00000  -0.00017   0.00004  -0.00013  -0.74026
    D9        1.27027  -0.00000  -0.00017  -0.00001  -0.00018   1.27009
   D10        0.52844  -0.00000   0.00005  -0.00009  -0.00005   0.52840
   D11       -2.65478  -0.00000  -0.00006  -0.00000  -0.00006  -2.65484
   D12       -1.53252  -0.00000  -0.00000  -0.00004  -0.00005  -1.53256
   D13        1.56745  -0.00000  -0.00011   0.00005  -0.00006   1.56739
   D14        2.61255   0.00000   0.00007  -0.00006   0.00001   2.61257
   D15       -0.57067   0.00000  -0.00004   0.00004   0.00000  -0.57067
   D16        3.09983   0.00000  -0.00009   0.00006  -0.00003   3.09979
   D17       -0.05057  -0.00000  -0.00010   0.00003  -0.00007  -0.05064
   D18       -0.00027  -0.00000   0.00002  -0.00004  -0.00002  -0.00029
   D19        3.13252  -0.00000   0.00000  -0.00006  -0.00006   3.13246
   D20       -3.09932   0.00000   0.00008  -0.00004   0.00004  -3.09928
   D21        0.04654   0.00000   0.00010  -0.00004   0.00006   0.04660
   D22        0.00106   0.00000  -0.00003   0.00005   0.00002   0.00108
   D23       -3.13627   0.00000  -0.00000   0.00005   0.00005  -3.13622
   D24       -0.00117  -0.00000  -0.00002   0.00001  -0.00002  -0.00119
   D25        3.14059  -0.00000  -0.00000  -0.00002  -0.00002   3.14057
   D26       -3.13392   0.00000  -0.00001   0.00003   0.00002  -3.13390
   D27        0.00785   0.00000   0.00001   0.00001   0.00002   0.00786
   D28        3.13929   0.00000   0.00001   0.00003   0.00004   3.13933
   D29        0.00187   0.00000   0.00004   0.00001   0.00005   0.00192
   D30       -0.00247   0.00000  -0.00001   0.00006   0.00004  -0.00243
   D31       -3.13990   0.00000   0.00002   0.00003   0.00005  -3.13984
   D32       -0.00110  -0.00000  -0.00005   0.00001  -0.00005  -0.00114
   D33        3.13599  -0.00000  -0.00003   0.00000  -0.00003   3.13595
   D34       -3.13852  -0.00000  -0.00002  -0.00002  -0.00003  -3.13855
   D35       -0.00144  -0.00000   0.00000  -0.00002  -0.00002  -0.00146
   D36       -0.00037   0.00000   0.00005  -0.00004   0.00001  -0.00036
   D37        3.13695  -0.00000   0.00002  -0.00004  -0.00002   3.13694
   D38       -3.13743  -0.00000   0.00002  -0.00003  -0.00000  -3.13743
   D39       -0.00010  -0.00000  -0.00000  -0.00003  -0.00003  -0.00013
         Item               Value     Threshold  Converged?
 Maximum Force            0.000030     0.000450     YES
 RMS     Force            0.000005     0.000300     YES
 Maximum Displacement     0.000590     0.001800     YES
 RMS     Displacement     0.000098     0.001200     YES
 Predicted change in Energy=-8.130498D-09
 Optimization completed.
    -- Stationary point found.
                           ----------------------------
                           !   Optimized Parameters   !
                           ! (Angstroms and Degrees)  !
 --------------------------                            --------------------------
 ! Name  Definition              Value          Derivative Info.                !
 --------------------------------------------------------------------------------
 ! R1    R(1,2)                  1.4094         -DE/DX =    0.0                 !
 ! R2    R(1,12)                 0.9654         -DE/DX =    0.0                 !
 ! R3    R(2,3)                  1.445          -DE/DX =    0.0                 !
 ! R4    R(2,4)                  1.5199         -DE/DX =    0.0                 !
 ! R5    R(2,13)                 1.1085         -DE/DX =    0.0                 !
 ! R6    R(3,14)                 1.0201         -DE/DX =    0.0                 !
 ! R7    R(3,15)                 1.0188         -DE/DX =    0.0                 !
 ! R8    R(4,5)                  1.3976         -DE/DX =    0.0                 !
 ! R9    R(4,11)                 1.3982         -DE/DX =    0.0                 !
 ! R10   R(5,6)                  1.39           -DE/DX =    0.0                 !
 ! R11   R(5,16)                 1.091          -DE/DX =    0.0                 !
 ! R12   R(6,7)                  1.4025         -DE/DX =    0.0                 !
 ! R13   R(6,17)                 1.0914         -DE/DX =    0.0                 !
 ! R14   R(7,8)                  1.4358         -DE/DX =    0.0                 !
 ! R15   R(7,10)                 1.4024         -DE/DX =    0.0                 !
 ! R16   R(8,9)                  1.16           -DE/DX =    0.0                 !
 ! R17   R(10,11)                1.3899         -DE/DX =    0.0                 !
 ! R18   R(10,18)                1.0912         -DE/DX =    0.0                 !
 ! R19   R(11,19)                1.093          -DE/DX =    0.0                 !
 ! A1    A(2,1,12)             107.7831         -DE/DX =    0.0                 !
 ! A2    A(1,2,3)              106.6269         -DE/DX =    0.0                 !
 ! A3    A(1,2,4)              112.3022         -DE/DX =    0.0                 !
 ! A4    A(1,2,13)             108.6544         -DE/DX =    0.0                 !
 ! A5    A(3,2,4)              109.244          -DE/DX =    0.0                 !
 ! A6    A(3,2,13)             112.6672         -DE/DX =    0.0                 !
 ! A7    A(4,2,13)             107.4234         -DE/DX =    0.0                 !
 ! A8    A(2,3,14)             108.7281         -DE/DX =    0.0                 !
 ! A9    A(2,3,15)             109.1017         -DE/DX =    0.0                 !
 ! A10   A(14,3,15)            106.0087         -DE/DX =    0.0                 !
 ! A11   A(2,4,5)              120.5365         -DE/DX =    0.0                 !
 ! A12   A(2,4,11)             119.8779         -DE/DX =    0.0                 !
 ! A13   A(5,4,11)             119.543          -DE/DX =    0.0                 !
 ! A14   A(4,5,6)              120.539          -DE/DX =    0.0                 !
 ! A15   A(4,5,16)             119.453          -DE/DX =    0.0                 !
 ! A16   A(6,5,16)             120.0061         -DE/DX =    0.0                 !
 ! A17   A(5,6,7)              119.4848         -DE/DX =    0.0                 !
 ! A18   A(5,6,17)             120.5924         -DE/DX =    0.0                 !
 ! A19   A(7,6,17)             119.9228         -DE/DX =    0.0                 !
 ! A20   A(6,7,8)              119.7914         -DE/DX =    0.0                 !
 ! A21   A(6,7,10)             120.4173         -DE/DX =    0.0                 !
 ! A22   A(8,7,10)             119.7909         -DE/DX =    0.0                 !
 ! A23   A(7,10,11)            119.334          -DE/DX =    0.0                 !
 ! A24   A(7,10,18)            120.0304         -DE/DX =    0.0                 !
 ! A25   A(11,10,18)           120.6351         -DE/DX =    0.0                 !
 ! A26   A(4,11,10)            120.6818         -DE/DX =    0.0                 !
 ! A27   A(4,11,19)            119.6735         -DE/DX =    0.0                 !
 ! A28   A(10,11,19)           119.6442         -DE/DX =    0.0                 !
 ! A29   L(7,8,9,18,-1)        179.9741         -DE/DX =    0.0                 !
 ! A30   L(7,8,9,18,-2)        180.0217         -DE/DX =    0.0                 !
 ! D1    D(12,1,2,3)          -170.1989         -DE/DX =    0.0                 !
 ! D2    D(12,1,2,4)            70.1793         -DE/DX =    0.0                 !
 ! D3    D(12,1,2,13)          -48.5098         -DE/DX =    0.0                 !
 ! D4    D(1,2,3,14)            76.7028         -DE/DX =    0.0                 !
 ! D5    D(1,2,3,15)          -168.1098         -DE/DX =    0.0                 !
 ! D6    D(4,2,3,14)          -161.7138         -DE/DX =    0.0                 !
 ! D7    D(4,2,3,15)           -46.5264         -DE/DX =    0.0                 !
 ! D8    D(13,2,3,14)          -42.4064         -DE/DX =    0.0                 !
 ! D9    D(13,2,3,15)           72.781          -DE/DX =    0.0                 !
 ! D10   D(1,2,4,5)             30.2775         -DE/DX =    0.0                 !
 ! D11   D(1,2,4,11)          -152.1078         -DE/DX =    0.0                 !
 ! D12   D(3,2,4,5)            -87.8067         -DE/DX =    0.0                 !
 ! D13   D(3,2,4,11)            89.8081         -DE/DX =    0.0                 !
 ! D14   D(13,2,4,5)           149.6884         -DE/DX =    0.0                 !
 ! D15   D(13,2,4,11)          -32.6969         -DE/DX =    0.0                 !
 ! D16   D(2,4,5,6)            177.6071         -DE/DX =    0.0                 !
 ! D17   D(2,4,5,16)            -2.8973         -DE/DX =    0.0                 !
 ! D18   D(11,4,5,6)            -0.0157         -DE/DX =    0.0                 !
 ! D19   D(11,4,5,16)          179.48           -DE/DX =    0.0                 !
 ! D20   D(2,4,11,10)         -177.578          -DE/DX =    0.0                 !
 ! D21   D(2,4,11,19)            2.6666         -DE/DX =    0.0                 !
 ! D22   D(5,4,11,10)            0.0606         -DE/DX =    0.0                 !
 ! D23   D(5,4,11,19)         -179.6948         -DE/DX =    0.0                 !
 ! D24   D(4,5,6,7)             -0.0673         -DE/DX =    0.0                 !
 ! D25   D(4,5,6,17)           179.9425         -DE/DX =    0.0                 !
 ! D26   D(16,5,6,7)          -179.5602         -DE/DX =    0.0                 !
 ! D27   D(16,5,6,17)            0.4496         -DE/DX =    0.0                 !
 ! D28   D(5,6,7,8)            179.8681         -DE/DX =    0.0                 !
 ! D29   D(5,6,7,10)             0.107          -DE/DX =    0.0                 !
 ! D30   D(17,6,7,8)            -0.1416         -DE/DX =    0.0                 !
 ! D31   D(17,6,7,10)         -179.9027         -DE/DX =    0.0                 !
 ! D32   D(6,7,10,11)           -0.0628         -DE/DX =    0.0                 !
 ! D33   D(6,7,10,18)          179.6788         -DE/DX =    0.0                 !
 ! D34   D(8,7,10,11)         -179.824          -DE/DX =    0.0                 !
 ! D35   D(8,7,10,18)           -0.0823         -DE/DX =    0.0                 !
 ! D36   D(7,10,11,4)           -0.0214         -DE/DX =    0.0                 !
 ! D37   D(7,10,11,19)         179.7341         -DE/DX =    0.0                 !
 ! D38   D(18,10,11,4)        -179.7614         -DE/DX =    0.0                 !
 ! D39   D(18,10,11,19)         -0.0059         -DE/DX =    0.0                 !
 --------------------------------------------------------------------------------
 Largest change from initial coordinates is atom   15       1.036 Angstoms.
 GradGradGradGradGradGradGradGradGradGradGradGradGradGradGradGradGradGrad

 Leave Link  103 at Tue Oct 21 15:14:21 2025, MaxMem=  4294967296 cpu:               0.2 elap:               0.1
 (Enter /lrz/sys/applications/gaussian/g16.C.01/x86_64_legacy/exe/l202.exe)
                          Input orientation:                          
 ---------------------------------------------------------------------
 Center     Atomic      Atomic             Coordinates (Angstroms)
 Number     Number       Type             X           Y           Z
 ---------------------------------------------------------------------
      1          8           0        3.066685    0.279124    1.170576
      2          6           0        2.496860   -0.180620   -0.033731
      3          7           0        2.981622    0.690700   -1.079613
      4          6           0        0.977906   -0.134835   -0.007512
      5          6           0        0.309553    0.830701    0.750362
      6          6           0       -1.078388    0.903980    0.735459
      7          6           0       -1.808987   -0.000005   -0.049418
      8          6           0       -3.243026    0.067945   -0.067495
      9          7           0       -4.401684    0.122666   -0.082707
     10          6           0       -1.147884   -0.973071   -0.812799
     11          6           0        0.240478   -1.032649   -0.785393
     12          1           0        2.882080   -0.377587    1.853678
     13          1           0        2.794491   -1.237491   -0.186040
     14          1           0        3.944743    0.435450   -1.298384
     15          1           0        2.446065    0.521315   -1.929590
     16          1           0        0.886031    1.525045    1.363458
     17          1           0       -1.601218    1.656987    1.327650
     18          1           0       -1.722801   -1.676603   -1.417126
     19          1           0        0.760743   -1.791792   -1.374990
 ---------------------------------------------------------------------
                    Distance matrix (angstroms):
                    1          2          3          4          5
     1  O    0.000000
     2  C    1.409404   0.000000
     3  N    2.289100   1.445013   0.000000
     4  C    2.433568   1.519871   2.417806   0.000000
     5  C    2.842990   2.534144   3.241660   1.397615   0.000000
     6  C    4.214427   3.814500   4.452376   2.420637   1.389954
     7  C    5.033734   4.309662   4.948566   2.790467   2.412039
     8  C    6.433495   5.745365   6.337069   4.226225   3.724446
     9  N    7.574413   6.905382   7.471927   5.386274   4.836431
    10  C    4.823314   3.810392   4.460060   2.422830   2.796638
    11  C    3.678860   2.526304   3.251210   1.398202   2.415655
    12  H    0.965390   1.936363   3.123354   2.673731   3.048797
    13  H    2.052954   1.108494   2.133403   2.132535   3.365886
    14  H    2.625107   2.018726   1.020105   3.285376   4.191442
    15  H    3.170940   2.022270   1.018811   2.506075   3.441300
    16  H    2.518884   2.730605   3.325091   2.154809   1.091021
    17  H    4.869548   4.693016   5.266028   3.412501   2.160337
    18  H    5.784483   4.685861   5.277276   3.414364   3.887807
    19  H    4.010732   2.721940   3.343997   2.159320   3.405608
                    6          7          8          9         10
     6  C    0.000000
     7  C    1.402496   0.000000
     8  C    2.455472   1.435761   0.000000
     9  N    3.510576   2.595811   1.160049   0.000000
    10  C    2.434183   1.402378   2.455364   3.510113   0.000000
    11  C    2.793372   2.410045   3.723101   4.835099   1.389909
    12  H    4.310236   5.076461   6.434775   7.553348   4.868810
    13  H    4.520426   4.768863   6.178174   7.324319   4.000633
    14  H    5.439474   5.903807   7.301655   8.440293   5.306088
    15  H    4.435165   4.681056   6.003224   7.103630   4.049306
    16  H    2.153845   3.403692   4.606503   5.658444   3.887607
    17  H    1.091358   2.164511   2.677128   3.490824   3.421145
    18  H    3.421739   2.165417   2.678812   3.492056   1.091192
    19  H    3.886333   3.401640   4.604165   5.655599   2.151562
                   11         12         13         14         15
    11  C    0.000000
    12  H    3.791025   0.000000
    13  H    2.631382   2.215301   0.000000
    14  H    4.017468   3.424292   2.314977   0.000000
    15  H    2.930632   3.912960   2.500953   1.628444   0.000000
    16  H    3.402367   2.800810   3.697942   4.198612   3.779597
    17  H    3.884705   4.951380   5.476452   6.256667   5.317881
    18  H    2.160608   5.795734   4.702587   6.049456   4.740560
    19  H    1.092977   4.113921   2.420121   3.886429   2.915193
                   16         17         18         19
    16  H    0.000000
    17  H    2.491003   0.000000
    18  H    4.978775   4.319884   0.000000
    19  H    4.303046   4.977670   2.486571   0.000000
 Stoichiometry    C8H8N2O
 Framework group  C1[X(C8H8N2O)]
 Deg. of freedom    51
 Full point group                 C1      NOp   1
 RotChk:  IX=2 Diff= 3.42D-15
 Largest Abelian subgroup         C1      NOp   1
 Largest concise Abelian subgroup C1      NOp   1
                         Standard orientation:                         
 ---------------------------------------------------------------------
 Center     Atomic      Atomic             Coordinates (Angstroms)
 Number     Number       Type             X           Y           Z
 ---------------------------------------------------------------------
      1          8           0       -3.023166   -0.991986    0.584556
      2          6           0       -2.418499    0.224116    0.207869
      3          7           0       -2.909724    0.538002   -1.114340
      4          6           0       -0.902262    0.126595    0.168870
      5          6           0       -0.276298   -1.083533   -0.142718
      6          6           0        1.108937   -1.160992   -0.226964
      7          6           0        1.879773   -0.011946    0.002163
      8          6           0        3.311292   -0.085128   -0.080361
      9          7           0        4.467930   -0.143666   -0.147264
     10          6           0        1.261374    1.206898    0.316273
     11          6           0       -0.124908    1.266119    0.397285
     12          1           0       -2.831689   -1.139391    1.519214
     13          1           0       -2.682183    0.998006    0.956417
     14          1           0       -3.860841    0.897807   -1.033519
     15          1           0       -2.354209    1.297566   -1.504775
     16          1           0       -0.883857   -1.973729   -0.312279
     17          1           0        1.598687   -2.105705   -0.469293
     18          1           0        1.867486    2.095790    0.498482
     19          1           0       -0.611962    2.212430    0.646028
 ---------------------------------------------------------------------
 Rotational constants (GHZ):           3.4590947           0.5545027           0.5124421
 Leave Link  202 at Tue Oct 21 15:14:21 2025, MaxMem=  4294967296 cpu:               0.0 elap:               0.0
 (Enter /lrz/sys/applications/gaussian/g16.C.01/x86_64_legacy/exe/l601.exe)
 Copying SCF densities to generalized density rwf, IOpCl= 0 IROHF=0.

 **********************************************************************

            Population analysis using the SCF Density.

 **********************************************************************

 Orbital symmetries:
       Occupied  (A) (A) (A) (A) (A) (A) (A) (A) (A) (A) (A) (A)
                 (A) (A) (A) (A) (A) (A) (A) (A) (A) (A) (A) (A)
                 (A) (A) (A) (A) (A) (A) (A) (A) (A) (A) (A) (A)
                 (A) (A) (A)
       Virtual   (A) (A) (A) (A) (A) (A) (A) (A) (A) (A) (A) (A)
                 (A) (A) (A) (A) (A) (A) (A) (A) (A) (A) (A) (A)
                 (A) (A) (A) (A) (A) (A) (A) (A) (A) (A) (A) (A)
                 (A) (A) (A) (A) (A) (A) (A) (A) (A) (A) (A) (A)
                 (A) (A) (A) (A) (A) (A) (A) (A) (A) (A) (A) (A)
                 (A) (A) (A) (A) (A) (A) (A) (A) (A) (A) (A) (A)
                 (A) (A) (A) (A) (A) (A) (A) (A) (A) (A) (A) (A)
                 (A) (A) (A) (A) (A) (A) (A) (A) (A) (A) (A) (A)
                 (A) (A) (A) (A) (A) (A) (A) (A) (A) (A) (A) (A)
                 (A) (A) (A) (A) (A) (A) (A) (A) (A) (A) (A) (A)
                 (A) (A) (A) (A) (A) (A) (A) (A) (A) (A) (A) (A)
                 (A) (A) (A) (A) (A) (A) (A) (A) (A) (A) (A) (A)
                 (A) (A) (A) (A) (A) (A) (A) (A) (A) (A) (A)
 The electronic state is 1-A.
 Alpha  occ. eigenvalues --  -19.25810 -14.45488 -14.42425 -10.37439 -10.35403
 Alpha  occ. eigenvalues --  -10.34573 -10.32370 -10.32339 -10.31776 -10.31317
 Alpha  occ. eigenvalues --  -10.31155  -1.12396  -1.00997  -0.97799  -0.96108
 Alpha  occ. eigenvalues --   -0.87701  -0.85481  -0.76819  -0.71464  -0.69793
 Alpha  occ. eigenvalues --   -0.64706  -0.62282  -0.59373  -0.56134  -0.54134
 Alpha  occ. eigenvalues --   -0.53091  -0.51988  -0.51688  -0.49653  -0.47566
 Alpha  occ. eigenvalues --   -0.46335  -0.44973  -0.44085  -0.43429  -0.42300
 Alpha  occ. eigenvalues --   -0.37690  -0.34987  -0.34205  -0.32710
 Alpha virt. eigenvalues --    0.01242   0.04727   0.10458   0.14298   0.14966
 Alpha virt. eigenvalues --    0.15783   0.18273   0.19530   0.21176   0.21713
 Alpha virt. eigenvalues --    0.23125   0.24570   0.26257   0.26736   0.29815
 Alpha virt. eigenvalues --    0.30929   0.33159   0.35045   0.36709   0.38204
 Alpha virt. eigenvalues --    0.38605   0.43383   0.44885   0.48346   0.49910
 Alpha virt. eigenvalues --    0.51562   0.53084   0.54111   0.55129   0.57177
 Alpha virt. eigenvalues --    0.58684   0.60044   0.61018   0.63385   0.63882
 Alpha virt. eigenvalues --    0.66091   0.67903   0.68026   0.69764   0.70652
 Alpha virt. eigenvalues --    0.72224   0.73117   0.73147   0.74121   0.75213
 Alpha virt. eigenvalues --    0.75593   0.76323   0.77582   0.79059   0.79653
 Alpha virt. eigenvalues --    0.80808   0.82272   0.84752   0.87581   0.90089
 Alpha virt. eigenvalues --    0.91863   0.92990   0.93664   0.95115   0.98363
 Alpha virt. eigenvalues --    0.99444   1.00093   1.05788   1.08157   1.09995
 Alpha virt. eigenvalues --    1.12171   1.15781   1.17068   1.20405   1.22531
 Alpha virt. eigenvalues --    1.28063   1.30829   1.31329   1.31929   1.35240
 Alpha virt. eigenvalues --    1.35658   1.36557   1.38178   1.42012   1.44504
 Alpha virt. eigenvalues --    1.53567   1.54836   1.60018   1.61441   1.66057
 Alpha virt. eigenvalues --    1.67848   1.68828   1.71852   1.75674   1.76541
 Alpha virt. eigenvalues --    1.78976   1.81216   1.82218   1.82781   1.84409
 Alpha virt. eigenvalues --    1.86520   1.87473   1.87765   1.90606   1.92842
 Alpha virt. eigenvalues --    1.95721   1.97567   1.98260   2.00517   2.02293
 Alpha virt. eigenvalues --    2.03622   2.05313   2.05883   2.08901   2.10313
 Alpha virt. eigenvalues --    2.13716   2.18102   2.20268   2.23914   2.25772
 Alpha virt. eigenvalues --    2.27345   2.28396   2.31588   2.32410   2.35296
 Alpha virt. eigenvalues --    2.35766   2.38584   2.40199   2.42300   2.42686
 Alpha virt. eigenvalues --    2.42921   2.47019   2.54133   2.58704   2.69825
 Alpha virt. eigenvalues --    2.71174   2.71831   2.77392   2.80006   2.81726
 Alpha virt. eigenvalues --    2.83459   2.92409   2.93019   2.95783   2.97887
 Alpha virt. eigenvalues --    3.00238   3.02049   3.07337   3.08167   3.11658
 Alpha virt. eigenvalues --    3.16919   3.20165   3.23521   3.32915   3.37051
 Alpha virt. eigenvalues --    3.43544   3.50476   3.55084   3.74705   3.86304
          Condensed to atoms (all electrons):
               1          2          3          4          5          6
     1  O    7.848334   0.317044  -0.070928  -0.053330  -0.005024   0.001460
     2  C    0.317044   4.490475   0.367213   0.285988  -0.036857   0.007995
     3  N   -0.070928   0.367213   6.366934  -0.070334   0.000281  -0.000350
     4  C   -0.053330   0.285988  -0.070334   5.661664   0.203737   0.070441
     5  C   -0.005024  -0.036857   0.000281   0.203737   5.146309   0.313016
     6  C    0.001460   0.007995  -0.000350   0.070441   0.313016   5.015108
     7  C   -0.000018  -0.000016   0.000024  -0.159545   0.083112   0.278615
     8  C    0.000000   0.000044  -0.000000   0.000876   0.012856  -0.083851
     9  N    0.000000   0.000000  -0.000000   0.000015   0.000016  -0.001613
    10  C   -0.000184   0.007046  -0.000343   0.079718  -0.109006   0.064406
    11  C    0.007075  -0.060501  -0.000225   0.255572   0.012133  -0.110487
    12  H    0.336124  -0.033173   0.006684   0.009382  -0.000775  -0.000180
    13  H   -0.041909   0.428143  -0.032449  -0.061701   0.015231  -0.000268
    14  H    0.003320  -0.015602   0.349535   0.009321  -0.000374   0.000020
    15  H    0.004226  -0.010428   0.358833  -0.011099  -0.001658  -0.000013
    16  H    0.020205  -0.009602   0.001043  -0.087194   0.458738  -0.055270
    17  H   -0.000014  -0.000176  -0.000001   0.014124  -0.058300   0.464392
    18  H    0.000001  -0.000142   0.000002   0.013936  -0.001968   0.011408
    19  H    0.000083  -0.008306  -0.000106  -0.069710   0.011144  -0.001091
               7          8          9         10         11         12
     1  O   -0.000018   0.000000   0.000000  -0.000184   0.007075   0.336124
     2  C   -0.000016   0.000044   0.000000   0.007046  -0.060501  -0.033173
     3  N    0.000024  -0.000000  -0.000000  -0.000343  -0.000225   0.006684
     4  C   -0.159545   0.000876   0.000015   0.079718   0.255572   0.009382
     5  C    0.083112   0.012856   0.000016  -0.109006   0.012133  -0.000775
     6  C    0.278615  -0.083851  -0.001613   0.064406  -0.110487  -0.000180
     7  C    5.423345   0.306219  -0.034230   0.285349   0.082240   0.000005
     8  C    0.306219   4.973003   0.930134  -0.087394   0.013557  -0.000000
     9  N   -0.034230   0.930134   6.167778  -0.001845   0.000022   0.000000
    10  C    0.285349  -0.087394  -0.001845   5.006461   0.319076  -0.000068
    11  C    0.082240   0.013557   0.000022   0.319076   5.117236   0.000752
    12  H    0.000005  -0.000000   0.000000  -0.000068   0.000752   0.468815
    13  H   -0.000095  -0.000001  -0.000000   0.000654  -0.018749  -0.005456
    14  H    0.000002   0.000000   0.000000   0.000036   0.000537  -0.000433
    15  H   -0.000033  -0.000003  -0.000000  -0.000437   0.004306  -0.000399
    16  H    0.013154  -0.000388  -0.000002  -0.001107   0.010483  -0.000081
    17  H   -0.063143  -0.018041  -0.000271   0.011318  -0.001861   0.000004
    18  H   -0.063546  -0.017953  -0.000271   0.463388  -0.056938  -0.000000
    19  H    0.012941  -0.000382  -0.000002  -0.061791   0.460438   0.000034
              13         14         15         16         17         18
     1  O   -0.041909   0.003320   0.004226   0.020205  -0.000014   0.000001
     2  C    0.428143  -0.015602  -0.010428  -0.009602  -0.000176  -0.000142
     3  N   -0.032449   0.349535   0.358833   0.001043  -0.000001   0.000002
     4  C   -0.061701   0.009321  -0.011099  -0.087194   0.014124   0.013936
     5  C    0.015231  -0.000374  -0.001658   0.458738  -0.058300  -0.001968
     6  C   -0.000268   0.000020  -0.000013  -0.055270   0.464392   0.011408
     7  C   -0.000095   0.000002  -0.000033   0.013154  -0.063143  -0.063546
     8  C   -0.000001   0.000000  -0.000003  -0.000388  -0.018041  -0.017953
     9  N   -0.000000   0.000000  -0.000000  -0.000002  -0.000271  -0.000271
    10  C    0.000654   0.000036  -0.000437  -0.001107   0.011318   0.463388
    11  C   -0.018749   0.000537   0.004306   0.010483  -0.001861  -0.056938
    12  H   -0.005456  -0.000433  -0.000399  -0.000081   0.000004  -0.000000
    13  H    0.689589  -0.012813   0.000121   0.001348   0.000001   0.000014
    14  H   -0.012813   0.547007  -0.020776  -0.000190  -0.000000  -0.000001
    15  H    0.000121  -0.020776   0.537317   0.000085   0.000003   0.000005
    16  H    0.001348  -0.000190   0.000085   0.619278  -0.009839   0.000018
    17  H    0.000001  -0.000000   0.000003  -0.009839   0.603527  -0.000083
    18  H    0.000014  -0.000001   0.000005   0.000018  -0.000083   0.603624
    19  H    0.004442  -0.000148   0.000757  -0.000099   0.000015  -0.009697
              19
     1  O    0.000083
     2  C   -0.008306
     3  N   -0.000106
     4  C   -0.069710
     5  C    0.011144
     6  C   -0.001091
     7  C    0.012941
     8  C   -0.000382
     9  N   -0.000002
    10  C   -0.061791
    11  C    0.460438
    12  H    0.000034
    13  H    0.004442
    14  H   -0.000148
    15  H    0.000757
    16  H   -0.000099
    17  H    0.000015
    18  H   -0.009697
    19  H    0.607498
 Mulliken charges:
               1
     1  O   -0.366466
     2  C    0.270855
     3  N   -0.275813
     4  C   -0.091858
     5  C   -0.042611
     6  C    0.026262
     7  C   -0.164379
     8  C   -0.028678
     9  N   -0.059732
    10  C    0.024723
    11  C   -0.034667
    12  H    0.218766
    13  H    0.033896
    14  H    0.140560
    15  H    0.139193
    16  H    0.039420
    17  H    0.058344
    18  H    0.058204
    19  H    0.053980
 Sum of Mulliken charges =  -0.00000
 Mulliken charges with hydrogens summed into heavy atoms:
               1
     1  O   -0.147700
     2  C    0.304751
     3  N    0.003940
     4  C   -0.091858
     5  C   -0.003190
     6  C    0.084606
     7  C   -0.164379
     8  C   -0.028678
     9  N   -0.059732
    10  C    0.082927
    11  C    0.019313
 Electronic spatial extent (au):  <R**2>=           2109.8770
 Charge=              0.0000 electrons
 Dipole moment (field-independent basis, Debye):
    X=             -5.2944    Y=              3.0843    Z=              2.3762  Tot=              6.5719
 Quadrupole moment (field-independent basis, Debye-Ang):
   XX=            -92.0670   YY=            -54.2509   ZZ=            -62.4433
   XY=             -7.3462   XZ=             -4.3480   YZ=             -1.8342
 Traceless Quadrupole moment (field-independent basis, Debye-Ang):
   XX=            -22.4800   YY=             15.3362   ZZ=              7.1437
   XY=             -7.3462   XZ=             -4.3480   YZ=             -1.8342
 Octapole moment (field-independent basis, Debye-Ang**2):
  XXX=           -185.2184  YYY=              3.6539  ZZZ=              9.6011  XYY=             -6.9940
  XXY=             35.4629  XXZ=             18.2985  XZZ=            -17.5155  YZZ=             -0.7672
  YYZ=              0.5307  XYZ=             12.5822
 Hexadecapole moment (field-independent basis, Debye-Ang**3):
 XXXX=          -3010.9645 YYYY=           -320.9537 ZZZZ=           -150.8691 XXXY=            -66.7568
 XXXZ=              9.1661 YYYX=             -4.2772 YYYZ=              0.0907 ZZZX=            -30.1388
 ZZZY=            -21.0227 XXYY=           -405.9329 XXZZ=           -380.0235 YYZZ=            -76.7446
 XXYZ=            -29.8034 YYXZ=              0.3447 ZZXY=              3.4184
 N-N= 5.453615294331D+02 E-N=-2.238712860114D+03  KE= 4.889119812775D+02
 No NMR shielding tensors so no spin-rotation constants.
 Leave Link  601 at Tue Oct 21 15:14:21 2025, MaxMem=  4294967296 cpu:               0.9 elap:               0.1
 (Enter /lrz/sys/applications/gaussian/g16.C.01/x86_64_legacy/exe/l9999.exe)
 Unable to Open any file for archive entry.
 1\1\GINC-CM4R13C06S02\FOpt\RwB97XD\def2SVP\C8H8N2O1\GO29TIZ2\21-Oct-20
 25\0\\#p opt freq wb97xd scrf=(smd,solvent=water) def2svp\\g16_C12-a_1
 0\\0,1\O,3.066684646,0.279124239,1.1705761565\C,2.4968602716,-0.180619
 701,-0.0337305158\N,2.9816220012,0.6906999437,-1.0796127051\C,0.977905
 6185,-0.1348350546,-0.007511704\C,0.3095527453,0.8307008843,0.75036193
 99\C,-1.0783879575,0.9039796625,0.735458587\C,-1.8089871525,-0.0000052
 019,-0.0494183447\C,-3.2430258429,0.0679453358,-0.0674948633\N,-4.4016
 840105,0.1226662877,-0.0827066432\C,-1.1478836092,-0.9730708626,-0.812
 7986697\C,0.2404777276,-1.0326485782,-0.7853932793\H,2.8820801458,-0.3
 775868593,1.853678389\H,2.7944913279,-1.2374909947,-0.1860402115\H,3.9
 447425571,0.435450131,-1.2983837988\H,2.446064639,0.5213145985,-1.9295
 903254\H,0.8860306609,1.5250451185,1.3634583366\H,-1.6012181438,1.6569
 86938,1.3276495894\H,-1.722801368,-1.6766031648,-1.4171259303\H,0.7607
 430437,-1.7917918217,-1.3749904074\\Version=EM64L-G16RevC.01\State=1-A
 \HF=-493.864122\RMSD=7.434e-09\RMSF=9.267e-06\Dipole=2.1322897,-1.4188
 219,-0.3543714\Quadrupole=-16.2512823,5.8887345,10.3625479,-6.5991092,
 -2.9178973,2.4023135\PG=C01 [X(C8H8N2O1)]\\@
 The archive entry for this job was punched.


 What some people mistake for the high cost
 of living is really the cost of living high.
                              -- Doug Larson
 Leave Link 9999 at Tue Oct 21 15:14:21 2025, MaxMem=  4294967296 cpu:               0.2 elap:               0.0
 Job cpu time:       0 days  2 hours  5 minutes 38.5 seconds.
 Elapsed time:       0 days  0 hours 15 minutes 51.1 seconds.
 File lengths (MBytes):  RWF=    304 Int=      0 D2E=      0 Chk=     12 Scr=     32
 Normal termination of Gaussian 16 at Tue Oct 21 15:14:21 2025.
 (Enter /lrz/sys/applications/gaussian/g16.C.01/x86_64_legacy/exe/l1.exe)
 Link1:  Proceeding to internal job step number  2.
 --------------------------------------------------------------------
 #P Geom=AllCheck Guess=TCheck SCRF=Check GenChk RwB97XD/def2SVP Freq
 --------------------------------------------------------------------
 1/10=4,29=7,30=1,38=1,40=1/1,3;
 2/12=2,40=1/2;
 3/5=43,7=101,11=2,14=-4,25=1,30=1,70=2,71=2,74=-58,116=1,140=1/1,2,3;
 4/5=101/1;
 5/5=2,38=6,98=1/2;
 8/6=4,10=90,11=11/1;
 11/6=1,8=1,9=11,15=111,16=1/1,2,10;
 10/6=1/2;
 6/7=2,8=2,9=2,10=2,28=1/1;
 7/8=1,10=1,25=1/1,2,3,16;
 1/10=4,30=1/3;
 99//99;
 Leave Link    1 at Tue Oct 21 15:14:21 2025, MaxMem=  4294967296 cpu:               0.2 elap:               0.0
 (Enter /lrz/sys/applications/gaussian/g16.C.01/x86_64_legacy/exe/l101.exe)
 Structure from the checkpoint file:  "g16_C12-a_10.chk"
 ------------
 g16_C12-a_10
 ------------
 Charge =  0 Multiplicity = 1
 Redundant internal coordinates found in file.  (old form).
 O,0,3.066684646,0.279124239,1.1705761565
 C,0,2.4968602716,-0.180619701,-0.0337305158
 N,0,2.9816220012,0.6906999437,-1.0796127051
 C,0,0.9779056185,-0.1348350546,-0.007511704
 C,0,0.3095527453,0.8307008843,0.7503619399
 C,0,-1.0783879575,0.9039796625,0.735458587
 C,0,-1.8089871525,-0.0000052019,-0.0494183447
 C,0,-3.2430258429,0.0679453358,-0.0674948633
 N,0,-4.4016840105,0.1226662877,-0.0827066432
 C,0,-1.1478836092,-0.9730708626,-0.8127986697
 C,0,0.2404777276,-1.0326485782,-0.7853932793
 H,0,2.8820801458,-0.3775868593,1.853678389
 H,0,2.7944913279,-1.2374909947,-0.1860402115
 H,0,3.9447425571,0.435450131,-1.2983837988
 H,0,2.446064639,0.5213145985,-1.9295903254
 H,0,0.8860306609,1.5250451185,1.3634583366
 H,0,-1.6012181438,1.656986938,1.3276495894
 H,0,-1.722801368,-1.6766031648,-1.4171259303
 H,0,0.7607430437,-1.7917918217,-1.3749904074
 Recover connectivity data from disk.
 ITRead=  0  0  0  0  0  0  0  0  0  0  0  0  0  0  0  0  0  0  0
 MicOpt= -1 -1 -1 -1 -1 -1 -1 -1 -1 -1 -1 -1 -1 -1 -1 -1 -1 -1 -1
 NAtoms=     19 NQM=       19 NQMF=       0 NMMI=      0 NMMIF=      0
                NMic=       0 NMicF=      0.
                    Isotopes and Nuclear Properties:
 (Nuclear quadrupole moments (NQMom) in fm**2, nuclear magnetic moments (NMagM)
  in nuclear magnetons)

  Atom         1           2           3           4           5           6           7           8           9          10
 IAtWgt=          16          12          14          12          12          12          12          12          14          12
 AtmWgt=  15.9949146  12.0000000  14.0030740  12.0000000  12.0000000  12.0000000  12.0000000  12.0000000  14.0030740  12.0000000
 NucSpn=           0           0           2           0           0           0           0           0           2           0
 AtZEff=   5.6000000   3.6000000   4.5500000   3.6000000   3.6000000   3.6000000   3.6000000   3.6000000   4.5500000   3.6000000
 NQMom=    0.0000000   0.0000000   2.0440000   0.0000000   0.0000000   0.0000000   0.0000000   0.0000000   2.0440000   0.0000000
 NMagM=    0.0000000   0.0000000   0.4037610   0.0000000   0.0000000   0.0000000   0.0000000   0.0000000   0.4037610   0.0000000
 AtZNuc=   8.0000000   6.0000000   7.0000000   6.0000000   6.0000000   6.0000000   6.0000000   6.0000000   7.0000000   6.0000000

  Atom        11          12          13          14          15          16          17          18          19
 IAtWgt=          12           1           1           1           1           1           1           1           1
 AtmWgt=  12.0000000   1.0078250   1.0078250   1.0078250   1.0078250   1.0078250   1.0078250   1.0078250   1.0078250
 NucSpn=           0           1           1           1           1           1           1           1           1
 AtZEff=   3.6000000   1.0000000   1.0000000   1.0000000   1.0000000   1.0000000   1.0000000   1.0000000   1.0000000
 NQMom=    0.0000000   0.0000000   0.0000000   0.0000000   0.0000000   0.0000000   0.0000000   0.0000000   0.0000000
 NMagM=    0.0000000   2.7928460   2.7928460   2.7928460   2.7928460   2.7928460   2.7928460   2.7928460   2.7928460
 AtZNuc=   6.0000000   1.0000000   1.0000000   1.0000000   1.0000000   1.0000000   1.0000000   1.0000000   1.0000000
 Leave Link  101 at Tue Oct 21 15:14:22 2025, MaxMem=  4294967296 cpu:               2.9 elap:               0.4
 (Enter /lrz/sys/applications/gaussian/g16.C.01/x86_64_legacy/exe/l103.exe)

 GradGradGradGradGradGradGradGradGradGradGradGradGradGradGradGradGradGrad
 Berny optimization.
 Initialization pass.
                           ----------------------------
                           !    Initial Parameters    !
                           ! (Angstroms and Degrees)  !
 --------------------------                            --------------------------
 ! Name  Definition              Value          Derivative Info.                !
 --------------------------------------------------------------------------------
 ! R1    R(1,2)                  1.4094         calculate D2E/DX2 analytically  !
 ! R2    R(1,12)                 0.9654         calculate D2E/DX2 analytically  !
 ! R3    R(2,3)                  1.445          calculate D2E/DX2 analytically  !
 ! R4    R(2,4)                  1.5199         calculate D2E/DX2 analytically  !
 ! R5    R(2,13)                 1.1085         calculate D2E/DX2 analytically  !
 ! R6    R(3,14)                 1.0201         calculate D2E/DX2 analytically  !
 ! R7    R(3,15)                 1.0188         calculate D2E/DX2 analytically  !
 ! R8    R(4,5)                  1.3976         calculate D2E/DX2 analytically  !
 ! R9    R(4,11)                 1.3982         calculate D2E/DX2 analytically  !
 ! R10   R(5,6)                  1.39           calculate D2E/DX2 analytically  !
 ! R11   R(5,16)                 1.091          calculate D2E/DX2 analytically  !
 ! R12   R(6,7)                  1.4025         calculate D2E/DX2 analytically  !
 ! R13   R(6,17)                 1.0914         calculate D2E/DX2 analytically  !
 ! R14   R(7,8)                  1.4358         calculate D2E/DX2 analytically  !
 ! R15   R(7,10)                 1.4024         calculate D2E/DX2 analytically  !
 ! R16   R(8,9)                  1.16           calculate D2E/DX2 analytically  !
 ! R17   R(10,11)                1.3899         calculate D2E/DX2 analytically  !
 ! R18   R(10,18)                1.0912         calculate D2E/DX2 analytically  !
 ! R19   R(11,19)                1.093          calculate D2E/DX2 analytically  !
 ! A1    A(2,1,12)             107.7831         calculate D2E/DX2 analytically  !
 ! A2    A(1,2,3)              106.6269         calculate D2E/DX2 analytically  !
 ! A3    A(1,2,4)              112.3022         calculate D2E/DX2 analytically  !
 ! A4    A(1,2,13)             108.6544         calculate D2E/DX2 analytically  !
 ! A5    A(3,2,4)              109.244          calculate D2E/DX2 analytically  !
 ! A6    A(3,2,13)             112.6672         calculate D2E/DX2 analytically  !
 ! A7    A(4,2,13)             107.4234         calculate D2E/DX2 analytically  !
 ! A8    A(2,3,14)             108.7281         calculate D2E/DX2 analytically  !
 ! A9    A(2,3,15)             109.1017         calculate D2E/DX2 analytically  !
 ! A10   A(14,3,15)            106.0087         calculate D2E/DX2 analytically  !
 ! A11   A(2,4,5)              120.5365         calculate D2E/DX2 analytically  !
 ! A12   A(2,4,11)             119.8779         calculate D2E/DX2 analytically  !
 ! A13   A(5,4,11)             119.543          calculate D2E/DX2 analytically  !
 ! A14   A(4,5,6)              120.539          calculate D2E/DX2 analytically  !
 ! A15   A(4,5,16)             119.453          calculate D2E/DX2 analytically  !
 ! A16   A(6,5,16)             120.0061         calculate D2E/DX2 analytically  !
 ! A17   A(5,6,7)              119.4848         calculate D2E/DX2 analytically  !
 ! A18   A(5,6,17)             120.5924         calculate D2E/DX2 analytically  !
 ! A19   A(7,6,17)             119.9228         calculate D2E/DX2 analytically  !
 ! A20   A(6,7,8)              119.7914         calculate D2E/DX2 analytically  !
 ! A21   A(6,7,10)             120.4173         calculate D2E/DX2 analytically  !
 ! A22   A(8,7,10)             119.7909         calculate D2E/DX2 analytically  !
 ! A23   A(7,10,11)            119.334          calculate D2E/DX2 analytically  !
 ! A24   A(7,10,18)            120.0304         calculate D2E/DX2 analytically  !
 ! A25   A(11,10,18)           120.6351         calculate D2E/DX2 analytically  !
 ! A26   A(4,11,10)            120.6818         calculate D2E/DX2 analytically  !
 ! A27   A(4,11,19)            119.6735         calculate D2E/DX2 analytically  !
 ! A28   A(10,11,19)           119.6442         calculate D2E/DX2 analytically  !
 ! A29   L(7,8,9,18,-1)        179.9741         calculate D2E/DX2 analytically  !
 ! A30   L(7,8,9,18,-2)        180.0217         calculate D2E/DX2 analytically  !
 ! D1    D(12,1,2,3)          -170.1989         calculate D2E/DX2 analytically  !
 ! D2    D(12,1,2,4)            70.1793         calculate D2E/DX2 analytically  !
 ! D3    D(12,1,2,13)          -48.5098         calculate D2E/DX2 analytically  !
 ! D4    D(1,2,3,14)            76.7028         calculate D2E/DX2 analytically  !
 ! D5    D(1,2,3,15)          -168.1098         calculate D2E/DX2 analytically  !
 ! D6    D(4,2,3,14)          -161.7138         calculate D2E/DX2 analytically  !
 ! D7    D(4,2,3,15)           -46.5264         calculate D2E/DX2 analytically  !
 ! D8    D(13,2,3,14)          -42.4064         calculate D2E/DX2 analytically  !
 ! D9    D(13,2,3,15)           72.781          calculate D2E/DX2 analytically  !
 ! D10   D(1,2,4,5)             30.2775         calculate D2E/DX2 analytically  !
 ! D11   D(1,2,4,11)          -152.1078         calculate D2E/DX2 analytically  !
 ! D12   D(3,2,4,5)            -87.8067         calculate D2E/DX2 analytically  !
 ! D13   D(3,2,4,11)            89.8081         calculate D2E/DX2 analytically  !
 ! D14   D(13,2,4,5)           149.6884         calculate D2E/DX2 analytically  !
 ! D15   D(13,2,4,11)          -32.6969         calculate D2E/DX2 analytically  !
 ! D16   D(2,4,5,6)            177.6071         calculate D2E/DX2 analytically  !
 ! D17   D(2,4,5,16)            -2.8973         calculate D2E/DX2 analytically  !
 ! D18   D(11,4,5,6)            -0.0157         calculate D2E/DX2 analytically  !
 ! D19   D(11,4,5,16)          179.48           calculate D2E/DX2 analytically  !
 ! D20   D(2,4,11,10)         -177.578          calculate D2E/DX2 analytically  !
 ! D21   D(2,4,11,19)            2.6666         calculate D2E/DX2 analytically  !
 ! D22   D(5,4,11,10)            0.0606         calculate D2E/DX2 analytically  !
 ! D23   D(5,4,11,19)         -179.6948         calculate D2E/DX2 analytically  !
 ! D24   D(4,5,6,7)             -0.0673         calculate D2E/DX2 analytically  !
 ! D25   D(4,5,6,17)           179.9425         calculate D2E/DX2 analytically  !
 ! D26   D(16,5,6,7)          -179.5602         calculate D2E/DX2 analytically  !
 ! D27   D(16,5,6,17)            0.4496         calculate D2E/DX2 analytically  !
 ! D28   D(5,6,7,8)            179.8681         calculate D2E/DX2 analytically  !
 ! D29   D(5,6,7,10)             0.107          calculate D2E/DX2 analytically  !
 ! D30   D(17,6,7,8)            -0.1416         calculate D2E/DX2 analytically  !
 ! D31   D(17,6,7,10)         -179.9027         calculate D2E/DX2 analytically  !
 ! D32   D(6,7,10,11)           -0.0628         calculate D2E/DX2 analytically  !
 ! D33   D(6,7,10,18)          179.6788         calculate D2E/DX2 analytically  !
 ! D34   D(8,7,10,11)         -179.824          calculate D2E/DX2 analytically  !
 ! D35   D(8,7,10,18)           -0.0823         calculate D2E/DX2 analytically  !
 ! D36   D(7,10,11,4)           -0.0214         calculate D2E/DX2 analytically  !
 ! D37   D(7,10,11,19)         179.7341         calculate D2E/DX2 analytically  !
 ! D38   D(18,10,11,4)        -179.7614         calculate D2E/DX2 analytically  !
 ! D39   D(18,10,11,19)         -0.0059         calculate D2E/DX2 analytically  !
 --------------------------------------------------------------------------------
 Trust Radius=3.00D-01 FncErr=1.00D-07 GrdErr=1.00D-07 EigMax=2.50D+02 EigMin=1.00D-04
 Number of steps in this run=      2 maximum allowed number of steps=      2.
 GradGradGradGradGradGradGradGradGradGradGradGradGradGradGradGradGradGrad

 Leave Link  103 at Tue Oct 21 15:14:22 2025, MaxMem=  4294967296 cpu:               0.1 elap:               0.0
 (Enter /lrz/sys/applications/gaussian/g16.C.01/x86_64_legacy/exe/l202.exe)
                          Input orientation:                          
 ---------------------------------------------------------------------
 Center     Atomic      Atomic             Coordinates (Angstroms)
 Number     Number       Type             X           Y           Z
 ---------------------------------------------------------------------
      1          8           0        3.066685    0.279124    1.170576
      2          6           0        2.496860   -0.180620   -0.033731
      3          7           0        2.981622    0.690700   -1.079613
      4          6           0        0.977906   -0.134835   -0.007512
      5          6           0        0.309553    0.830701    0.750362
      6          6           0       -1.078388    0.903980    0.735459
      7          6           0       -1.808987   -0.000005   -0.049418
      8          6           0       -3.243026    0.067945   -0.067495
      9          7           0       -4.401684    0.122666   -0.082707
     10          6           0       -1.147884   -0.973071   -0.812799
     11          6           0        0.240478   -1.032649   -0.785393
     12          1           0        2.882080   -0.377587    1.853678
     13          1           0        2.794491   -1.237491   -0.186040
     14          1           0        3.944743    0.435450   -1.298384
     15          1           0        2.446065    0.521315   -1.929590
     16          1           0        0.886031    1.525045    1.363458
     17          1           0       -1.601218    1.656987    1.327650
     18          1           0       -1.722801   -1.676603   -1.417126
     19          1           0        0.760743   -1.791792   -1.374990
 ---------------------------------------------------------------------
                    Distance matrix (angstroms):
                    1          2          3          4          5
     1  O    0.000000
     2  C    1.409404   0.000000
     3  N    2.289100   1.445013   0.000000
     4  C    2.433568   1.519871   2.417806   0.000000
     5  C    2.842990   2.534144   3.241660   1.397615   0.000000
     6  C    4.214427   3.814500   4.452376   2.420637   1.389954
     7  C    5.033734   4.309662   4.948566   2.790467   2.412039
     8  C    6.433495   5.745365   6.337069   4.226225   3.724446
     9  N    7.574413   6.905382   7.471927   5.386274   4.836431
    10  C    4.823314   3.810392   4.460060   2.422830   2.796638
    11  C    3.678860   2.526304   3.251210   1.398202   2.415655
    12  H    0.965390   1.936363   3.123354   2.673731   3.048797
    13  H    2.052954   1.108494   2.133403   2.132535   3.365886
    14  H    2.625107   2.018726   1.020105   3.285376   4.191442
    15  H    3.170940   2.022270   1.018811   2.506075   3.441300
    16  H    2.518884   2.730605   3.325091   2.154809   1.091021
    17  H    4.869548   4.693016   5.266028   3.412501   2.160337
    18  H    5.784483   4.685861   5.277276   3.414364   3.887807
    19  H    4.010732   2.721940   3.343997   2.159320   3.405608
                    6          7          8          9         10
     6  C    0.000000
     7  C    1.402496   0.000000
     8  C    2.455472   1.435761   0.000000
     9  N    3.510576   2.595811   1.160049   0.000000
    10  C    2.434183   1.402378   2.455364   3.510113   0.000000
    11  C    2.793372   2.410045   3.723101   4.835099   1.389909
    12  H    4.310236   5.076461   6.434775   7.553348   4.868810
    13  H    4.520426   4.768863   6.178174   7.324319   4.000633
    14  H    5.439474   5.903807   7.301655   8.440293   5.306088
    15  H    4.435165   4.681056   6.003224   7.103630   4.049306
    16  H    2.153845   3.403692   4.606503   5.658444   3.887607
    17  H    1.091358   2.164511   2.677128   3.490824   3.421145
    18  H    3.421739   2.165417   2.678812   3.492056   1.091192
    19  H    3.886333   3.401640   4.604165   5.655599   2.151562
                   11         12         13         14         15
    11  C    0.000000
    12  H    3.791025   0.000000
    13  H    2.631382   2.215301   0.000000
    14  H    4.017468   3.424292   2.314977   0.000000
    15  H    2.930632   3.912960   2.500953   1.628444   0.000000
    16  H    3.402367   2.800810   3.697942   4.198612   3.779597
    17  H    3.884705   4.951380   5.476452   6.256667   5.317881
    18  H    2.160608   5.795734   4.702587   6.049456   4.740560
    19  H    1.092977   4.113921   2.420121   3.886429   2.915193
                   16         17         18         19
    16  H    0.000000
    17  H    2.491003   0.000000
    18  H    4.978775   4.319884   0.000000
    19  H    4.303046   4.977670   2.486571   0.000000
 Stoichiometry    C8H8N2O
 Framework group  C1[X(C8H8N2O)]
 Deg. of freedom    51
 Full point group                 C1      NOp   1
 RotChk:  IX=2 Diff= 6.33D-15
 Largest Abelian subgroup         C1      NOp   1
 Largest concise Abelian subgroup C1      NOp   1
                         Standard orientation:                         
 ---------------------------------------------------------------------
 Center     Atomic      Atomic             Coordinates (Angstroms)
 Number     Number       Type             X           Y           Z
 ---------------------------------------------------------------------
      1          8           0       -3.023166   -0.991986    0.584556
      2          6           0       -2.418499    0.224116    0.207869
      3          7           0       -2.909724    0.538002   -1.114340
      4          6           0       -0.902262    0.126595    0.168870
      5          6           0       -0.276298   -1.083533   -0.142718
      6          6           0        1.108937   -1.160992   -0.226964
      7          6           0        1.879773   -0.011946    0.002163
      8          6           0        3.311292   -0.085128   -0.080361
      9          7           0        4.467930   -0.143666   -0.147264
     10          6           0        1.261374    1.206898    0.316273
     11          6           0       -0.124908    1.266119    0.397285
     12          1           0       -2.831689   -1.139391    1.519214
     13          1           0       -2.682183    0.998006    0.956417
     14          1           0       -3.860841    0.897807   -1.033519
     15          1           0       -2.354209    1.297566   -1.504775
     16          1           0       -0.883857   -1.973729   -0.312279
     17          1           0        1.598687   -2.105705   -0.469293
     18          1           0        1.867486    2.095790    0.498482
     19          1           0       -0.611962    2.212430    0.646028
 ---------------------------------------------------------------------
 Rotational constants (GHZ):           3.4590947           0.5545027           0.5124421
 Leave Link  202 at Tue Oct 21 15:14:22 2025, MaxMem=  4294967296 cpu:               0.1 elap:               0.0
 (Enter /lrz/sys/applications/gaussian/g16.C.01/x86_64_legacy/exe/l301.exe)
 Standard basis: def2SVP (5D, 7F)
 Ernie: Thresh=  0.10000D-02 Tol=  0.10000D-05 Strict=F.
 There are   205 symmetry adapted cartesian basis functions of A   symmetry.
 There are   194 symmetry adapted basis functions of A   symmetry.
   194 basis functions,   331 primitive gaussians,   205 cartesian basis functions
    39 alpha electrons       39 beta electrons
       nuclear repulsion energy       545.3648464319 Hartrees.
 IExCor= 4639 DFT=T Ex+Corr=wB97XD ExCW=0 ScaHFX=  1.000000
 ScaDFX=  1.000000  1.000000  1.000000  1.000000 ScalE2=  1.000000  1.000000
 IRadAn=      5 IRanWt=     -1 IRanGd=            0 ICorTp=0 IEmpDi=121
 HFx  wShort=  0.000000 wLong=  0.200000 cFull=  0.222036 cShort=  0.000000 cLong=  0.777964
 DFx  wShort=  0.000000 wLong=  0.200000 cFull=  0.000000 cShort=  0.000000 cLong=  1.000000
 NAtoms=   19 NActive=   19 NUniq=   19 SFac= 1.00D+00 NAtFMM=   60 NAOKFM=F Big=F
 Integral buffers will be    131072 words long.
 Raffenetti 2 integral format.
 Two-electron integral symmetry is turned on.
 R6Disp:  Grimme-D2 Dispersion energy=       -0.0103333254 Hartrees.
 Nuclear repulsion after empirical dispersion term =      545.3545131065 Hartrees.
 Force inversion solution in PCM.
 ------------------------------------------------------------------------------
 Polarizable Continuum Model (PCM)
 =================================
 Model                : PCM.
 Atomic radii         : SMD-Coulomb.
 Polarization charges : Total charges.
 Charge compensation  : None.
 Solution method      : Matrix inversion.
 Cavity type          : VdW (van der Waals Surface) (Alpha=1.000).
 Cavity algorithm     : GePol (No added spheres)
                        Default sphere list used, NSphG=   19.
                        Lebedev-Laikov grids with approx.  5.0 points / Ang**2.
                        Smoothing algorithm: York/Karplus (Gamma=1.0000).
                        Polarization charges: spherical gaussians, with
                                              point-specific exponents (IZeta= 3).
                        Self-potential: point-specific (ISelfS= 7).
                        Self-field    : sphere-specific E.n sum rule (ISelfD= 2).
 1st derivatives      : Analytical E(r).r(x)/FMM algorithm (CHGder, D1EAlg=3).
                        Cavity 1st derivative terms included.
 2nd derivatives      : Analytical E(r).r(xy)/FMM algorithm (CHGder, D2EAlg=3).
                        Cavity 2nd derivative terms included.
 Solvent              : Water, Eps=  78.355300 Eps(inf)=   1.777849
 ------------------------------------------------------------------------------
 Spheres list:
 ISph  on   Nord     Re0    Alpha      Xe            Ye            Ze
    1   O      1    1.5200  1.000     -3.023166     -0.991986      0.584556
    2   C      2    1.8500  1.000     -2.418499      0.224116      0.207869
    3   N      3    1.8900  1.000     -2.909724      0.538002     -1.114340
    4   C      4    1.8500  1.000     -0.902262      0.126595      0.168870
    5   C      5    1.8500  1.000     -0.276298     -1.083533     -0.142718
    6   C      6    1.8500  1.000      1.108937     -1.160992     -0.226964
    7   C      7    1.8500  1.000      1.879773     -0.011946      0.002163
    8   C      8    1.8500  1.000      3.311292     -0.085128     -0.080361
    9   N      9    1.8900  1.000      4.467930     -0.143666     -0.147264
   10   C     10    1.8500  1.000      1.261374      1.206898      0.316273
   11   C     11    1.8500  1.000     -0.124908      1.266119      0.397285
   12   H     12    1.2000  1.000     -2.831689     -1.139391      1.519214
   13   H     13    1.2000  1.000     -2.682183      0.998006      0.956417
   14   H     14    1.2000  1.000     -3.860841      0.897807     -1.033519
   15   H     15    1.2000  1.000     -2.354209      1.297566     -1.504775
   16   H     16    1.2000  1.000     -0.883857     -1.973729     -0.312279
   17   H     17    1.2000  1.000      1.598687     -2.105705     -0.469293
   18   H     18    1.2000  1.000      1.867486      2.095790      0.498482
   19   H     19    1.2000  1.000     -0.611962      2.212430      0.646028
 ------------------------------------------------------------------------------
 GePol: Number of generator spheres                  =      19
 GePol: Total number of spheres                      =      19
 GePol: Number of exposed spheres                    =      19 (100.00%)
 GePol: Number of points                             =    1638
 GePol: Average weight of points                     =       0.11
 GePol: Minimum weight of points                     =   0.15D-09
 GePol: Maximum weight of points                     =    0.21991
 GePol: Number of points with low weight             =      94
 GePol: Fraction of low-weight points (<1% of avg)   =       5.74%
 GePol: Cavity surface area                          =    188.154 Ang**2
 GePol: Cavity volume                                =    161.896 Ang**3
 ------------------------------------------------------------------------------
 Atomic radii for non-electrostatic terms: SMD-CDS.
 ------------------------------------------------------------------------------
 PCM non-electrostatic energy =         0.0070163266 Hartrees.
 Nuclear repulsion after PCM non-electrostatic terms =      545.3615294331 Hartrees.
 Leave Link  301 at Tue Oct 21 15:14:22 2025, MaxMem=  4294967296 cpu:               0.6 elap:               0.1
 (Enter /lrz/sys/applications/gaussian/g16.C.01/x86_64_legacy/exe/l302.exe)
 NPDir=0 NMtPBC=     1 NCelOv=     1 NCel=       1 NClECP=     1 NCelD=      1
         NCelK=      1 NCelE2=     1 NClLst=     1 CellRange=     0.0.
 One-electron integrals computed using PRISM.
 One-electron integral symmetry used in STVInt
   1 Symmetry operations used in ECPInt.
 ECPInt:  NShTT=    4095 NPrTT=   15045 LenC2=    3950 LenP2D=   11136.
 LDataN:  DoStor=T MaxTD1= 4 Len=   56
 NBasis=   194 RedAO= T EigKep=  2.77D-04  NBF=   194
 NBsUse=   194 1.00D-06 EigRej= -1.00D+00 NBFU=   194
 Precomputing XC quadrature grid using
 IXCGrd= 4 IRadAn=           5 IRanWt=          -1 IRanGd=           0 AccXCQ= 0.00D+00.
 Generated NRdTot=       0 NPtTot=           0 NUsed=           0 NTot=          32
 NSgBfM=   204   204   204   204   204 MxSgAt=    19 MxSgA2=    19.
 Leave Link  302 at Tue Oct 21 15:14:22 2025, MaxMem=  4294967296 cpu:               2.0 elap:               0.3
 (Enter /lrz/sys/applications/gaussian/g16.C.01/x86_64_legacy/exe/l303.exe)
 DipDrv:  MaxL=1.
 Leave Link  303 at Tue Oct 21 15:14:22 2025, MaxMem=  4294967296 cpu:               0.3 elap:               0.1
 (Enter /lrz/sys/applications/gaussian/g16.C.01/x86_64_legacy/exe/l401.exe)
 Initial guess from the checkpoint file:  "g16_C12-a_10.chk"
 B after Tr=     0.000000    0.000000    0.000000
         Rot=    1.000000    0.000000   -0.000000   -0.000000 Ang=   0.00 deg.
 Guess basis will be translated and rotated to current coordinates.
 JPrj=2 DoOrth=T DoCkMO=T.
 Leave Link  401 at Tue Oct 21 15:14:22 2025, MaxMem=  4294967296 cpu:               1.2 elap:               0.2
 (Enter /lrz/sys/applications/gaussian/g16.C.01/x86_64_legacy/exe/l502.exe)
 Integral symmetry usage will be decided dynamically.
 Closed shell SCF:
 Using DIIS extrapolation, IDIIS=  1040.
 NGot=  4294967296 LenX=  4294878900 LenY=  4294836434
 Requested convergence on RMS density matrix=1.00D-08 within 128 cycles.
 Requested convergence on MAX density matrix=1.00D-06.
 Requested convergence on             energy=1.00D-06.
 No special actions if energy rises.
 Fock matrices will be formed incrementally for  20 cycles.

 Cycle   1  Pass 1  IDiag  1:
 FoFJK:  IHMeth= 1 ICntrl=       0 DoSepK=T KAlg= 0 I1Cent=           0 FoldK=F
 IRaf=         1 NMat=       1 IRICut=       1 DoRegI=T DoRafI=F ISym2E= 0 IDoP0=0 IntGTp=1.
 FoFCou: FMM=F IPFlag=           0 FMFlag=      100000 FMFlg1=           0
         NFxFlg=           0 DoJE=T BraDBF=F KetDBF=F FulRan=T
         wScrn=  0.000000 ICntrl=       500 IOpCl=  0 I1Cent=           0 NGrid=           0
         NMat0=    1 NMatS0=      1 NMatT0=    0 NMatD0=    1 NMtDS0=    0 NMtDT0=    0
 Symmetry not used in FoFCou.
 Inv3:  Mode=1 IEnd=     8049132.
 Iteration    1 A*A^-1 deviation from unit magnitude is 6.00D-15 for   1081.
 Iteration    1 A*A^-1 deviation from orthogonality  is 3.87D-15 for   1410     78.
 Iteration    1 A^-1*A deviation from unit magnitude is 6.22D-15 for   1276.
 Iteration    1 A^-1*A deviation from orthogonality  is 3.09D-15 for    395      7.
 E= -493.864121997234    
 DIIS: error= 2.30D-08 at cycle   1 NSaved=   1.
 NSaved= 1 IEnMin= 1 EnMin= -493.864121997234     IErMin= 1 ErrMin= 2.30D-08
 ErrMax= 2.30D-08  0.00D+00 EMaxC= 1.00D-01 BMatC= 4.25D-14 BMatP= 4.25D-14
 IDIUse=1 WtCom= 1.00D+00 WtEn= 0.00D+00
 Coeff-Com:  0.100D+01
 Coeff:      0.100D+01
 Gap=     0.340 Goal=   None    Shift=    0.000
 RMSDP=2.83D-09 MaxDP=5.72D-08              OVMax= 2.23D-07

 Error on total polarization charges =  0.02903
 SCF Done:  E(RwB97XD) =  -493.864121997     A.U. after    1 cycles
            NFock=  1  Conv=0.28D-08     -V/T= 2.0101
 KE= 4.889119801507D+02 PE=-2.238712858987D+03 EE= 7.105752274057D+02
 SMD-CDS (non-electrostatic) energy       (kcal/mol) =       4.40
 (included in total energy above)
 Leave Link  502 at Tue Oct 21 15:14:30 2025, MaxMem=  4294967296 cpu:              57.1 elap:               7.3
 (Enter /lrz/sys/applications/gaussian/g16.C.01/x86_64_legacy/exe/l801.exe)
 DoSCS=F DFT=T ScalE2(SS,OS)=  1.000000  1.000000
 Range of M.O.s used for correlation:     1   194
 NBasis=   194 NAE=    39 NBE=    39 NFC=     0 NFV=     0
 NROrb=    194 NOA=    39 NOB=    39 NVA=   155 NVB=   155

 **** Warning!!: The largest alpha MO coefficient is  0.15100077D+02

 Leave Link  801 at Tue Oct 21 15:14:30 2025, MaxMem=  4294967296 cpu:               0.2 elap:               0.0
 (Enter /lrz/sys/applications/gaussian/g16.C.01/x86_64_legacy/exe/l1101.exe)
 Using compressed storage, NAtomX=    19.
 Will process     20 centers per pass.
   1 Symmetry operations used in ECPInt.
 ECPInt:  NShTT=    4095 NPrTT=   15045 LenC2=    3950 LenP2D=   11136.
 LDataN:  DoStor=T MaxTD1= 5 Len=  102
 R6Disp: Adding Grimme-D2 dispersion energy 1st derivatives to the gradient.
 Leave Link 1101 at Tue Oct 21 15:14:30 2025, MaxMem=  4294967296 cpu:               1.6 elap:               0.2
 (Enter /lrz/sys/applications/gaussian/g16.C.01/x86_64_legacy/exe/l1102.exe)
 Symmetrizing basis deriv contribution to polar:
 IMax=3 JMax=2 DiffMx= 0.00D+00
 Leave Link 1102 at Tue Oct 21 15:14:30 2025, MaxMem=  4294967296 cpu:               0.2 elap:               0.0
 (Enter /lrz/sys/applications/gaussian/g16.C.01/x86_64_legacy/exe/l1110.exe)
 Forming Gx(P) for the SCF density, NAtomX=    19.
 Integral derivatives from FoFJK, PRISM(SPDF).
 Do as many integral derivatives as possible in FoFJK.
 G2DrvN: MDV=    4294965203.
 G2DrvN: will do    20 centers at a time, making    1 passes.
 Calling FoFCou, ICntrl=  3107 FMM=F I1Cent=   0 AccDes= 0.00D+00.
 FoFJK:  IHMeth= 1 ICntrl=    3107 DoSepK=T KAlg= 0 I1Cent=           0 FoldK=F
 IRaf=         1 NMat=       1 IRICut=       1 DoRegI=T DoRafI=F ISym2E= 0 IDoP0=0 IntGTp=1.
 FoFCou: FMM=F IPFlag=           0 FMFlag=      100000 FMFlg1=           0
         NFxFlg=           0 DoJE=F BraDBF=F KetDBF=F FulRan=T
         wScrn=  0.000000 ICntrl=      3507 IOpCl=  0 I1Cent=           0 NGrid=           0
         NMat0=    1 NMatS0=      1 NMatT0=    0 NMatD0=    1 NMtDS0=    0 NMtDT0=    0
 Symmetry not used in FoFCou.
 NEqPCM:  Using equilibrium solvation (IEInf=0, Eps=  78.3553, EpsInf=   1.7778)
 G2PCM: DoFxE=T DoFxN=T DoGrad=T DoDP/DQ/DG/TGxP=FFFF NFrqRd=   0 IEInf=0 SqF1=F DoCFld=F IF1Alg=4.
 GePol: Maximum number of non-zero 1st derivatives   =     268
 End of G2Drv F.D. properties file   721 does not exist.
 End of G2Drv F.D. properties file   722 does not exist.
 End of G2Drv F.D. properties file   788 does not exist.
 Leave Link 1110 at Tue Oct 21 15:15:43 2025, MaxMem=  4294967296 cpu:             585.4 elap:              73.2
 (Enter /lrz/sys/applications/gaussian/g16.C.01/x86_64_legacy/exe/l1002.exe)
 Minotr:  Closed shell wavefunction.
          IDoAtm=1111111111111111111
 NEqPCM:  Using equilibrium solvation (IEInf=0, Eps=  78.3553, EpsInf=   1.7778)
          Direct CPHF calculation.
          Differentiating once with respect to electric field.
                with respect to dipole field.
          Differentiating once with respect to nuclear coordinates.
          Requested convergence is 1.0D-08 RMS, and 1.0D-07 maximum.
          Secondary convergence is 1.0D-12 RMS, and 1.0D-12 maximum.
          NewPWx=T KeepS1=F KeepF1=F KeepIn=T MapXYZ=F SortEE=F KeepMc=T.
         5663 words used for storage of precomputed grid.
 Keep R1 ints in memory in canonical form, NReq=369777087.
 FoFCou: FMM=F IPFlag=           0 FMFlag=           0 FMFlg1=           0
         NFxFlg=           0 DoJE=F BraDBF=F KetDBF=F FulRan=T
         wScrn=  0.000000 ICntrl=       600 IOpCl=  0 I1Cent=           0 NGrid=           0
         NMat0=    1 NMatS0=  18915 NMatT0=    0 NMatD0=    1 NMtDS0=    0 NMtDT0=    0
 Symmetry not used in FoFCou.
 Two-electron integral symmetry not used.
          MDV=    4294967296 using IRadAn=       1.
          Solving linear equations simultaneously, MaxMat=       0.
          There are    60 degrees of freedom in the 1st order CPHF.  IDoFFX=6 NUNeed=     3.
     57 vectors produced by pass  0 Test12= 1.01D-14 1.67D-09 XBig12= 7.51D+01 4.19D+00.
 AX will form    57 AO Fock derivatives at one time.
     57 vectors produced by pass  1 Test12= 1.01D-14 1.67D-09 XBig12= 9.60D+00 9.33D-01.
     57 vectors produced by pass  2 Test12= 1.01D-14 1.67D-09 XBig12= 4.50D-01 1.02D-01.
     57 vectors produced by pass  3 Test12= 1.01D-14 1.67D-09 XBig12= 7.09D-03 2.29D-02.
     57 vectors produced by pass  4 Test12= 1.01D-14 1.67D-09 XBig12= 6.54D-05 8.64D-04.
     57 vectors produced by pass  5 Test12= 1.01D-14 1.67D-09 XBig12= 3.34D-07 6.20D-05.
     46 vectors produced by pass  6 Test12= 1.01D-14 1.67D-09 XBig12= 1.43D-09 4.55D-06.
     22 vectors produced by pass  7 Test12= 1.01D-14 1.67D-09 XBig12= 7.42D-12 2.51D-07.
      3 vectors produced by pass  8 Test12= 1.01D-14 1.67D-09 XBig12= 3.19D-14 2.17D-08.
 InvSVY:  IOpt=1 It=  1 EMax= 2.66D-15
 Solved reduced A of dimension   413 with    60 vectors.
 FullF1:  Do perturbations      1 to       3.
 Isotropic polarizability for W=    0.000000      134.07 Bohr**3.
 End of Minotr F.D. properties file   721 does not exist.
 End of Minotr F.D. properties file   722 does not exist.
 End of Minotr F.D. properties file   788 does not exist.
 Leave Link 1002 at Tue Oct 21 15:17:25 2025, MaxMem=  4294967296 cpu:             813.6 elap:             101.8
 (Enter /lrz/sys/applications/gaussian/g16.C.01/x86_64_legacy/exe/l601.exe)
 Copying SCF densities to generalized density rwf, IOpCl= 0 IROHF=0.

 **********************************************************************

            Population analysis using the SCF Density.

 **********************************************************************

 Orbital symmetries:
       Occupied  (A) (A) (A) (A) (A) (A) (A) (A) (A) (A) (A) (A)
                 (A) (A) (A) (A) (A) (A) (A) (A) (A) (A) (A) (A)
                 (A) (A) (A) (A) (A) (A) (A) (A) (A) (A) (A) (A)
                 (A) (A) (A)
       Virtual   (A) (A) (A) (A) (A) (A) (A) (A) (A) (A) (A) (A)
                 (A) (A) (A) (A) (A) (A) (A) (A) (A) (A) (A) (A)
                 (A) (A) (A) (A) (A) (A) (A) (A) (A) (A) (A) (A)
                 (A) (A) (A) (A) (A) (A) (A) (A) (A) (A) (A) (A)
                 (A) (A) (A) (A) (A) (A) (A) (A) (A) (A) (A) (A)
                 (A) (A) (A) (A) (A) (A) (A) (A) (A) (A) (A) (A)
                 (A) (A) (A) (A) (A) (A) (A) (A) (A) (A) (A) (A)
                 (A) (A) (A) (A) (A) (A) (A) (A) (A) (A) (A) (A)
                 (A) (A) (A) (A) (A) (A) (A) (A) (A) (A) (A) (A)
                 (A) (A) (A) (A) (A) (A) (A) (A) (A) (A) (A) (A)
                 (A) (A) (A) (A) (A) (A) (A) (A) (A) (A) (A) (A)
                 (A) (A) (A) (A) (A) (A) (A) (A) (A) (A) (A) (A)
                 (A) (A) (A) (A) (A) (A) (A) (A) (A) (A) (A)
 The electronic state is 1-A.
 Alpha  occ. eigenvalues --  -19.25810 -14.45488 -14.42425 -10.37439 -10.35403
 Alpha  occ. eigenvalues --  -10.34573 -10.32370 -10.32339 -10.31776 -10.31317
 Alpha  occ. eigenvalues --  -10.31155  -1.12396  -1.00997  -0.97799  -0.96108
 Alpha  occ. eigenvalues --   -0.87701  -0.85481  -0.76819  -0.71464  -0.69793
 Alpha  occ. eigenvalues --   -0.64706  -0.62282  -0.59373  -0.56134  -0.54134
 Alpha  occ. eigenvalues --   -0.53091  -0.51988  -0.51688  -0.49653  -0.47566
 Alpha  occ. eigenvalues --   -0.46335  -0.44973  -0.44085  -0.43429  -0.42300
 Alpha  occ. eigenvalues --   -0.37690  -0.34987  -0.34205  -0.32710
 Alpha virt. eigenvalues --    0.01242   0.04727   0.10458   0.14298   0.14966
 Alpha virt. eigenvalues --    0.15783   0.18273   0.19530   0.21176   0.21713
 Alpha virt. eigenvalues --    0.23125   0.24570   0.26257   0.26736   0.29815
 Alpha virt. eigenvalues --    0.30929   0.33159   0.35045   0.36709   0.38204
 Alpha virt. eigenvalues --    0.38605   0.43383   0.44885   0.48346   0.49910
 Alpha virt. eigenvalues --    0.51562   0.53084   0.54111   0.55129   0.57177
 Alpha virt. eigenvalues --    0.58684   0.60044   0.61018   0.63385   0.63882
 Alpha virt. eigenvalues --    0.66091   0.67903   0.68026   0.69764   0.70652
 Alpha virt. eigenvalues --    0.72224   0.73117   0.73147   0.74121   0.75213
 Alpha virt. eigenvalues --    0.75593   0.76323   0.77582   0.79059   0.79653
 Alpha virt. eigenvalues --    0.80808   0.82272   0.84752   0.87581   0.90089
 Alpha virt. eigenvalues --    0.91863   0.92990   0.93664   0.95115   0.98363
 Alpha virt. eigenvalues --    0.99444   1.00093   1.05788   1.08157   1.09995
 Alpha virt. eigenvalues --    1.12171   1.15781   1.17068   1.20405   1.22531
 Alpha virt. eigenvalues --    1.28063   1.30829   1.31329   1.31929   1.35240
 Alpha virt. eigenvalues --    1.35658   1.36557   1.38178   1.42012   1.44504
 Alpha virt. eigenvalues --    1.53567   1.54836   1.60018   1.61441   1.66057
 Alpha virt. eigenvalues --    1.67848   1.68828   1.71852   1.75674   1.76541
 Alpha virt. eigenvalues --    1.78976   1.81216   1.82218   1.82781   1.84409
 Alpha virt. eigenvalues --    1.86520   1.87473   1.87765   1.90606   1.92842
 Alpha virt. eigenvalues --    1.95721   1.97567   1.98260   2.00517   2.02293
 Alpha virt. eigenvalues --    2.03622   2.05313   2.05883   2.08901   2.10313
 Alpha virt. eigenvalues --    2.13716   2.18102   2.20268   2.23914   2.25772
 Alpha virt. eigenvalues --    2.27345   2.28396   2.31588   2.32410   2.35296
 Alpha virt. eigenvalues --    2.35766   2.38583   2.40199   2.42300   2.42686
 Alpha virt. eigenvalues --    2.42921   2.47019   2.54133   2.58704   2.69825
 Alpha virt. eigenvalues --    2.71174   2.71831   2.77392   2.80006   2.81726
 Alpha virt. eigenvalues --    2.83459   2.92409   2.93019   2.95783   2.97887
 Alpha virt. eigenvalues --    3.00238   3.02049   3.07337   3.08167   3.11658
 Alpha virt. eigenvalues --    3.16919   3.20165   3.23521   3.32915   3.37051
 Alpha virt. eigenvalues --    3.43544   3.50476   3.55084   3.74705   3.86304
          Condensed to atoms (all electrons):
               1          2          3          4          5          6
     1  O    7.848334   0.317044  -0.070928  -0.053330  -0.005024   0.001460
     2  C    0.317044   4.490475   0.367213   0.285988  -0.036857   0.007995
     3  N   -0.070928   0.367213   6.366934  -0.070334   0.000281  -0.000350
     4  C   -0.053330   0.285988  -0.070334   5.661664   0.203737   0.070441
     5  C   -0.005024  -0.036857   0.000281   0.203737   5.146309   0.313016
     6  C    0.001460   0.007995  -0.000350   0.070441   0.313016   5.015108
     7  C   -0.000018  -0.000016   0.000024  -0.159545   0.083112   0.278615
     8  C    0.000000   0.000044  -0.000000   0.000876   0.012856  -0.083851
     9  N    0.000000   0.000000  -0.000000   0.000015   0.000016  -0.001613
    10  C   -0.000184   0.007046  -0.000343   0.079718  -0.109006   0.064407
    11  C    0.007075  -0.060501  -0.000225   0.255571   0.012133  -0.110487
    12  H    0.336124  -0.033173   0.006684   0.009382  -0.000775  -0.000180
    13  H   -0.041909   0.428143  -0.032449  -0.061701   0.015231  -0.000268
    14  H    0.003320  -0.015602   0.349535   0.009321  -0.000374   0.000020
    15  H    0.004226  -0.010428   0.358833  -0.011099  -0.001658  -0.000013
    16  H    0.020205  -0.009602   0.001043  -0.087194   0.458738  -0.055270
    17  H   -0.000014  -0.000176  -0.000001   0.014124  -0.058300   0.464392
    18  H    0.000001  -0.000142   0.000002   0.013936  -0.001968   0.011408
    19  H    0.000083  -0.008306  -0.000106  -0.069710   0.011144  -0.001091
               7          8          9         10         11         12
     1  O   -0.000018   0.000000   0.000000  -0.000184   0.007075   0.336124
     2  C   -0.000016   0.000044   0.000000   0.007046  -0.060501  -0.033173
     3  N    0.000024  -0.000000  -0.000000  -0.000343  -0.000225   0.006684
     4  C   -0.159545   0.000876   0.000015   0.079718   0.255571   0.009382
     5  C    0.083112   0.012856   0.000016  -0.109006   0.012133  -0.000775
     6  C    0.278615  -0.083851  -0.001613   0.064407  -0.110487  -0.000180
     7  C    5.423345   0.306219  -0.034230   0.285349   0.082240   0.000005
     8  C    0.306219   4.973003   0.930134  -0.087394   0.013557  -0.000000
     9  N   -0.034230   0.930134   6.167778  -0.001845   0.000022   0.000000
    10  C    0.285349  -0.087394  -0.001845   5.006460   0.319076  -0.000068
    11  C    0.082240   0.013557   0.000022   0.319076   5.117236   0.000752
    12  H    0.000005  -0.000000   0.000000  -0.000068   0.000752   0.468815
    13  H   -0.000095  -0.000001  -0.000000   0.000654  -0.018749  -0.005456
    14  H    0.000002   0.000000   0.000000   0.000036   0.000537  -0.000433
    15  H   -0.000033  -0.000003  -0.000000  -0.000437   0.004306  -0.000399
    16  H    0.013154  -0.000388  -0.000002  -0.001107   0.010483  -0.000081
    17  H   -0.063143  -0.018041  -0.000271   0.011318  -0.001861   0.000004
    18  H   -0.063546  -0.017953  -0.000271   0.463388  -0.056938  -0.000000
    19  H    0.012941  -0.000382  -0.000002  -0.061791   0.460438   0.000034
              13         14         15         16         17         18
     1  O   -0.041909   0.003320   0.004226   0.020205  -0.000014   0.000001
     2  C    0.428143  -0.015602  -0.010428  -0.009602  -0.000176  -0.000142
     3  N   -0.032449   0.349535   0.358833   0.001043  -0.000001   0.000002
     4  C   -0.061701   0.009321  -0.011099  -0.087194   0.014124   0.013936
     5  C    0.015231  -0.000374  -0.001658   0.458738  -0.058300  -0.001968
     6  C   -0.000268   0.000020  -0.000013  -0.055270   0.464392   0.011408
     7  C   -0.000095   0.000002  -0.000033   0.013154  -0.063143  -0.063546
     8  C   -0.000001   0.000000  -0.000003  -0.000388  -0.018041  -0.017953
     9  N   -0.000000   0.000000  -0.000000  -0.000002  -0.000271  -0.000271
    10  C    0.000654   0.000036  -0.000437  -0.001107   0.011318   0.463388
    11  C   -0.018749   0.000537   0.004306   0.010483  -0.001861  -0.056938
    12  H   -0.005456  -0.000433  -0.000399  -0.000081   0.000004  -0.000000
    13  H    0.689589  -0.012813   0.000121   0.001348   0.000001   0.000014
    14  H   -0.012813   0.547007  -0.020776  -0.000190  -0.000000  -0.000001
    15  H    0.000121  -0.020776   0.537317   0.000085   0.000003   0.000005
    16  H    0.001348  -0.000190   0.000085   0.619278  -0.009839   0.000018
    17  H    0.000001  -0.000000   0.000003  -0.009839   0.603527  -0.000083
    18  H    0.000014  -0.000001   0.000005   0.000018  -0.000083   0.603624
    19  H    0.004442  -0.000148   0.000757  -0.000099   0.000015  -0.009697
              19
     1  O    0.000083
     2  C   -0.008306
     3  N   -0.000106
     4  C   -0.069710
     5  C    0.011144
     6  C   -0.001091
     7  C    0.012941
     8  C   -0.000382
     9  N   -0.000002
    10  C   -0.061791
    11  C    0.460438
    12  H    0.000034
    13  H    0.004442
    14  H   -0.000148
    15  H    0.000757
    16  H   -0.000099
    17  H    0.000015
    18  H   -0.009697
    19  H    0.607498
 Mulliken charges:
               1
     1  O   -0.366466
     2  C    0.270856
     3  N   -0.275813
     4  C   -0.091858
     5  C   -0.042611
     6  C    0.026262
     7  C   -0.164379
     8  C   -0.028678
     9  N   -0.059732
    10  C    0.024723
    11  C   -0.034667
    12  H    0.218766
    13  H    0.033896
    14  H    0.140560
    15  H    0.139193
    16  H    0.039420
    17  H    0.058344
    18  H    0.058204
    19  H    0.053980
 Sum of Mulliken charges =   0.00000
 Mulliken charges with hydrogens summed into heavy atoms:
               1
     1  O   -0.147700
     2  C    0.304751
     3  N    0.003940
     4  C   -0.091858
     5  C   -0.003190
     6  C    0.084606
     7  C   -0.164379
     8  C   -0.028678
     9  N   -0.059732
    10  C    0.082927
    11  C    0.019313
 APT charges:
               1
     1  O   -0.942193
     2  C    1.178284
     3  N   -0.767563
     4  C    0.009424
     5  C   -0.167381
     6  C    0.023765
     7  C   -0.096864
     8  C    0.510107
     9  N   -0.619563
    10  C    0.019393
    11  C   -0.158261
    12  H    0.381513
    13  H   -0.155786
    14  H    0.202887
    15  H    0.226104
    16  H    0.101313
    17  H    0.088855
    18  H    0.090965
    19  H    0.075002
 Sum of APT charges =   0.00000
 APT charges with hydrogens summed into heavy atoms:
               1
     1  O   -0.560680
     2  C    1.022498
     3  N   -0.338572
     4  C    0.009424
     5  C   -0.066069
     6  C    0.112620
     7  C   -0.096864
     8  C    0.510107
     9  N   -0.619563
    10  C    0.110357
    11  C   -0.083259
 Electronic spatial extent (au):  <R**2>=           2109.8769
 Charge=             -0.0000 electrons
 Dipole moment (field-independent basis, Debye):
    X=             -5.2944    Y=              3.0843    Z=              2.3762  Tot=              6.5719
 Quadrupole moment (field-independent basis, Debye-Ang):
   XX=            -92.0670   YY=            -54.2509   ZZ=            -62.4433
   XY=             -7.3462   XZ=             -4.3480   YZ=             -1.8342
 Traceless Quadrupole moment (field-independent basis, Debye-Ang):
   XX=            -22.4799   YY=             15.3362   ZZ=              7.1437
   XY=             -7.3462   XZ=             -4.3480   YZ=             -1.8342
 Octapole moment (field-independent basis, Debye-Ang**2):
  XXX=           -185.2184  YYY=              3.6539  ZZZ=              9.6011  XYY=             -6.9940
  XXY=             35.4629  XXZ=             18.2985  XZZ=            -17.5155  YZZ=             -0.7672
  YYZ=              0.5307  XYZ=             12.5822
 Hexadecapole moment (field-independent basis, Debye-Ang**3):
 XXXX=          -3010.9644 YYYY=           -320.9537 ZZZZ=           -150.8691 XXXY=            -66.7568
 XXXZ=              9.1661 YYYX=             -4.2772 YYYZ=              0.0907 ZZZX=            -30.1388
 ZZZY=            -21.0227 XXYY=           -405.9329 XXZZ=           -380.0235 YYZZ=            -76.7446
 XXYZ=            -29.8034 YYXZ=              0.3447 ZZXY=              3.4184
 N-N= 5.453615294331D+02 E-N=-2.238712858157D+03  KE= 4.889119801506D+02
  Exact polarizability:     190.882      -3.156     132.706      -5.209      10.385      78.615
 Approx polarizability:     150.174      -1.006     107.894      -3.846       7.809      68.477
 No NMR shielding tensors so no spin-rotation constants.
 Leave Link  601 at Tue Oct 21 15:17:25 2025, MaxMem=  4294967296 cpu:               1.0 elap:               0.2
 (Enter /lrz/sys/applications/gaussian/g16.C.01/x86_64_legacy/exe/l701.exe)
 ... and contract with generalized density number  0.
 Compute integral second derivatives.
 R6Disp: Adding Grimme-D2 dispersion energy 2nd derivatives to the Hessian.
   1 Symmetry operations used in ECPInt.
 ECPInt:  NShTT=    4095 NPrTT=   15045 LenC2=    3950 LenP2D=   11136.
 LDataN:  DoStor=T MaxTD1= 6 Len=  172
 D2PCM: PCM CHGder 2nd derivatives, FixD1E=F FixD2E=F DoIter=F DoCFld=F I1PDM=0
 GePol: Maximum number of non-zero 2nd derivatives   =     268
 Leave Link  701 at Tue Oct 21 15:17:34 2025, MaxMem=  4294967296 cpu:              70.4 elap:               8.8
 (Enter /lrz/sys/applications/gaussian/g16.C.01/x86_64_legacy/exe/l702.exe)
 L702 exits ... SP integral derivatives will be done elsewhere.
 Leave Link  702 at Tue Oct 21 15:17:34 2025, MaxMem=  4294967296 cpu:               0.3 elap:               0.1
 (Enter /lrz/sys/applications/gaussian/g16.C.01/x86_64_legacy/exe/l703.exe)
 Integral derivatives from FoFJK, PRISM(SPDF).
 Compute integral second derivatives, UseDBF=F ICtDFT=           0.
 Calling FoFJK, ICntrl=    100127 FMM=F ISym2X=0 I1Cent= 0 IOpClX= 0 NMat=1 NMatS=1 NMatT=0.
 FoFJK:  IHMeth= 1 ICntrl=  100127 DoSepK=T KAlg= 0 I1Cent=           0 FoldK=F
 IRaf=         1 NMat=       1 IRICut=       1 DoRegI=T DoRafI=F ISym2E= 0 IDoP0=0 IntGTp=1.
 FoFCou: FMM=F IPFlag=           0 FMFlag=      100000 FMFlg1=         800
         NFxFlg=           0 DoJE=F BraDBF=F KetDBF=F FulRan=T
         wScrn=  0.000000 ICntrl=    100527 IOpCl=  0 I1Cent=           0 NGrid=           0
         NMat0=    1 NMatS0=      1 NMatT0=    0 NMatD0=    1 NMtDS0=    0 NMtDT0=    0
 Symmetry not used in FoFCou.
 Leave Link  703 at Tue Oct 21 15:19:17 2025, MaxMem=  4294967296 cpu:             823.2 elap:             103.0
 (Enter /lrz/sys/applications/gaussian/g16.C.01/x86_64_legacy/exe/l716.exe)
 Dipole        =-2.08298913D+00 1.21346482D+00 9.34853297D-01
 Polarizability= 1.90882149D+02-3.15622374D+00 1.32705682D+02
                -5.20902740D+00 1.03851024D+01 7.86147269D+01
 Full mass-weighted force constant matrix:
 Low frequencies ---  -20.2794   -5.9281   -0.0007   -0.0005   -0.0003   14.7001
 Low frequencies ---   29.8841   76.9422  135.7155
 Diagonal vibrational polarizability:
       90.6641942     112.1177188     201.6675311
 Harmonic frequencies (cm**-1), IR intensities (KM/Mole), Raman scattering
 activities (A**4/AMU), depolarization ratios for plane and unpolarized
 incident light, reduced masses (AMU), force constants (mDyne/A),
 and normal coordinates:
                      1                      2                      3
                      A                      A                      A
 Frequencies --     26.8942                76.8269               135.7134
 Red. masses --      3.9046                 6.3649                 7.7075
 Frc consts  --      0.0017                 0.0221                 0.0836
 IR Inten    --      6.3407                 2.2640                10.0280
  Atom  AN      X      Y      Z        X      Y      Z        X      Y      Z
     1   8    -0.02  -0.11  -0.20     0.11  -0.07   0.09    -0.15   0.18   0.10
     2   6    -0.00  -0.04   0.05     0.01  -0.02   0.07     0.02   0.06   0.02
     3   7     0.01   0.23   0.11    -0.23   0.06   0.18     0.02   0.10   0.03
     4   6     0.00  -0.04   0.03     0.01   0.03  -0.14     0.01  -0.12  -0.03
     5   6     0.02  -0.07   0.18     0.01   0.04  -0.17    -0.03  -0.14  -0.05
     6   6     0.02  -0.05   0.17     0.01   0.03  -0.16    -0.02  -0.18  -0.08
     7   6     0.00  -0.01   0.00     0.01   0.02  -0.11     0.01  -0.20  -0.08
     8   6     0.00   0.01  -0.02     0.02  -0.03   0.11     0.02   0.00  -0.01
     9   7     0.00   0.03  -0.03     0.03  -0.10   0.36     0.05   0.49   0.14
    10   6    -0.02   0.02  -0.14     0.01   0.03  -0.17     0.03  -0.19  -0.07
    11   6    -0.02   0.00  -0.13     0.01   0.04  -0.19     0.05  -0.15  -0.04
    12   1    -0.07  -0.28  -0.22     0.27  -0.12   0.05    -0.18   0.22   0.11
    13   1     0.01  -0.19   0.20     0.10  -0.08   0.17     0.17   0.13  -0.00
    14   1     0.03   0.28   0.18    -0.22   0.02   0.37     0.12   0.34   0.05
    15   1     0.05   0.27   0.23    -0.32   0.10   0.14     0.19  -0.07  -0.06
    16   1     0.03  -0.10   0.30     0.01   0.03  -0.16    -0.06  -0.12  -0.05
    17   1     0.04  -0.07   0.28     0.01   0.03  -0.13    -0.06  -0.20  -0.09
    18   1    -0.03   0.06  -0.27     0.01   0.03  -0.16     0.06  -0.21  -0.07
    19   1    -0.03   0.03  -0.24     0.01   0.04  -0.19     0.08  -0.13  -0.03
                      4                      5                      6
                      A                      A                      A
 Frequencies --    183.1872               213.5128               238.1792
 Red. masses --      4.4125                 1.2243                 3.8445
 Frc consts  --      0.0872                 0.0329                 0.1285
 IR Inten    --      7.1658                81.0004                 7.3176
  Atom  AN      X      Y      Z        X      Y      Z        X      Y      Z
     1   8    -0.10  -0.01   0.01     0.01  -0.01   0.04     0.23  -0.11  -0.04
     2   6     0.01  -0.04   0.08    -0.00  -0.01  -0.02     0.01   0.02   0.01
     3   7     0.24  -0.02   0.00    -0.05   0.03   0.01     0.06  -0.04  -0.02
     4   6    -0.00  -0.06   0.17    -0.00  -0.02  -0.04    -0.01   0.14   0.06
     5   6     0.01  -0.02   0.06     0.02  -0.01  -0.03    -0.13   0.09   0.06
     6   6    -0.00   0.06  -0.14     0.02   0.01   0.01    -0.15  -0.05  -0.01
     7   6    -0.03   0.10  -0.22     0.00   0.02   0.04    -0.08  -0.10  -0.04
     8   6    -0.03   0.05  -0.10     0.00   0.02   0.03    -0.08  -0.10  -0.04
     9   7    -0.02  -0.11   0.19    -0.01  -0.03  -0.04    -0.07   0.12   0.05
    10   6    -0.05   0.07  -0.13    -0.02   0.01   0.03     0.05  -0.04  -0.02
    11   6    -0.04  -0.01   0.07    -0.02  -0.01  -0.02     0.06   0.10   0.03
    12   1    -0.31   0.03   0.06     0.06   0.01   0.03     0.43  -0.21  -0.10
    13   1    -0.06  -0.03   0.04     0.03  -0.02  -0.01    -0.16  -0.03   0.00
    14   1     0.32   0.22  -0.18     0.20   0.67   0.06     0.16   0.23  -0.11
    15   1     0.49  -0.22  -0.02     0.39  -0.46  -0.30     0.27  -0.27  -0.17
    16   1     0.02  -0.04   0.11     0.04  -0.03  -0.04    -0.23   0.16   0.09
    17   1     0.02   0.09  -0.21     0.05   0.02   0.02    -0.24  -0.09  -0.03
    18   1    -0.07   0.10  -0.20    -0.04   0.02   0.05     0.15  -0.11  -0.05
    19   1    -0.06  -0.04   0.12    -0.05  -0.02  -0.04     0.14   0.15   0.03
                      7                      8                      9
                      A                      A                      A
 Frequencies --    319.8724               332.4162               374.0231
 Red. masses --      3.8544                 1.4754                 3.1547
 Frc consts  --      0.2324                 0.0961                 0.2600
 IR Inten    --      7.7234               165.3305                62.7952
  Atom  AN      X      Y      Z        X      Y      Z        X      Y      Z
     1   8     0.08   0.06   0.09    -0.03   0.06   0.00     0.20   0.02   0.01
     2   6     0.12   0.01   0.04    -0.00   0.03  -0.04     0.08   0.03  -0.09
     3   7     0.23   0.06   0.02    -0.06   0.00  -0.04    -0.06   0.08  -0.04
     4   6     0.04  -0.09  -0.05    -0.00  -0.03   0.00     0.04  -0.05  -0.08
     5   6    -0.00  -0.08  -0.12     0.02  -0.04   0.06     0.03  -0.10   0.08
     6   6    -0.00  -0.03  -0.01     0.02  -0.00   0.02     0.02  -0.05   0.04
     7   6    -0.11   0.01   0.10     0.00   0.02  -0.07    -0.06   0.04  -0.10
     8   6    -0.14   0.03   0.12     0.01   0.03  -0.07    -0.09   0.07  -0.13
     9   7    -0.15  -0.01  -0.06     0.01  -0.02   0.04    -0.09  -0.03   0.07
    10   6    -0.10   0.04  -0.02    -0.01  -0.00   0.01    -0.04  -0.00   0.07
    11   6    -0.08  -0.02  -0.10    -0.01  -0.04   0.07    -0.02  -0.05   0.08
    12   1     0.58  -0.18  -0.05     0.82  -0.41  -0.24    -0.46   0.56   0.23
    13   1     0.19   0.05   0.03     0.03   0.08  -0.07     0.13   0.02  -0.07
    14   1     0.12  -0.20  -0.07    -0.04   0.03   0.02    -0.07   0.03   0.11
    15   1     0.09   0.29   0.26    -0.08   0.01  -0.06    -0.15   0.14  -0.04
    16   1    -0.00  -0.07  -0.20     0.04  -0.06   0.10     0.04  -0.13   0.21
    17   1     0.09   0.02  -0.01     0.03  -0.00   0.05     0.09  -0.03   0.11
    18   1    -0.11   0.05  -0.04    -0.03   0.00   0.02    -0.03  -0.03   0.15
    19   1    -0.18  -0.06  -0.16    -0.02  -0.06   0.12    -0.08  -0.11   0.18
                     10                     11                     12
                      A                      A                      A
 Frequencies --    417.7358               497.6740               527.9677
 Red. masses --      2.8464                 5.0995                 5.7176
 Frc consts  --      0.2927                 0.7442                 0.9390
 IR Inten    --      0.1621                16.4275                 2.3247
  Atom  AN      X      Y      Z        X      Y      Z        X      Y      Z
     1   8     0.01  -0.00  -0.00     0.14  -0.09   0.16     0.13   0.06  -0.06
     2   6     0.00   0.00  -0.00    -0.17   0.02  -0.03     0.01   0.09  -0.06
     3   7    -0.01  -0.00   0.00     0.09   0.16  -0.12    -0.14   0.01  -0.06
     4   6     0.00   0.00  -0.00    -0.20  -0.02   0.00     0.01  -0.08   0.24
     5   6    -0.01   0.05  -0.20    -0.10   0.03   0.00     0.02  -0.07   0.13
     6   6     0.01  -0.05   0.20    -0.06   0.05   0.02     0.01   0.01  -0.21
     7   6    -0.00  -0.00  -0.00     0.09  -0.01  -0.01    -0.00  -0.01  -0.00
     8   6    -0.00  -0.00  -0.00     0.20   0.04  -0.01     0.02  -0.00   0.38
     9   7    -0.00   0.00   0.00     0.22  -0.03  -0.01    -0.01   0.01  -0.14
    10   6    -0.01   0.05  -0.19    -0.12  -0.09  -0.02    -0.03   0.02  -0.20
    11   6     0.01  -0.04   0.20    -0.15  -0.09  -0.02    -0.01  -0.07   0.13
    12   1    -0.06   0.04   0.02     0.20   0.23   0.19    -0.00   0.17  -0.02
    13   1     0.01  -0.00   0.00    -0.27   0.01  -0.06    -0.05   0.13  -0.12
    14   1     0.00   0.03   0.01     0.02   0.04  -0.35    -0.10   0.06   0.12
    15   1     0.01  -0.04  -0.03     0.12   0.36   0.29    -0.20  -0.02  -0.20
    16   1    -0.02   0.10  -0.42    -0.01  -0.03  -0.02     0.03  -0.07   0.06
    17   1     0.02  -0.11   0.45    -0.16  -0.01   0.02     0.02   0.07  -0.44
    18   1    -0.02   0.10  -0.45    -0.25  -0.01  -0.00    -0.06   0.08  -0.44
    19   1     0.02  -0.10   0.44    -0.09  -0.06  -0.02    -0.02  -0.06   0.06
                     13                     14                     15
                      A                      A                      A
 Frequencies --    575.2911               601.2625               616.4880
 Red. masses --      7.4673                 3.2900                 4.0450
 Frc consts  --      1.4561                 0.7008                 0.9058
 IR Inten    --      3.2717                46.0547                15.3885
  Atom  AN      X      Y      Z        X      Y      Z        X      Y      Z
     1   8     0.02   0.04  -0.08    -0.08  -0.06   0.07    -0.07  -0.10   0.15
     2   6     0.01   0.07   0.07    -0.03  -0.08  -0.02    -0.08  -0.13  -0.11
     3   7     0.01  -0.06   0.07     0.04   0.04  -0.02    -0.05   0.13  -0.16
     4   6    -0.00   0.09   0.05     0.01   0.09  -0.17     0.05   0.02   0.11
     5   6     0.01   0.07  -0.03     0.04   0.05   0.04     0.14   0.06   0.02
     6   6     0.02  -0.23  -0.02     0.03  -0.05  -0.02     0.12  -0.07  -0.04
     7   6    -0.00  -0.17   0.03    -0.02   0.01  -0.23    -0.01  -0.07   0.12
     8   6     0.04   0.59   0.01    -0.01   0.02   0.24    -0.10   0.03  -0.08
     9   7     0.00  -0.17   0.01    -0.04  -0.00  -0.08    -0.12  -0.00   0.04
    10   6    -0.06  -0.24  -0.01     0.02  -0.03  -0.01     0.07  -0.01  -0.03
    11   6    -0.02   0.07  -0.03     0.02   0.06   0.05     0.07   0.08   0.03
    12   1    -0.08  -0.08  -0.07     0.05  -0.04   0.05     0.15   0.11   0.14
    13   1    -0.04   0.05   0.08     0.01  -0.10   0.00    -0.14  -0.10  -0.18
    14   1    -0.01  -0.08  -0.01     0.03   0.04  -0.08    -0.01   0.22  -0.03
    15   1     0.01  -0.17  -0.13     0.08   0.11   0.16    -0.03   0.33   0.25
    16   1    -0.14   0.19  -0.09     0.01   0.00   0.44     0.10   0.14  -0.21
    17   1    -0.13  -0.30  -0.08     0.01  -0.16   0.37     0.11  -0.01  -0.32
    18   1     0.06  -0.31  -0.10     0.11  -0.17   0.37     0.16  -0.01  -0.33
    19   1     0.13   0.17  -0.12     0.10  -0.00   0.44     0.13   0.18  -0.20
                     16                     17                     18
                      A                      A                      A
 Frequencies --    658.8513               734.9833               776.1091
 Red. masses --      7.2032                 3.7015                 3.3272
 Frc consts  --      1.8423                 1.1781                 1.1808
 IR Inten    --      1.0998                11.5872                11.9227
  Atom  AN      X      Y      Z        X      Y      Z        X      Y      Z
     1   8    -0.02  -0.07   0.05    -0.07  -0.00   0.04     0.00   0.01   0.01
     2   6    -0.07  -0.02  -0.01     0.21  -0.17  -0.12     0.06  -0.04  -0.04
     3   7    -0.01   0.03  -0.05     0.00  -0.01  -0.02    -0.04  -0.00  -0.06
     4   6    -0.01  -0.08  -0.02     0.10   0.02  -0.07     0.04  -0.06   0.26
     5   6    -0.25  -0.17  -0.03    -0.14  -0.05   0.06    -0.04  -0.01  -0.11
     6   6    -0.21   0.14   0.04    -0.16  -0.02  -0.04    -0.02  -0.05   0.12
     7   6     0.01   0.07   0.01    -0.04  -0.03   0.08    -0.03   0.05  -0.23
     8   6    -0.03   0.27   0.07     0.10   0.04  -0.02     0.03  -0.01   0.06
     9   7    -0.06  -0.05  -0.01     0.13  -0.02  -0.00     0.03   0.00  -0.02
    10   6     0.34   0.12   0.01    -0.05   0.07  -0.03    -0.00   0.00   0.13
    11   6     0.33  -0.21  -0.06    -0.05   0.12   0.09    -0.02   0.07  -0.10
    12   1     0.03  -0.01   0.05     0.01   0.04   0.03     0.01   0.05   0.01
    13   1    -0.11  -0.03  -0.02     0.34  -0.13  -0.13    -0.01   0.02  -0.13
    14   1    -0.01   0.05  -0.12     0.10   0.17   0.48     0.04   0.17   0.29
    15   1     0.03   0.08   0.10    -0.08   0.15   0.15    -0.10   0.13   0.08
    16   1    -0.17  -0.22  -0.05    -0.32   0.07   0.08    -0.10   0.10  -0.45
    17   1    -0.13   0.18   0.05    -0.21  -0.00  -0.21    -0.01  -0.09   0.29
    18   1     0.30   0.15   0.01    -0.00   0.08  -0.19     0.03  -0.05   0.30
    19   1     0.30  -0.23  -0.06    -0.15   0.07   0.10    -0.08   0.13  -0.44
                     19                     20                     21
                      A                      A                      A
 Frequencies --    840.4065               872.7229               875.2330
 Red. masses --      3.7531                 1.5293                 1.2748
 Frc consts  --      1.5618                 0.6863                 0.5753
 IR Inten    --     26.3083               159.4893                25.9863
  Atom  AN      X      Y      Z        X      Y      Z        X      Y      Z
     1   8    -0.00   0.04  -0.01     0.02   0.01  -0.01     0.00   0.01  -0.00
     2   6     0.13  -0.08  -0.06    -0.01   0.01   0.03    -0.00   0.00   0.01
     3   7     0.02  -0.06  -0.00    -0.02  -0.03  -0.05    -0.01  -0.02  -0.02
     4   6    -0.08   0.00   0.00     0.00  -0.02   0.09     0.00  -0.01   0.03
     5   6     0.03   0.22   0.06    -0.00  -0.01  -0.04    -0.00   0.02  -0.09
     6   6    -0.04   0.22   0.06     0.01  -0.01  -0.03    -0.00   0.02  -0.09
     7   6     0.08  -0.01  -0.01     0.00  -0.02   0.09     0.00  -0.01   0.03
     8   6    -0.06   0.01   0.01     0.00   0.01  -0.04     0.00   0.00  -0.01
     9   7    -0.09   0.00   0.00     0.00  -0.00   0.01     0.00  -0.00   0.00
    10   6    -0.04  -0.20  -0.04    -0.00   0.03  -0.09     0.00  -0.01   0.05
    11   6     0.02  -0.19  -0.04    -0.01   0.03  -0.09     0.00  -0.01   0.04
    12   1    -0.01   0.03  -0.02    -0.03  -0.03  -0.01    -0.01  -0.01  -0.01
    13   1     0.21   0.00  -0.13    -0.08   0.08  -0.07    -0.03   0.03  -0.03
    14   1     0.16   0.23   0.53     0.08   0.20   0.19     0.03   0.08   0.08
    15   1    -0.06   0.15   0.25    -0.03   0.12   0.20    -0.01   0.05   0.09
    16   1     0.18   0.15  -0.02     0.01  -0.07   0.23     0.02  -0.13   0.60
    17   1    -0.25   0.14   0.00     0.03  -0.05   0.17     0.04  -0.13   0.57
    18   1    -0.18  -0.12  -0.03     0.04  -0.12   0.56    -0.02   0.09  -0.34
    19   1     0.21  -0.10  -0.05     0.02  -0.14   0.60    -0.02   0.07  -0.31
                     22                     23                     24
                      A                      A                      A
 Frequencies --    919.8798              1013.3750              1026.8938
 Red. masses --      1.5779                 1.3981                 1.3933
 Frc consts  --      0.7867                 0.8459                 0.8656
 IR Inten    --    105.1234                 0.0778                 0.7227
  Atom  AN      X      Y      Z        X      Y      Z        X      Y      Z
     1   8     0.03   0.03  -0.03     0.00   0.00  -0.00    -0.00   0.00  -0.00
     2   6    -0.07   0.04   0.08    -0.01   0.00  -0.01     0.00  -0.00  -0.00
     3   7    -0.00  -0.11  -0.04     0.01  -0.01   0.02     0.00   0.00   0.00
     4   6    -0.02   0.03  -0.09    -0.01   0.01  -0.03    -0.00  -0.00   0.00
     5   6     0.00  -0.04   0.02     0.00  -0.02   0.07    -0.00   0.04  -0.09
     6   6     0.03  -0.05   0.02    -0.00   0.02  -0.08     0.01  -0.04   0.09
     7   6    -0.01   0.01  -0.03     0.00  -0.01   0.04    -0.00   0.00  -0.00
     8   6     0.00  -0.01   0.01    -0.00   0.00  -0.02     0.00  -0.00   0.00
     9   7     0.01   0.00  -0.00     0.00  -0.00   0.00     0.00   0.00  -0.00
    10   6     0.01   0.03   0.03    -0.00   0.02  -0.10     0.00   0.04  -0.07
    11   6    -0.00   0.01   0.03     0.00  -0.02   0.10     0.01  -0.04   0.07
    12   1    -0.10  -0.10  -0.03     0.01   0.03  -0.00     0.01   0.00  -0.00
    13   1    -0.14   0.15  -0.06    -0.00  -0.00  -0.00     0.00  -0.01   0.00
    14   1     0.20   0.42   0.27     0.01   0.01   0.00    -0.00  -0.01   0.01
    15   1     0.07   0.22   0.64     0.03  -0.00   0.07    -0.00  -0.00  -0.01
    16   1     0.01  -0.02  -0.16     0.00   0.07  -0.38    -0.03  -0.06   0.55
    17   1     0.06   0.03  -0.23     0.03  -0.10   0.43    -0.05   0.09  -0.54
    18   1     0.02   0.07  -0.19     0.04  -0.14   0.55    -0.01  -0.05   0.40
    19   1    -0.02   0.04  -0.11    -0.02   0.13  -0.52    -0.05   0.06  -0.42
                     25                     26                     27
                      A                      A                      A
 Frequencies --   1034.2797              1068.8187              1126.3296
 Red. masses --      2.6269                 2.3502                 1.2526
 Frc consts  --      1.6557                 1.5819                 0.9363
 IR Inten    --     12.2780                51.4109                19.4533
  Atom  AN      X      Y      Z        X      Y      Z        X      Y      Z
     1   8     0.00   0.01  -0.01     0.00   0.04  -0.05     0.01   0.01  -0.00
     2   6    -0.01  -0.02  -0.04    -0.10  -0.04  -0.20     0.00  -0.00   0.02
     3   7     0.01  -0.00   0.03     0.06  -0.04   0.20    -0.01   0.00  -0.01
     4   6    -0.04  -0.00   0.01    -0.08  -0.01   0.03    -0.01  -0.03  -0.00
     5   6     0.04   0.17   0.06    -0.01  -0.03  -0.03     0.06   0.03   0.00
     6   6     0.02  -0.18  -0.07     0.02  -0.01   0.00    -0.06   0.02   0.01
     7   6    -0.03   0.00   0.00     0.01  -0.00  -0.00    -0.00  -0.04  -0.01
     8   6     0.01   0.00  -0.00    -0.00   0.00   0.00     0.00   0.01   0.00
     9   7     0.02  -0.00  -0.00    -0.00  -0.00   0.00     0.00  -0.00  -0.00
    10   6     0.05   0.18   0.05     0.04   0.01   0.00     0.07   0.03   0.01
    11   6     0.02  -0.17  -0.06    -0.01   0.05  -0.01    -0.06   0.03   0.01
    12   1     0.06   0.09  -0.00     0.38   0.64  -0.03    -0.03  -0.04  -0.00
    13   1     0.02  -0.02  -0.03    -0.23  -0.08  -0.19     0.05   0.01   0.02
    14   1     0.01  -0.02   0.05     0.06  -0.08   0.20    -0.01   0.00  -0.05
    15   1     0.02  -0.02   0.02     0.13  -0.08   0.25     0.01  -0.00   0.01
    16   1    -0.28   0.41  -0.03     0.13  -0.15   0.06     0.49  -0.24  -0.06
    17   1    -0.25  -0.36   0.07     0.08   0.03  -0.03    -0.48  -0.18  -0.03
    18   1    -0.22   0.38   0.02     0.15  -0.05  -0.05     0.41  -0.18  -0.06
    19   1    -0.27  -0.35   0.03     0.08   0.07   0.10    -0.43  -0.15  -0.02
                     28                     29                     30
                      A                      A                      A
 Frequencies --   1170.9927              1185.1981              1226.2465
 Red. masses --      1.3453                 1.1645                 2.1468
 Frc consts  --      1.0869                 0.9637                 1.9019
 IR Inten    --     14.9125                11.9116                46.8498
  Atom  AN      X      Y      Z        X      Y      Z        X      Y      Z
     1   8    -0.02  -0.06   0.02    -0.02  -0.04   0.01    -0.05  -0.07   0.00
     2   6     0.03   0.05   0.01     0.00   0.04   0.00    -0.05   0.10  -0.01
     3   7     0.07   0.02  -0.02     0.04   0.01  -0.01     0.01  -0.01   0.02
     4   6    -0.09   0.03  -0.02    -0.03   0.01  -0.01     0.23   0.03  -0.01
     5   6    -0.00  -0.03  -0.00    -0.02   0.02   0.01     0.03  -0.05  -0.01
     6   6     0.01  -0.05  -0.01     0.03   0.02   0.00    -0.05   0.05   0.01
     7   6     0.02   0.00  -0.00    -0.03   0.00   0.00     0.11   0.01  -0.00
     8   6    -0.00  -0.00   0.00     0.00  -0.00  -0.00    -0.01  -0.00   0.00
     9   7    -0.01   0.00   0.00     0.01  -0.00  -0.00    -0.04   0.00   0.00
    10   6     0.01   0.04   0.01     0.04  -0.02  -0.01    -0.04  -0.06  -0.01
    11   6     0.01   0.01   0.01    -0.04  -0.03  -0.00     0.01   0.00   0.00
    12   1    -0.03  -0.07   0.02    -0.00  -0.02   0.01     0.15   0.24   0.02
    13   1    -0.17   0.09  -0.11    -0.16   0.06  -0.08    -0.46   0.07  -0.12
    14   1     0.09  -0.04   0.54     0.06  -0.02   0.33     0.04   0.04   0.13
    15   1    -0.26   0.05  -0.42    -0.15   0.03  -0.24    -0.06   0.03  -0.01
    16   1     0.32  -0.24  -0.08    -0.26   0.18   0.03    -0.15   0.07   0.02
    17   1    -0.14  -0.13  -0.03     0.39   0.20   0.02    -0.38  -0.12  -0.01
    18   1    -0.19   0.17   0.05     0.43  -0.27  -0.09    -0.37   0.14   0.05
    19   1     0.28   0.15   0.00    -0.39  -0.20  -0.04    -0.42  -0.22  -0.03
                     31                     32                     33
                      A                      A                      A
 Frequencies --   1240.4023              1268.1972              1312.2380
 Red. masses --      4.9363                 1.2644                 1.3172
 Frc consts  --      4.4748                 1.1981                 1.3363
 IR Inten    --     23.7814                49.7668                15.0506
  Atom  AN      X      Y      Z        X      Y      Z        X      Y      Z
     1   8     0.03   0.05  -0.00    -0.02   0.01  -0.04     0.01   0.04   0.00
     2   6     0.03  -0.07   0.01     0.00  -0.02   0.11     0.02  -0.06   0.00
     3   7    -0.00   0.01  -0.02     0.00  -0.02  -0.08    -0.01   0.01  -0.00
     4   6    -0.16  -0.03   0.00    -0.01  -0.01  -0.01    -0.01   0.09   0.02
     5   6    -0.14  -0.08  -0.01    -0.00   0.00   0.00    -0.04   0.02   0.01
     6   6     0.12  -0.02  -0.01     0.00   0.00   0.00    -0.03  -0.02  -0.00
     7   6     0.44  -0.03  -0.03    -0.00  -0.00  -0.00     0.00  -0.09  -0.02
     8   6    -0.06   0.01   0.00     0.00   0.00   0.00    -0.00   0.01   0.00
     9   7    -0.16   0.01   0.01     0.00  -0.00  -0.00    -0.00  -0.00  -0.00
    10   6     0.12   0.03   0.00    -0.00   0.01   0.00     0.03  -0.01  -0.01
    11   6    -0.13   0.12   0.03     0.00   0.00   0.00     0.03   0.01   0.00
    12   1    -0.09  -0.15  -0.01     0.37   0.60  -0.01    -0.03  -0.06  -0.01
    13   1     0.26  -0.08   0.10     0.03  -0.40   0.52    -0.14  -0.13   0.02
    14   1    -0.02  -0.03  -0.02     0.04   0.09   0.09    -0.02  -0.02  -0.04
    15   1     0.01  -0.01  -0.04    -0.12   0.06  -0.13     0.03  -0.02   0.01
    16   1    -0.53   0.15   0.05     0.00   0.00  -0.02     0.37  -0.25  -0.07
    17   1    -0.17  -0.19  -0.03     0.01   0.00  -0.00     0.47   0.23   0.03
    18   1    -0.05   0.16   0.04     0.02  -0.01  -0.00    -0.38   0.26   0.08
    19   1    -0.35   0.04   0.02     0.02   0.01  -0.01    -0.43  -0.21  -0.03
                     34                     35                     36
                      A                      A                      A
 Frequencies --   1333.0314              1362.1724              1427.7950
 Red. masses --      2.0475                 6.0767                 1.6003
 Frc consts  --      2.1437                 6.6433                 1.9221
 IR Inten    --    117.0168                70.6779                91.5827
  Atom  AN      X      Y      Z        X      Y      Z        X      Y      Z
     1   8    -0.06  -0.15  -0.00    -0.06  -0.09   0.01     0.03   0.03   0.04
     2   6     0.02   0.18  -0.04     0.13   0.10  -0.06    -0.13   0.07  -0.14
     3   7    -0.00  -0.04   0.01    -0.04  -0.03   0.00     0.05  -0.03  -0.00
     4   6    -0.03  -0.06   0.01    -0.05   0.32   0.10     0.03  -0.01   0.02
     5   6    -0.05   0.05   0.01     0.10  -0.12  -0.03     0.04  -0.01  -0.01
     6   6     0.03   0.02   0.00    -0.15  -0.17  -0.03    -0.03   0.02   0.00
     7   6     0.01  -0.10  -0.02     0.05   0.32   0.07    -0.02  -0.01  -0.00
     8   6    -0.00   0.01   0.00    -0.00  -0.03  -0.01     0.00   0.00   0.00
     9   7    -0.01  -0.00  -0.00    -0.01   0.01   0.00     0.01  -0.00  -0.00
    10   6    -0.02   0.04   0.01     0.17  -0.14  -0.04     0.01  -0.01  -0.01
    11   6     0.03   0.04   0.00    -0.19  -0.13  -0.03     0.00   0.02  -0.00
    12   1     0.14   0.24   0.03     0.08   0.13   0.02    -0.21  -0.39   0.01
    13   1     0.75   0.35   0.06     0.48  -0.05   0.22     0.29  -0.46   0.58
    14   1     0.03   0.09  -0.12    -0.02   0.09  -0.27     0.08   0.02   0.28
    15   1     0.01   0.05   0.17     0.12   0.01   0.28    -0.08   0.04  -0.05
    16   1     0.13  -0.07  -0.00     0.10  -0.14  -0.02    -0.05   0.05   0.02
    17   1     0.16   0.08   0.01     0.17  -0.03  -0.02    -0.02   0.03   0.01
    18   1    -0.09   0.08   0.03     0.02  -0.06  -0.01    -0.10   0.05   0.02
    19   1    -0.13  -0.03   0.01     0.03  -0.04   0.00    -0.04  -0.01   0.02
                     37                     38                     39
                      A                      A                      A
 Frequencies --   1437.6535              1476.8733              1555.8539
 Red. masses --      2.6496                 2.1494                 2.9900
 Frc consts  --      3.2265                 2.7622                 4.2645
 IR Inten    --     30.0298               132.3661                 1.4532
  Atom  AN      X      Y      Z        X      Y      Z        X      Y      Z
     1   8     0.02   0.01  -0.03     0.03   0.03  -0.03     0.01   0.01   0.00
     2   6    -0.10  -0.07   0.08    -0.17  -0.13   0.05    -0.08  -0.01  -0.00
     3   7     0.02   0.02  -0.01     0.04   0.02  -0.01     0.01  -0.00   0.00
     4   6     0.01  -0.07  -0.02     0.03   0.08   0.02     0.19  -0.02  -0.01
     5   6     0.18  -0.01  -0.01    -0.06  -0.02  -0.00    -0.08   0.12   0.03
     6   6    -0.18   0.03   0.02     0.04  -0.03  -0.01    -0.13  -0.11  -0.02
     7   6    -0.02  -0.08  -0.02    -0.01   0.11   0.03     0.20  -0.01  -0.01
     8   6     0.00   0.02   0.00    -0.00  -0.02  -0.00    -0.00   0.00   0.00
     9   7     0.00  -0.00  -0.00     0.01   0.00   0.00    -0.04   0.00   0.00
    10   6     0.16  -0.01  -0.01    -0.07  -0.06  -0.01    -0.11   0.12   0.03
    11   6    -0.14   0.03   0.02     0.11   0.01  -0.00    -0.10  -0.10  -0.02
    12   1     0.08   0.14  -0.02     0.04   0.07  -0.02    -0.01  -0.03  -0.00
    13   1     0.30   0.40  -0.25     0.67   0.39  -0.16     0.04   0.03   0.01
    14   1     0.01  -0.04   0.13     0.02  -0.08   0.24     0.02   0.03   0.04
    15   1    -0.07  -0.01  -0.18    -0.06  -0.02  -0.21    -0.07   0.02  -0.06
    16   1    -0.20   0.26   0.06     0.07  -0.12  -0.03     0.38  -0.17  -0.05
    17   1     0.22   0.25   0.05    -0.12  -0.13  -0.02     0.44   0.16   0.01
    18   1    -0.29   0.30   0.08    -0.02  -0.11  -0.02     0.41  -0.20  -0.07
    19   1     0.15   0.20   0.03    -0.25  -0.17  -0.04     0.42   0.14   0.02
                     40                     41                     42
                      A                      A                      A
 Frequencies --   1600.9559              1656.4177              1703.1378
 Red. masses --      1.1140                 7.0846                 6.7086
 Frc consts  --      1.6823                11.4526                11.4652
 IR Inten    --     58.2518                 1.1303                19.1507
  Atom  AN      X      Y      Z        X      Y      Z        X      Y      Z
     1   8    -0.00  -0.01  -0.00    -0.00   0.01  -0.00    -0.00  -0.00  -0.00
     2   6     0.00   0.03   0.02    -0.03  -0.06  -0.00     0.06   0.00  -0.00
     3   7    -0.03   0.04  -0.06     0.01   0.00   0.00    -0.00  -0.00   0.00
     4   6     0.00   0.00  -0.00     0.02   0.40   0.09    -0.24   0.01   0.01
     5   6     0.00  -0.00   0.00     0.09  -0.23  -0.06     0.31  -0.10  -0.04
     6   6    -0.00   0.00   0.00     0.12   0.21   0.04    -0.31  -0.07  -0.00
     7   6     0.01  -0.01  -0.00    -0.02  -0.35  -0.08     0.20  -0.01  -0.01
     8   6     0.00   0.00   0.00     0.00   0.02   0.01    -0.00  -0.00  -0.00
     9   7    -0.00  -0.00   0.00    -0.00  -0.01  -0.00    -0.02   0.00   0.00
    10   6    -0.01   0.01   0.00    -0.10   0.22   0.06    -0.30   0.10   0.04
    11   6    -0.00  -0.01  -0.00    -0.11  -0.22  -0.05     0.33   0.08   0.00
    12   1     0.02   0.03   0.00     0.01   0.02  -0.00     0.01   0.01   0.00
    13   1     0.01   0.00   0.06     0.29   0.07  -0.02    -0.03  -0.02  -0.01
    14   1    -0.17  -0.48   0.46     0.02   0.04  -0.02    -0.00   0.02  -0.06
    15   1     0.61  -0.30   0.23    -0.06   0.03  -0.04    -0.01   0.01   0.02
    16   1     0.00   0.00  -0.00    -0.29  -0.02   0.01    -0.21   0.25   0.06
    17   1     0.01   0.01   0.00    -0.30   0.03   0.02     0.25   0.23   0.04
    18   1     0.02  -0.01  -0.00     0.30  -0.01  -0.02     0.22  -0.25  -0.07
    19   1     0.02   0.00  -0.00     0.28  -0.05  -0.03    -0.27  -0.23  -0.04
                     43                     44                     45
                      A                      A                      A
 Frequencies --   2353.2216              2996.2351              3211.3733
 Red. masses --     12.6715                 1.0853                 1.0921
 Frc consts  --     41.3431                 5.7406                 6.6359
 IR Inten    --    190.7164               123.8416                 3.4460
  Atom  AN      X      Y      Z        X      Y      Z        X      Y      Z
     1   8     0.00   0.00  -0.00    -0.00  -0.00   0.00    -0.00  -0.00   0.00
     2   6    -0.00  -0.00   0.00     0.02  -0.06  -0.06     0.00  -0.00  -0.00
     3   7     0.00   0.00  -0.00    -0.00   0.00  -0.00    -0.00  -0.00   0.00
     4   6    -0.00   0.00  -0.00    -0.00  -0.00  -0.00     0.00   0.00   0.00
     5   6     0.01  -0.00  -0.00    -0.00   0.00  -0.00     0.00   0.00   0.00
     6   6    -0.01  -0.00  -0.00    -0.00  -0.00  -0.00     0.00  -0.00  -0.00
     7   6    -0.13   0.01   0.01     0.00   0.00   0.00     0.00  -0.00  -0.00
     8   6     0.80  -0.04  -0.05    -0.00   0.00  -0.00    -0.00   0.00   0.00
     9   7    -0.58   0.03   0.03     0.00  -0.00  -0.00     0.00  -0.00  -0.00
    10   6    -0.01   0.00   0.00     0.00   0.00   0.00     0.01   0.02   0.00
    11   6     0.01   0.00  -0.00    -0.00   0.00   0.00     0.04  -0.07  -0.02
    12   1    -0.00  -0.00  -0.00    -0.01  -0.00   0.00     0.00  -0.00   0.00
    13   1     0.00   0.00   0.00    -0.25   0.70   0.67    -0.00   0.00   0.00
    14   1     0.00  -0.00   0.00     0.01   0.01  -0.00     0.00   0.00  -0.00
    15   1    -0.00  -0.00  -0.00    -0.01   0.00   0.00     0.00   0.00  -0.00
    16   1     0.00   0.00   0.00     0.00   0.00   0.00    -0.01  -0.02  -0.00
    17   1    -0.01   0.00   0.00     0.00   0.00   0.00    -0.01   0.03   0.01
    18   1    -0.01  -0.00  -0.00     0.00  -0.00  -0.00    -0.14  -0.21  -0.04
    19   1     0.00  -0.00  -0.00     0.00   0.00  -0.00    -0.43   0.84   0.22
                     46                     47                     48
                      A                      A                      A
 Frequencies --   3228.4898              3237.0316              3241.0179
 Red. masses --      1.0909                 1.0973                 1.0981
 Frc consts  --      6.6995                 6.7743                 6.7959
 IR Inten    --      0.0637                 1.0265                 0.7449
  Atom  AN      X      Y      Z        X      Y      Z        X      Y      Z
     1   8     0.00  -0.00  -0.00    -0.00   0.00   0.00    -0.00   0.00   0.00
     2   6     0.00   0.00  -0.00     0.00  -0.00  -0.00    -0.00  -0.00   0.00
     3   7    -0.00  -0.00  -0.00    -0.00  -0.00   0.00     0.00   0.00   0.00
     4   6     0.00  -0.00  -0.00     0.00   0.00   0.00    -0.00   0.00   0.00
     5   6     0.03   0.04   0.01    -0.01  -0.01  -0.00    -0.04  -0.06  -0.01
     6   6     0.03  -0.06  -0.02     0.00  -0.01  -0.00     0.03  -0.05  -0.01
     7   6     0.00   0.00   0.00    -0.00   0.00   0.00     0.00   0.00   0.00
     8   6    -0.00  -0.00  -0.00     0.00  -0.00  -0.00    -0.00  -0.00  -0.00
     9   7    -0.00   0.00   0.00     0.00   0.00   0.00    -0.00   0.00   0.00
    10   6     0.00   0.00   0.00    -0.05  -0.07  -0.01     0.01   0.01   0.00
    11   6    -0.00   0.00   0.00     0.01  -0.02  -0.01    -0.00   0.00   0.00
    12   1    -0.00   0.00   0.00     0.00  -0.00   0.00    -0.00  -0.00  -0.00
    13   1    -0.00   0.00   0.00    -0.00   0.00   0.00     0.00  -0.00  -0.00
    14   1     0.00   0.00  -0.00    -0.00  -0.00  -0.00    -0.00  -0.00   0.00
    15   1     0.00  -0.00   0.00     0.00   0.00  -0.00    -0.00  -0.00   0.00
    16   1    -0.33  -0.49  -0.09     0.06   0.08   0.02     0.44   0.65   0.12
    17   1    -0.36   0.69   0.18    -0.04   0.08   0.02    -0.26   0.51   0.13
    18   1    -0.00  -0.00  -0.00     0.53   0.78   0.16    -0.07  -0.11  -0.02
    19   1     0.02  -0.03  -0.01    -0.11   0.21   0.06     0.02  -0.03  -0.01
                     49                     50                     51
                      A                      A                      A
 Frequencies --   3536.9565              3621.1196              3868.4880
 Red. masses --      1.0539                 1.0914                 1.0666
 Frc consts  --      7.7678                 8.4316                 9.4044
 IR Inten    --     17.5195                21.3944               126.1559
  Atom  AN      X      Y      Z        X      Y      Z        X      Y      Z
     1   8    -0.00  -0.00  -0.00     0.00   0.00  -0.00    -0.01   0.01  -0.06
     2   6     0.00   0.00   0.00    -0.00  -0.00  -0.00    -0.00  -0.00  -0.00
     3   7    -0.03   0.05  -0.01    -0.07  -0.03   0.03     0.00   0.00   0.00
     4   6     0.00  -0.00   0.00     0.00   0.00   0.00    -0.00  -0.00   0.00
     5   6    -0.00   0.00  -0.00     0.00  -0.00  -0.00    -0.00  -0.00  -0.00
     6   6     0.00   0.00  -0.00    -0.00  -0.00   0.00     0.00   0.00  -0.00
     7   6     0.00  -0.00  -0.00    -0.00   0.00   0.00    -0.00  -0.00  -0.00
     8   6    -0.00  -0.00   0.00     0.00   0.00  -0.00     0.00  -0.00  -0.00
     9   7     0.00  -0.00  -0.00    -0.00   0.00  -0.00    -0.00   0.00  -0.00
    10   6    -0.00   0.00   0.00     0.00  -0.00  -0.00     0.00  -0.00  -0.00
    11   6     0.00   0.00   0.00    -0.00   0.00  -0.00    -0.00   0.00   0.00
    12   1    -0.00   0.00  -0.00     0.00  -0.00   0.00     0.19  -0.16   0.97
    13   1     0.00  -0.01  -0.00     0.00  -0.00  -0.00    -0.00  -0.00   0.00
    14   1     0.77  -0.26  -0.06     0.53  -0.21  -0.05    -0.00   0.00  -0.00
    15   1    -0.33  -0.41   0.23     0.45   0.60  -0.32    -0.00  -0.00   0.00
    16   1    -0.00  -0.00   0.00     0.00   0.00   0.00     0.00  -0.00  -0.00
    17   1     0.00  -0.00  -0.00    -0.00   0.00   0.00    -0.00   0.00   0.00
    18   1     0.00   0.00   0.00    -0.00  -0.00  -0.00    -0.00  -0.00  -0.00
    19   1    -0.00   0.00   0.00     0.00  -0.00  -0.00     0.00  -0.00   0.00

 -------------------
 - Thermochemistry -
 -------------------
 Temperature   298.150 Kelvin.  Pressure   1.00000 Atm.
 Atom     1 has atomic number  8 and mass  15.99491
 Atom     2 has atomic number  6 and mass  12.00000
 Atom     3 has atomic number  7 and mass  14.00307
 Atom     4 has atomic number  6 and mass  12.00000
 Atom     5 has atomic number  6 and mass  12.00000
 Atom     6 has atomic number  6 and mass  12.00000
 Atom     7 has atomic number  6 and mass  12.00000
 Atom     8 has atomic number  6 and mass  12.00000
 Atom     9 has atomic number  7 and mass  14.00307
 Atom    10 has atomic number  6 and mass  12.00000
 Atom    11 has atomic number  6 and mass  12.00000
 Atom    12 has atomic number  1 and mass   1.00783
 Atom    13 has atomic number  1 and mass   1.00783
 Atom    14 has atomic number  1 and mass   1.00783
 Atom    15 has atomic number  1 and mass   1.00783
 Atom    16 has atomic number  1 and mass   1.00783
 Atom    17 has atomic number  1 and mass   1.00783
 Atom    18 has atomic number  1 and mass   1.00783
 Atom    19 has atomic number  1 and mass   1.00783
 Molecular mass:   148.06366 amu.
 Principal axes and moments of inertia in atomic units:
                           1         2         3
     Eigenvalues --   521.738023254.702283521.84393
           X            0.99998  -0.00670   0.00078
           Y            0.00669   0.99996   0.00558
           Z           -0.00082  -0.00558   0.99998
 This molecule is an asymmetric top.
 Rotational symmetry number  1.
 Warning -- assumption of classical behavior for rotation
           may cause significant error
 Rotational temperatures (Kelvin)      0.16601     0.02661     0.02459
 Rotational constants (GHZ):           3.45909     0.55450     0.51244
 Zero-point vibrational energy     396777.6 (Joules/Mol)
                                   94.83211 (Kcal/Mol)
 Warning -- explicit consideration of  15 degrees of freedom as
           vibrations may cause significant error
 Vibrational temperatures:     38.69   110.54   195.26   263.57   307.20
          (Kelvin)            342.69   460.23   478.27   538.14   601.03
                              716.04   759.63   827.72   865.08   886.99
                              947.94  1057.48  1116.65  1209.16  1255.65
                             1259.27  1323.50  1458.02  1477.47  1488.10
                             1537.79  1620.54  1684.80  1705.24  1764.30
                             1784.66  1824.65  1888.02  1917.93  1959.86
                             2054.28  2068.46  2124.89  2238.53  2303.42
                             2383.22  2450.44  3385.76  4310.91  4620.45
                             4645.08  4657.37  4663.10  5088.89  5209.98
                             5565.89
 
 Zero-point correction=                           0.151125 (Hartree/Particle)
 Thermal correction to Energy=                    0.161081
 Thermal correction to Enthalpy=                  0.162025
 Thermal correction to Gibbs Free Energy=         0.114801
 Sum of electronic and zero-point Energies=           -493.712997
 Sum of electronic and thermal Energies=              -493.703041
 Sum of electronic and thermal Enthalpies=            -493.702097
 Sum of electronic and thermal Free Energies=         -493.749321
 
                     E (Thermal)             CV                S
                      KCal/Mol        Cal/Mol-Kelvin    Cal/Mol-Kelvin
 Total                  101.080             37.001             99.393
 Electronic               0.000              0.000              0.000
 Translational            0.889              2.981             40.888
 Rotational               0.889              2.981             30.171
 Vibrational             99.303             31.040             28.334
 Vibration     1          0.593              1.984              6.046
 Vibration     2          0.599              1.965              3.970
 Vibration     3          0.614              1.918              2.863
 Vibration     4          0.631              1.863              2.296
 Vibration     5          0.644              1.820              2.013
 Vibration     6          0.656              1.782              1.816
 Vibration     7          0.706              1.636              1.311
 Vibration     8          0.714              1.611              1.248
 Vibration     9          0.745              1.525              1.063
 Vibration    10          0.781              1.432              0.900
 Vibration    11          0.853              1.255              0.664
 Vibration    12          0.883              1.188              0.592
 Vibration    13          0.932              1.085              0.494
 Vibration    14          0.959              1.029              0.447
 Vibration    15          0.976              0.997              0.422
                       Q            Log10(Q)             Ln(Q)
 Total Bot       0.156802D-52        -52.804649       -121.587197
 Total V=0       0.510240D+17         16.707775         38.471073
 Vib (Bot)       0.252937D-66        -66.596988       -153.345232
 Vib (Bot)    1  0.769976D+01          0.886477          2.041189
 Vib (Bot)    2  0.268191D+01          0.428444          0.986528
 Vib (Bot)    3  0.149998D+01          0.176085          0.405450
 Vib (Bot)    4  0.109521D+01          0.039496          0.090943
 Vib (Bot)    5  0.928911D+00         -0.032026         -0.073742
 Vib (Bot)    6  0.823929D+00         -0.084110         -0.193671
 Vib (Bot)    7  0.587724D+00         -0.230827         -0.531499
 Vib (Bot)    8  0.561247D+00         -0.250846         -0.577594
 Vib (Bot)    9  0.485417D+00         -0.313885         -0.722747
 Vib (Bot)   10  0.421062D+00         -0.375654         -0.864976
 Vib (Bot)   11  0.330923D+00         -0.480273         -1.105869
 Vib (Bot)   12  0.303487D+00         -0.517860         -1.192417
 Vib (Bot)   13  0.266126D+00         -0.574913         -1.323786
 Vib (Bot)   14  0.248021D+00         -0.605512         -1.394243
 Vib (Bot)   15  0.238094D+00         -0.623252         -1.435090
 Vib (V=0)       0.823068D+03          2.915436          6.713038
 Vib (V=0)    1  0.821598D+01          0.914659          2.106081
 Vib (V=0)    2  0.322812D+01          0.508949          1.171899
 Vib (V=0)    3  0.208112D+01          0.318297          0.732905
 Vib (V=0)    4  0.170394D+01          0.231455          0.532945
 Vib (V=0)    5  0.155493D+01          0.191711          0.441430
 Vib (V=0)    6  0.146377D+01          0.165474          0.381017
 Vib (V=0)    7  0.127163D+01          0.104362          0.240303
 Vib (V=0)    8  0.125166D+01          0.097488          0.224474
 Vib (V=0)    9  0.119687D+01          0.078047          0.179711
 Vib (V=0)   10  0.115368D+01          0.062084          0.142954
 Vib (V=0)   11  0.109959D+01          0.041231          0.094939
 Vib (V=0)   12  0.108490D+01          0.035388          0.081485
 Vib (V=0)   13  0.106641D+01          0.027925          0.064300
 Vib (V=0)   14  0.105813D+01          0.024541          0.056508
 Vib (V=0)   15  0.105379D+01          0.022756          0.052398
 Electronic      0.100000D+01          0.000000          0.000000
 Translational   0.708152D+08          7.850127         18.075585
 Rotational      0.875412D+06          5.942213         13.682450
 
                                                             g16_C12-a_10
                                                             IR Spectrum
 
     3        3 3       3333      2                    2                     11 11  1111111111111111                                 
     8        6 5       2222      9                    3                     76 65  4443332221110000  9888 77  666554  4333 221 1    
     6        2 3       4321      9                    5                     05 05  7326316428726321  2774 73  510729  1732 318 3 7 2
     8        1 7       1781      6                    3                     36 16  7882328065169473  0530 65  961588  8420 843 6 7 7
 
     X        X X       XXXX      X                    X                     XX XX  XXXXXXXXXXXXXXXX  XXXX XX  XXXXXX  XXXX XXX X X X
     X        X X                 X                    X                     X  X   XXXXXXXXX XXX     XXXX      XX  X   XX   X       
     X                            X                    X                        X   XXXXX X X   X     XXXX       X      XX   X       
     X                            X                    X                        X   X XXX X X   X     X X        X      XX   X       
     X                            X                    X                        X   X XXX X X   X     X X        X      XX   X       
     X                            X                    X                        X   X XXX             X X               XX   X       
     X                            X                    X                            X XXX             X X               XX   X       
     X                            X                    X                            X X X             X X                X   X       
     X                            X                    X                            X X X             X X                X           
     X                            X                    X                            X X X             X X                X           
     X                            X                    X                            X   X             X X                X           
     X                            X                    X                            X   X               X                X           
     X                            X                    X                            X                   X                X           
                                                       X                            X                   X                X           
                                                       X                                                X                X           
                                                       X                                                X                X           
                                                       X                                                X                X           
                                                       X                                                                             
                                                       X                                                                             
                                                       X                                                                             
 
 ***** Axes restored to original set *****
 -------------------------------------------------------------------
 Center     Atomic                   Forces (Hartrees/Bohr)
 Number     Number              X              Y              Z
 -------------------------------------------------------------------
      1        8           0.000003759   -0.000008084    0.000023741
      2        6          -0.000010702   -0.000013607    0.000022902
      3        7          -0.000001650    0.000011534   -0.000003702
      4        6          -0.000001651    0.000005268   -0.000005918
      5        6           0.000006178   -0.000000967    0.000003053
      6        6           0.000002098   -0.000008137    0.000002490
      7        6          -0.000005078    0.000013961    0.000003673
      8        6          -0.000005433   -0.000021851   -0.000026519
      9        7           0.000011674    0.000010654    0.000001097
     10        6          -0.000000215    0.000000659   -0.000007234
     11        6          -0.000006727    0.000001822   -0.000010450
     12        1          -0.000001494   -0.000006541   -0.000000975
     13        1           0.000001704    0.000002812   -0.000010505
     14        1           0.000003396    0.000005360    0.000008281
     15        1           0.000004793    0.000010936    0.000002425
     16        1          -0.000002624   -0.000011797    0.000010047
     17        1          -0.000001590   -0.000011074    0.000005053
     18        1           0.000002571    0.000010163   -0.000011694
     19        1           0.000000992    0.000008891   -0.000005765
 -------------------------------------------------------------------
 Cartesian Forces:  Max     0.000026519 RMS     0.000009267
 FormGI is forming the generalized inverse of G from B-inverse, IUseBI=4.
 Leave Link  716 at Tue Oct 21 15:19:17 2025, MaxMem=  4294967296 cpu:               0.3 elap:               0.1
 (Enter /lrz/sys/applications/gaussian/g16.C.01/x86_64_legacy/exe/l103.exe)

 GradGradGradGradGradGradGradGradGradGradGradGradGradGradGradGradGradGrad
 Berny optimization.
 Red2BG is reusing G-inverse.
 Internal  Forces:  Max     0.000030359 RMS     0.000005211
 Search for a local minimum.
 Step number   1 out of a maximum of    2
 All quantities printed in internal units (Hartrees-Bohrs-Radians)
 Second derivative matrix not updated -- analytic derivatives used.
 ITU=  0
     Eigenvalues ---    0.00050   0.00201   0.00405   0.01685   0.01821
     Eigenvalues ---    0.01838   0.02141   0.02458   0.02619   0.02752
     Eigenvalues ---    0.02994   0.03055   0.03108   0.06705   0.06851
     Eigenvalues ---    0.07928   0.08335   0.09073   0.10966   0.11270
     Eigenvalues ---    0.11670   0.12407   0.14884   0.15937   0.16411
     Eigenvalues ---    0.16914   0.18574   0.19121   0.19452   0.19893
     Eigenvalues ---    0.20328   0.23211   0.29629   0.31488   0.31669
     Eigenvalues ---    0.36360   0.36671   0.36776   0.37096   0.37454
     Eigenvalues ---    0.38440   0.43625   0.44069   0.45409   0.46200
     Eigenvalues ---    0.48718   0.49103   0.51147   0.53018   0.53883
     Eigenvalues ---    1.24335
 Angle between quadratic step and forces=  65.07 degrees.
 Linear search not attempted -- first point.
 Iteration  1 RMS(Cart)=  0.00015776 RMS(Int)=  0.00000002
 Iteration  2 RMS(Cart)=  0.00000002 RMS(Int)=  0.00000000
 ITry= 1 IFail=0 DXMaxC= 6.69D-04 DCOld= 1.00D+10 DXMaxT= 3.00D-01 DXLimC= 3.00D+00 Rises=F
 Variable       Old X    -DE/DX   Delta X   Delta X   Delta X     New X
                                 (Linear)    (Quad)   (Total)
    R1        2.66339   0.00002   0.00000   0.00002   0.00002   2.66340
    R2        1.82432  -0.00001   0.00000  -0.00001  -0.00001   1.82431
    R3        2.73068   0.00002   0.00000   0.00006   0.00006   2.73074
    R4        2.87214  -0.00000   0.00000  -0.00002  -0.00002   2.87212
    R5        2.09475  -0.00000   0.00000  -0.00001  -0.00001   2.09474
    R6        1.92772   0.00000   0.00000   0.00001   0.00001   1.92773
    R7        1.92527   0.00000   0.00000   0.00001   0.00001   1.92528
    R8        2.64111  -0.00001   0.00000  -0.00001  -0.00001   2.64110
    R9        2.64222   0.00000   0.00000   0.00001   0.00001   2.64222
   R10        2.62663  -0.00000   0.00000  -0.00000  -0.00000   2.62663
   R11        2.06173  -0.00000   0.00000  -0.00001  -0.00001   2.06173
   R12        2.65033   0.00000   0.00000  -0.00000  -0.00000   2.65033
   R13        2.06237  -0.00000   0.00000  -0.00001  -0.00001   2.06236
   R14        2.71320  -0.00001   0.00000  -0.00002  -0.00002   2.71318
   R15        2.65011  -0.00000   0.00000  -0.00001  -0.00001   2.65010
   R16        2.19218  -0.00001   0.00000  -0.00001  -0.00001   2.19217
   R17        2.62655  -0.00000   0.00000  -0.00001  -0.00001   2.62654
   R18        2.06205  -0.00000   0.00000  -0.00001  -0.00001   2.06205
   R19        2.06543  -0.00000   0.00000  -0.00001  -0.00001   2.06542
    A1        1.88117   0.00000   0.00000   0.00001   0.00001   1.88118
    A2        1.86099   0.00000   0.00000  -0.00000  -0.00000   1.86099
    A3        1.96004   0.00000   0.00000   0.00004   0.00004   1.96008
    A4        1.89638   0.00000   0.00000   0.00004   0.00004   1.89642
    A5        1.90667  -0.00001   0.00000  -0.00006  -0.00006   1.90660
    A6        1.96641  -0.00000   0.00000  -0.00006  -0.00006   1.96635
    A7        1.87489   0.00000   0.00000   0.00005   0.00005   1.87494
    A8        1.89766  -0.00000   0.00000  -0.00003  -0.00003   1.89763
    A9        1.90418   0.00001   0.00000   0.00000   0.00000   1.90418
   A10        1.85020  -0.00000   0.00000  -0.00003  -0.00003   1.85017
   A11        2.10376  -0.00001   0.00000  -0.00004  -0.00004   2.10372
   A12        2.09226   0.00001   0.00000   0.00003   0.00003   2.09229
   A13        2.08642   0.00000   0.00000   0.00001   0.00001   2.08643
   A14        2.10380  -0.00000   0.00000  -0.00001  -0.00001   2.10379
   A15        2.08485   0.00000   0.00000   0.00000   0.00000   2.08485
   A16        2.09450   0.00000   0.00000   0.00001   0.00001   2.09451
   A17        2.08540   0.00000   0.00000   0.00001   0.00001   2.08541
   A18        2.10474  -0.00000   0.00000   0.00000   0.00000   2.10474
   A19        2.09305  -0.00000   0.00000  -0.00001  -0.00001   2.09303
   A20        2.09075   0.00001   0.00000   0.00001   0.00001   2.09076
   A21        2.10168   0.00000   0.00000   0.00000   0.00000   2.10168
   A22        2.09075  -0.00001   0.00000  -0.00001  -0.00001   2.09074
   A23        2.08277  -0.00000   0.00000  -0.00000  -0.00000   2.08277
   A24        2.09493  -0.00000   0.00000  -0.00001  -0.00001   2.09492
   A25        2.10548   0.00000   0.00000   0.00001   0.00001   2.10549
   A26        2.10629   0.00000   0.00000  -0.00000  -0.00000   2.10629
   A27        2.08870  -0.00000   0.00000  -0.00001  -0.00001   2.08868
   A28        2.08819   0.00000   0.00000   0.00001   0.00001   2.08820
   A29        3.14114   0.00003   0.00000   0.00033   0.00033   3.14147
   A30        3.14197  -0.00000   0.00000   0.00000   0.00000   3.14197
    D1       -2.97053  -0.00000   0.00000  -0.00004  -0.00004  -2.97057
    D2        1.22486   0.00000   0.00000   0.00002   0.00002   1.22488
    D3       -0.84666  -0.00000   0.00000  -0.00009  -0.00009  -0.84674
    D4        1.33872  -0.00000   0.00000  -0.00014  -0.00014   1.33857
    D5       -2.93407  -0.00000   0.00000  -0.00019  -0.00019  -2.93426
    D6       -2.82244   0.00000   0.00000  -0.00014  -0.00014  -2.82257
    D7       -0.81204   0.00000   0.00000  -0.00019  -0.00019  -0.81223
    D8       -0.74013  -0.00000   0.00000  -0.00016  -0.00016  -0.74029
    D9        1.27027  -0.00000   0.00000  -0.00021  -0.00021   1.27006
   D10        0.52844  -0.00000   0.00000   0.00017   0.00017   0.52861
   D11       -2.65478  -0.00000   0.00000   0.00017   0.00017  -2.65461
   D12       -1.53252  -0.00000   0.00000   0.00019   0.00019  -1.53233
   D13        1.56745  -0.00000   0.00000   0.00019   0.00019   1.56764
   D14        2.61255   0.00000   0.00000   0.00028   0.00028   2.61283
   D15       -0.57067   0.00000   0.00000   0.00028   0.00028  -0.57039
   D16        3.09983   0.00000   0.00000  -0.00003  -0.00003   3.09979
   D17       -0.05057  -0.00000   0.00000  -0.00009  -0.00009  -0.05065
   D18       -0.00027  -0.00000   0.00000  -0.00004  -0.00004  -0.00031
   D19        3.13252  -0.00000   0.00000  -0.00009  -0.00009   3.13243
   D20       -3.09932   0.00000   0.00000   0.00005   0.00005  -3.09927
   D21        0.04654   0.00000   0.00000   0.00008   0.00008   0.04662
   D22        0.00106   0.00000   0.00000   0.00005   0.00005   0.00111
   D23       -3.13627   0.00000   0.00000   0.00008   0.00008  -3.13619
   D24       -0.00117  -0.00000   0.00000  -0.00003  -0.00003  -0.00120
   D25        3.14059  -0.00000   0.00000  -0.00003  -0.00003   3.14056
   D26       -3.13392   0.00000   0.00000   0.00003   0.00003  -3.13389
   D27        0.00785   0.00000   0.00000   0.00003   0.00003   0.00787
   D28        3.13929   0.00000   0.00000   0.00005   0.00005   3.13934
   D29        0.00187   0.00000   0.00000   0.00007   0.00007   0.00194
   D30       -0.00247   0.00000   0.00000   0.00006   0.00006  -0.00242
   D31       -3.13990   0.00000   0.00000   0.00008   0.00008  -3.13982
   D32       -0.00110  -0.00000   0.00000  -0.00006  -0.00006  -0.00116
   D33        3.13599  -0.00000   0.00000  -0.00004  -0.00004   3.13594
   D34       -3.13852  -0.00000   0.00000  -0.00004  -0.00004  -3.13856
   D35       -0.00144  -0.00000   0.00000  -0.00002  -0.00002  -0.00146
   D36       -0.00037   0.00000   0.00000   0.00000   0.00000  -0.00037
   D37        3.13695  -0.00000   0.00000  -0.00003  -0.00003   3.13692
   D38       -3.13743  -0.00000   0.00000  -0.00002  -0.00002  -3.13745
   D39       -0.00010  -0.00000   0.00000  -0.00005  -0.00005  -0.00015
         Item               Value     Threshold  Converged?
 Maximum Force            0.000030     0.000450     YES
 RMS     Force            0.000005     0.000300     YES
 Maximum Displacement     0.000669     0.001800     YES
 RMS     Displacement     0.000158     0.001200     YES
 Predicted change in Energy=-8.462427D-09
 Optimization completed.
    -- Stationary point found.
                           ----------------------------
                           !   Optimized Parameters   !
                           ! (Angstroms and Degrees)  !
 --------------------------                            --------------------------
 ! Name  Definition              Value          Derivative Info.                !
 --------------------------------------------------------------------------------
 ! R1    R(1,2)                  1.4094         -DE/DX =    0.0                 !
 ! R2    R(1,12)                 0.9654         -DE/DX =    0.0                 !
 ! R3    R(2,3)                  1.445          -DE/DX =    0.0                 !
 ! R4    R(2,4)                  1.5199         -DE/DX =    0.0                 !
 ! R5    R(2,13)                 1.1085         -DE/DX =    0.0                 !
 ! R6    R(3,14)                 1.0201         -DE/DX =    0.0                 !
 ! R7    R(3,15)                 1.0188         -DE/DX =    0.0                 !
 ! R8    R(4,5)                  1.3976         -DE/DX =    0.0                 !
 ! R9    R(4,11)                 1.3982         -DE/DX =    0.0                 !
 ! R10   R(5,6)                  1.39           -DE/DX =    0.0                 !
 ! R11   R(5,16)                 1.091          -DE/DX =    0.0                 !
 ! R12   R(6,7)                  1.4025         -DE/DX =    0.0                 !
 ! R13   R(6,17)                 1.0914         -DE/DX =    0.0                 !
 ! R14   R(7,8)                  1.4358         -DE/DX =    0.0                 !
 ! R15   R(7,10)                 1.4024         -DE/DX =    0.0                 !
 ! R16   R(8,9)                  1.16           -DE/DX =    0.0                 !
 ! R17   R(10,11)                1.3899         -DE/DX =    0.0                 !
 ! R18   R(10,18)                1.0912         -DE/DX =    0.0                 !
 ! R19   R(11,19)                1.093          -DE/DX =    0.0                 !
 ! A1    A(2,1,12)             107.7831         -DE/DX =    0.0                 !
 ! A2    A(1,2,3)              106.6269         -DE/DX =    0.0                 !
 ! A3    A(1,2,4)              112.3022         -DE/DX =    0.0                 !
 ! A4    A(1,2,13)             108.6544         -DE/DX =    0.0                 !
 ! A5    A(3,2,4)              109.244          -DE/DX =    0.0                 !
 ! A6    A(3,2,13)             112.6672         -DE/DX =    0.0                 !
 ! A7    A(4,2,13)             107.4234         -DE/DX =    0.0                 !
 ! A8    A(2,3,14)             108.7281         -DE/DX =    0.0                 !
 ! A9    A(2,3,15)             109.1017         -DE/DX =    0.0                 !
 ! A10   A(14,3,15)            106.0087         -DE/DX =    0.0                 !
 ! A11   A(2,4,5)              120.5365         -DE/DX =    0.0                 !
 ! A12   A(2,4,11)             119.8779         -DE/DX =    0.0                 !
 ! A13   A(5,4,11)             119.543          -DE/DX =    0.0                 !
 ! A14   A(4,5,6)              120.539          -DE/DX =    0.0                 !
 ! A15   A(4,5,16)             119.453          -DE/DX =    0.0                 !
 ! A16   A(6,5,16)             120.0061         -DE/DX =    0.0                 !
 ! A17   A(5,6,7)              119.4848         -DE/DX =    0.0                 !
 ! A18   A(5,6,17)             120.5924         -DE/DX =    0.0                 !
 ! A19   A(7,6,17)             119.9228         -DE/DX =    0.0                 !
 ! A20   A(6,7,8)              119.7914         -DE/DX =    0.0                 !
 ! A21   A(6,7,10)             120.4173         -DE/DX =    0.0                 !
 ! A22   A(8,7,10)             119.7909         -DE/DX =    0.0                 !
 ! A23   A(7,10,11)            119.334          -DE/DX =    0.0                 !
 ! A24   A(7,10,18)            120.0304         -DE/DX =    0.0                 !
 ! A25   A(11,10,18)           120.6351         -DE/DX =    0.0                 !
 ! A26   A(4,11,10)            120.6818         -DE/DX =    0.0                 !
 ! A27   A(4,11,19)            119.6735         -DE/DX =    0.0                 !
 ! A28   A(10,11,19)           119.6442         -DE/DX =    0.0                 !
 ! A29   L(7,8,9,18,-1)        179.9741         -DE/DX =    0.0                 !
 ! A30   L(7,8,9,18,-2)        180.0217         -DE/DX =    0.0                 !
 ! D1    D(12,1,2,3)          -170.1989         -DE/DX =    0.0                 !
 ! D2    D(12,1,2,4)            70.1793         -DE/DX =    0.0                 !
 ! D3    D(12,1,2,13)          -48.5098         -DE/DX =    0.0                 !
 ! D4    D(1,2,3,14)            76.7028         -DE/DX =    0.0                 !
 ! D5    D(1,2,3,15)          -168.1098         -DE/DX =    0.0                 !
 ! D6    D(4,2,3,14)          -161.7138         -DE/DX =    0.0                 !
 ! D7    D(4,2,3,15)           -46.5264         -DE/DX =    0.0                 !
 ! D8    D(13,2,3,14)          -42.4064         -DE/DX =    0.0                 !
 ! D9    D(13,2,3,15)           72.781          -DE/DX =    0.0                 !
 ! D10   D(1,2,4,5)             30.2775         -DE/DX =    0.0                 !
 ! D11   D(1,2,4,11)          -152.1078         -DE/DX =    0.0                 !
 ! D12   D(3,2,4,5)            -87.8067         -DE/DX =    0.0                 !
 ! D13   D(3,2,4,11)            89.8081         -DE/DX =    0.0                 !
 ! D14   D(13,2,4,5)           149.6884         -DE/DX =    0.0                 !
 ! D15   D(13,2,4,11)          -32.6969         -DE/DX =    0.0                 !
 ! D16   D(2,4,5,6)            177.6071         -DE/DX =    0.0                 !
 ! D17   D(2,4,5,16)            -2.8973         -DE/DX =    0.0                 !
 ! D18   D(11,4,5,6)            -0.0157         -DE/DX =    0.0                 !
 ! D19   D(11,4,5,16)          179.48           -DE/DX =    0.0                 !
 ! D20   D(2,4,11,10)         -177.578          -DE/DX =    0.0                 !
 ! D21   D(2,4,11,19)            2.6666         -DE/DX =    0.0                 !
 ! D22   D(5,4,11,10)            0.0606         -DE/DX =    0.0                 !
 ! D23   D(5,4,11,19)         -179.6948         -DE/DX =    0.0                 !
 ! D24   D(4,5,6,7)             -0.0673         -DE/DX =    0.0                 !
 ! D25   D(4,5,6,17)           179.9425         -DE/DX =    0.0                 !
 ! D26   D(16,5,6,7)          -179.5602         -DE/DX =    0.0                 !
 ! D27   D(16,5,6,17)            0.4496         -DE/DX =    0.0                 !
 ! D28   D(5,6,7,8)            179.8681         -DE/DX =    0.0                 !
 ! D29   D(5,6,7,10)             0.107          -DE/DX =    0.0                 !
 ! D30   D(17,6,7,8)            -0.1416         -DE/DX =    0.0                 !
 ! D31   D(17,6,7,10)         -179.9027         -DE/DX =    0.0                 !
 ! D32   D(6,7,10,11)           -0.0628         -DE/DX =    0.0                 !
 ! D33   D(6,7,10,18)          179.6788         -DE/DX =    0.0                 !
 ! D34   D(8,7,10,11)         -179.824          -DE/DX =    0.0                 !
 ! D35   D(8,7,10,18)           -0.0823         -DE/DX =    0.0                 !
 ! D36   D(7,10,11,4)           -0.0214         -DE/DX =    0.0                 !
 ! D37   D(7,10,11,19)         179.7341         -DE/DX =    0.0                 !
 ! D38   D(18,10,11,4)        -179.7614         -DE/DX =    0.0                 !
 ! D39   D(18,10,11,19)         -0.0059         -DE/DX =    0.0                 !
 --------------------------------------------------------------------------------
 GradGradGradGradGradGradGradGradGradGradGradGradGradGradGradGradGradGrad

 Leave Link  103 at Tue Oct 21 15:19:17 2025, MaxMem=  4294967296 cpu:               0.5 elap:               0.1
 (Enter /lrz/sys/applications/gaussian/g16.C.01/x86_64_legacy/exe/l9999.exe)

 ----------------------------------------------------------------------

 Electric dipole moment (input orientation):
 (Debye = 10**-18 statcoulomb cm , SI units = C m)
                  (au)            (Debye)         (10**-30 SI)
   Tot        0.258559D+01      0.657192D+01      0.219216D+02
   x          0.213229D+01      0.541974D+01      0.180783D+02
   y         -0.141882D+01     -0.360628D+01     -0.120293D+02
   z         -0.354371D+00     -0.900722D+00     -0.300448D+01

 Dipole polarizability, Alpha (input orientation).
 (esu units = cm**3 , SI units = C**2 m**2 J**-1)
 Alpha(0;0):
               (au)            (10**-24 esu)      (10**-40 SI)
   iso        0.134068D+03      0.198668D+02      0.221047D+02
   aniso      0.994585D+02      0.147382D+02      0.163985D+02
   xx         0.191144D+03      0.283247D+02      0.315154D+02
   yx        -0.415061D+01     -0.615057D+00     -0.684343D+00
   yy         0.108441D+03      0.160694D+02      0.178796D+02
   zx         0.141981D+01      0.210395D+00      0.234095D+00
   zy         0.287453D+02      0.425962D+01      0.473946D+01
   zz         0.102617D+03      0.152063D+02      0.169192D+02

 ----------------------------------------------------------------------

 Dipole orientation:
     8          4.36313652         -1.48035704          4.18656500
     6          1.70780348         -1.66191212          4.08719322
     7          1.10133738         -4.32155848          4.21000497
     6          0.62954471         -0.55593932          1.66575427
     6          2.02922914         -0.60878952         -0.57334154
     6          1.00705988          0.31780913         -2.80846562
     6         -1.45083337          1.30928539         -2.80635907
     6         -2.51696368          2.27466591         -5.10697615
     7         -3.37944474          3.05428546         -6.96545768
     6         -2.87026799          1.37233843         -0.56932644
     6         -1.81799140          0.43935297          1.64900755
     1          4.79359493          0.27919886          4.40294126
     1          0.90160965         -0.57540223          5.68642032
     1          1.29985975         -4.91815738          6.03230032
     1         -0.75740191         -4.56484771          3.77117159
     1          3.94470142         -1.37123314         -0.55375186
     1          2.09921559          0.27896758         -4.55747826
     1         -4.77779969          2.15546686         -0.57922818
     1         -2.91266743          0.49133792          3.39971405

 Electric dipole moment (dipole orientation):
 (Debye = 10**-18 statcoulomb cm , SI units = C m)
                  (au)            (Debye)         (10**-30 SI)
   Tot        0.258559D+01      0.657192D+01      0.219216D+02
   x          0.000000D+00      0.000000D+00      0.000000D+00
   y          0.000000D+00      0.000000D+00      0.000000D+00
   z          0.258559D+01      0.657192D+01      0.219216D+02

 Dipole polarizability, Alpha (dipole orientation).
 (esu units = cm**3 , SI units = C**2 m**2 J**-1)
 Alpha(0;0):
               (au)            (10**-24 esu)      (10**-40 SI)
   iso        0.134068D+03      0.198668D+02      0.221047D+02
   aniso      0.994585D+02      0.147382D+02      0.163985D+02
   xx         0.136320D+03      0.202005D+02      0.224761D+02
   yx        -0.252829D+02     -0.374653D+01     -0.416858D+01
   yy         0.935453D+02      0.138620D+02      0.154235D+02
   zx         0.139319D+02      0.206450D+01      0.229706D+01
   zy        -0.301355D+02     -0.446563D+01     -0.496868D+01
   zz         0.172338D+03      0.255378D+02      0.284146D+02

 ----------------------------------------------------------------------
 Unable to Open any file for archive entry.
 1\1\GINC-CM4R13C06S02\Freq\RwB97XD\def2SVP\C8H8N2O1\GO29TIZ2\21-Oct-20
 25\0\\#P Geom=AllCheck Guess=TCheck SCRF=Check GenChk RwB97XD/def2SVP 
 Freq\\g16_C12-a_10\\0,1\O,3.066684646,0.279124239,1.1705761565\C,2.496
 8602716,-0.180619701,-0.0337305158\N,2.9816220012,0.6906999437,-1.0796
 127051\C,0.9779056185,-0.1348350546,-0.007511704\C,0.3095527453,0.8307
 008843,0.7503619399\C,-1.0783879575,0.9039796625,0.735458587\C,-1.8089
 871525,-0.0000052019,-0.0494183447\C,-3.2430258429,0.0679453358,-0.067
 4948633\N,-4.4016840105,0.1226662877,-0.0827066432\C,-1.1478836092,-0.
 9730708626,-0.8127986697\C,0.2404777276,-1.0326485782,-0.7853932793\H,
 2.8820801458,-0.3775868593,1.853678389\H,2.7944913279,-1.2374909947,-0
 .1860402115\H,3.9447425571,0.435450131,-1.2983837988\H,2.446064639,0.5
 213145985,-1.9295903254\H,0.8860306609,1.5250451185,1.3634583366\H,-1.
 6012181438,1.656986938,1.3276495894\H,-1.722801368,-1.6766031648,-1.41
 71259303\H,0.7607430437,-1.7917918217,-1.3749904074\\Version=EM64L-G16
 RevC.01\State=1-A\HF=-493.864122\RMSD=2.828e-09\RMSF=9.267e-06\ZeroPoi
 nt=0.1511246\Thermal=0.1610813\ETot=-493.7030407\HTot=-493.7020965\GTo
 t=-493.7493212\Dipole=2.1322893,-1.4188216,-0.3543712\DipoleDeriv=-1.0
 528826,0.0431549,-0.2753999,-0.0115609,-0.5596285,-0.2041456,-0.364127
 8,-0.1564022,-1.2140687,1.2040183,0.0920152,0.135219,0.0402747,0.90746
 65,-0.004648,0.2343832,-0.077644,1.4233669,-0.7257719,-0.1098783,0.146
 7348,-0.0850657,-0.8464078,0.2680145,0.0895368,0.1473844,-0.730509,0.0
 76092,-0.0002848,-0.0625989,0.1059235,0.0254832,0.1321103,-0.0770836,0
 .099747,-0.0733031,-0.2711936,0.2037902,0.1520259,0.1442233,-0.1284909
 ,0.021425,0.1271988,0.043392,-0.102459,0.1658604,-0.1366257,-0.0825272
 ,0.1080045,-0.0456615,0.0477,0.1072364,0.0349864,-0.0489049,-0.4239383
 ,0.0254489,0.0029296,0.024923,0.0876546,0.0759834,0.0008253,0.0886304,
 0.0456905,1.1757694,-0.0491618,0.0034866,-0.049827,0.1669477,-0.065593
 9,0.0138994,-0.0659096,0.1876024,-1.0109284,0.0288497,-0.0039909,0.028
 483,-0.4221099,0.0139037,-0.0081303,0.014041,-0.4256501,0.1662233,0.11
 01724,0.083543,-0.136774,-0.0479187,0.0328669,-0.0820311,0.0365511,-0.
 0601261,-0.2959148,-0.1757855,-0.1331285,-0.1527789,-0.0669869,0.06241
 09,-0.1306705,0.0627906,-0.1118808,0.4374339,-0.0809323,0.0340393,-0.1
 000644,0.3086395,0.0190799,0.0516991,0.0088323,0.3984668,-0.1116148,0.
 0565782,-0.0162413,0.0436216,-0.2897769,-0.0128946,0.0395466,0.0011411
 ,-0.0659653,0.1246514,0.0415528,0.0301557,0.0780029,0.2927387,0.016411
 8,0.0905189,0.0527928,0.1912701,0.1994113,-0.056142,-0.0066521,-0.0568
 25,0.3095958,-0.1236249,-0.0793228,-0.0071635,0.1693061,0.1168042,-0.0
 621523,-0.0480443,-0.0575195,0.0877622,-0.0625684,-0.0368687,-0.067332
 3,0.0993712,0.0809561,0.0560465,0.0412642,0.05691,0.0785481,-0.0674736
 ,0.032056,-0.0720173,0.107062,0.0750744,-0.053784,-0.0490689,-0.046266
 9,0.0874949,-0.0673697,-0.0486207,-0.0655113,0.1103244,0.0699496,0.067
 1378,0.048254,0.0663157,0.0546498,-0.0815878,0.0399551,-0.0783089,0.10
 04066\Polar=191.1442166,-4.1506078,108.4414532,1.4198127,28.7453242,10
 2.6168876\Quadrupole=-16.2512783,5.888733,10.3625453,-6.5991095,-2.917
 898,2.402314\PG=C01 [X(C8H8N2O1)]\NImag=0\\0.16772036,0.14789322,0.399
 42098,0.07163673,-0.14199297,0.63211954,-0.11786904,-0.04769679,-0.101
 85550,0.55374042,-0.05479453,-0.13644712,-0.10050713,-0.00337516,0.628
 76056,-0.08276620,-0.06614654,-0.26663966,0.03214396,0.04342841,0.5948
 7967,0.00979366,0.01310060,-0.01945849,-0.12211714,-0.05153486,0.03583
 121,0.67855490,0.00478007,0.01273255,0.00406711,-0.02439686,-0.1444233
 6,0.05189809,-0.00835800,0.22994322,0.00686353,0.02951113,-0.05618600,
 0.02960756,0.09756778,-0.15139723,0.04820623,-0.04500618,0.61689523,-0
 .01972106,-0.00391129,-0.01524430,-0.20538692,0.01306914,0.00893345,-0
 .02001251,-0.00598833,0.01137636,0.66006106,-0.01814315,0.00289095,-0.
 00443592,0.01650569,-0.09342822,-0.01102076,-0.02637902,0.00209751,0.0
 0500421,-0.00303757,0.50112544,-0.04211286,-0.00511724,-0.01319421,0.0
 1089271,-0.00682200,-0.08063937,0.03015128,0.00034087,-0.00426788,0.00
 592194,0.25822642,0.40998655,-0.00124532,0.00095749,0.00206724,-0.0147
 5253,0.02444358,0.01592057,-0.00154329,0.00143228,-0.00086236,-0.17803
 337,0.04136481,0.02978274,0.73135465,0.00050114,-0.00155010,-0.0033125
 0,0.00756711,0.00554705,0.00311376,-0.00079695,-0.00093081,0.00056934,
 0.09357763,-0.20839886,-0.11016016,0.01282473,0.49251702,0.00003144,-0
 .00002764,-0.00023895,0.00327658,-0.00031622,0.00476055,-0.00091005,-0
 .00085242,0.00051942,0.07331795,-0.11342122,-0.15867852,0.04193617,0.2
 9062257,0.38554757,0.00158774,0.00035448,-0.00019242,0.00021572,0.0024
 9899,0.00177717,0.00075495,-0.00112604,0.00027921,-0.02134492,0.067118
 93,0.05407267,-0.37011095,-0.01511276,-0.02864302,0.72107433,-0.000763
 06,0.00073266,0.00039754,-0.00083408,-0.00006717,-0.00564848,0.0013242
 0,-0.00039164,-0.00023088,0.02639958,0.02270200,0.01348575,0.04153266,
 -0.10774762,-0.02935125,-0.04725273,0.50235431,-0.00046561,0.00100204,
 0.00084881,-0.00021258,-0.00674589,0.00202497,-0.00127431,-0.00003337,
 0.00028234,0.02018327,0.01661882,0.02059501,0.01790302,-0.03295284,-0.
 09377004,-0.00708438,0.29134300,0.38674227,-0.00175512,-0.00010289,-0.
 00077158,0.00248422,0.00001021,0.00119067,-0.00166608,0.00003629,-0.00
 009034,0.00107412,-0.00108553,-0.00198720,-0.03307901,-0.01709109,-0.0
 1592260,-0.16961071,-0.08982219,-0.07928163,0.70267801,-0.00062583,-0.
 00012217,0.00058135,0.00055501,-0.00140006,-0.00135606,-0.00012953,0.0
 0063831,-0.00007001,-0.00239641,-0.04925033,-0.03404111,-0.05898690,0.
 02997008,0.01345838,-0.04404253,-0.19561598,-0.10778261,-0.01514573,0.
 46708765,-0.00063992,-0.00014223,0.00029094,0.00057074,-0.00055813,-0.
 00173514,-0.00011392,0.00051715,-0.00004792,-0.00122375,-0.03418215,-0
 .03583554,-0.05111816,0.01629301,0.01954273,-0.04164505,-0.10999239,-0
 .16156152,0.01708870,0.26159892,0.36408530,0.00127146,0.00023920,0.000
 81308,-0.00232478,-0.00013933,-0.00097702,0.00131283,0.00006029,-0.000
 01820,-0.00003305,-0.00067015,0.00049808,0.00534328,-0.00476991,-0.004
 36058,-0.03809161,-0.00922943,-0.00984631,-0.30202612,0.01083889,-0.00
 342999,1.58178606,-0.00012638,0.00010106,0.00008799,-0.00000662,-0.000
 47297,0.00051190,-0.00023736,0.00000054,0.00002906,0.00003524,-0.00247
 568,-0.00110503,-0.00378109,0.00113779,-0.00610406,-0.02170407,0.00655
 756,0.00292791,0.01081254,-0.07889941,-0.01193680,-0.06955059,0.117105
 12,-0.00003626,0.00002803,0.00004321,0.00012352,0.00050436,-0.00071406
 ,0.00020027,0.00002418,-0.00004964,-0.00016708,-0.00109396,-0.00208612
 ,-0.00291312,-0.00617818,0.00287033,-0.02040837,0.00329849,0.00278826,
 -0.00350883,-0.01180857,-0.07316182,0.01991266,0.01372672,0.10849445,-
 0.00095486,-0.00012953,-0.00056006,0.00161290,0.00007537,0.00058579,-0
 .00087706,-0.00006102,0.00005125,0.00022037,0.00038463,-0.00034908,-0.
 00264372,0.00056488,0.00053525,0.00469589,0.00641856,0.00555219,-0.022
 21592,0.00200458,-0.00048292,-1.21979596,0.05576153,-0.01536647,1.2397
 7116,0.00005932,-0.00001561,0.00000005,-0.00005253,0.00008243,-0.00010
 509,0.00007125,0.00000903,-0.00000661,-0.00003102,0.00043957,0.0001972
 6,0.00064038,-0.00016831,0.00111979,0.00196312,-0.00108832,-0.00179486
 ,0.00203774,0.02115040,0.00167110,0.05573632,-0.04315902,0.00175252,-0
 .05766537,0.02273553,-0.00000928,-0.00001225,-0.00001431,-0.00000775,-
 0.00007934,0.00013129,-0.00004524,-0.00000517,0.00001372,0.00004596,0.
 00017920,0.00039710,0.00037719,0.00113285,-0.00051271,0.00186615,-0.00
 150507,0.00005490,-0.00046200,0.00166391,0.02055250,-0.01538671,0.0017
 5341,-0.04106294,0.01588599,-0.00212916,0.02071031,-0.00125676,-0.0001
 2643,0.00070952,0.00222557,-0.00257047,-0.00416438,0.00028150,0.000760
 36,0.00014109,-0.02870445,-0.06308714,-0.05327241,-0.05668675,0.027114
 04,0.01869040,0.06961238,0.01625463,0.01615619,-0.16001045,0.04342129,
 0.03106518,-0.03542780,0.02583205,0.01934533,0.00406517,-0.00244263,-0
 .00182960,0.72602496,-0.00232971,-0.00019600,-0.00156654,0.00114327,0.
 00082927,-0.00476016,0.00093541,-0.00032535,0.00016989,-0.02177304,0.0
 3063361,0.01880377,0.02909016,-0.01696647,-0.00668232,-0.02464775,-0.0
 3001756,-0.03497706,0.08926813,-0.20947279,-0.11104036,0.01313492,0.00
 288873,0.00196140,-0.00691542,-0.00021773,-0.00153673,0.01801750,0.499
 07716,-0.00020787,0.00025051,-0.00072620,-0.00041940,-0.00531063,0.003
 04794,-0.00134283,-0.00007696,0.00019865,-0.01908603,0.01615426,0.0199
 7759,0.02111546,-0.00700403,-0.01116963,-0.01722373,-0.03254771,-0.016
 76167,0.06868110,-0.11343282,-0.15780231,0.00886917,0.00246116,0.00396
 534,-0.00543801,-0.00126856,-0.00016193,0.04536311,0.28998855,0.385410
 64,-0.00686122,-0.00080666,-0.00365870,-0.01405798,-0.01906539,-0.0157
 1550,-0.00108450,-0.00018397,-0.00058371,-0.18791379,-0.04063854,-0.03
 948185,0.07265856,-0.02425522,-0.01525933,-0.06046996,-0.02478627,-0.0
 2304671,-0.02750672,0.06448597,0.05079911,0.00613902,0.00326461,0.0026
 2430,-0.00282296,-0.00036327,-0.00039024,-0.36973870,-0.01597378,-0.02
 869919,0.72621951,0.00323265,0.00093347,0.00187238,-0.00425038,0.00367
 097,-0.00054271,0.00123985,0.00070928,-0.00068134,-0.09531883,-0.19681
 401,-0.11009461,0.01403663,-0.02947415,-0.02974766,-0.02139750,-0.0117
 1433,-0.00542775,0.02190171,0.02161341,0.01120085,0.00460717,0.0001911
 6,-0.00624306,-0.00045521,-0.00004683,0.00112814,0.04019886,-0.1070356
 0,-0.02959202,-0.04139734,0.50071688,0.00146219,0.00008831,0.00124738,
 -0.00490742,-0.00025675,0.00452759,0.00120295,0.00012369,-0.00096642,-
 0.08460188,-0.10584908,-0.16158532,0.01667232,-0.03335597,-0.01702463,
 -0.02161491,-0.00600599,-0.01283793,0.01580256,0.01431169,0.02186637,0
 .00379231,-0.00633930,0.00322655,-0.00049958,0.00114154,-0.00056868,0.
 01774481,-0.03282445,-0.09437697,-0.00321056,0.28954162,0.37954283,-0.
 03442968,-0.08864508,0.07216320,-0.00035142,0.01164152,-0.01551048,0.0
 0037053,-0.00060322,-0.00151020,-0.00017992,0.00050966,-0.00056605,0.0
 0026778,0.00010385,0.00016870,-0.00034274,-0.00014933,-0.00003466,0.00
 024210,0.00022326,0.00014865,-0.00019255,0.00003183,0.00001694,0.00013
 718,-0.00001158,-0.00000193,0.00026157,-0.00002023,-0.00002736,0.00006
 977,-0.00021722,-0.00012744,0.03310831,-0.07726629,-0.26891787,0.25876
 849,0.00161339,0.00782293,-0.01491466,-0.00125339,0.00034227,-0.001809
 95,-0.00046870,0.00014214,-0.00133232,-0.00015541,-0.00012502,0.000034
 33,0.00016339,0.00008816,0.00002941,-0.00017902,-0.00009706,-0.0000476
 1,0.00014891,-0.00002510,-0.00001084,-0.00010990,0.00000937,0.00000053
 ,-0.00009838,-0.00014576,-0.00002165,-0.00028470,0.00007926,0.00015946
 ,0.07780659,0.25975701,0.04696334,0.21364310,-0.27135773,0.00698572,0.
 02588638,-0.02677993,-0.00375347,-0.00154190,-0.00617769,-0.00020938,0
 .00090523,0.00147240,0.00023139,0.00007681,-0.00002641,-0.00026584,-0.
 00002319,-0.00011053,0.00030957,0.00009664,0.00011497,-0.00022249,0.00
 001842,0.00002420,0.00016706,-0.00001138,-0.00000451,0.00016856,0.0001
 7384,-0.00007650,0.00049016,-0.00027734,-0.00000853,-0.05310305,-0.239
 50854,0.30148391,0.00538926,-0.01990258,-0.01180851,-0.07938891,0.0723
 7112,0.01116863,0.00609706,-0.01396584,0.00242317,-0.01279644,0.030600
 66,0.00446226,-0.00492371,-0.00127087,-0.00134187,-0.00019444,0.000538
 56,0.00169098,-0.00059796,0.00014595,-0.00003860,0.00057874,-0.0000489
 5,-0.00005092,-0.00038780,0.00002513,0.00000537,0.00047193,-0.00022698
 ,0.00004338,-0.00036829,0.00114592,0.00123627,0.00035307,0.00013007,0.
 00130692,0.08408430,-0.00109413,-0.01007952,-0.01453950,0.07054256,-0.
 26155901,-0.03107579,-0.00021998,-0.02373026,0.00996615,-0.00014603,-0
 .00138989,-0.00095691,0.00061036,0.00030803,0.00042211,-0.00048462,-0.
 00039410,-0.00020317,-0.00009777,0.00039985,0.00034737,-0.00006376,-0.
 00001127,0.00012350,0.00003755,-0.00000064,-0.00002712,0.00065856,0.00
 028188,-0.00038632,-0.00176782,0.00105221,-0.00013839,-0.00073348,0.00
 027633,0.00034927,-0.06797268,0.29250766,-0.00037293,-0.03728881,-0.02
 219199,0.00993426,-0.02954829,-0.05172242,-0.00163314,0.03667007,-0.00
 390710,0.00224946,-0.00315706,0.00359537,0.00016208,0.00011661,0.00036
 920,-0.00001695,0.00013347,-0.00006597,0.00014585,0.00001681,0.0000277
 0,-0.00011540,-0.00003837,0.00005309,0.00008136,0.00000278,-0.00000968
 ,0.00004986,0.00023760,-0.00036587,-0.00084615,0.00078075,0.00019767,-
 0.00083123,-0.00081306,0.00226074,-0.00737743,0.03518224,0.07012962,0.
 00046874,0.00006138,0.00007507,-0.01130818,0.00540271,0.00193040,-0.38
 648983,0.08538241,0.07022172,-0.00029697,-0.00180515,0.00197005,0.0001
 3437,-0.00052419,0.00008550,-0.00007842,0.00003395,-0.00018604,-0.0001
 5509,0.00006295,0.00006830,0.00010182,-0.00001167,0.00001275,-0.000072
 65,0.00000513,-0.00000305,0.00011129,0.00005685,-0.00007864,-0.0000656
 7,0.00021115,0.00023972,-0.00001093,-0.00006163,0.00014922,0.00164369,
 0.00086694,-0.00177709,0.41301555,0.00068211,0.00018652,-0.00142164,-0
 .02904099,-0.00112157,0.00984900,0.13444540,-0.05112620,-0.01655073,-0
 .00025254,-0.00103785,0.00459701,-0.00050706,-0.00003060,-0.00000926,-
 0.00026115,0.00022431,-0.00035330,-0.00035494,0.00029229,0.00028633,0.
 00023457,-0.00002058,0.00003704,-0.00014856,0.00000813,-0.00000749,0.0
 0060848,-0.00004654,-0.00022923,-0.00081531,-0.00013798,-0.00039705,-0
 .00015265,-0.00003416,-0.00006485,-0.00089535,0.00253265,-0.00180087,-
 0.09673096,0.05286098,-0.00071381,-0.00019424,0.00133607,0.02881609,-0
 .00898773,-0.00602315,0.08274952,-0.00901462,-0.07363244,0.00055963,0.
 00315887,-0.00241149,0.00070604,-0.00011376,0.00020274,-0.00044634,-0.
 00028809,-0.00002799,0.00027218,0.00027726,0.00021445,-0.00021569,0.00
 004461,-0.00001898,0.00015048,-0.00001329,0.00000380,0.00036398,-0.000
 20598,0.00021021,0.00015165,-0.00029444,-0.00011994,-0.00047756,0.0002
 2866,0.00007050,-0.00069123,0.00044493,0.00057396,-0.07995162,0.006609
 90,0.07234933,0.00013893,-0.00204754,0.00519664,0.00667553,0.00373823,
 0.01011250,-0.16323052,-0.03787761,-0.16591509,-0.00021090,-0.00011790
 ,0.00185754,0.00028192,-0.00005664,-0.00000865,-0.00014913,-0.00001964
 ,-0.00009661,0.00006881,0.00007260,0.00005332,-0.00003892,-0.00000152,
 0.00001020,0.00002929,0.00000010,-0.00000251,0.00001350,-0.00000984,-0
 .00008170,-0.00072000,-0.00029159,0.00024558,0.00061999,0.00003650,0.0
 0096709,0.00012612,-0.00051461,0.00060012,-0.01695939,-0.00669271,-0.0
 3131499,0.17328572,-0.00149238,-0.00132761,0.00056696,0.01262830,-0.00
 461704,0.02389270,-0.06115916,-0.02563260,-0.07871902,-0.00041638,0.00
 079634,0.00013536,-0.00027335,-0.00008083,0.00010524,0.00028345,0.0000
 8418,0.00014947,0.00019437,-0.00029057,-0.00023280,-0.00013769,-0.0000
 0208,-0.00001285,0.00009390,-0.00000456,0.00000278,-0.00047081,0.00012
 539,0.00004019,0.00007231,-0.00001675,0.00065834,-0.00001157,0.0009600
 8,0.00020037,-0.00039484,-0.00009821,-0.00043758,0.00708320,-0.0023328
 1,0.00819968,0.04390863,0.03249910,0.00161250,0.00515552,-0.00584469,-
 0.01556302,-0.01195230,-0.01887404,-0.17100954,-0.03704795,-0.32126274
 ,-0.00011292,-0.00003664,0.00077949,0.00026843,-0.00037900,-0.00001335
 ,-0.00028430,-0.00002594,-0.00024141,-0.00047851,0.00038551,0.00024613
 ,0.00035988,-0.00000735,0.00003661,-0.00023280,0.00000944,-0.00001055,
 0.00070260,-0.00020401,-0.00009770,-0.00033387,0.00005436,0.00018260,-
 0.00025226,-0.00073733,-0.00096734,-0.00022924,-0.00001244,0.00087033,
 0.00721678,-0.00078687,0.00746677,0.17839463,0.04554574,0.33771629,-0.
 00163250,0.00076021,0.00123749,-0.00083841,-0.00045481,-0.00013169,0.0
 0005009,0.00010959,-0.00017664,0.01273444,0.00895032,0.00752144,-0.137
 16005,-0.09817949,-0.08672659,-0.01037869,-0.01961566,-0.01705415,-0.0
 0426680,0.00132630,0.00040293,-0.00031776,-0.00091311,-0.00086864,-0.0
 0038971,0.00019080,0.00016358,-0.00035465,0.00046589,0.00036352,-0.001
 54397,0.00230960,0.00153362,-0.00001671,0.00004747,-0.00026949,0.00026
 561,-0.00012858,-0.00033802,-0.00001518,-0.00005817,-0.00003604,0.0000
 3102,-0.00000515,-0.00002137,0.14192637,-0.00095918,0.00128784,0.00133
 274,-0.00180433,-0.00193497,0.00039236,-0.00032879,0.00006915,0.000170
 21,-0.01110109,-0.00777005,-0.01058260,-0.09885475,-0.16964485,-0.1142
 0409,0.00385173,0.00555018,0.00132443,0.00121638,0.00391480,-0.0029299
 2,0.00027282,0.00042746,-0.00006440,-0.00001467,-0.00014073,0.00002492
 ,0.00067584,-0.00043711,0.00052883,0.00278423,0.00086232,-0.00502304,0
 .00021410,-0.00015139,0.00013580,0.00029016,0.00014663,0.00019385,-0.0
 0001631,-0.00014669,-0.00001123,-0.00007493,0.00006606,0.00001245,0.10
 484355,0.17036772,-0.00078650,0.00115652,0.00061806,-0.00146648,0.0014
 9458,-0.00275496,0.00065743,-0.00004811,-0.00007167,-0.00948394,-0.009
 76499,-0.00420459,-0.08748367,-0.11463094,-0.14053660,0.00258267,0.000
 17492,0.00455711,0.00041185,-0.00286926,0.00503154,0.00018709,-0.00011
 003,0.00041209,-0.00002086,0.00002948,-0.00014004,0.00056107,0.0004903
 6,-0.00054172,0.00184365,-0.00481865,0.00298777,-0.00007618,0.00004356
 ,0.00005660,-0.00014917,-0.00002607,0.00000058,0.00005093,0.00021821,-
 0.00005602,0.00001581,-0.00002709,0.00008306,0.09356720,0.12609004,0.1
 3800061,-0.00007704,-0.00010204,-0.00030457,0.00054386,0.00118126,0.00
 094328,-0.00017457,-0.00003186,0.00006245,-0.00539110,-0.00051409,-0.0
 0094398,-0.00777332,0.02128295,0.01680426,-0.12527745,0.09810929,0.075
 95281,0.01041833,-0.01325105,-0.01053096,0.00095673,-0.00058227,-0.000
 05593,0.00004254,0.00003755,-0.00000943,-0.00175236,-0.00186330,-0.002
 04605,-0.00052775,-0.00049927,-0.00034257,0.00003938,-0.00004432,0.000
 04201,-0.00046131,0.00006755,0.00002021,-0.00000694,-0.00004658,0.0000
 4853,0.00000450,0.00000262,-0.00003357,0.00146061,-0.00026032,0.000068
 47,0.12739561,0.00020162,0.00004553,0.00004892,-0.00031983,-0.00023836
 ,0.00007267,-0.00003702,0.00002897,0.00000888,-0.00011690,0.00388981,-
 0.00315038,-0.00236568,0.00455633,-0.00094741,0.09731168,-0.19196433,-
 0.11939799,0.01052410,-0.00688158,-0.00841533,0.00051298,-0.00185181,0
 .00203099,-0.00017328,0.00027421,-0.00031326,-0.00281199,0.00158895,-0
 .00420275,-0.00025343,-0.00010730,0.00074204,-0.00000442,0.00001885,-0
 .00001690,0.00001404,-0.00002140,-0.00001490,0.00001793,0.00001676,0.0
 0001718,0.00001277,-0.00000814,0.00001813,-0.00012846,-0.00157920,0.00
 249864,-0.10294780,0.19291276,-0.00008015,-0.00004289,0.00000181,-0.00
 007628,0.00034002,0.00002160,0.00014007,-0.00002397,-0.00002934,-0.001
 02072,-0.00312182,0.00504737,-0.00256713,0.00033190,0.00574250,0.07561
 106,-0.11942164,-0.13500027,0.00888925,-0.00978156,-0.00351307,0.00085
 602,0.00202645,-0.00265690,-0.00023821,-0.00030280,0.00037948,-0.00268
 993,-0.00415492,0.00290211,-0.00033592,0.00063071,-0.00049120,-0.00000
 883,-0.00000783,-0.00001245,0.00000637,0.00004525,-0.00000104,-0.00001
 445,-0.00001012,-0.00004269,-0.00001744,-0.00000077,-0.00000105,0.0003
 2639,0.00254861,-0.00252047,-0.07930651,0.13109880,0.13080840,-0.00072
 514,-0.00011106,-0.00046647,0.00076133,-0.00082556,-0.00065876,-0.0001
 9062,-0.00001267,0.00008152,-0.00525406,0.00141126,0.00064298,-0.00045
 240,0.00048180,0.00039903,-0.00141036,0.00227999,0.00147114,0.01054947
 ,0.01185258,0.01003423,0.00097758,0.00010666,0.00032812,0.00006034,-0.
 00000642,-0.00003932,-0.13989530,-0.09997403,-0.08696429,-0.00893041,-
 0.02011360,-0.01715693,0.00004143,-0.00005466,0.00007492,-0.00003413,0
 .00005736,0.00002196,-0.00001402,-0.00001516,0.00006370,0.00001251,0.0
 0001212,-0.00002529,0.00005842,-0.00010148,-0.00004164,0.00050661,0.00
 052334,0.00044271,0.14257204,-0.00005896,-0.00002322,0.00004205,0.0001
 3185,0.00004884,0.00027754,-0.00008139,0.00000174,-0.00002926,0.001289
 51,0.00377900,-0.00314535,0.00041971,-0.00025262,0.00064772,0.00313930
 ,0.00102917,-0.00424666,-0.01190224,-0.00697768,-0.00963976,-0.0009791
 0,-0.00179805,0.00206995,0.00024512,0.00024892,-0.00030957,-0.09946803
 ,-0.17430156,-0.11468176,0.00367584,0.00618474,0.00076489,0.00001387,-
 0.00000197,0.00001018,0.00000969,0.00000240,-0.00000051,-0.00001322,-0
 .00004246,-0.00001145,-0.00000889,0.00000593,-0.00001540,-0.00008731,-
 0.00038052,0.00045192,-0.00059210,-0.00027608,-0.00061591,0.10456180,0
 .17424908,0.00008208,0.00003406,-0.00004287,0.00021439,0.00015463,-0.0
 0012608,0.00001082,-0.00002806,0.00004057,0.00017118,-0.00325230,0.004
 99968,0.00022466,0.00069782,-0.00042653,0.00223742,-0.00430919,0.00307
 222,-0.00943250,-0.00847719,-0.00339636,-0.00049926,0.00215073,-0.0026
 1137,0.00014501,-0.00032276,0.00038884,-0.08647783,-0.11464990,-0.1383
 1706,0.00222406,-0.00037021,0.00523049,-0.00000479,-0.00000613,-0.0000
 0028,-0.00006804,-0.00001503,0.00001589,0.00000912,0.00003192,0.000019
 56,0.00001350,0.00000987,-0.00000952,-0.00001957,0.00046388,-0.0005584
 8,-0.00047193,-0.00054032,-0.00005977,0.09154134,0.12595694,0.13431068
 ,0.00015758,0.00021530,0.00042163,0.00013578,-0.00167201,-0.00061358,0
 .00017059,0.00004414,-0.00015754,0.01118948,-0.01136772,-0.00906025,-0
 .00163613,-0.00196101,-0.00207259,-0.00048164,-0.00041903,-0.00032661,
 -0.00462510,-0.00041139,-0.00100786,-0.00021896,0.00111916,0.00080152,
 -0.00047418,-0.00019401,-0.00015718,-0.00924066,0.02162196,0.01717937,
 -0.12247496,0.09505741,0.07252897,0.00001284,0.00003006,-0.00003224,0.
 00014321,0.00038256,0.00004318,-0.00000217,0.00000158,-0.00003454,0.00
 002103,0.00008242,0.00002187,0.00038787,-0.00063297,-0.00043773,0.0000
 7370,0.00004038,0.00008369,0.00136671,-0.00029544,0.00010032,0.1254950
 1,0.00030346,0.00034767,0.00001060,0.00109042,-0.00105222,0.00213383,-
 0.00060124,-0.00001235,0.00010735,0.01058703,-0.00793148,-0.00927872,-
 0.00242856,0.00133393,-0.00474660,-0.00065592,-0.00032145,0.00052041,-
 0.00022009,0.00394084,-0.00279725,-0.00024609,0.00030654,-0.00014532,0
 .00008685,-0.00011585,0.00003941,-0.00246573,0.00373748,-0.00066907,0.
 09630874,-0.19066672,-0.11734157,0.00000410,0.00000194,-0.00005194,-0.
 00059321,-0.00022334,-0.00023473,-0.00002147,-0.00004417,0.00015374,-0
 .00005541,-0.00012589,0.00002407,0.00056700,-0.00050665,-0.00035307,0.
 00005377,-0.00040397,0.00046249,-0.00007225,-0.00149567,0.00247123,-0.
 10164138,0.19323137,-0.00046044,0.00009560,-0.00006921,0.00194291,0.00
 170825,-0.00198758,0.00039121,0.00003756,0.00004615,0.00839080,-0.0109
 1113,-0.00394751,-0.00242286,-0.00486730,0.00284232,-0.00060106,0.0005
 1664,-0.00058855,-0.00085655,-0.00277128,0.00508107,-0.00021662,-0.000
 09741,0.00044770,0.00003362,0.00003055,-0.00014657,-0.00262756,0.00077
 701,0.00468507,0.07342878,-0.11711902,-0.13102963,0.00003454,-0.000054
 53,0.00003856,-0.00058832,0.00049993,0.00016993,-0.00001868,0.00000201
 ,-0.00011469,-0.00002992,-0.00007658,-0.00005888,0.00052603,-0.0004028
 5,-0.00036285,0.00010348,0.00046300,-0.00057501,0.00025106,0.00247444,
 -0.00252959,-0.07728042,0.12969511,0.12809928\\-0.00000376,0.00000808,
 -0.00002374,0.00001070,0.00001361,-0.00002290,0.00000165,-0.00001153,0
 .00000370,0.00000165,-0.00000527,0.00000592,-0.00000618,0.00000097,-0.
 00000305,-0.00000210,0.00000814,-0.00000249,0.00000508,-0.00001396,-0.
 00000367,0.00000543,0.00002185,0.00002652,-0.00001167,-0.00001065,-0.0
 0000110,0.00000021,-0.00000066,0.00000723,0.00000673,-0.00000182,0.000
 01045,0.00000149,0.00000654,0.00000097,-0.00000170,-0.00000281,0.00001
 051,-0.00000340,-0.00000536,-0.00000828,-0.00000479,-0.00001094,-0.000
 00242,0.00000262,0.00001180,-0.00001005,0.00000159,0.00001107,-0.00000
 505,-0.00000257,-0.00001016,0.00001169,-0.00000099,-0.00000889,0.00000
 577\\\@
 The archive entry for this job was punched.


 TRUST EVERYONE, BUT CUT THE CARDS.
 Job cpu time:       0 days  0 hours 39 minutes 21.6 seconds.
 Elapsed time:       0 days  0 hours  4 minutes 55.9 seconds.
 File lengths (MBytes):  RWF=   1376 Int=      0 D2E=      0 Chk=     16 Scr=     32
 Normal termination of Gaussian 16 at Tue Oct 21 15:19:17 2025.
