 Entering Gaussian System, Link 0=g16
 Input=../../g16_C17-a_9.com
 Output=../../g16_C17-a_9.log
 Initial command:
 /lrz/sys/applications/gaussian/g16.C.01/x86_64_legacy/exe/l1.exe "/dss/lxclscratch/0D/go29tiz2/Gau-149972.inp" -scrdir="/dss/lxclscratch/0D/go29tiz2/"
 Entering Link 1 = /lrz/sys/applications/gaussian/g16.C.01/x86_64_legacy/exe/l1.exe PID=    149973.
  
 Copyright (c) 1988-2019, Gaussian, Inc.  All Rights Reserved.
  
 This is part of the Gaussian(R) 16 program.  It is based on
 the Gaussian(R) 09 system (copyright 2009, Gaussian, Inc.),
 the Gaussian(R) 03 system (copyright 2003, Gaussian, Inc.),
 the Gaussian(R) 98 system (copyright 1998, Gaussian, Inc.),
 the Gaussian(R) 94 system (copyright 1995, Gaussian, Inc.),
 the Gaussian 92(TM) system (copyright 1992, Gaussian, Inc.),
 the Gaussian 90(TM) system (copyright 1990, Gaussian, Inc.),
 the Gaussian 88(TM) system (copyright 1988, Gaussian, Inc.),
 the Gaussian 86(TM) system (copyright 1986, Carnegie Mellon
 University), and the Gaussian 82(TM) system (copyright 1983,
 Carnegie Mellon University). Gaussian is a federally registered
 trademark of Gaussian, Inc.
  
 This software contains proprietary and confidential information,
 including trade secrets, belonging to Gaussian, Inc.
  
 This software is provided under written license and may be
 used, copied, transmitted, or stored only in accord with that
 written license.
  
 The following legend is applicable only to US Government
 contracts under FAR:
  
                    RESTRICTED RIGHTS LEGEND
  
 Use, reproduction and disclosure by the US Government is
 subject to restrictions as set forth in subparagraphs (a)
 and (c) of the Commercial Computer Software - Restricted
 Rights clause in FAR 52.227-19.
  
 Gaussian, Inc.
 340 Quinnipiac St., Bldg. 40, Wallingford CT 06492
  
  
 ---------------------------------------------------------------
 Warning -- This program may not be used in any manner that
 competes with the business of Gaussian, Inc. or will provide
 assistance to any competitor of Gaussian, Inc.  The licensee
 of this program is prohibited from giving any competitor of
 Gaussian, Inc. access to this program.  By using this program,
 the user acknowledges that Gaussian, Inc. is engaged in the
 business of creating and licensing software in the field of
 computational chemistry and represents and warrants to the
 licensee that it is not a competitor of Gaussian, Inc. and that
 it will not use this program in any manner prohibited above.
 ---------------------------------------------------------------
  

 Cite this work as:
 Gaussian 16, Revision C.01,
 M. J. Frisch, G. W. Trucks, H. B. Schlegel, G. E. Scuseria, 
 M. A. Robb, J. R. Cheeseman, G. Scalmani, V. Barone, 
 G. A. Petersson, H. Nakatsuji, X. Li, M. Caricato, A. V. Marenich, 
 J. Bloino, B. G. Janesko, R. Gomperts, B. Mennucci, H. P. Hratchian, 
 J. V. Ortiz, A. F. Izmaylov, J. L. Sonnenberg, D. Williams-Young, 
 F. Ding, F. Lipparini, F. Egidi, J. Goings, B. Peng, A. Petrone, 
 T. Henderson, D. Ranasinghe, V. G. Zakrzewski, J. Gao, N. Rega, 
 G. Zheng, W. Liang, M. Hada, M. Ehara, K. Toyota, R. Fukuda, 
 J. Hasegawa, M. Ishida, T. Nakajima, Y. Honda, O. Kitao, H. Nakai, 
 T. Vreven, K. Throssell, J. A. Montgomery, Jr., J. E. Peralta, 
 F. Ogliaro, M. J. Bearpark, J. J. Heyd, E. N. Brothers, K. N. Kudin, 
 V. N. Staroverov, T. A. Keith, R. Kobayashi, J. Normand, 
 K. Raghavachari, A. P. Rendell, J. C. Burant, S. S. Iyengar, 
 J. Tomasi, M. Cossi, J. M. Millam, M. Klene, C. Adamo, R. Cammi, 
 J. W. Ochterski, R. L. Martin, K. Morokuma, O. Farkas, 
 J. B. Foresman, and D. J. Fox, Gaussian, Inc., Wallingford CT, 2019.
 
 ******************************************
 Gaussian 16:  EM64L-G16RevC.01  3-Jul-2019
                22-Oct-2025 
 ******************************************
 %chk=g16_C17-a_9.chk
 %nprocshared=8
 Will use up to    8 processors via shared memory.
 %mem=32GB
 ---------------------------------------------------
 #p opt freq wb97xd scrf=(smd,solvent=water) def2svp
 ---------------------------------------------------
 1/18=20,19=15,26=3,38=1/1,3;
 2/9=110,12=2,17=6,18=5,40=1/2;
 3/5=43,7=101,11=2,25=1,30=1,70=32201,71=1,72=1,74=-58/1,2,3;
 4//1;
 5/5=2,38=5,53=1/2;
 6/7=2,8=2,9=2,10=2,28=1/1;
 7//1,2,3,16;
 1/18=20,19=15,26=3/3(2);
 2/9=110/2;
 99//99;
 2/9=110/2;
 3/5=43,7=101,11=2,25=1,30=1,70=32205,71=1,72=1,74=-58/1,2,3;
 4/5=5,16=3,69=1/1;
 5/5=2,38=5,53=1/2;
 7//1,2,3,16;
 1/18=20,19=15,26=3/3(-5);
 2/9=110/2;
 6/7=2,8=2,9=2,10=2,19=2,28=1/1;
 99/9=1/99;
 Leave Link    1 at Wed Oct 22 13:10:29 2025, MaxMem=  4294967296 cpu:               4.0 elap:               0.6
 (Enter /lrz/sys/applications/gaussian/g16.C.01/x86_64_legacy/exe/l101.exe)
 -----------
 g16_C17-a_9
 -----------
 Symbolic Z-matrix:
 Charge =  0 Multiplicity = 1
 O                    -1.4653   -1.02956   0.16214 
 C                    -0.99006   0.30541   0.2744 
 N                    -1.83239   1.27657  -0.37868 
 C                     0.40661   0.35239  -0.34331 
 C                     1.43072  -0.42265   0.47937 
 C                     2.80611  -0.39664  -0.17407 
 H                    -2.29649  -1.11827   0.64372 
 H                    -0.93538   0.58795   1.33756 
 H                    -2.77702   1.25859  -0.00945 
 H                    -1.8796    1.08717  -1.37377 
 H                     0.69917   1.39854  -0.4271 
 H                     0.34554  -0.07665  -1.34384 
 H                     1.08922  -1.45303   0.58021 
 H                     1.49355   0.01226   1.47879 
 H                     2.76661  -0.84662  -1.16331 
 H                     3.15918   0.62693  -0.27736 
 H                     3.52394  -0.94982   0.42637 
 
 ITRead=  0  0  0  0  0  0  0  0  0  0  0  0  0  0  0  0  0
 MicOpt= -1 -1 -1 -1 -1 -1 -1 -1 -1 -1 -1 -1 -1 -1 -1 -1 -1
 NAtoms=     17 NQM=       17 NQMF=       0 NMMI=      0 NMMIF=      0
                NMic=       0 NMicF=      0.
                    Isotopes and Nuclear Properties:
 (Nuclear quadrupole moments (NQMom) in fm**2, nuclear magnetic moments (NMagM)
  in nuclear magnetons)

  Atom         1           2           3           4           5           6           7           8           9          10
 IAtWgt=          16          12          14          12          12          12           1           1           1           1
 AtmWgt=  15.9949146  12.0000000  14.0030740  12.0000000  12.0000000  12.0000000   1.0078250   1.0078250   1.0078250   1.0078250
 NucSpn=           0           0           2           0           0           0           1           1           1           1
 AtZEff=  -0.0000000  -0.0000000  -0.0000000  -0.0000000  -0.0000000  -0.0000000  -0.0000000  -0.0000000  -0.0000000  -0.0000000
 NQMom=    0.0000000   0.0000000   2.0440000   0.0000000   0.0000000   0.0000000   0.0000000   0.0000000   0.0000000   0.0000000
 NMagM=    0.0000000   0.0000000   0.4037610   0.0000000   0.0000000   0.0000000   2.7928460   2.7928460   2.7928460   2.7928460
 AtZNuc=   8.0000000   6.0000000   7.0000000   6.0000000   6.0000000   6.0000000   1.0000000   1.0000000   1.0000000   1.0000000

  Atom        11          12          13          14          15          16          17
 IAtWgt=           1           1           1           1           1           1           1
 AtmWgt=   1.0078250   1.0078250   1.0078250   1.0078250   1.0078250   1.0078250   1.0078250
 NucSpn=           1           1           1           1           1           1           1
 AtZEff=  -0.0000000  -0.0000000  -0.0000000  -0.0000000  -0.0000000  -0.0000000  -0.0000000
 NQMom=    0.0000000   0.0000000   0.0000000   0.0000000   0.0000000   0.0000000   0.0000000
 NMagM=    2.7928460   2.7928460   2.7928460   2.7928460   2.7928460   2.7928460   2.7928460
 AtZNuc=   1.0000000   1.0000000   1.0000000   1.0000000   1.0000000   1.0000000   1.0000000
 Leave Link  101 at Wed Oct 22 13:10:29 2025, MaxMem=  4294967296 cpu:               2.7 elap:               0.4
 (Enter /lrz/sys/applications/gaussian/g16.C.01/x86_64_legacy/exe/l103.exe)

 GradGradGradGradGradGradGradGradGradGradGradGradGradGradGradGradGradGrad
 Berny optimization.
 Initialization pass.
                           ----------------------------
                           !    Initial Parameters    !
                           ! (Angstroms and Degrees)  !
 --------------------------                            --------------------------
 ! Name  Definition              Value          Derivative Info.                !
 --------------------------------------------------------------------------------
 ! R1    R(1,2)                  1.4215         estimate D2E/DX2                !
 ! R2    R(1,7)                  0.9647         estimate D2E/DX2                !
 ! R3    R(2,3)                  1.4419         estimate D2E/DX2                !
 ! R4    R(2,4)                  1.5279         estimate D2E/DX2                !
 ! R5    R(2,8)                  1.1014         estimate D2E/DX2                !
 ! R6    R(3,9)                  1.0144         estimate D2E/DX2                !
 ! R7    R(3,10)                 1.0141         estimate D2E/DX2                !
 ! R8    R(4,5)                  1.5252         estimate D2E/DX2                !
 ! R9    R(4,11)                 1.0895         estimate D2E/DX2                !
 ! R10   R(4,12)                 1.0904         estimate D2E/DX2                !
 ! R11   R(5,6)                  1.5229         estimate D2E/DX2                !
 ! R12   R(5,13)                 1.0902         estimate D2E/DX2                !
 ! R13   R(5,14)                 1.0918         estimate D2E/DX2                !
 ! R14   R(6,15)                 1.0875         estimate D2E/DX2                !
 ! R15   R(6,16)                 1.0877         estimate D2E/DX2                !
 ! R16   R(6,17)                 1.0871         estimate D2E/DX2                !
 ! A1    A(2,1,7)              109.5718         estimate D2E/DX2                !
 ! A2    A(1,2,3)              113.6685         estimate D2E/DX2                !
 ! A3    A(1,2,4)              107.6116         estimate D2E/DX2                !
 ! A4    A(1,2,8)              109.496          estimate D2E/DX2                !
 ! A5    A(3,2,4)              109.2791         estimate D2E/DX2                !
 ! A6    A(3,2,8)              107.0628         estimate D2E/DX2                !
 ! A7    A(4,2,8)              109.693          estimate D2E/DX2                !
 ! A8    A(2,3,9)              111.5425         estimate D2E/DX2                !
 ! A9    A(2,3,10)             110.2335         estimate D2E/DX2                !
 ! A10   A(9,3,10)             108.0903         estimate D2E/DX2                !
 ! A11   A(2,4,5)              112.3392         estimate D2E/DX2                !
 ! A12   A(2,4,11)             107.8233         estimate D2E/DX2                !
 ! A13   A(2,4,12)             107.9205         estimate D2E/DX2                !
 ! A14   A(5,4,11)             110.4321         estimate D2E/DX2                !
 ! A15   A(5,4,12)             109.4267         estimate D2E/DX2                !
 ! A16   A(11,4,12)            108.8021         estimate D2E/DX2                !
 ! A17   A(4,5,6)              111.4869         estimate D2E/DX2                !
 ! A18   A(4,5,13)             108.6533         estimate D2E/DX2                !
 ! A19   A(4,5,14)             109.2679         estimate D2E/DX2                !
 ! A20   A(6,5,13)             109.7992         estimate D2E/DX2                !
 ! A21   A(6,5,14)             109.512          estimate D2E/DX2                !
 ! A22   A(13,5,14)            108.0505         estimate D2E/DX2                !
 ! A23   A(5,6,15)             110.5141         estimate D2E/DX2                !
 ! A24   A(5,6,16)             110.4854         estimate D2E/DX2                !
 ! A25   A(5,6,17)             110.5278         estimate D2E/DX2                !
 ! A26   A(15,6,16)            108.3491         estimate D2E/DX2                !
 ! A27   A(15,6,17)            108.4126         estimate D2E/DX2                !
 ! A28   A(16,6,17)            108.4794         estimate D2E/DX2                !
 ! D1    D(7,1,2,3)            -66.09           estimate D2E/DX2                !
 ! D2    D(7,1,2,4)            172.7547         estimate D2E/DX2                !
 ! D3    D(7,1,2,8)             53.582          estimate D2E/DX2                !
 ! D4    D(1,2,3,9)             58.379          estimate D2E/DX2                !
 ! D5    D(1,2,3,10)           -61.707          estimate D2E/DX2                !
 ! D6    D(4,2,3,9)            178.597          estimate D2E/DX2                !
 ! D7    D(4,2,3,10)            58.511          estimate D2E/DX2                !
 ! D8    D(8,2,3,9)            -62.6654         estimate D2E/DX2                !
 ! D9    D(8,2,3,10)           177.2486         estimate D2E/DX2                !
 ! D10   D(1,2,4,5)            -68.3583         estimate D2E/DX2                !
 ! D11   D(1,2,4,11)           169.7328         estimate D2E/DX2                !
 ! D12   D(1,2,4,12)            52.3596         estimate D2E/DX2                !
 ! D13   D(3,2,4,5)            167.7763         estimate D2E/DX2                !
 ! D14   D(3,2,4,11)            45.8674         estimate D2E/DX2                !
 ! D15   D(3,2,4,12)           -71.5058         estimate D2E/DX2                !
 ! D16   D(8,2,4,5)             50.6884         estimate D2E/DX2                !
 ! D17   D(8,2,4,11)           -71.2205         estimate D2E/DX2                !
 ! D18   D(8,2,4,12)           171.4063         estimate D2E/DX2                !
 ! D19   D(2,4,5,6)            178.3654         estimate D2E/DX2                !
 ! D20   D(2,4,5,13)            57.2281         estimate D2E/DX2                !
 ! D21   D(2,4,5,14)           -60.4461         estimate D2E/DX2                !
 ! D22   D(11,4,5,6)           -61.2222         estimate D2E/DX2                !
 ! D23   D(11,4,5,13)          177.6405         estimate D2E/DX2                !
 ! D24   D(11,4,5,14)           59.9663         estimate D2E/DX2                !
 ! D25   D(12,4,5,6)            58.5193         estimate D2E/DX2                !
 ! D26   D(12,4,5,13)          -62.618          estimate D2E/DX2                !
 ! D27   D(12,4,5,14)          179.7078         estimate D2E/DX2                !
 ! D28   D(4,5,6,15)           -60.1976         estimate D2E/DX2                !
 ! D29   D(4,5,6,16)            59.7096         estimate D2E/DX2                !
 ! D30   D(4,5,6,17)           179.7884         estimate D2E/DX2                !
 ! D31   D(13,5,6,15)           60.2694         estimate D2E/DX2                !
 ! D32   D(13,5,6,16)         -179.8234         estimate D2E/DX2                !
 ! D33   D(13,5,6,17)          -59.7447         estimate D2E/DX2                !
 ! D34   D(14,5,6,15)          178.7563         estimate D2E/DX2                !
 ! D35   D(14,5,6,16)          -61.3365         estimate D2E/DX2                !
 ! D36   D(14,5,6,17)           58.7422         estimate D2E/DX2                !
 --------------------------------------------------------------------------------
 Trust Radius=3.00D-01 FncErr=1.00D-07 GrdErr=1.00D-06 EigMax=2.50D+02 EigMin=1.00D-04
 Number of steps in this run=     90 maximum allowed number of steps=    102.
 GradGradGradGradGradGradGradGradGradGradGradGradGradGradGradGradGradGrad

 Leave Link  103 at Wed Oct 22 13:10:29 2025, MaxMem=  4294967296 cpu:               0.1 elap:               0.0
 (Enter /lrz/sys/applications/gaussian/g16.C.01/x86_64_legacy/exe/l202.exe)
                          Input orientation:                          
 ---------------------------------------------------------------------
 Center     Atomic      Atomic             Coordinates (Angstroms)
 Number     Number       Type             X           Y           Z
 ---------------------------------------------------------------------
      1          8           0       -1.465303   -1.029556    0.162136
      2          6           0       -0.990057    0.305414    0.274403
      3          7           0       -1.832387    1.276574   -0.378679
      4          6           0        0.406606    0.352393   -0.343313
      5          6           0        1.430721   -0.422645    0.479370
      6          6           0        2.806108   -0.396644   -0.174075
      7          1           0       -2.296492   -1.118265    0.643722
      8          1           0       -0.935377    0.587947    1.337558
      9          1           0       -2.777023    1.258586   -0.009448
     10          1           0       -1.879601    1.087166   -1.373767
     11          1           0        0.699174    1.398542   -0.427102
     12          1           0        0.345544   -0.076654   -1.343840
     13          1           0        1.089223   -1.453035    0.580214
     14          1           0        1.493550    0.012263    1.478794
     15          1           0        2.766613   -0.846622   -1.163312
     16          1           0        3.159179    0.626934   -0.277355
     17          1           0        3.523942   -0.949820    0.426369
 ---------------------------------------------------------------------
                    Distance matrix (angstroms):
                    1          2          3          4          5
     1  O    0.000000
     2  C    1.421481   0.000000
     3  N    2.396970   1.441939   0.000000
     4  C    2.381030   1.527890   2.422489   0.000000
     5  C    2.975892   2.536187   3.777759   1.525222   0.000000
     6  C    4.331117   3.886501   4.935298   2.519387   1.522944
     7  H    0.964712   1.967239   2.644986   3.231689   3.795130
     8  H    2.068516   1.101414   2.055311   2.163731   2.712232
     9  H    2.643037   2.045081   1.014393   3.326883   4.557476
    10  H    2.647858   2.029505   1.014054   2.613134   4.083121
    11  H    3.305726   2.130854   2.534960   1.089516   2.161844
    12  H    2.540700   2.132726   2.739735   1.090351   2.149747
    13  H    2.622923   2.740267   4.111696   2.139728   1.090180
    14  H    3.402028   2.775752   4.013795   2.148770   1.091761
    15  H    4.438400   4.184111   5.125857   2.771222   2.159345
    16  H    4.931830   4.198091   5.034683   2.767017   2.159124
    17  H    4.996874   4.687738   5.856210   3.464960   2.159235
                    6          7          8          9         10
     6  C    0.000000
     7  H    5.217860   0.000000
     8  H    4.153693   2.290241   0.000000
     9  H    5.825654   2.511367   2.378202   0.000000
    10  H    5.059331   3.017944   2.914115   1.641987   0.000000
    11  H    2.779548   4.056476   2.538276   3.503994   2.764636
    12  H    2.743195   3.466369   3.045053   3.648822   2.511303
    13  H    2.152350   3.402818   2.972908   4.759039   4.368590
    14  H    2.149881   4.042260   2.500209   4.691054   4.546501
    15  H    1.087488   5.382769   4.692235   6.041127   5.036977
    16  H    1.087675   5.801590   4.401687   5.975722   5.177184
    17  H    1.087115   5.826926   4.804219   6.690976   6.048808
                   11         12         13         14         15
    11  H    0.000000
    12  H    1.772474   0.000000
    13  H    3.049313   2.479812   0.000000
    14  H    2.487015   3.048457   1.765793   0.000000
    15  H    3.139597   2.546962   2.494245   3.055994   0.000000
    16  H    2.582523   3.090140   3.057190   2.497238   1.763631
    17  H    3.771276   3.741426   2.490934   2.481067   1.763883
                   16         17
    16  H    0.000000
    17  H    1.764775   0.000000
 Stoichiometry    C4H11NO
 Framework group  C1[X(C4H11NO)]
 Deg. of freedom    45
 Full point group                 C1      NOp   1
 Largest Abelian subgroup         C1      NOp   1
 Largest concise Abelian subgroup C1      NOp   1
                         Standard orientation:                         
 ---------------------------------------------------------------------
 Center     Atomic      Atomic             Coordinates (Angstroms)
 Number     Number       Type             X           Y           Z
 ---------------------------------------------------------------------
      1          8           0        1.303136    1.261487   -0.328007
      2          6           0        1.073500    0.013537    0.312693
      3          7           0        2.087283   -0.974029    0.036749
      4          6           0       -0.281533   -0.507958   -0.163098
      5          6           0       -1.441735    0.336198    0.354234
      6          6           0       -2.779013   -0.176441   -0.163693
      7          1           0        2.096741    1.670940    0.036969
      8          1           0        1.052716    0.159069    1.404252
      9          1           0        3.007048   -0.652578    0.319052
     10          1           0        2.116309   -1.178917   -0.955966
     11          1           0       -0.380073   -1.538574    0.176260
     12          1           0       -0.281823   -0.495429   -1.253376
     13          1           0       -1.292522    1.367541    0.033985
     14          1           0       -1.442114    0.317627    1.445838
     15          1           0       -2.804462   -0.144291   -1.250408
     16          1           0       -2.940791   -1.204544    0.152330
     17          1           0       -3.594414    0.433448    0.217065
 ---------------------------------------------------------------------
 Rotational constants (GHZ):           7.4377532           1.7638447           1.5416581
 Leave Link  202 at Wed Oct 22 13:10:29 2025, MaxMem=  4294967296 cpu:               0.0 elap:               0.0
 (Enter /lrz/sys/applications/gaussian/g16.C.01/x86_64_legacy/exe/l301.exe)
 Standard basis: def2SVP (5D, 7F)
 Ernie: Thresh=  0.10000D-02 Tol=  0.10000D-05 Strict=F.
 There are   145 symmetry adapted cartesian basis functions of A   symmetry.
 There are   139 symmetry adapted basis functions of A   symmetry.
   139 basis functions,   227 primitive gaussians,   145 cartesian basis functions
    25 alpha electrons       25 beta electrons
       nuclear repulsion energy       257.4920254487 Hartrees.
 IExCor= 4639 DFT=T Ex+Corr=wB97XD ExCW=0 ScaHFX=  1.000000
 ScaDFX=  1.000000  1.000000  1.000000  1.000000 ScalE2=  1.000000  1.000000
 IRadAn=      5 IRanWt=     -1 IRanGd=            0 ICorTp=0 IEmpDi=121
 HFx  wShort=  0.000000 wLong=  0.200000 cFull=  0.222036 cShort=  0.000000 cLong=  0.777964
 DFx  wShort=  0.000000 wLong=  0.200000 cFull=  0.000000 cShort=  0.000000 cLong=  1.000000
 NAtoms=   17 NActive=   17 NUniq=   17 SFac= 1.00D+00 NAtFMM=   60 NAOKFM=F Big=F
 Integral buffers will be    131072 words long.
 Raffenetti 2 integral format.
 Two-electron integral symmetry is turned on.
 R6Disp:  Grimme-D2 Dispersion energy=       -0.0087769482 Hartrees.
 Nuclear repulsion after empirical dispersion term =      257.4832485005 Hartrees.
 ------------------------------------------------------------------------------
 Polarizable Continuum Model (PCM)
 =================================
 Model                : PCM.
 Atomic radii         : SMD-Coulomb.
 Polarization charges : Total charges.
 Charge compensation  : None.
 Solution method      : On-the-fly selection.
 Cavity type          : VdW (van der Waals Surface) (Alpha=1.000).
 Cavity algorithm     : GePol (No added spheres)
                        Default sphere list used, NSphG=   17.
                        Lebedev-Laikov grids with approx.  5.0 points / Ang**2.
                        Smoothing algorithm: York/Karplus (Gamma=1.0000).
                        Polarization charges: spherical gaussians, with
                                              point-specific exponents (IZeta= 3).
                        Self-potential: point-specific (ISelfS= 7).
                        Self-field    : sphere-specific E.n sum rule (ISelfD= 2).
 1st derivatives      : Analytical E(r).r(x)/FMM algorithm (CHGder, D1EAlg=3).
                        Cavity 1st derivative terms included.
 Solvent              : Water, Eps=  78.355300 Eps(inf)=   1.777849
 ------------------------------------------------------------------------------
 Spheres list:
 ISph  on   Nord     Re0    Alpha      Xe            Ye            Ze
    1   O      1    1.5200  1.000      1.303136      1.261487     -0.328007
    2   C      2    1.8500  1.000      1.073500      0.013537      0.312693
    3   N      3    1.8900  1.000      2.087283     -0.974029      0.036749
    4   C      4    1.8500  1.000     -0.281533     -0.507958     -0.163098
    5   C      5    1.8500  1.000     -1.441735      0.336198      0.354234
    6   C      6    1.8500  1.000     -2.779013     -0.176441     -0.163693
    7   H      7    1.2000  1.000      2.096741      1.670940      0.036969
    8   H      8    1.2000  1.000      1.052716      0.159069      1.404252
    9   H      9    1.2000  1.000      3.007048     -0.652578      0.319052
   10   H     10    1.2000  1.000      2.116309     -1.178917     -0.955966
   11   H     11    1.2000  1.000     -0.380073     -1.538574      0.176260
   12   H     12    1.2000  1.000     -0.281823     -0.495429     -1.253376
   13   H     13    1.2000  1.000     -1.292522      1.367541      0.033985
   14   H     14    1.2000  1.000     -1.442114      0.317627      1.445838
   15   H     15    1.2000  1.000     -2.804462     -0.144291     -1.250408
   16   H     16    1.2000  1.000     -2.940791     -1.204544      0.152330
   17   H     17    1.2000  1.000     -3.594414      0.433448      0.217065
 ------------------------------------------------------------------------------
 GePol: Number of generator spheres                  =      17
 GePol: Total number of spheres                      =      17
 GePol: Number of exposed spheres                    =      17 (100.00%)
 GePol: Number of points                             =    1194
 GePol: Average weight of points                     =       0.12
 GePol: Minimum weight of points                     =   0.22D-09
 GePol: Maximum weight of points                     =    0.21991
 GePol: Number of points with low weight             =      80
 GePol: Fraction of low-weight points (<1% of avg)   =       6.70%
 GePol: Cavity surface area                          =    137.707 Ang**2
 GePol: Cavity volume                                =    107.612 Ang**3
 ------------------------------------------------------------------------------
 Atomic radii for non-electrostatic terms: SMD-CDS.
 ------------------------------------------------------------------------------
 PCM non-electrostatic energy =         0.0034401411 Hartrees.
 Nuclear repulsion after PCM non-electrostatic terms =      257.4866886416 Hartrees.
 Leave Link  301 at Wed Oct 22 13:10:29 2025, MaxMem=  4294967296 cpu:               0.5 elap:               0.1
 (Enter /lrz/sys/applications/gaussian/g16.C.01/x86_64_legacy/exe/l302.exe)
 NPDir=0 NMtPBC=     1 NCelOv=     1 NCel=       1 NClECP=     1 NCelD=      1
         NCelK=      1 NCelE2=     1 NClLst=     1 CellRange=     0.0.
 One-electron integrals computed using PRISM.
 One-electron integral symmetry used in STVInt
   1 Symmetry operations used in ECPInt.
 ECPInt:  NShTT=    2415 NPrTT=    8239 LenC2=    2397 LenP2D=    6858.
 LDataN:  DoStor=T MaxTD1= 4 Len=   56
 NBasis=   139 RedAO= T EigKep=  1.35D-03  NBF=   139
 NBsUse=   139 1.00D-06 EigRej= -1.00D+00 NBFU=   139
 Precomputing XC quadrature grid using
 IXCGrd= 4 IRadAn=           5 IRanWt=          -1 IRanGd=           0 AccXCQ= 0.00D+00.
 Generated NRdTot=       0 NPtTot=           0 NUsed=           0 NTot=          32
 NSgBfM=   145   145   145   145   145 MxSgAt=    17 MxSgA2=    17.
 Leave Link  302 at Wed Oct 22 13:10:29 2025, MaxMem=  4294967296 cpu:               1.3 elap:               0.2
 (Enter /lrz/sys/applications/gaussian/g16.C.01/x86_64_legacy/exe/l303.exe)
 DipDrv:  MaxL=1.
 Leave Link  303 at Wed Oct 22 13:10:30 2025, MaxMem=  4294967296 cpu:               0.2 elap:               0.0
 (Enter /lrz/sys/applications/gaussian/g16.C.01/x86_64_legacy/exe/l401.exe)
 ExpMin= 1.22D-01 ExpMax= 2.27D+03 ExpMxC= 3.41D+02 IAcc=3 IRadAn=         5 AccDes= 0.00D+00
 Harris functional with IExCor= 4639 and IRadAn=       5 diagonalized for initial guess.
 HarFok:  IExCor= 4639 AccDes= 0.00D+00 IRadAn=         5 IDoV= 1 UseB2=F ITyADJ=14
 ICtDFT=  3500011 ScaDFX=  1.000000  1.000000  1.000000  1.000000
 FoFCou: FMM=F IPFlag=           0 FMFlag=      100000 FMFlg1=           0
         NFxFlg=           0 DoJE=T BraDBF=F KetDBF=T FulRan=T
         wScrn=  0.000000 ICntrl=       500 IOpCl=  0 I1Cent=   200000004 NGrid=           0
         NMat0=    1 NMatS0=      1 NMatT0=    0 NMatD0=    1 NMtDS0=    0 NMtDT0=    0
 Petite list used in FoFCou.
 Harris En= -275.860373360484    
 JPrj=0 DoOrth=F DoCkMO=F.
 Leave Link  401 at Wed Oct 22 13:10:30 2025, MaxMem=  4294967296 cpu:               6.3 elap:               0.8
 (Enter /lrz/sys/applications/gaussian/g16.C.01/x86_64_legacy/exe/l502.exe)
 Integral symmetry usage will be decided dynamically.
 Closed shell SCF:
 Using DIIS extrapolation, IDIIS=  1040.
 NGot=  4294967296 LenX=  4294921924 LenY=  4294900458
 Requested convergence on RMS density matrix=1.00D-08 within 128 cycles.
 Requested convergence on MAX density matrix=1.00D-06.
 Requested convergence on             energy=1.00D-06.
 No special actions if energy rises.
 Fock matrices will be formed incrementally for  20 cycles.

 Cycle   1  Pass 1  IDiag  1:
 FoFJK:  IHMeth= 1 ICntrl=       0 DoSepK=T KAlg= 0 I1Cent=           0 FoldK=F
 IRaf=         1 NMat=       1 IRICut=       1 DoRegI=T DoRafI=F ISym2E= 0 IDoP0=0 IntGTp=1.
 FoFCou: FMM=F IPFlag=           0 FMFlag=      100000 FMFlg1=           0
         NFxFlg=           0 DoJE=T BraDBF=F KetDBF=F FulRan=T
         wScrn=  0.000000 ICntrl=       500 IOpCl=  0 I1Cent=           0 NGrid=           0
         NMat0=    1 NMatS0=      1 NMatT0=    0 NMatD0=    1 NMtDS0=    0 NMtDT0=    0
 Symmetry not used in FoFCou.
 Inv3:  Mode=1 IEnd=     4276908.
 Iteration    1 A*A^-1 deviation from unit magnitude is 5.33D-15 for    309.
 Iteration    1 A*A^-1 deviation from orthogonality  is 3.21D-15 for    732    119.
 Iteration    1 A^-1*A deviation from unit magnitude is 5.33D-15 for    309.
 Iteration    1 A^-1*A deviation from orthogonality  is 3.17D-15 for    848     89.
 E= -288.692355870112    
 DIIS: error= 2.74D-02 at cycle   1 NSaved=   1.
 NSaved= 1 IEnMin= 1 EnMin= -288.692355870112     IErMin= 1 ErrMin= 2.74D-02
 ErrMax= 2.74D-02  0.00D+00 EMaxC= 1.00D-01 BMatC= 1.21D-01 BMatP= 1.21D-01
 IDIUse=3 WtCom= 7.26D-01 WtEn= 2.74D-01
 Coeff-Com:  0.100D+01
 Coeff-En:   0.100D+01
 Coeff:      0.100D+01
 Gap=     0.512 Goal=   None    Shift=    0.000
 GapD=    0.512 DampG=2.000 DampE=0.500 DampFc=1.0000 IDamp=-1.
 RMSDP=2.76D-03 MaxDP=5.80D-02              OVMax= 5.33D-02

 Cycle   2  Pass 1  IDiag  1:
 RMSU=  2.74D-03    CP:  9.89D-01
 E= -288.723195653935     Delta-E=       -0.030839783823 Rises=F Damp=F
 DIIS: error= 8.41D-03 at cycle   2 NSaved=   2.
 NSaved= 2 IEnMin= 2 EnMin= -288.723195653935     IErMin= 2 ErrMin= 8.41D-03
 ErrMax= 8.41D-03  0.00D+00 EMaxC= 1.00D-01 BMatC= 2.26D-02 BMatP= 1.21D-01
 IDIUse=3 WtCom= 9.16D-01 WtEn= 8.41D-02
 Coeff-Com:  0.236D+00 0.764D+00
 Coeff-En:   0.980D-01 0.902D+00
 Coeff:      0.225D+00 0.775D+00
 Gap=     0.485 Goal=   None    Shift=    0.000
 RMSDP=1.26D-03 MaxDP=3.76D-02 DE=-3.08D-02 OVMax= 3.17D-02

 Cycle   3  Pass 1  IDiag  1:
 RMSU=  1.01D-03    CP:  9.92D-01  7.31D-01
 E= -288.737384075988     Delta-E=       -0.014188422053 Rises=F Damp=F
 DIIS: error= 5.06D-03 at cycle   3 NSaved=   3.
 NSaved= 3 IEnMin= 3 EnMin= -288.737384075988     IErMin= 3 ErrMin= 5.06D-03
 ErrMax= 5.06D-03  0.00D+00 EMaxC= 1.00D-01 BMatC= 5.99D-03 BMatP= 2.26D-02
 IDIUse=3 WtCom= 9.49D-01 WtEn= 5.06D-02
 Coeff-Com:  0.450D-03 0.337D+00 0.663D+00
 Coeff-En:   0.000D+00 0.140D+00 0.860D+00
 Coeff:      0.427D-03 0.327D+00 0.673D+00
 Gap=     0.477 Goal=   None    Shift=    0.000
 RMSDP=4.97D-04 MaxDP=1.67D-02 DE=-1.42D-02 OVMax= 1.43D-02

 Cycle   4  Pass 1  IDiag  1:
 RMSU=  2.12D-04    CP:  9.90D-01  8.63D-01  7.41D-01
 E= -288.741946426982     Delta-E=       -0.004562350995 Rises=F Damp=F
 DIIS: error= 8.42D-04 at cycle   4 NSaved=   4.
 NSaved= 4 IEnMin= 4 EnMin= -288.741946426982     IErMin= 4 ErrMin= 8.42D-04
 ErrMax= 8.42D-04  0.00D+00 EMaxC= 1.00D-01 BMatC= 1.74D-04 BMatP= 5.99D-03
 IDIUse=3 WtCom= 9.92D-01 WtEn= 8.42D-03
 Coeff-Com: -0.272D-02 0.131D+00 0.304D+00 0.568D+00
 Coeff-En:   0.000D+00 0.000D+00 0.000D+00 0.100D+01
 Coeff:     -0.269D-02 0.130D+00 0.301D+00 0.572D+00
 Gap=     0.473 Goal=   None    Shift=    0.000
 RMSDP=7.66D-05 MaxDP=2.46D-03 DE=-4.56D-03 OVMax= 1.95D-03

 Cycle   5  Pass 1  IDiag  1:
 RMSU=  6.01D-05    CP:  9.90D-01  8.64D-01  7.54D-01  7.86D-01
 E= -288.742078243923     Delta-E=       -0.000131816940 Rises=F Damp=F
 DIIS: error= 8.55D-05 at cycle   5 NSaved=   5.
 NSaved= 5 IEnMin= 5 EnMin= -288.742078243923     IErMin= 5 ErrMin= 8.55D-05
 ErrMax= 8.55D-05  0.00D+00 EMaxC= 1.00D-01 BMatC= 2.74D-06 BMatP= 1.74D-04
 IDIUse=1 WtCom= 1.00D+00 WtEn= 0.00D+00
 Coeff-Com: -0.171D-03-0.212D-01-0.338D-01 0.473D-01 0.101D+01
 Coeff:     -0.171D-03-0.212D-01-0.338D-01 0.473D-01 0.101D+01
 Gap=     0.473 Goal=   None    Shift=    0.000
 RMSDP=2.93D-05 MaxDP=4.06D-04 DE=-1.32D-04 OVMax= 5.45D-04

 Cycle   6  Pass 1  IDiag  1:
 RMSU=  1.07D-05    CP:  9.90D-01  8.69D-01  7.64D-01  8.81D-01  1.17D+00
 E= -288.742082207682     Delta-E=       -0.000003963759 Rises=F Damp=F
 DIIS: error= 1.88D-05 at cycle   6 NSaved=   6.
 NSaved= 6 IEnMin= 6 EnMin= -288.742082207682     IErMin= 6 ErrMin= 1.88D-05
 ErrMax= 1.88D-05  0.00D+00 EMaxC= 1.00D-01 BMatC= 1.61D-07 BMatP= 2.74D-06
 IDIUse=1 WtCom= 1.00D+00 WtEn= 0.00D+00
 Coeff-Com:  0.232D-04-0.109D-01-0.206D-01-0.143D-01 0.228D+00 0.817D+00
 Coeff:      0.232D-04-0.109D-01-0.206D-01-0.143D-01 0.228D+00 0.817D+00
 Gap=     0.473 Goal=   None    Shift=    0.000
 RMSDP=6.28D-06 MaxDP=1.15D-04 DE=-3.96D-06 OVMax= 1.58D-04

 Cycle   7  Pass 1  IDiag  1:
 RMSU=  3.17D-06    CP:  9.90D-01  8.70D-01  7.65D-01  8.94D-01  1.23D+00
                    CP:  1.05D+00
 E= -288.742082399906     Delta-E=       -0.000000192224 Rises=F Damp=F
 DIIS: error= 9.20D-06 at cycle   7 NSaved=   7.
 NSaved= 7 IEnMin= 7 EnMin= -288.742082399906     IErMin= 7 ErrMin= 9.20D-06
 ErrMax= 9.20D-06  0.00D+00 EMaxC= 1.00D-01 BMatC= 1.91D-08 BMatP= 1.61D-07
 IDIUse=1 WtCom= 1.00D+00 WtEn= 0.00D+00
 Coeff-Com:  0.387D-04-0.262D-02-0.520D-02-0.768D-02 0.195D-01 0.284D+00
 Coeff-Com:  0.712D+00
 Coeff:      0.387D-04-0.262D-02-0.520D-02-0.768D-02 0.195D-01 0.284D+00
 Coeff:      0.712D+00
 Gap=     0.473 Goal=   None    Shift=    0.000
 RMSDP=1.52D-06 MaxDP=3.55D-05 DE=-1.92D-07 OVMax= 3.53D-05

 Cycle   8  Pass 1  IDiag  1:
 RMSU=  8.74D-07    CP:  9.90D-01  8.70D-01  7.65D-01  8.97D-01  1.24D+00
                    CP:  1.13D+00  9.93D-01
 E= -288.742082420929     Delta-E=       -0.000000021023 Rises=F Damp=F
 DIIS: error= 1.73D-06 at cycle   8 NSaved=   8.
 NSaved= 8 IEnMin= 8 EnMin= -288.742082420929     IErMin= 8 ErrMin= 1.73D-06
 ErrMax= 1.73D-06  0.00D+00 EMaxC= 1.00D-01 BMatC= 7.84D-10 BMatP= 1.91D-08
 IDIUse=1 WtCom= 1.00D+00 WtEn= 0.00D+00
 Coeff-Com: -0.172D-05 0.811D-03 0.159D-02 0.882D-03-0.209D-01-0.523D-01
 Coeff-Com:  0.547D-01 0.102D+01
 Coeff:     -0.172D-05 0.811D-03 0.159D-02 0.882D-03-0.209D-01-0.523D-01
 Coeff:      0.547D-01 0.102D+01
 Gap=     0.473 Goal=   None    Shift=    0.000
 RMSDP=7.54D-07 MaxDP=1.63D-05 DE=-2.10D-08 OVMax= 2.01D-05

 Cycle   9  Pass 1  IDiag  1:
 RMSU=  2.65D-07    CP:  9.90D-01  8.70D-01  7.66D-01  8.98D-01  1.24D+00
                    CP:  1.17D+00  1.12D+00  1.23D+00
 E= -288.742082422519     Delta-E=       -0.000000001590 Rises=F Damp=F
 DIIS: error= 6.18D-07 at cycle   9 NSaved=   9.
 NSaved= 9 IEnMin= 9 EnMin= -288.742082422519     IErMin= 9 ErrMin= 6.18D-07
 ErrMax= 6.18D-07  0.00D+00 EMaxC= 1.00D-01 BMatC= 1.50D-10 BMatP= 7.84D-10
 IDIUse=1 WtCom= 1.00D+00 WtEn= 0.00D+00
 Coeff-Com: -0.392D-05 0.484D-03 0.955D-03 0.829D-03-0.956D-02-0.386D-01
 Coeff-Com: -0.283D-01 0.387D+00 0.687D+00
 Coeff:     -0.392D-05 0.484D-03 0.955D-03 0.829D-03-0.956D-02-0.386D-01
 Coeff:     -0.283D-01 0.387D+00 0.687D+00
 Gap=     0.473 Goal=   None    Shift=    0.000
 RMSDP=1.56D-07 MaxDP=4.15D-06 DE=-1.59D-09 OVMax= 4.52D-06

 Cycle  10  Pass 1  IDiag  1:
 RMSU=  9.42D-08    CP:  9.90D-01  8.70D-01  7.66D-01  8.98D-01  1.24D+00
                    CP:  1.17D+00  1.14D+00  1.32D+00  1.04D+00
 E= -288.742082422692     Delta-E=       -0.000000000172 Rises=F Damp=F
 DIIS: error= 1.22D-07 at cycle  10 NSaved=  10.
 NSaved=10 IEnMin=10 EnMin= -288.742082422692     IErMin=10 ErrMin= 1.22D-07
 ErrMax= 1.22D-07  0.00D+00 EMaxC= 1.00D-01 BMatC= 5.78D-12 BMatP= 1.50D-10
 IDIUse=1 WtCom= 1.00D+00 WtEn= 0.00D+00
 Coeff-Com: -0.148D-06-0.386D-04-0.757D-04-0.192D-05 0.140D-02 0.240D-02
 Coeff-Com: -0.862D-02-0.679D-01 0.734D-01 0.999D+00
 Coeff:     -0.148D-06-0.386D-04-0.757D-04-0.192D-05 0.140D-02 0.240D-02
 Coeff:     -0.862D-02-0.679D-01 0.734D-01 0.999D+00
 Gap=     0.473 Goal=   None    Shift=    0.000
 RMSDP=6.71D-08 MaxDP=1.68D-06 DE=-1.72D-10 OVMax= 1.64D-06

 Cycle  11  Pass 1  IDiag  1:
 RMSU=  1.87D-08    CP:  9.90D-01  8.70D-01  7.66D-01  8.98D-01  1.24D+00
                    CP:  1.18D+00  1.15D+00  1.35D+00  1.20D+00  1.21D+00
 E= -288.742082422701     Delta-E=       -0.000000000009 Rises=F Damp=F
 DIIS: error= 2.26D-08 at cycle  11 NSaved=  11.
 NSaved=11 IEnMin=11 EnMin= -288.742082422701     IErMin=11 ErrMin= 2.26D-08
 ErrMax= 2.26D-08  0.00D+00 EMaxC= 1.00D-01 BMatC= 2.21D-13 BMatP= 5.78D-12
 IDIUse=1 WtCom= 1.00D+00 WtEn= 0.00D+00
 Coeff-Com:  0.231D-06-0.260D-04-0.514D-04-0.384D-04 0.528D-03 0.200D-02
 Coeff-Com:  0.750D-03-0.230D-01-0.331D-01 0.328D-01 0.102D+01
 Coeff:      0.231D-06-0.260D-04-0.514D-04-0.384D-04 0.528D-03 0.200D-02
 Coeff:      0.750D-03-0.230D-01-0.331D-01 0.328D-01 0.102D+01
 Gap=     0.473 Goal=   None    Shift=    0.000
 RMSDP=1.74D-08 MaxDP=4.45D-07 DE=-9.32D-12 OVMax= 4.15D-07

 Cycle  12  Pass 1  IDiag  1:
 RMSU=  4.88D-09    CP:  9.90D-01  8.70D-01  7.66D-01  8.98D-01  1.24D+00
                    CP:  1.18D+00  1.15D+00  1.36D+00  1.23D+00  1.31D+00
                    CP:  1.28D+00
 E= -288.742082422702     Delta-E=       -0.000000000001 Rises=F Damp=F
 DIIS: error= 8.79D-09 at cycle  12 NSaved=  12.
 NSaved=12 IEnMin=12 EnMin= -288.742082422702     IErMin=12 ErrMin= 8.79D-09
 ErrMax= 8.79D-09  0.00D+00 EMaxC= 1.00D-01 BMatC= 3.31D-14 BMatP= 2.21D-13
 IDIUse=1 WtCom= 1.00D+00 WtEn= 0.00D+00
 Coeff-Com:  0.337D-07-0.446D-05-0.876D-05-0.902D-05 0.517D-04 0.368D-03
 Coeff-Com:  0.660D-03-0.178D-02-0.125D-01-0.511D-01 0.289D+00 0.775D+00
 Coeff:      0.337D-07-0.446D-05-0.876D-05-0.902D-05 0.517D-04 0.368D-03
 Coeff:      0.660D-03-0.178D-02-0.125D-01-0.511D-01 0.289D+00 0.775D+00
 Gap=     0.473 Goal=   None    Shift=    0.000
 RMSDP=3.27D-09 MaxDP=7.81D-08 DE=-1.02D-12 OVMax= 8.98D-08

 Error on total polarization charges =  0.03402
 SCF Done:  E(RwB97XD) =  -288.742082423     A.U. after   12 cycles
            NFock= 12  Conv=0.33D-08     -V/T= 2.0104
 KE= 2.857754703434D+02 PE=-1.187224701900D+03 EE= 3.552204604923D+02
 SMD-CDS (non-electrostatic) energy       (kcal/mol) =       2.16
 (included in total energy above)
 Leave Link  502 at Wed Oct 22 13:10:53 2025, MaxMem=  4294967296 cpu:             180.6 elap:              22.7
 (Enter /lrz/sys/applications/gaussian/g16.C.01/x86_64_legacy/exe/l601.exe)
 Copying SCF densities to generalized density rwf, IOpCl= 0 IROHF=0.

 **********************************************************************

            Population analysis using the SCF Density.

 **********************************************************************

 Orbital symmetries:
       Occupied  (A) (A) (A) (A) (A) (A) (A) (A) (A) (A) (A) (A)
                 (A) (A) (A) (A) (A) (A) (A) (A) (A) (A) (A) (A)
                 (A)
       Virtual   (A) (A) (A) (A) (A) (A) (A) (A) (A) (A) (A) (A)
                 (A) (A) (A) (A) (A) (A) (A) (A) (A) (A) (A) (A)
                 (A) (A) (A) (A) (A) (A) (A) (A) (A) (A) (A) (A)
                 (A) (A) (A) (A) (A) (A) (A) (A) (A) (A) (A) (A)
                 (A) (A) (A) (A) (A) (A) (A) (A) (A) (A) (A) (A)
                 (A) (A) (A) (A) (A) (A) (A) (A) (A) (A) (A) (A)
                 (A) (A) (A) (A) (A) (A) (A) (A) (A) (A) (A) (A)
                 (A) (A) (A) (A) (A) (A) (A) (A) (A) (A) (A) (A)
                 (A) (A) (A) (A) (A) (A) (A) (A) (A) (A) (A) (A)
                 (A) (A) (A) (A) (A) (A)
 The electronic state is 1-A.
 Alpha  occ. eigenvalues --  -19.24676 -14.41264 -10.35627 -10.27964 -10.27785
 Alpha  occ. eigenvalues --  -10.27399  -1.10828  -0.95484  -0.87494  -0.79043
 Alpha  occ. eigenvalues --   -0.69606  -0.66228  -0.61615  -0.56508  -0.53921
 Alpha  occ. eigenvalues --   -0.52451  -0.49871  -0.47550  -0.45609  -0.44409
 Alpha  occ. eigenvalues --   -0.41147  -0.40374  -0.39399  -0.37006  -0.32504
 Alpha virt. eigenvalues --    0.14811   0.16104   0.17470   0.19515   0.20422
 Alpha virt. eigenvalues --    0.20919   0.22983   0.24754   0.25736   0.25912
 Alpha virt. eigenvalues --    0.26462   0.30245   0.31954   0.33610   0.35498
 Alpha virt. eigenvalues --    0.39469   0.51913   0.52979   0.53406   0.53470
 Alpha virt. eigenvalues --    0.57113   0.62318   0.64385   0.67028   0.67899
 Alpha virt. eigenvalues --    0.70292   0.73039   0.73881   0.75020   0.75339
 Alpha virt. eigenvalues --    0.76003   0.77416   0.78576   0.79992   0.80499
 Alpha virt. eigenvalues --    0.81404   0.81912   0.83253   0.85712   0.89583
 Alpha virt. eigenvalues --    0.90487   0.99015   1.04374   1.06607   1.09915
 Alpha virt. eigenvalues --    1.10789   1.12805   1.14639   1.22245   1.29271
 Alpha virt. eigenvalues --    1.35854   1.36571   1.40155   1.45160   1.46189
 Alpha virt. eigenvalues --    1.52965   1.54389   1.57509   1.61836   1.63938
 Alpha virt. eigenvalues --    1.67953   1.77150   1.79854   1.85189   1.85644
 Alpha virt. eigenvalues --    1.86281   1.87591   1.88902   1.90457   1.91654
 Alpha virt. eigenvalues --    1.93701   1.96417   1.98377   1.99529   2.00527
 Alpha virt. eigenvalues --    2.01882   2.03312   2.06143   2.08016   2.09974
 Alpha virt. eigenvalues --    2.15171   2.17935   2.22628   2.25063   2.32185
 Alpha virt. eigenvalues --    2.37106   2.38070   2.42212   2.46335   2.51441
 Alpha virt. eigenvalues --    2.54438   2.57745   2.58011   2.69305   2.70850
 Alpha virt. eigenvalues --    2.72531   2.80162   2.86186   2.91308   2.92133
 Alpha virt. eigenvalues --    2.96908   2.98115   3.02418   3.05294   3.09769
 Alpha virt. eigenvalues --    3.12939   3.14144   3.16970   3.21745   3.23635
 Alpha virt. eigenvalues --    3.34583   3.46570   3.52324   3.86984
          Condensed to atoms (all electrons):
               1          2          3          4          5          6
     1  O    7.901930   0.316432  -0.078190  -0.074424  -0.002488  -0.000105
     2  C    0.316432   4.533249   0.368286   0.329357  -0.044796   0.007399
     3  N   -0.078190   0.368286   6.356361  -0.049931   0.007422  -0.000173
     4  C   -0.074424   0.329357  -0.049931   4.908914   0.377642  -0.052606
     5  C   -0.002488  -0.044796   0.007422   0.377642   4.685854   0.420064
     6  C   -0.000105   0.007399  -0.000173  -0.052606   0.420064   4.547605
     7  H    0.325086  -0.015643   0.002576   0.008161  -0.000021   0.000028
     8  H   -0.032735   0.413142  -0.045251  -0.040134  -0.010408   0.000182
     9  H    0.000728  -0.017001   0.356678   0.009582  -0.000615   0.000017
    10  H    0.003456  -0.010601   0.351011  -0.020065   0.000157  -0.000037
    11  H    0.005269  -0.018896   0.010499   0.364727  -0.018747  -0.005676
    12  H    0.002661  -0.004609  -0.008364   0.355160  -0.026222  -0.005720
    13  H    0.017139  -0.005405   0.000596  -0.028833   0.372589  -0.023265
    14  H   -0.000787  -0.005024  -0.000121  -0.025488   0.384873  -0.024649
    15  H   -0.000007   0.000368   0.000003  -0.008149  -0.020925   0.397678
    16  H   -0.000013   0.000418  -0.000027  -0.006338  -0.023567   0.397753
    17  H    0.000001  -0.000425   0.000004   0.007319  -0.015553   0.388887
               7          8          9         10         11         12
     1  O    0.325086  -0.032735   0.000728   0.003456   0.005269   0.002661
     2  C   -0.015643   0.413142  -0.017001  -0.010601  -0.018896  -0.004609
     3  N    0.002576  -0.045251   0.356678   0.351011   0.010499  -0.008364
     4  C    0.008161  -0.040134   0.009582  -0.020065   0.364727   0.355160
     5  C   -0.000021  -0.010408  -0.000615   0.000157  -0.018747  -0.026222
     6  C    0.000028   0.000182   0.000017  -0.000037  -0.005676  -0.005720
     7  H    0.474576  -0.006125   0.004014  -0.000505  -0.000541  -0.000306
     8  H   -0.006125   0.687643  -0.008196   0.009713  -0.004204   0.009070
     9  H    0.004014  -0.008196   0.554722  -0.027043  -0.000113  -0.000477
    10  H   -0.000505   0.009713  -0.027043   0.563359  -0.000946   0.007588
    11  H   -0.000541  -0.004204  -0.000113  -0.000946   0.659941  -0.023332
    12  H   -0.000306   0.009070  -0.000477   0.007588  -0.023332   0.665110
    13  H   -0.000671  -0.000671  -0.000016  -0.000024   0.008593  -0.008788
    14  H   -0.000036   0.007452  -0.000006   0.000050  -0.009900   0.008430
    15  H   -0.000000   0.000009  -0.000000  -0.000008  -0.001507   0.006322
    16  H    0.000001  -0.000028   0.000001   0.000005   0.005829  -0.001479
    17  H   -0.000002  -0.000003  -0.000000   0.000000   0.000033  -0.000007
              13         14         15         16         17
     1  O    0.017139  -0.000787  -0.000007  -0.000013   0.000001
     2  C   -0.005405  -0.005024   0.000368   0.000418  -0.000425
     3  N    0.000596  -0.000121   0.000003  -0.000027   0.000004
     4  C   -0.028833  -0.025488  -0.008149  -0.006338   0.007319
     5  C    0.372589   0.384873  -0.020925  -0.023567  -0.015553
     6  C   -0.023265  -0.024649   0.397678   0.397753   0.388887
     7  H   -0.000671  -0.000036  -0.000000   0.000001  -0.000002
     8  H   -0.000671   0.007452   0.000009  -0.000028  -0.000003
     9  H   -0.000016  -0.000006  -0.000000   0.000001  -0.000000
    10  H   -0.000024   0.000050  -0.000008   0.000005   0.000000
    11  H    0.008593  -0.009900  -0.001507   0.005829   0.000033
    12  H   -0.008788   0.008430   0.006322  -0.001479  -0.000007
    13  H    0.683180  -0.028034  -0.008935   0.007552  -0.005650
    14  H   -0.028034   0.670421   0.007666  -0.008478  -0.005844
    15  H   -0.008935   0.007666   0.639424  -0.023560  -0.021780
    16  H    0.007552  -0.008478  -0.023560   0.641110  -0.022398
    17  H   -0.005650  -0.005844  -0.021780  -0.022398   0.638537
 Mulliken charges:
               1
     1  O   -0.383955
     2  C    0.153749
     3  N   -0.271379
     4  C   -0.054893
     5  C   -0.085260
     6  C   -0.047382
     7  H    0.209408
     8  H    0.020546
     9  H    0.127725
    10  H    0.123891
    11  H    0.028973
    12  H    0.024962
    13  H    0.020643
    14  H    0.029475
    15  H    0.033399
    16  H    0.033219
    17  H    0.036880
 Sum of Mulliken charges =  -0.00000
 Mulliken charges with hydrogens summed into heavy atoms:
               1
     1  O   -0.174547
     2  C    0.174295
     3  N   -0.019763
     4  C   -0.000958
     5  C   -0.035143
     6  C    0.056117
 Electronic spatial extent (au):  <R**2>=            818.0671
 Charge=             -0.0000 electrons
 Dipole moment (field-independent basis, Debye):
    X=              1.8969    Y=              0.4354    Z=              0.6025  Tot=              2.0374
 Quadrupole moment (field-independent basis, Debye-Ang):
   XX=            -30.4867   YY=            -41.3720   ZZ=            -37.9358
   XY=              3.5916   XZ=              0.3230   YZ=              3.2790
 Traceless Quadrupole moment (field-independent basis, Debye-Ang):
   XX=              6.1115   YY=             -4.7738   ZZ=             -1.3377
   XY=              3.5916   XZ=              0.3230   YZ=              3.2790
 Octapole moment (field-independent basis, Debye-Ang**2):
  XXX=             45.8285  YYY=              9.9978  ZZZ=             -1.6204  XYY=              4.1569
  XXY=             11.8559  XXZ=              1.1875  XZZ=              5.3035  YZZ=             -0.4386
  YYZ=             -0.4919  XYZ=              6.3429
 Hexadecapole moment (field-independent basis, Debye-Ang**3):
 XXXX=           -704.4040 YYYY=           -179.4438 ZZZZ=            -81.3156 XXXY=             19.5381
 XXXZ=             -3.1634 YYYX=             26.6917 YYYZ=              4.7077 ZZZX=             -2.0611
 ZZZY=              2.3230 XXYY=           -152.1315 XXZZ=           -142.2841 YYZZ=            -45.0037
 XXYZ=             10.1107 YYXZ=             -3.8727 ZZXY=             -1.5362
 N-N= 2.574866886416D+02 E-N=-1.187224704033D+03  KE= 2.857754703434D+02
 No NMR shielding tensors so no spin-rotation constants.
 Leave Link  601 at Wed Oct 22 13:10:53 2025, MaxMem=  4294967296 cpu:               0.6 elap:               0.1
 (Enter /lrz/sys/applications/gaussian/g16.C.01/x86_64_legacy/exe/l701.exe)
 ... and contract with generalized density number  0.
 Compute integral first derivatives.
 R6Disp: Adding Grimme-D2 dispersion energy 1st derivatives to the gradient.
   1 Symmetry operations used in ECPInt.
 ECPInt:  NShTT=    2415 NPrTT=    8239 LenC2=    2397 LenP2D=    6858.
 LDataN:  DoStor=T MaxTD1= 5 Len=  102
 D1PCM: PCM CHGder 1st derivatives, ID1Alg=3 FixD1E=F DoIter=F DoCFld=F I1PDM=0.
 GePol: Maximum number of non-zero 1st derivatives   =     266
 Leave Link  701 at Wed Oct 22 13:10:54 2025, MaxMem=  4294967296 cpu:               4.8 elap:               0.6
 (Enter /lrz/sys/applications/gaussian/g16.C.01/x86_64_legacy/exe/l702.exe)
 L702 exits ... SP integral derivatives will be done elsewhere.
 Leave Link  702 at Wed Oct 22 13:10:54 2025, MaxMem=  4294967296 cpu:               0.1 elap:               0.0
 (Enter /lrz/sys/applications/gaussian/g16.C.01/x86_64_legacy/exe/l703.exe)
 Integral derivatives from FoFJK, PRISM(SPDF).
 Compute integral first derivatives, UseDBF=F ICtDFT=           0.
 Calling FoFJK, ICntrl=      2127 FMM=F ISym2X=0 I1Cent= 0 IOpClX= 0 NMat=1 NMatS=1 NMatT=0.
 FoFJK:  IHMeth= 1 ICntrl=    2127 DoSepK=T KAlg= 0 I1Cent=           0 FoldK=F
 IRaf=         1 NMat=       1 IRICut=       1 DoRegI=T DoRafI=F ISym2E= 0 IDoP0=0 IntGTp=1.
 FoFCou: FMM=F IPFlag=           0 FMFlag=      100000 FMFlg1=         800
         NFxFlg=           0 DoJE=F BraDBF=F KetDBF=F FulRan=T
         wScrn=  0.000000 ICntrl=      2527 IOpCl=  0 I1Cent=           0 NGrid=           0
         NMat0=    1 NMatS0=      1 NMatT0=    0 NMatD0=    1 NMtDS0=    0 NMtDT0=    0
 Symmetry not used in FoFCou.
 Leave Link  703 at Wed Oct 22 13:10:57 2025, MaxMem=  4294967296 cpu:              25.0 elap:               3.1
 (Enter /lrz/sys/applications/gaussian/g16.C.01/x86_64_legacy/exe/l716.exe)
 Dipole        = 7.46304307D-01 1.71282993D-01 2.37040736D-01
 ***** Axes restored to original set *****
 -------------------------------------------------------------------
 Center     Atomic                   Forces (Hartrees/Bohr)
 Number     Number              X              Y              Z
 -------------------------------------------------------------------
      1        8           0.003633974   -0.002966813   -0.000432860
      2        6          -0.004622174    0.005881756   -0.010311799
      3        7           0.004904134    0.004367969    0.005271537
      4        6          -0.007542777   -0.008906849    0.018650055
      5        6           0.003995272    0.006454845   -0.013093292
      6        6          -0.009045608   -0.002113000    0.007312455
      7        1           0.000864999    0.003147885    0.000797865
      8        1           0.000238114   -0.000898554    0.002411700
      9        1          -0.003226844   -0.002245996    0.001080963
     10        1          -0.001440278   -0.002713669   -0.004305972
     11        1           0.002636018    0.006348569   -0.001604361
     12        1          -0.000660546   -0.001337339   -0.009342492
     13        1          -0.002065896   -0.006956744    0.002835573
     14        1          -0.000546330    0.001444434    0.007339869
     15        1           0.000994257   -0.003573038   -0.008762453
     16        1           0.004211988    0.008263458   -0.001504976
     17        1           0.007671698   -0.004196913    0.003658187
 -------------------------------------------------------------------
 Cartesian Forces:  Max     0.018650055 RMS     0.005766421
 Leave Link  716 at Wed Oct 22 13:10:57 2025, MaxMem=  4294967296 cpu:               0.2 elap:               0.0
 (Enter /lrz/sys/applications/gaussian/g16.C.01/x86_64_legacy/exe/l103.exe)

 GradGradGradGradGradGradGradGradGradGradGradGradGradGradGradGradGradGrad
 Berny optimization.
 FormGI is forming the generalized inverse of G from B-inverse, IUseBI=4.
 Internal  Forces:  Max     0.009413864 RMS     0.003104712
 Search for a local minimum.
 Step number   1 out of a maximum of   90
 All quantities printed in internal units (Hartrees-Bohrs-Radians)
 RMS Force = .31047D-02 SwitMx=.10000D-02 MixMth= 1
 Mixed Optimization -- RFO/linear search
 Second derivative matrix not updated -- first step.
 ITU=  0
     Eigenvalues ---    0.00397   0.00432   0.00462   0.01137   0.01408
     Eigenvalues ---    0.03688   0.03759   0.04304   0.04929   0.04959
     Eigenvalues ---    0.05414   0.05643   0.05673   0.05681   0.07685
     Eigenvalues ---    0.08135   0.08233   0.12044   0.12114   0.16000
     Eigenvalues ---    0.16000   0.16000   0.16000   0.16000   0.16000
     Eigenvalues ---    0.17148   0.20272   0.21940   0.21991   0.29619
     Eigenvalues ---    0.29869   0.30085   0.33526   0.34610   0.34772
     Eigenvalues ---    0.34792   0.34869   0.35083   0.35105   0.35148
     Eigenvalues ---    0.39321   0.42238   0.45245   0.45300   0.54472
 RFO step:  Lambda=-3.44985003D-03 EMin= 3.97015701D-03
 Linear search not attempted -- first point.
 Iteration  1 RMS(Cart)=  0.04101981 RMS(Int)=  0.00083389
 Iteration  2 RMS(Cart)=  0.00114681 RMS(Int)=  0.00016959
 Iteration  3 RMS(Cart)=  0.00000092 RMS(Int)=  0.00016958
 ITry= 1 IFail=0 DXMaxC= 1.10D-01 DCOld= 1.00D+10 DXMaxT= 3.00D-01 DXLimC= 3.00D+00 Rises=F
 Variable       Old X    -DE/DX   Delta X   Delta X   Delta X     New X
                                 (Linear)    (Quad)   (Total)
    R1        2.68621  -0.00171   0.00000  -0.00401  -0.00401   2.68220
    R2        1.82304  -0.00063   0.00000  -0.00116  -0.00116   1.82188
    R3        2.72487  -0.00146   0.00000  -0.00369  -0.00369   2.72118
    R4        2.88729  -0.00268   0.00000  -0.00894  -0.00894   2.87835
    R5        2.08137   0.00211   0.00000   0.00623   0.00623   2.08760
    R6        1.91692   0.00344   0.00000   0.00754   0.00754   1.92447
    R7        1.91628   0.00480   0.00000   0.01052   0.01052   1.92680
    R8        2.88225   0.00265   0.00000   0.00877   0.00877   2.89102
    R9        2.05889   0.00693   0.00000   0.01967   0.01967   2.07856
   R10        2.06046   0.00914   0.00000   0.02602   0.02602   2.08648
   R11        2.87795   0.00313   0.00000   0.01029   0.01029   2.88824
   R12        2.06014   0.00748   0.00000   0.02130   0.02130   2.08144
   R13        2.06313   0.00726   0.00000   0.02078   0.02078   2.08391
   R14        2.05505   0.00941   0.00000   0.02656   0.02656   2.08161
   R15        2.05541   0.00929   0.00000   0.02621   0.02621   2.08162
   R16        2.05435   0.00922   0.00000   0.02598   0.02598   2.08033
    A1        1.91239  -0.00599   0.00000  -0.03667  -0.03667   1.87572
    A2        1.98389   0.00037   0.00000   0.00835   0.00846   1.99235
    A3        1.87818  -0.00346   0.00000  -0.01671  -0.01703   1.86114
    A4        1.91107  -0.00004   0.00000  -0.01997  -0.02020   1.89086
    A5        1.90728   0.00483   0.00000   0.03097   0.03093   1.93821
    A6        1.86860  -0.00079   0.00000   0.00577   0.00581   1.87441
    A7        1.91450  -0.00088   0.00000  -0.00872  -0.00913   1.90538
    A8        1.94678  -0.00272   0.00000  -0.02622  -0.02666   1.92013
    A9        1.92394  -0.00130   0.00000  -0.01775  -0.01819   1.90575
   A10        1.88653   0.00024   0.00000  -0.01698  -0.01789   1.86864
   A11        1.96069   0.00521   0.00000   0.02918   0.02905   1.98974
   A12        1.88187  -0.00097   0.00000   0.00100   0.00092   1.88279
   A13        1.88357  -0.00182   0.00000  -0.00644  -0.00658   1.87699
   A14        1.92740  -0.00165   0.00000  -0.00576  -0.00591   1.92149
   A15        1.90986  -0.00075   0.00000   0.00103   0.00095   1.91081
   A16        1.89895  -0.00015   0.00000  -0.02053  -0.02059   1.87837
   A17        1.94581   0.00404   0.00000   0.02416   0.02403   1.96984
   A18        1.89636  -0.00055   0.00000   0.00328   0.00317   1.89952
   A19        1.90708  -0.00139   0.00000  -0.00538  -0.00547   1.90161
   A20        1.91636  -0.00119   0.00000  -0.00224  -0.00241   1.91395
   A21        1.91134  -0.00060   0.00000   0.00077   0.00073   1.91207
   A22        1.88584  -0.00045   0.00000  -0.02205  -0.02207   1.86377
   A23        1.92884   0.00115   0.00000   0.00665   0.00661   1.93544
   A24        1.92833   0.00122   0.00000   0.00687   0.00683   1.93516
   A25        1.92907   0.00259   0.00000   0.01680   0.01672   1.94580
   A26        1.89105  -0.00145   0.00000  -0.01075  -0.01075   1.88029
   A27        1.89216  -0.00181   0.00000  -0.01000  -0.01007   1.88208
   A28        1.89332  -0.00188   0.00000  -0.01073  -0.01080   1.88252
    D1       -1.15349   0.00138   0.00000   0.00104   0.00101  -1.15248
    D2        3.01514  -0.00251   0.00000  -0.03164  -0.03144   2.98370
    D3        0.93518   0.00059   0.00000  -0.00022  -0.00038   0.93480
    D4        1.01891  -0.00090   0.00000  -0.02250  -0.02238   0.99653
    D5       -1.07699   0.00145   0.00000   0.02793   0.02755  -1.04944
    D6        3.11711  -0.00165   0.00000  -0.01629  -0.01601   3.10110
    D7        1.02121   0.00070   0.00000   0.03413   0.03392   1.05513
    D8       -1.09372  -0.00052   0.00000  -0.00662  -0.00628  -1.09999
    D9        3.09357   0.00182   0.00000   0.04381   0.04365   3.13722
   D10       -1.19308   0.00152   0.00000   0.07519   0.07512  -1.11795
   D11        2.96240   0.00095   0.00000   0.06321   0.06306   3.02546
   D12        0.91385   0.00260   0.00000   0.09026   0.09013   1.00398
   D13        2.92825   0.00029   0.00000   0.05645   0.05652   2.98477
   D14        0.80054  -0.00028   0.00000   0.04446   0.04446   0.84499
   D15       -1.24801   0.00137   0.00000   0.07151   0.07153  -1.17649
   D16        0.88468  -0.00105   0.00000   0.03651   0.03664   0.92132
   D17       -1.24303  -0.00162   0.00000   0.02452   0.02458  -1.21846
   D18        2.99160   0.00003   0.00000   0.05157   0.05165   3.04325
   D19        3.11306  -0.00028   0.00000  -0.00374  -0.00366   3.10940
   D20        0.99882  -0.00099   0.00000  -0.01839  -0.01839   0.98043
   D21       -1.05498   0.00064   0.00000   0.00923   0.00927  -1.04572
   D22       -1.06853   0.00084   0.00000   0.01317   0.01320  -1.05532
   D23        3.10041   0.00013   0.00000  -0.00148  -0.00152   3.09889
   D24        1.04661   0.00177   0.00000   0.02615   0.02613   1.07274
   D25        1.02135  -0.00084   0.00000  -0.01508  -0.01506   1.00629
   D26       -1.09289  -0.00154   0.00000  -0.02973  -0.02979  -1.12268
   D27        3.13649   0.00009   0.00000  -0.00210  -0.00213   3.13436
   D28       -1.05065  -0.00007   0.00000   0.00006   0.00009  -1.05055
   D29        1.04213  -0.00035   0.00000  -0.00461  -0.00461   1.03752
   D30        3.13790  -0.00023   0.00000  -0.00266  -0.00264   3.13526
   D31        1.05190   0.00107   0.00000   0.01836   0.01838   1.07028
   D32       -3.13851   0.00079   0.00000   0.01369   0.01367  -3.12484
   D33       -1.04274   0.00091   0.00000   0.01564   0.01564  -1.02710
   D34        3.11989  -0.00055   0.00000  -0.00941  -0.00941   3.11047
   D35       -1.07052  -0.00083   0.00000  -0.01408  -0.01412  -1.08465
   D36        1.02525  -0.00071   0.00000  -0.01213  -0.01215   1.01309
         Item               Value     Threshold  Converged?
 Maximum Force            0.009414     0.000450     NO 
 RMS     Force            0.003105     0.000300     NO 
 Maximum Displacement     0.109617     0.001800     NO 
 RMS     Displacement     0.040916     0.001200     NO 
 Predicted change in Energy=-1.811343D-03
 Lowest energy point so far.  Saving SCF results.
 GradGradGradGradGradGradGradGradGradGradGradGradGradGradGradGradGradGrad

 Leave Link  103 at Wed Oct 22 13:10:57 2025, MaxMem=  4294967296 cpu:               0.2 elap:               0.0
 (Enter /lrz/sys/applications/gaussian/g16.C.01/x86_64_legacy/exe/l202.exe)
                          Input orientation:                          
 ---------------------------------------------------------------------
 Center     Atomic      Atomic             Coordinates (Angstroms)
 Number     Number       Type             X           Y           Z
 ---------------------------------------------------------------------
      1          8           0       -1.438717   -1.011574    0.187780
      2          6           0       -1.002488    0.337021    0.262486
      3          7           0       -1.868539    1.274249   -0.404686
      4          6           0        0.401593    0.374422   -0.326721
      5          6           0        1.431322   -0.431742    0.467154
      6          6           0        2.820029   -0.413195   -0.170911
      7          1           0       -2.262367   -1.077298    0.684537
      8          1           0       -0.957129    0.629199    1.326892
      9          1           0       -2.811206    1.209063   -0.024904
     10          1           0       -1.926804    1.031623   -1.393302
     11          1           0        0.713272    1.427366   -0.389959
     12          1           0        0.340876   -0.018647   -1.356715
     13          1           0        1.077853   -1.471202    0.555339
     14          1           0        1.490336   -0.027447    1.491429
     15          1           0        2.792180   -0.842492   -1.184973
     16          1           0        3.200508    0.617279   -0.253153
     17          1           0        3.543701   -0.994047    0.421381
 ---------------------------------------------------------------------
                    Distance matrix (angstroms):
                    1          2          3          4          5
     1  O    0.000000
     2  C    1.419361   0.000000
     3  N    2.400156   1.439986   0.000000
     4  C    2.360601   1.523157   2.443208   0.000000
     5  C    2.941322   2.560531   3.815704   1.529863   0.000000
     6  C    4.315510   3.919476   4.988465   2.548225   1.528391
     7  H    0.964099   1.940547   2.621313   3.197939   3.755974
     8  H    2.054663   1.104710   2.060369   2.155335   2.751262
     9  H    2.619197   2.028425   1.018383   3.333135   4.575304
    10  H    2.629202   2.019521   1.019619   2.644038   4.108496
    11  H    3.303523   2.135034   2.586389   1.099924   2.169452
    12  H    2.557014   2.133762   2.731200   1.104119   2.164768
    13  H    2.584469   2.771869   4.140094   2.154458   1.101451
    14  H    3.353708   2.803090   4.070836   2.156972   1.102758
    15  H    4.451238   4.229172   5.178005   2.816449   2.179489
    16  H    4.936597   4.243773   5.113688   2.810395   2.179291
    17  H    4.987922   4.739708   5.926205   3.507879   2.186419
                    6          7          8          9         10
     6  C    0.000000
     7  H    5.196496   0.000000
     8  H    4.194868   2.242410   0.000000
     9  H    5.862068   2.456009   2.366685   0.000000
    10  H    5.110201   2.979524   2.915762   1.638953   0.000000
    11  H    2.806077   4.035135   2.524854   3.550051   2.851896
    12  H    2.776328   3.473374   3.050618   3.635466   2.499355
    13  H    2.163792   3.365847   3.024588   4.758706   4.369130
    14  H    2.163390   3.979453   2.539359   4.725620   4.595666
    15  H    1.101541   5.394316   4.746857   6.078862   5.081782
    16  H    1.101546   5.796021   4.447766   6.045081   5.268866
    17  H    1.100864   5.812626   4.869533   6.740750   6.109242
                   11         12         13         14         15
    11  H    0.000000
    12  H    1.778834   0.000000
    13  H    3.070539   2.511774   0.000000
    14  H    2.501985   3.071361   1.769417   0.000000
    15  H    3.179018   2.591738   2.522475   3.085809   0.000000
    16  H    2.619408   3.130455   3.085624   2.526643   1.779312
    17  H    3.812197   3.790927   2.515160   2.509108   1.779923
                   16         17
    16  H    0.000000
    17  H    1.780210   0.000000
 Stoichiometry    C4H11NO
 Framework group  C1[X(C4H11NO)]
 Deg. of freedom    45
 Full point group                 C1      NOp   1
 RotChk:  IX=0 Diff= 3.22D-02
 Largest Abelian subgroup         C1      NOp   1
 Largest concise Abelian subgroup C1      NOp   1
                         Standard orientation:                         
 ---------------------------------------------------------------------
 Center     Atomic      Atomic             Coordinates (Angstroms)
 Number     Number       Type             X           Y           Z
 ---------------------------------------------------------------------
      1          8           0        1.266939    1.259142   -0.326035
      2          6           0        1.090239    0.002614    0.309970
      3          7           0        2.129240   -0.952990    0.025618
      4          6           0       -0.270492   -0.521424   -0.130261
      5          6           0       -1.448028    0.338805    0.332229
      6          6           0       -2.796277   -0.185404   -0.161135
      7          1           0        2.054089    1.667105    0.052711
      8          1           0        1.080433    0.164478    1.402713
      9          1           0        3.035580   -0.571654    0.290640
     10          1           0        2.159588   -1.126205   -0.978722
     11          1           0       -0.377764   -1.546629    0.253511
     12          1           0       -0.265190   -0.576150   -1.233011
     13          1           0       -1.297658    1.369531   -0.025805
     14          1           0       -1.449444    0.381453    1.434160
     15          1           0       -2.830352   -0.207082   -1.261935
     16          1           0       -2.974971   -1.210501    0.200318
     17          1           0       -3.627157    0.445907    0.189559
 ---------------------------------------------------------------------
 Rotational constants (GHZ):           7.5275383           1.7442334           1.5271243
 Leave Link  202 at Wed Oct 22 13:10:57 2025, MaxMem=  4294967296 cpu:               0.0 elap:               0.0
 (Enter /lrz/sys/applications/gaussian/g16.C.01/x86_64_legacy/exe/l301.exe)
 Standard basis: def2SVP (5D, 7F)
 Ernie: Thresh=  0.10000D-02 Tol=  0.10000D-05 Strict=F.
 There are   145 symmetry adapted cartesian basis functions of A   symmetry.
 There are   139 symmetry adapted basis functions of A   symmetry.
   139 basis functions,   227 primitive gaussians,   145 cartesian basis functions
    25 alpha electrons       25 beta electrons
       nuclear repulsion energy       256.7924421678 Hartrees.
 IExCor= 4639 DFT=T Ex+Corr=wB97XD ExCW=0 ScaHFX=  1.000000
 ScaDFX=  1.000000  1.000000  1.000000  1.000000 ScalE2=  1.000000  1.000000
 IRadAn=      5 IRanWt=     -1 IRanGd=            0 ICorTp=0 IEmpDi=121
 HFx  wShort=  0.000000 wLong=  0.200000 cFull=  0.222036 cShort=  0.000000 cLong=  0.777964
 DFx  wShort=  0.000000 wLong=  0.200000 cFull=  0.000000 cShort=  0.000000 cLong=  1.000000
 NAtoms=   17 NActive=   17 NUniq=   17 SFac= 1.00D+00 NAtFMM=   60 NAOKFM=F Big=F
 Integral buffers will be    131072 words long.
 Raffenetti 2 integral format.
 Two-electron integral symmetry is turned on.
 R6Disp:  Grimme-D2 Dispersion energy=       -0.0087323614 Hartrees.
 Nuclear repulsion after empirical dispersion term =      256.7837098064 Hartrees.
 ------------------------------------------------------------------------------
 Polarizable Continuum Model (PCM)
 =================================
 Model                : PCM.
 Atomic radii         : SMD-Coulomb.
 Polarization charges : Total charges.
 Charge compensation  : None.
 Solution method      : On-the-fly selection.
 Cavity type          : VdW (van der Waals Surface) (Alpha=1.000).
 Cavity algorithm     : GePol (No added spheres)
                        Default sphere list used, NSphG=   17.
                        Lebedev-Laikov grids with approx.  5.0 points / Ang**2.
                        Smoothing algorithm: York/Karplus (Gamma=1.0000).
                        Polarization charges: spherical gaussians, with
                                              point-specific exponents (IZeta= 3).
                        Self-potential: point-specific (ISelfS= 7).
                        Self-field    : sphere-specific E.n sum rule (ISelfD= 2).
 1st derivatives      : Analytical E(r).r(x)/FMM algorithm (CHGder, D1EAlg=3).
                        Cavity 1st derivative terms included.
 Solvent              : Water, Eps=  78.355300 Eps(inf)=   1.777849
 ------------------------------------------------------------------------------
 Spheres list:
 ISph  on   Nord     Re0    Alpha      Xe            Ye            Ze
    1   O      1    1.5200  1.000      1.266939      1.259142     -0.326035
    2   C      2    1.8500  1.000      1.090239      0.002614      0.309970
    3   N      3    1.8900  1.000      2.129240     -0.952990      0.025618
    4   C      4    1.8500  1.000     -0.270492     -0.521424     -0.130261
    5   C      5    1.8500  1.000     -1.448028      0.338805      0.332229
    6   C      6    1.8500  1.000     -2.796277     -0.185404     -0.161135
    7   H      7    1.2000  1.000      2.054089      1.667105      0.052711
    8   H      8    1.2000  1.000      1.080433      0.164478      1.402713
    9   H      9    1.2000  1.000      3.035580     -0.571654      0.290640
   10   H     10    1.2000  1.000      2.159588     -1.126205     -0.978722
   11   H     11    1.2000  1.000     -0.377764     -1.546629      0.253511
   12   H     12    1.2000  1.000     -0.265190     -0.576150     -1.233011
   13   H     13    1.2000  1.000     -1.297658      1.369531     -0.025805
   14   H     14    1.2000  1.000     -1.449444      0.381453      1.434160
   15   H     15    1.2000  1.000     -2.830352     -0.207082     -1.261935
   16   H     16    1.2000  1.000     -2.974971     -1.210501      0.200318
   17   H     17    1.2000  1.000     -3.627157      0.445907      0.189559
 ------------------------------------------------------------------------------
 GePol: Number of generator spheres                  =      17
 GePol: Total number of spheres                      =      17
 GePol: Number of exposed spheres                    =      17 (100.00%)
 GePol: Number of points                             =    1200
 GePol: Average weight of points                     =       0.12
 GePol: Minimum weight of points                     =   0.20D-08
 GePol: Maximum weight of points                     =    0.21991
 GePol: Number of points with low weight             =      70
 GePol: Fraction of low-weight points (<1% of avg)   =       5.83%
 GePol: Cavity surface area                          =    138.283 Ang**2
 GePol: Cavity volume                                =    107.962 Ang**3
 ------------------------------------------------------------------------------
 Atomic radii for non-electrostatic terms: SMD-CDS.
 ------------------------------------------------------------------------------
 PCM non-electrostatic energy =         0.0033086111 Hartrees.
 Nuclear repulsion after PCM non-electrostatic terms =      256.7870184175 Hartrees.
 Leave Link  301 at Wed Oct 22 13:10:57 2025, MaxMem=  4294967296 cpu:               0.5 elap:               0.1
 (Enter /lrz/sys/applications/gaussian/g16.C.01/x86_64_legacy/exe/l302.exe)
 NPDir=0 NMtPBC=     1 NCelOv=     1 NCel=       1 NClECP=     1 NCelD=      1
         NCelK=      1 NCelE2=     1 NClLst=     1 CellRange=     0.0.
 One-electron integrals computed using PRISM.
 One-electron integral symmetry used in STVInt
   1 Symmetry operations used in ECPInt.
 ECPInt:  NShTT=    2415 NPrTT=    8239 LenC2=    2397 LenP2D=    6839.
 LDataN:  DoStor=T MaxTD1= 4 Len=   56
 NBasis=   139 RedAO= T EigKep=  1.42D-03  NBF=   139
 NBsUse=   139 1.00D-06 EigRej= -1.00D+00 NBFU=   139
 Precomputing XC quadrature grid using
 IXCGrd= 4 IRadAn=           5 IRanWt=          -1 IRanGd=           0 AccXCQ= 0.00D+00.
 Generated NRdTot=       0 NPtTot=           0 NUsed=           0 NTot=          32
 NSgBfM=   145   145   145   145   145 MxSgAt=    17 MxSgA2=    17.
 Leave Link  302 at Wed Oct 22 13:10:57 2025, MaxMem=  4294967296 cpu:               1.3 elap:               0.2
 (Enter /lrz/sys/applications/gaussian/g16.C.01/x86_64_legacy/exe/l303.exe)
 DipDrv:  MaxL=1.
 Leave Link  303 at Wed Oct 22 13:10:57 2025, MaxMem=  4294967296 cpu:               0.2 elap:               0.0
 (Enter /lrz/sys/applications/gaussian/g16.C.01/x86_64_legacy/exe/l401.exe)
 Initial guess from the checkpoint file:  "g16_C17-a_9.chk"
 B after Tr=     0.000000   -0.000000    0.000000
         Rot=    0.999972    0.006198   -0.000700   -0.004074 Ang=   0.85 deg.
 Guess basis will be translated and rotated to current coordinates.
 JPrj=2 DoOrth=T DoCkMO=T.
 Generating alternative initial guess.
 ExpMin= 1.22D-01 ExpMax= 2.27D+03 ExpMxC= 3.41D+02 IAcc=3 IRadAn=         5 AccDes= 0.00D+00
 Harris functional with IExCor= 4639 and IRadAn=       5 diagonalized for initial guess.
 HarFok:  IExCor= 4639 AccDes= 0.00D+00 IRadAn=         5 IDoV= 1 UseB2=F ITyADJ=14
 ICtDFT=  3500011 ScaDFX=  1.000000  1.000000  1.000000  1.000000
 FoFCou: FMM=F IPFlag=           0 FMFlag=      100000 FMFlg1=           0
         NFxFlg=           0 DoJE=T BraDBF=F KetDBF=T FulRan=T
         wScrn=  0.000000 ICntrl=       500 IOpCl=  0 I1Cent=   200000004 NGrid=           0
         NMat0=    1 NMatS0=      1 NMatT0=    0 NMatD0=    1 NMtDS0=    0 NMtDT0=    0
 Petite list used in FoFCou.
 Harris En= -275.865586893378    
 Leave Link  401 at Wed Oct 22 13:10:58 2025, MaxMem=  4294967296 cpu:               6.8 elap:               0.9
 (Enter /lrz/sys/applications/gaussian/g16.C.01/x86_64_legacy/exe/l502.exe)
 Integral symmetry usage will be decided dynamically.
 Closed shell SCF:
 Using DIIS extrapolation, IDIIS=  1040.
 NGot=  4294967296 LenX=  4294921924 LenY=  4294900458
 Requested convergence on RMS density matrix=1.00D-08 within 128 cycles.
 Requested convergence on MAX density matrix=1.00D-06.
 Requested convergence on             energy=1.00D-06.
 No special actions if energy rises.
 Fock matrices will be formed incrementally for  20 cycles.

 Cycle   1  Pass 1  IDiag  1:
 FoFJK:  IHMeth= 1 ICntrl=       0 DoSepK=T KAlg= 0 I1Cent=           0 FoldK=F
 IRaf=         1 NMat=       1 IRICut=       1 DoRegI=T DoRafI=F ISym2E= 0 IDoP0=0 IntGTp=1.
 FoFCou: FMM=F IPFlag=           0 FMFlag=      100000 FMFlg1=           0
         NFxFlg=           0 DoJE=T BraDBF=F KetDBF=F FulRan=T
         wScrn=  0.000000 ICntrl=       500 IOpCl=  0 I1Cent=           0 NGrid=           0
         NMat0=    1 NMatS0=      1 NMatT0=    0 NMatD0=    1 NMtDS0=    0 NMtDT0=    0
 Symmetry not used in FoFCou.
 Inv3:  Mode=1 IEnd=     4320000.
 Iteration    1 A*A^-1 deviation from unit magnitude is 5.55D-15 for    268.
 Iteration    1 A*A^-1 deviation from orthogonality  is 2.85D-15 for   1038    399.
 Iteration    1 A^-1*A deviation from unit magnitude is 6.22D-15 for    268.
 Iteration    1 A^-1*A deviation from orthogonality  is 4.41D-12 for    857    854.
 E= -288.741483230773    
 DIIS: error= 1.64D-03 at cycle   1 NSaved=   1.
 NSaved= 1 IEnMin= 1 EnMin= -288.741483230773     IErMin= 1 ErrMin= 1.64D-03
 ErrMax= 1.64D-03  0.00D+00 EMaxC= 1.00D-01 BMatC= 1.54D-03 BMatP= 1.54D-03
 IDIUse=3 WtCom= 9.84D-01 WtEn= 1.64D-02
 Coeff-Com:  0.100D+01
 Coeff-En:   0.100D+01
 Coeff:      0.100D+01
 Gap=     0.753 Goal=   None    Shift=    0.000
 GapD=    0.753 DampG=2.000 DampE=1.000 DampFc=2.0000 IDamp=-1.
 RMSDP=5.19D-04 MaxDP=1.24D-02              OVMax= 9.94D-03

 Cycle   2  Pass 1  IDiag  1:
 RMSU=  5.19D-04    CP:  9.99D-01
 E= -288.743736543115     Delta-E=       -0.002253312342 Rises=F Damp=F
 DIIS: error= 3.74D-04 at cycle   2 NSaved=   2.
 NSaved= 2 IEnMin= 2 EnMin= -288.743736543115     IErMin= 2 ErrMin= 3.74D-04
 ErrMax= 3.74D-04  0.00D+00 EMaxC= 1.00D-01 BMatC= 5.77D-05 BMatP= 1.54D-03
 IDIUse=3 WtCom= 9.96D-01 WtEn= 3.74D-03
 Coeff-Com: -0.147D+00 0.115D+01
 Coeff-En:   0.000D+00 0.100D+01
 Coeff:     -0.147D+00 0.115D+01
 Gap=     0.475 Goal=   None    Shift=    0.000
 RMSDP=1.24D-04 MaxDP=2.60D-03 DE=-2.25D-03 OVMax= 3.27D-03

 Cycle   3  Pass 1  IDiag  1:
 RMSU=  7.76D-05    CP:  9.99D-01  1.19D+00
 E= -288.743851522898     Delta-E=       -0.000114979783 Rises=F Damp=F
 DIIS: error= 1.94D-04 at cycle   3 NSaved=   3.
 NSaved= 3 IEnMin= 3 EnMin= -288.743851522898     IErMin= 3 ErrMin= 1.94D-04
 ErrMax= 1.94D-04  0.00D+00 EMaxC= 1.00D-01 BMatC= 1.15D-05 BMatP= 5.77D-05
 IDIUse=3 WtCom= 9.98D-01 WtEn= 1.94D-03
 Coeff-Com: -0.669D-01 0.385D+00 0.682D+00
 Coeff-En:   0.000D+00 0.000D+00 0.100D+01
 Coeff:     -0.667D-01 0.384D+00 0.682D+00
 Gap=     0.476 Goal=   None    Shift=    0.000
 RMSDP=2.96D-05 MaxDP=9.25D-04 DE=-1.15D-04 OVMax= 6.95D-04

 Cycle   4  Pass 1  IDiag  1:
 RMSU=  2.77D-05    CP:  9.99D-01  1.20D+00  9.71D-01
 E= -288.743863468348     Delta-E=       -0.000011945451 Rises=F Damp=F
 DIIS: error= 5.54D-05 at cycle   4 NSaved=   4.
 NSaved= 4 IEnMin= 4 EnMin= -288.743863468348     IErMin= 4 ErrMin= 5.54D-05
 ErrMax= 5.54D-05  0.00D+00 EMaxC= 1.00D-01 BMatC= 9.47D-07 BMatP= 1.15D-05
 IDIUse=1 WtCom= 1.00D+00 WtEn= 0.00D+00
 Coeff-Com:  0.446D-02-0.714D-01 0.155D+00 0.912D+00
 Coeff:      0.446D-02-0.714D-01 0.155D+00 0.912D+00
 Gap=     0.475 Goal=   None    Shift=    0.000
 RMSDP=1.33D-05 MaxDP=2.34D-04 DE=-1.19D-05 OVMax= 3.84D-04

 Cycle   5  Pass 1  IDiag  1:
 RMSU=  6.68D-06    CP:  9.99D-01  1.21D+00  1.10D+00  1.09D+00
 E= -288.743864613164     Delta-E=       -0.000001144816 Rises=F Damp=F
 DIIS: error= 2.60D-05 at cycle   5 NSaved=   5.
 NSaved= 5 IEnMin= 5 EnMin= -288.743864613164     IErMin= 5 ErrMin= 2.60D-05
 ErrMax= 2.60D-05  0.00D+00 EMaxC= 1.00D-01 BMatC= 1.50D-07 BMatP= 9.47D-07
 IDIUse=1 WtCom= 1.00D+00 WtEn= 0.00D+00
 Coeff-Com:  0.526D-02-0.517D-01 0.349D-01 0.409D+00 0.602D+00
 Coeff:      0.526D-02-0.517D-01 0.349D-01 0.409D+00 0.602D+00
 Gap=     0.476 Goal=   None    Shift=    0.000
 RMSDP=3.17D-06 MaxDP=8.15D-05 DE=-1.14D-06 OVMax= 9.66D-05

 Cycle   6  Pass 1  IDiag  1:
 RMSU=  2.13D-06    CP:  9.99D-01  1.21D+00  1.13D+00  1.14D+00  8.77D-01
 E= -288.743864746578     Delta-E=       -0.000000133414 Rises=F Damp=F
 DIIS: error= 4.31D-06 at cycle   6 NSaved=   6.
 NSaved= 6 IEnMin= 6 EnMin= -288.743864746578     IErMin= 6 ErrMin= 4.31D-06
 ErrMax= 4.31D-06  0.00D+00 EMaxC= 1.00D-01 BMatC= 3.97D-09 BMatP= 1.50D-07
 IDIUse=1 WtCom= 1.00D+00 WtEn= 0.00D+00
 Coeff-Com:  0.439D-03-0.128D-02-0.109D-01-0.352D-01 0.754D-01 0.972D+00
 Coeff:      0.439D-03-0.128D-02-0.109D-01-0.352D-01 0.754D-01 0.972D+00
 Gap=     0.476 Goal=   None    Shift=    0.000
 RMSDP=1.47D-06 MaxDP=2.52D-05 DE=-1.33D-07 OVMax= 5.52D-05

 Cycle   7  Pass 1  IDiag  1:
 RMSU=  4.95D-07    CP:  9.99D-01  1.21D+00  1.14D+00  1.16D+00  1.00D+00
                    CP:  1.21D+00
 E= -288.743864754862     Delta-E=       -0.000000008283 Rises=F Damp=F
 DIIS: error= 1.21D-06 at cycle   7 NSaved=   7.
 NSaved= 7 IEnMin= 7 EnMin= -288.743864754862     IErMin= 7 ErrMin= 1.21D-06
 ErrMax= 1.21D-06  0.00D+00 EMaxC= 1.00D-01 BMatC= 2.60D-10 BMatP= 3.97D-09
 IDIUse=1 WtCom= 1.00D+00 WtEn= 0.00D+00
 Coeff-Com: -0.209D-03 0.268D-02-0.335D-02-0.267D-01-0.268D-01 0.131D+00
 Coeff-Com:  0.923D+00
 Coeff:     -0.209D-03 0.268D-02-0.335D-02-0.267D-01-0.268D-01 0.131D+00
 Coeff:      0.923D+00
 Gap=     0.476 Goal=   None    Shift=    0.000
 RMSDP=3.82D-07 MaxDP=7.78D-06 DE=-8.28D-09 OVMax= 1.78D-05

 Cycle   8  Pass 1  IDiag  1:
 RMSU=  1.60D-07    CP:  9.99D-01  1.21D+00  1.14D+00  1.17D+00  1.03D+00
                    CP:  1.31D+00  1.20D+00
 E= -288.743864755454     Delta-E=       -0.000000000592 Rises=F Damp=F
 DIIS: error= 3.24D-07 at cycle   8 NSaved=   8.
 NSaved= 8 IEnMin= 8 EnMin= -288.743864755454     IErMin= 8 ErrMin= 3.24D-07
 ErrMax= 3.24D-07  0.00D+00 EMaxC= 1.00D-01 BMatC= 5.15D-11 BMatP= 2.60D-10
 IDIUse=1 WtCom= 1.00D+00 WtEn= 0.00D+00
 Coeff-Com: -0.101D-03 0.899D-03-0.917D-04-0.472D-02-0.159D-01-0.490D-01
 Coeff-Com:  0.297D+00 0.771D+00
 Coeff:     -0.101D-03 0.899D-03-0.917D-04-0.472D-02-0.159D-01-0.490D-01
 Coeff:      0.297D+00 0.771D+00
 Gap=     0.476 Goal=   None    Shift=    0.000
 RMSDP=1.13D-07 MaxDP=2.69D-06 DE=-5.92D-10 OVMax= 5.53D-06

 Cycle   9  Pass 1  IDiag  1:
 RMSU=  4.66D-08    CP:  9.99D-01  1.21D+00  1.14D+00  1.17D+00  1.04D+00
                    CP:  1.34D+00  1.35D+00  1.01D+00
 E= -288.743864755536     Delta-E=       -0.000000000082 Rises=F Damp=F
 DIIS: error= 1.34D-07 at cycle   9 NSaved=   9.
 NSaved= 9 IEnMin= 9 EnMin= -288.743864755536     IErMin= 9 ErrMin= 1.34D-07
 ErrMax= 1.34D-07  0.00D+00 EMaxC= 1.00D-01 BMatC= 2.25D-12 BMatP= 5.15D-11
 IDIUse=1 WtCom= 1.00D+00 WtEn= 0.00D+00
 Coeff-Com:  0.212D-04-0.286D-03 0.372D-03 0.308D-02 0.226D-02-0.180D-01
 Coeff-Com: -0.936D-01 0.164D-01 0.109D+01
 Coeff:      0.212D-04-0.286D-03 0.372D-03 0.308D-02 0.226D-02-0.180D-01
 Coeff:     -0.936D-01 0.164D-01 0.109D+01
 Gap=     0.476 Goal=   None    Shift=    0.000
 RMSDP=5.09D-08 MaxDP=1.42D-06 DE=-8.24D-11 OVMax= 2.71D-06

 Cycle  10  Pass 1  IDiag  1:
 RMSU=  1.08D-08    CP:  9.99D-01  1.21D+00  1.14D+00  1.17D+00  1.04D+00
                    CP:  1.35D+00  1.41D+00  1.17D+00  1.28D+00
 E= -288.743864755543     Delta-E=       -0.000000000007 Rises=F Damp=F
 DIIS: error= 2.14D-08 at cycle  10 NSaved=  10.
 NSaved=10 IEnMin=10 EnMin= -288.743864755543     IErMin=10 ErrMin= 2.14D-08
 ErrMax= 2.14D-08  0.00D+00 EMaxC= 1.00D-01 BMatC= 1.73D-13 BMatP= 2.25D-12
 IDIUse=1 WtCom= 1.00D+00 WtEn= 0.00D+00
 Coeff-Com:  0.896D-05-0.965D-04 0.805D-04 0.836D-03 0.109D-02-0.115D-02
 Coeff-Com: -0.308D-01-0.321D-01 0.211D+00 0.851D+00
 Coeff:      0.896D-05-0.965D-04 0.805D-04 0.836D-03 0.109D-02-0.115D-02
 Coeff:     -0.308D-01-0.321D-01 0.211D+00 0.851D+00
 Gap=     0.476 Goal=   None    Shift=    0.000
 RMSDP=7.33D-09 MaxDP=1.84D-07 DE=-7.28D-12 OVMax= 3.45D-07

 Error on total polarization charges =  0.03451
 SCF Done:  E(RwB97XD) =  -288.743864756     A.U. after   10 cycles
            NFock= 10  Conv=0.73D-08     -V/T= 2.0108
 KE= 2.856503442664D+02 PE=-1.185692418821D+03 EE= 3.545111913815D+02
 SMD-CDS (non-electrostatic) energy       (kcal/mol) =       2.08
 (included in total energy above)
 Leave Link  502 at Wed Oct 22 13:11:17 2025, MaxMem=  4294967296 cpu:             152.8 elap:              19.2
 (Enter /lrz/sys/applications/gaussian/g16.C.01/x86_64_legacy/exe/l701.exe)
 ... and contract with generalized density number  0.
 Compute integral first derivatives.
 R6Disp: Adding Grimme-D2 dispersion energy 1st derivatives to the gradient.
   1 Symmetry operations used in ECPInt.
 ECPInt:  NShTT=    2415 NPrTT=    8239 LenC2=    2397 LenP2D=    6839.
 LDataN:  DoStor=T MaxTD1= 5 Len=  102
 D1PCM: PCM CHGder 1st derivatives, ID1Alg=3 FixD1E=F DoIter=F DoCFld=F I1PDM=0.
 GePol: Maximum number of non-zero 1st derivatives   =     266
 Leave Link  701 at Wed Oct 22 13:11:18 2025, MaxMem=  4294967296 cpu:               4.8 elap:               0.6
 (Enter /lrz/sys/applications/gaussian/g16.C.01/x86_64_legacy/exe/l702.exe)
 L702 exits ... SP integral derivatives will be done elsewhere.
 Leave Link  702 at Wed Oct 22 13:11:18 2025, MaxMem=  4294967296 cpu:               0.1 elap:               0.0
 (Enter /lrz/sys/applications/gaussian/g16.C.01/x86_64_legacy/exe/l703.exe)
 Integral derivatives from FoFJK, PRISM(SPDF).
 Compute integral first derivatives, UseDBF=F ICtDFT=           0.
 Calling FoFJK, ICntrl=      2127 FMM=F ISym2X=0 I1Cent= 0 IOpClX= 0 NMat=1 NMatS=1 NMatT=0.
 FoFJK:  IHMeth= 1 ICntrl=    2127 DoSepK=T KAlg= 0 I1Cent=           0 FoldK=F
 IRaf=         1 NMat=       1 IRICut=       1 DoRegI=T DoRafI=F ISym2E= 0 IDoP0=0 IntGTp=1.
 FoFCou: FMM=F IPFlag=           0 FMFlag=      100000 FMFlg1=         800
         NFxFlg=           0 DoJE=F BraDBF=F KetDBF=F FulRan=T
         wScrn=  0.000000 ICntrl=      2527 IOpCl=  0 I1Cent=           0 NGrid=           0
         NMat0=    1 NMatS0=      1 NMatT0=    0 NMatD0=    1 NMtDS0=    0 NMtDT0=    0
 Symmetry not used in FoFCou.
 Leave Link  703 at Wed Oct 22 13:11:21 2025, MaxMem=  4294967296 cpu:              24.3 elap:               3.0
 (Enter /lrz/sys/applications/gaussian/g16.C.01/x86_64_legacy/exe/l716.exe)
 Dipole        = 7.51764994D-01 2.15400763D-01 2.26436402D-01
 ***** Axes restored to original set *****
 -------------------------------------------------------------------
 Center     Atomic                   Forces (Hartrees/Bohr)
 Number     Number              X              Y              Z
 -------------------------------------------------------------------
      1        8          -0.001822110   -0.001879350   -0.000428093
      2        6           0.002305992    0.001040285    0.000102529
      3        7           0.003183668    0.000868074    0.000267174
      4        6          -0.000968818   -0.001371905    0.003088342
      5        6           0.000756361    0.001290645   -0.003173177
      6        6          -0.003213633    0.000239377    0.001341988
      7        1          -0.000370800   -0.000557304    0.000205093
      8        1          -0.000109450    0.000793852    0.000363369
      9        1          -0.000628161   -0.000768700    0.000092807
     10        1          -0.001044817   -0.000912788   -0.000686560
     11        1           0.000948543    0.000449068   -0.000703046
     12        1           0.000311028    0.001029338   -0.001199124
     13        1           0.000178386   -0.000038408    0.000709267
     14        1          -0.000209689   -0.000402407    0.000658279
     15        1           0.000376773    0.000075192   -0.000232127
     16        1           0.000499191    0.000015254   -0.000286159
     17        1          -0.000192461    0.000129778   -0.000120561
 -------------------------------------------------------------------
 Cartesian Forces:  Max     0.003213633 RMS     0.001187176
 Leave Link  716 at Wed Oct 22 13:11:21 2025, MaxMem=  4294967296 cpu:               0.1 elap:               0.0
 (Enter /lrz/sys/applications/gaussian/g16.C.01/x86_64_legacy/exe/l103.exe)

 GradGradGradGradGradGradGradGradGradGradGradGradGradGradGradGradGradGrad
 Berny optimization.
 Using GEDIIS/GDIIS optimizer.
 FormGI is forming the generalized inverse of G from B-inverse, IUseBI=4.
 Internal  Forces:  Max     0.002997909 RMS     0.000751707
 Search for a local minimum.
 Step number   2 out of a maximum of   90
 All quantities printed in internal units (Hartrees-Bohrs-Radians)
 RMS Force = .75171D-03 SwitMx=.10000D-02 MixMth= 2
 Mixed Optimization -- En-DIIS/RFO-DIIS
 Update second derivatives using D2CorX and points    1    2
 DE= -1.78D-03 DEPred=-1.81D-03 R= 9.84D-01
 TightC=F SS=  1.41D+00  RLast= 2.33D-01 DXNew= 5.0454D-01 6.9793D-01
 Trust test= 9.84D-01 RLast= 2.33D-01 DXMaxT set to 5.05D-01
 ITU=  1  0
 Use linear search instead of GDIIS.
     Eigenvalues ---    0.00397   0.00433   0.00462   0.01130   0.01407
     Eigenvalues ---    0.03495   0.03585   0.04265   0.04796   0.04895
     Eigenvalues ---    0.05174   0.05535   0.05609   0.05828   0.07895
     Eigenvalues ---    0.08404   0.08549   0.12229   0.12313   0.15640
     Eigenvalues ---    0.16000   0.16000   0.16000   0.16000   0.16293
     Eigenvalues ---    0.17510   0.20909   0.21923   0.22643   0.29128
     Eigenvalues ---    0.29940   0.30308   0.33423   0.34354   0.34656
     Eigenvalues ---    0.34819   0.34845   0.35084   0.35104   0.35764
     Eigenvalues ---    0.39405   0.43584   0.45037   0.45266   0.54508
 RFO step:  Lambda=-3.47581898D-04 EMin= 3.96697356D-03
 Quartic linear search produced a step of  0.03891.
 Iteration  1 RMS(Cart)=  0.02790982 RMS(Int)=  0.00039095
 Iteration  2 RMS(Cart)=  0.00046087 RMS(Int)=  0.00003421
 Iteration  3 RMS(Cart)=  0.00000007 RMS(Int)=  0.00003421
 ITry= 1 IFail=0 DXMaxC= 1.14D-01 DCOld= 1.00D+10 DXMaxT= 5.05D-01 DXLimC= 3.00D+00 Rises=F
 Variable       Old X    -DE/DX   Delta X   Delta X   Delta X     New X
                                 (Linear)    (Quad)   (Total)
    R1        2.68220   0.00300  -0.00016   0.00719   0.00704   2.68924
    R2        1.82188   0.00046  -0.00005   0.00083   0.00079   1.82267
    R3        2.72118  -0.00128  -0.00014  -0.00352  -0.00366   2.71752
    R4        2.87835  -0.00140  -0.00035  -0.00522  -0.00557   2.87278
    R5        2.08760   0.00056   0.00024   0.00196   0.00220   2.08980
    R6        1.92447   0.00066   0.00029   0.00181   0.00210   1.92657
    R7        1.92680   0.00094   0.00041   0.00256   0.00297   1.92977
    R8        2.89102  -0.00247   0.00034  -0.00822  -0.00788   2.88314
    R9        2.07856   0.00074   0.00077   0.00295   0.00372   2.08227
   R10        2.08648   0.00073   0.00101   0.00319   0.00420   2.09068
   R11        2.88824  -0.00259   0.00040  -0.00851  -0.00811   2.88013
   R12        2.08144   0.00004   0.00083   0.00093   0.00176   2.08320
   R13        2.08391   0.00045   0.00081   0.00215   0.00296   2.08687
   R14        2.08161   0.00018   0.00103   0.00154   0.00257   2.08418
   R15        2.08162   0.00021   0.00102   0.00161   0.00263   2.08425
   R16        2.08033  -0.00026   0.00101   0.00024   0.00125   2.08158
    A1        1.87572   0.00094  -0.00143   0.00468   0.00325   1.87898
    A2        1.99235  -0.00074   0.00033  -0.00557  -0.00522   1.98713
    A3        1.86114   0.00173  -0.00066   0.00864   0.00795   1.86909
    A4        1.89086  -0.00003  -0.00079   0.00512   0.00431   1.89517
    A5        1.93821  -0.00138   0.00120  -0.00768  -0.00648   1.93173
    A6        1.87441   0.00049   0.00023  -0.00021   0.00002   1.87443
    A7        1.90538  -0.00005  -0.00036   0.00011  -0.00029   1.90509
    A8        1.92013  -0.00095  -0.00104  -0.01113  -0.01226   1.90787
    A9        1.90575  -0.00006  -0.00071  -0.00512  -0.00593   1.89982
   A10        1.86864  -0.00030  -0.00070  -0.01095  -0.01185   1.85679
   A11        1.98974  -0.00024   0.00113   0.00250   0.00360   1.99334
   A12        1.88279   0.00055   0.00004   0.00456   0.00460   1.88739
   A13        1.87699   0.00026  -0.00026   0.00490   0.00461   1.88160
   A14        1.92149  -0.00029  -0.00023  -0.00447  -0.00471   1.91678
   A15        1.91081   0.00031   0.00004   0.00390   0.00390   1.91471
   A16        1.87837  -0.00061  -0.00080  -0.01216  -0.01296   1.86541
   A17        1.96984  -0.00080   0.00093  -0.00161  -0.00068   1.96916
   A18        1.89952   0.00050   0.00012   0.00455   0.00467   1.90420
   A19        1.90161   0.00028  -0.00021   0.00123   0.00102   1.90263
   A20        1.91395   0.00021  -0.00009   0.00153   0.00142   1.91538
   A21        1.91207   0.00031   0.00003   0.00133   0.00136   1.91343
   A22        1.86377  -0.00049  -0.00086  -0.00737  -0.00823   1.85554
   A23        1.93544   0.00047   0.00026   0.00338   0.00363   1.93907
   A24        1.93516   0.00070   0.00027   0.00507   0.00533   1.94049
   A25        1.94580  -0.00028   0.00065  -0.00154  -0.00089   1.94491
   A26        1.88029  -0.00054  -0.00042  -0.00320  -0.00363   1.87666
   A27        1.88208  -0.00016  -0.00039  -0.00195  -0.00234   1.87974
   A28        1.88252  -0.00024  -0.00042  -0.00215  -0.00257   1.87995
    D1       -1.15248  -0.00042   0.00004  -0.00653  -0.00650  -1.15898
    D2        2.98370   0.00055  -0.00122   0.00056  -0.00064   2.98306
    D3        0.93480  -0.00029  -0.00001  -0.00674  -0.00678   0.92802
    D4        0.99653  -0.00057  -0.00087   0.00590   0.00507   1.00160
    D5       -1.04944   0.00038   0.00107   0.02861   0.02961  -1.01983
    D6        3.10110   0.00013  -0.00062   0.00748   0.00692   3.10802
    D7        1.05513   0.00108   0.00132   0.03019   0.03147   1.08660
    D8       -1.09999  -0.00042  -0.00024   0.00306   0.00288  -1.09712
    D9        3.13722   0.00053   0.00170   0.02578   0.02742  -3.11854
   D10       -1.11795  -0.00050   0.00292   0.03638   0.03929  -1.07867
   D11        3.02546  -0.00037   0.00245   0.03709   0.03952   3.06498
   D12        1.00398  -0.00007   0.00351   0.04646   0.04996   1.05393
   D13        2.98477   0.00013   0.00220   0.04231   0.04452   3.02929
   D14        0.84499   0.00025   0.00173   0.04303   0.04476   0.88975
   D15       -1.17649   0.00055   0.00278   0.05239   0.05519  -1.12129
   D16        0.92132   0.00038   0.00143   0.04712   0.04855   0.96987
   D17       -1.21846   0.00051   0.00096   0.04783   0.04879  -1.16967
   D18        3.04325   0.00080   0.00201   0.05720   0.05922   3.10247
   D19        3.10940   0.00007  -0.00014   0.01294   0.01281   3.12222
   D20        0.98043  -0.00002  -0.00072   0.00883   0.00812   0.98855
   D21       -1.04572   0.00014   0.00036   0.01444   0.01481  -1.03091
   D22       -1.05532   0.00041   0.00051   0.01729   0.01780  -1.03753
   D23        3.09889   0.00032  -0.00006   0.01318   0.01311   3.11199
   D24        1.07274   0.00047   0.00102   0.01878   0.01979   1.09253
   D25        1.00629  -0.00032  -0.00059   0.00214   0.00155   1.00785
   D26       -1.12268  -0.00041  -0.00116  -0.00197  -0.00314  -1.12582
   D27        3.13436  -0.00026  -0.00008   0.00363   0.00355   3.13791
   D28       -1.05055  -0.00011   0.00000  -0.00060  -0.00060  -1.05115
   D29        1.03752  -0.00002  -0.00018   0.00093   0.00075   1.03827
   D30        3.13526  -0.00004  -0.00010   0.00061   0.00051   3.13577
   D31        1.07028   0.00013   0.00072   0.00523   0.00594   1.07622
   D32       -3.12484   0.00022   0.00053   0.00675   0.00729  -3.11755
   D33       -1.02710   0.00020   0.00061   0.00644   0.00705  -1.02005
   D34        3.11047  -0.00015  -0.00037  -0.00204  -0.00241   3.10807
   D35       -1.08465  -0.00006  -0.00055  -0.00051  -0.00106  -1.08570
   D36        1.01309  -0.00008  -0.00047  -0.00082  -0.00130   1.01180
         Item               Value     Threshold  Converged?
 Maximum Force            0.002998     0.000450     NO 
 RMS     Force            0.000752     0.000300     NO 
 Maximum Displacement     0.113503     0.001800     NO 
 RMS     Displacement     0.027900     0.001200     NO 
 Predicted change in Energy=-1.793638D-04
 Lowest energy point so far.  Saving SCF results.
 GradGradGradGradGradGradGradGradGradGradGradGradGradGradGradGradGradGrad

 Leave Link  103 at Wed Oct 22 13:11:21 2025, MaxMem=  4294967296 cpu:               0.1 elap:               0.0
 (Enter /lrz/sys/applications/gaussian/g16.C.01/x86_64_legacy/exe/l202.exe)
                          Input orientation:                          
 ---------------------------------------------------------------------
 Center     Atomic      Atomic             Coordinates (Angstroms)
 Number     Number       Type             X           Y           Z
 ---------------------------------------------------------------------
      1          8           0       -1.437976   -1.005198    0.221903
      2          6           0       -0.998656    0.347640    0.266558
      3          7           0       -1.862011    1.262756   -0.429977
      4          6           0        0.403852    0.381493   -0.318986
      5          6           0        1.425914   -0.443694    0.457027
      6          6           0        2.813756   -0.409321   -0.171937
      7          1           0       -2.262425   -1.061636    0.719284
      8          1           0       -0.958465    0.670463    1.323499
      9          1           0       -2.802843    1.200046   -0.042324
     10          1           0       -1.932664    0.971559   -1.406213
     11          1           0        0.730629    1.432757   -0.366163
     12          1           0        0.344066    0.016567   -1.361697
     13          1           0        1.072768   -1.485882    0.523198
     14          1           0        1.479124   -0.067754    1.494027
     15          1           0        2.794598   -0.812370   -1.198377
     16          1           0        3.200793    0.621997   -0.227269
     17          1           0        3.533960   -1.006847    0.409120
 ---------------------------------------------------------------------
                    Distance matrix (angstroms):
                    1          2          3          4          5
     1  O    0.000000
     2  C    1.423084   0.000000
     3  N    2.397576   1.438048   0.000000
     4  C    2.368080   1.520209   2.433738   0.000000
     5  C    2.927872   2.557543   3.809095   1.525694   0.000000
     6  C    4.311311   3.911489   4.972447   2.540600   1.524100
     7  H    0.964515   1.946313   2.623724   3.204631   3.748930
     8  H    2.061865   1.105873   2.059584   2.153409   2.770809
     9  H    2.606872   2.019182   1.019496   3.321064   4.564386
    10  H    2.608266   2.014897   1.021188   2.643776   4.093245
    11  H    3.315463   2.137344   2.598991   1.101891   2.163824
    12  H    2.593736   2.136288   2.699605   1.106342   2.165639
    13  H    2.574038   2.778213   4.132370   2.154951   1.102383
    14  H    3.317615   2.796180   4.078631   2.155238   1.104324
    15  H    4.468675   4.228526   5.155638   2.813238   2.179353
    16  H    4.936365   4.237276   5.107216   2.808760   2.180402
    17  H    4.975460   4.732818   5.913687   3.500743   2.182497
                    6          7          8          9         10
     6  C    0.000000
     7  H    5.194940   0.000000
     8  H    4.199037   2.250678   0.000000
     9  H    5.844061   2.446897   2.355348   0.000000
    10  H    5.094975   2.959791   2.913942   1.633895   0.000000
    11  H    2.787543   4.044572   2.507806   3.555904   2.896125
    12  H    2.774216   3.505253   3.055233   3.611704   2.469310
    13  H    2.161766   3.367780   3.068585   4.749146   4.335236
    14  H    2.161793   3.948065   2.552623   4.722598   4.596941
    15  H    1.102903   5.414152   4.758586   6.059507   5.056937
    16  H    1.102940   5.794595   4.439218   6.034235   5.278683
    17  H    1.101526   5.804936   4.881736   6.725270   6.090444
                   11         12         13         14         15
    11  H    0.000000
    12  H    1.773729   0.000000
    13  H    3.070257   2.518172   0.000000
    14  H    2.504413   3.074187   1.765991   0.000000
    15  H    3.161194   2.592087   2.526289   3.087712   0.000000
    16  H    2.603524   3.132788   3.087855   2.530368   1.779172
    17  H    3.796235   3.789274   2.509971   2.506246   1.780035
                   16         17
    16  H    0.000000
    17  H    1.780203   0.000000
 Stoichiometry    C4H11NO
 Framework group  C1[X(C4H11NO)]
 Deg. of freedom    45
 Full point group                 C1      NOp   1
 RotChk:  IX=0 Diff= 2.98D-02
 Largest Abelian subgroup         C1      NOp   1
 Largest concise Abelian subgroup C1      NOp   1
                         Standard orientation:                         
 ---------------------------------------------------------------------
 Center     Atomic      Atomic             Coordinates (Angstroms)
 Number     Number       Type             X           Y           Z
 ---------------------------------------------------------------------
      1          8           0        1.268351    1.258906   -0.321431
      2          6           0        1.088848   -0.000846    0.315727
      3          7           0        2.120280   -0.956781    0.015197
      4          6           0       -0.271963   -0.527400   -0.110851
      5          6           0       -1.443892    0.354426    0.309514
      6          6           0       -2.789426   -0.188447   -0.157076
      7          1           0        2.058731    1.665955    0.052601
      8          1           0        1.090856    0.154492    1.410634
      9          1           0        3.025758   -0.570226    0.279881
     10          1           0        2.152664   -1.100529   -0.995305
     11          1           0       -0.395641   -1.538535    0.309238
     12          1           0       -0.262846   -0.635849   -1.211826
     13          1           0       -1.292955    1.370231   -0.091244
     14          1           0       -1.444389    0.451832    1.409534
     15          1           0       -2.827629   -0.263311   -1.256772
     16          1           0       -2.975875   -1.195981    0.251076
     17          1           0       -3.618845    0.461735    0.163373
 ---------------------------------------------------------------------
 Rotational constants (GHZ):           7.5198598           1.7534521           1.5312167
 Leave Link  202 at Wed Oct 22 13:11:21 2025, MaxMem=  4294967296 cpu:               0.0 elap:               0.0
 (Enter /lrz/sys/applications/gaussian/g16.C.01/x86_64_legacy/exe/l301.exe)
 Standard basis: def2SVP (5D, 7F)
 Ernie: Thresh=  0.10000D-02 Tol=  0.10000D-05 Strict=F.
 There are   145 symmetry adapted cartesian basis functions of A   symmetry.
 There are   139 symmetry adapted basis functions of A   symmetry.
   139 basis functions,   227 primitive gaussians,   145 cartesian basis functions
    25 alpha electrons       25 beta electrons
       nuclear repulsion energy       256.9972499388 Hartrees.
 IExCor= 4639 DFT=T Ex+Corr=wB97XD ExCW=0 ScaHFX=  1.000000
 ScaDFX=  1.000000  1.000000  1.000000  1.000000 ScalE2=  1.000000  1.000000
 IRadAn=      5 IRanWt=     -1 IRanGd=            0 ICorTp=0 IEmpDi=121
 HFx  wShort=  0.000000 wLong=  0.200000 cFull=  0.222036 cShort=  0.000000 cLong=  0.777964
 DFx  wShort=  0.000000 wLong=  0.200000 cFull=  0.000000 cShort=  0.000000 cLong=  1.000000
 NAtoms=   17 NActive=   17 NUniq=   17 SFac= 1.00D+00 NAtFMM=   60 NAOKFM=F Big=F
 Integral buffers will be    131072 words long.
 Raffenetti 2 integral format.
 Two-electron integral symmetry is turned on.
 R6Disp:  Grimme-D2 Dispersion energy=       -0.0087345435 Hartrees.
 Nuclear repulsion after empirical dispersion term =      256.9885153953 Hartrees.
 ------------------------------------------------------------------------------
 Polarizable Continuum Model (PCM)
 =================================
 Model                : PCM.
 Atomic radii         : SMD-Coulomb.
 Polarization charges : Total charges.
 Charge compensation  : None.
 Solution method      : On-the-fly selection.
 Cavity type          : VdW (van der Waals Surface) (Alpha=1.000).
 Cavity algorithm     : GePol (No added spheres)
                        Default sphere list used, NSphG=   17.
                        Lebedev-Laikov grids with approx.  5.0 points / Ang**2.
                        Smoothing algorithm: York/Karplus (Gamma=1.0000).
                        Polarization charges: spherical gaussians, with
                                              point-specific exponents (IZeta= 3).
                        Self-potential: point-specific (ISelfS= 7).
                        Self-field    : sphere-specific E.n sum rule (ISelfD= 2).
 1st derivatives      : Analytical E(r).r(x)/FMM algorithm (CHGder, D1EAlg=3).
                        Cavity 1st derivative terms included.
 Solvent              : Water, Eps=  78.355300 Eps(inf)=   1.777849
 ------------------------------------------------------------------------------
 Spheres list:
 ISph  on   Nord     Re0    Alpha      Xe            Ye            Ze
    1   O      1    1.5200  1.000      1.268351      1.258906     -0.321431
    2   C      2    1.8500  1.000      1.088848     -0.000846      0.315727
    3   N      3    1.8900  1.000      2.120280     -0.956781      0.015197
    4   C      4    1.8500  1.000     -0.271963     -0.527400     -0.110851
    5   C      5    1.8500  1.000     -1.443892      0.354426      0.309514
    6   C      6    1.8500  1.000     -2.789426     -0.188447     -0.157076
    7   H      7    1.2000  1.000      2.058731      1.665955      0.052601
    8   H      8    1.2000  1.000      1.090856      0.154492      1.410634
    9   H      9    1.2000  1.000      3.025758     -0.570226      0.279881
   10   H     10    1.2000  1.000      2.152664     -1.100529     -0.995305
   11   H     11    1.2000  1.000     -0.395641     -1.538535      0.309238
   12   H     12    1.2000  1.000     -0.262846     -0.635849     -1.211826
   13   H     13    1.2000  1.000     -1.292955      1.370231     -0.091244
   14   H     14    1.2000  1.000     -1.444389      0.451832      1.409534
   15   H     15    1.2000  1.000     -2.827629     -0.263311     -1.256772
   16   H     16    1.2000  1.000     -2.975875     -1.195981      0.251076
   17   H     17    1.2000  1.000     -3.618845      0.461735      0.163373
 ------------------------------------------------------------------------------
 GePol: Number of generator spheres                  =      17
 GePol: Total number of spheres                      =      17
 GePol: Number of exposed spheres                    =      17 (100.00%)
 GePol: Number of points                             =    1196
 GePol: Average weight of points                     =       0.12
 GePol: Minimum weight of points                     =   0.67D-09
 GePol: Maximum weight of points                     =    0.21991
 GePol: Number of points with low weight             =      74
 GePol: Fraction of low-weight points (<1% of avg)   =       6.19%
 GePol: Cavity surface area                          =    138.319 Ang**2
 GePol: Cavity volume                                =    107.958 Ang**3
 ------------------------------------------------------------------------------
 Atomic radii for non-electrostatic terms: SMD-CDS.
 ------------------------------------------------------------------------------
 PCM non-electrostatic energy =         0.0032532918 Hartrees.
 Nuclear repulsion after PCM non-electrostatic terms =      256.9917686871 Hartrees.
 Leave Link  301 at Wed Oct 22 13:11:21 2025, MaxMem=  4294967296 cpu:               0.4 elap:               0.1
 (Enter /lrz/sys/applications/gaussian/g16.C.01/x86_64_legacy/exe/l302.exe)
 NPDir=0 NMtPBC=     1 NCelOv=     1 NCel=       1 NClECP=     1 NCelD=      1
         NCelK=      1 NCelE2=     1 NClLst=     1 CellRange=     0.0.
 One-electron integrals computed using PRISM.
 One-electron integral symmetry used in STVInt
   1 Symmetry operations used in ECPInt.
 ECPInt:  NShTT=    2415 NPrTT=    8239 LenC2=    2397 LenP2D=    6841.
 LDataN:  DoStor=T MaxTD1= 4 Len=   56
 NBasis=   139 RedAO= T EigKep=  1.40D-03  NBF=   139
 NBsUse=   139 1.00D-06 EigRej= -1.00D+00 NBFU=   139
 Precomputing XC quadrature grid using
 IXCGrd= 4 IRadAn=           5 IRanWt=          -1 IRanGd=           0 AccXCQ= 0.00D+00.
 Generated NRdTot=       0 NPtTot=           0 NUsed=           0 NTot=          32
 NSgBfM=   145   145   145   145   145 MxSgAt=    17 MxSgA2=    17.
 Leave Link  302 at Wed Oct 22 13:11:21 2025, MaxMem=  4294967296 cpu:               1.3 elap:               0.2
 (Enter /lrz/sys/applications/gaussian/g16.C.01/x86_64_legacy/exe/l303.exe)
 DipDrv:  MaxL=1.
 Leave Link  303 at Wed Oct 22 13:11:21 2025, MaxMem=  4294967296 cpu:               0.2 elap:               0.0
 (Enter /lrz/sys/applications/gaussian/g16.C.01/x86_64_legacy/exe/l401.exe)
 Initial guess from the checkpoint file:  "g16_C17-a_9.chk"
 B after Tr=     0.000000    0.000000   -0.000000
         Rot=    0.999984    0.005661   -0.000061    0.000717 Ang=   0.65 deg.
 Guess basis will be translated and rotated to current coordinates.
 JPrj=2 DoOrth=T DoCkMO=T.
 Generating alternative initial guess.
 ExpMin= 1.22D-01 ExpMax= 2.27D+03 ExpMxC= 3.41D+02 IAcc=3 IRadAn=         5 AccDes= 0.00D+00
 Harris functional with IExCor= 4639 and IRadAn=       5 diagonalized for initial guess.
 HarFok:  IExCor= 4639 AccDes= 0.00D+00 IRadAn=         5 IDoV= 1 UseB2=F ITyADJ=14
 ICtDFT=  3500011 ScaDFX=  1.000000  1.000000  1.000000  1.000000
 FoFCou: FMM=F IPFlag=           0 FMFlag=      100000 FMFlg1=           0
         NFxFlg=           0 DoJE=T BraDBF=F KetDBF=T FulRan=T
         wScrn=  0.000000 ICntrl=       500 IOpCl=  0 I1Cent=   200000004 NGrid=           0
         NMat0=    1 NMatS0=      1 NMatT0=    0 NMatD0=    1 NMtDS0=    0 NMtDT0=    0
 Petite list used in FoFCou.
 Harris En= -275.865826367761    
 Leave Link  401 at Wed Oct 22 13:11:22 2025, MaxMem=  4294967296 cpu:               6.8 elap:               0.9
 (Enter /lrz/sys/applications/gaussian/g16.C.01/x86_64_legacy/exe/l502.exe)
 Integral symmetry usage will be decided dynamically.
 Closed shell SCF:
 Using DIIS extrapolation, IDIIS=  1040.
 NGot=  4294967296 LenX=  4294921924 LenY=  4294900458
 Requested convergence on RMS density matrix=1.00D-08 within 128 cycles.
 Requested convergence on MAX density matrix=1.00D-06.
 Requested convergence on             energy=1.00D-06.
 No special actions if energy rises.
 Fock matrices will be formed incrementally for  20 cycles.

 Cycle   1  Pass 1  IDiag  1:
 FoFJK:  IHMeth= 1 ICntrl=       0 DoSepK=T KAlg= 0 I1Cent=           0 FoldK=F
 IRaf=         1 NMat=       1 IRICut=       1 DoRegI=T DoRafI=F ISym2E= 0 IDoP0=0 IntGTp=1.
 FoFCou: FMM=F IPFlag=           0 FMFlag=      100000 FMFlg1=           0
         NFxFlg=           0 DoJE=T BraDBF=F KetDBF=F FulRan=T
         wScrn=  0.000000 ICntrl=       500 IOpCl=  0 I1Cent=           0 NGrid=           0
         NMat0=    1 NMatS0=      1 NMatT0=    0 NMatD0=    1 NMtDS0=    0 NMtDT0=    0
 Symmetry not used in FoFCou.
 Inv3:  Mode=1 IEnd=     4291248.
 Iteration    1 A*A^-1 deviation from unit magnitude is 5.77D-15 for    644.
 Iteration    1 A*A^-1 deviation from orthogonality  is 3.05D-15 for    978    312.
 Iteration    1 A^-1*A deviation from unit magnitude is 5.11D-15 for    644.
 Iteration    1 A^-1*A deviation from orthogonality  is 8.16D-15 for    853    850.
 E= -288.742936809983    
 DIIS: error= 1.28D-03 at cycle   1 NSaved=   1.
 NSaved= 1 IEnMin= 1 EnMin= -288.742936809983     IErMin= 1 ErrMin= 1.28D-03
 ErrMax= 1.28D-03  0.00D+00 EMaxC= 1.00D-01 BMatC= 6.70D-04 BMatP= 6.70D-04
 IDIUse=3 WtCom= 9.87D-01 WtEn= 1.28D-02
 Coeff-Com:  0.100D+01
 Coeff-En:   0.100D+01
 Coeff:      0.100D+01
 Gap=     0.750 Goal=   None    Shift=    0.000
 GapD=    0.750 DampG=2.000 DampE=1.000 DampFc=2.0000 IDamp=-1.
 RMSDP=3.00D-04 MaxDP=7.22D-03              OVMax= 6.61D-03

 Cycle   2  Pass 1  IDiag  1:
 RMSU=  3.00D-04    CP:  1.00D+00
 E= -288.744008264799     Delta-E=       -0.001071454816 Rises=F Damp=F
 DIIS: error= 2.62D-04 at cycle   2 NSaved=   2.
 NSaved= 2 IEnMin= 2 EnMin= -288.744008264799     IErMin= 2 ErrMin= 2.62D-04
 ErrMax= 2.62D-04  0.00D+00 EMaxC= 1.00D-01 BMatC= 2.47D-05 BMatP= 6.70D-04
 IDIUse=3 WtCom= 9.97D-01 WtEn= 2.62D-03
 Coeff-Com: -0.192D+00 0.119D+01
 Coeff-En:   0.000D+00 0.100D+01
 Coeff:     -0.191D+00 0.119D+01
 Gap=     0.476 Goal=   None    Shift=    0.000
 RMSDP=8.12D-05 MaxDP=1.65D-03 DE=-1.07D-03 OVMax= 2.25D-03

 Cycle   3  Pass 1  IDiag  1:
 RMSU=  4.39D-05    CP:  1.00D+00  1.23D+00
 E= -288.744068125142     Delta-E=       -0.000059860343 Rises=F Damp=F
 DIIS: error= 4.39D-05 at cycle   3 NSaved=   3.
 NSaved= 3 IEnMin= 3 EnMin= -288.744068125142     IErMin= 3 ErrMin= 4.39D-05
 ErrMax= 4.39D-05  0.00D+00 EMaxC= 1.00D-01 BMatC= 9.30D-07 BMatP= 2.47D-05
 IDIUse=1 WtCom= 1.00D+00 WtEn= 0.00D+00
 Coeff-Com: -0.226D-01 0.761D-01 0.946D+00
 Coeff:     -0.226D-01 0.761D-01 0.946D+00
 Gap=     0.476 Goal=   None    Shift=    0.000
 RMSDP=1.64D-05 MaxDP=2.37D-04 DE=-5.99D-05 OVMax= 3.88D-04

 Cycle   4  Pass 1  IDiag  1:
 RMSU=  1.08D-05    CP:  1.00D+00  1.25D+00  1.24D+00
 E= -288.744069403213     Delta-E=       -0.000001278071 Rises=F Damp=F
 DIIS: error= 4.22D-05 at cycle   4 NSaved=   4.
 NSaved= 4 IEnMin= 4 EnMin= -288.744069403213     IErMin= 4 ErrMin= 4.22D-05
 ErrMax= 4.22D-05  0.00D+00 EMaxC= 1.00D-01 BMatC= 4.29D-07 BMatP= 9.30D-07
 IDIUse=1 WtCom= 1.00D+00 WtEn= 0.00D+00
 Coeff-Com:  0.129D-01-0.110D+00 0.418D+00 0.679D+00
 Coeff:      0.129D-01-0.110D+00 0.418D+00 0.679D+00
 Gap=     0.476 Goal=   None    Shift=    0.000
 RMSDP=5.91D-06 MaxDP=1.29D-04 DE=-1.28D-06 OVMax= 1.35D-04

 Cycle   5  Pass 1  IDiag  1:
 RMSU=  2.91D-06    CP:  1.00D+00  1.25D+00  1.35D+00  8.33D-01
 E= -288.744069806064     Delta-E=       -0.000000402850 Rises=F Damp=F
 DIIS: error= 5.56D-06 at cycle   5 NSaved=   5.
 NSaved= 5 IEnMin= 5 EnMin= -288.744069806064     IErMin= 5 ErrMin= 5.56D-06
 ErrMax= 5.56D-06  0.00D+00 EMaxC= 1.00D-01 BMatC= 8.99D-09 BMatP= 4.29D-07
 IDIUse=1 WtCom= 1.00D+00 WtEn= 0.00D+00
 Coeff-Com:  0.378D-02-0.283D-01 0.526D-01 0.152D+00 0.820D+00
 Coeff:      0.378D-02-0.283D-01 0.526D-01 0.152D+00 0.820D+00
 Gap=     0.476 Goal=   None    Shift=    0.000
 RMSDP=1.54D-06 MaxDP=2.72D-05 DE=-4.03D-07 OVMax= 3.87D-05

 Cycle   6  Pass 1  IDiag  1:
 RMSU=  8.56D-07    CP:  1.00D+00  1.25D+00  1.37D+00  8.88D-01  1.14D+00
 E= -288.744069816728     Delta-E=       -0.000000010664 Rises=F Damp=F
 DIIS: error= 2.17D-06 at cycle   6 NSaved=   6.
 NSaved= 6 IEnMin= 6 EnMin= -288.744069816728     IErMin= 6 ErrMin= 2.17D-06
 ErrMax= 2.17D-06  0.00D+00 EMaxC= 1.00D-01 BMatC= 2.14D-09 BMatP= 8.99D-09
 IDIUse=1 WtCom= 1.00D+00 WtEn= 0.00D+00
 Coeff-Com: -0.293D-03 0.420D-02-0.377D-01-0.363D-01 0.324D+00 0.746D+00
 Coeff:     -0.293D-03 0.420D-02-0.377D-01-0.363D-01 0.324D+00 0.746D+00
 Gap=     0.476 Goal=   None    Shift=    0.000
 RMSDP=6.23D-07 MaxDP=1.28D-05 DE=-1.07D-08 OVMax= 1.96D-05

 Cycle   7  Pass 1  IDiag  1:
 RMSU=  2.45D-07    CP:  1.00D+00  1.25D+00  1.38D+00  9.09D-01  1.27D+00
                    CP:  9.20D-01
 E= -288.744069819205     Delta-E=       -0.000000002477 Rises=F Damp=F
 DIIS: error= 4.35D-07 at cycle   7 NSaved=   7.
 NSaved= 7 IEnMin= 7 EnMin= -288.744069819205     IErMin= 7 ErrMin= 4.35D-07
 ErrMax= 4.35D-07  0.00D+00 EMaxC= 1.00D-01 BMatC= 7.05D-11 BMatP= 2.14D-09
 IDIUse=1 WtCom= 1.00D+00 WtEn= 0.00D+00
 Coeff-Com: -0.313D-03 0.277D-02-0.101D-01-0.177D-01-0.562D-02 0.137D+00
 Coeff-Com:  0.894D+00
 Coeff:     -0.313D-03 0.277D-02-0.101D-01-0.177D-01-0.562D-02 0.137D+00
 Coeff:      0.894D+00
 Gap=     0.476 Goal=   None    Shift=    0.000
 RMSDP=1.71D-07 MaxDP=4.63D-06 DE=-2.48D-09 OVMax= 6.69D-06

 Cycle   8  Pass 1  IDiag  1:
 RMSU=  7.27D-08    CP:  1.00D+00  1.25D+00  1.38D+00  9.13D-01  1.31D+00
                    CP:  1.01D+00  1.19D+00
 E= -288.744069819337     Delta-E=       -0.000000000132 Rises=F Damp=F
 DIIS: error= 1.61D-07 at cycle   8 NSaved=   8.
 NSaved= 8 IEnMin= 8 EnMin= -288.744069819337     IErMin= 8 ErrMin= 1.61D-07
 ErrMax= 1.61D-07  0.00D+00 EMaxC= 1.00D-01 BMatC= 9.82D-12 BMatP= 7.05D-11
 IDIUse=1 WtCom= 1.00D+00 WtEn= 0.00D+00
 Coeff-Com: -0.770D-04 0.568D-03-0.498D-03-0.308D-02-0.243D-01-0.833D-02
 Coeff-Com:  0.278D+00 0.758D+00
 Coeff:     -0.770D-04 0.568D-03-0.498D-03-0.308D-02-0.243D-01-0.833D-02
 Coeff:      0.278D+00 0.758D+00
 Gap=     0.476 Goal=   None    Shift=    0.000
 RMSDP=4.87D-08 MaxDP=1.22D-06 DE=-1.32D-10 OVMax= 2.04D-06

 Cycle   9  Pass 1  IDiag  1:
 RMSU=  2.47D-08    CP:  1.00D+00  1.25D+00  1.38D+00  9.14D-01  1.32D+00
                    CP:  1.03D+00  1.31D+00  1.06D+00
 E= -288.744069819347     Delta-E=       -0.000000000010 Rises=F Damp=F
 DIIS: error= 6.03D-08 at cycle   9 NSaved=   9.
 NSaved= 9 IEnMin= 9 EnMin= -288.744069819347     IErMin= 9 ErrMin= 6.03D-08
 ErrMax= 6.03D-08  0.00D+00 EMaxC= 1.00D-01 BMatC= 1.22D-12 BMatP= 9.82D-12
 IDIUse=1 WtCom= 1.00D+00 WtEn= 0.00D+00
 Coeff-Com:  0.354D-04-0.347D-03 0.167D-02 0.232D-02-0.536D-02-0.264D-01
 Coeff-Com: -0.884D-01 0.199D+00 0.918D+00
 Coeff:      0.354D-04-0.347D-03 0.167D-02 0.232D-02-0.536D-02-0.264D-01
 Coeff:     -0.884D-01 0.199D+00 0.918D+00
 Gap=     0.476 Goal=   None    Shift=    0.000
 RMSDP=2.41D-08 MaxDP=6.34D-07 DE=-1.00D-11 OVMax= 1.01D-06

 Cycle  10  Pass 1  IDiag  1:
 RMSU=  5.74D-09    CP:  1.00D+00  1.25D+00  1.38D+00  9.14D-01  1.32D+00
                    CP:  1.04D+00  1.36D+00  1.24D+00  1.11D+00
 E= -288.744069819354     Delta-E=       -0.000000000007 Rises=F Damp=F
 DIIS: error= 9.35D-09 at cycle  10 NSaved=  10.
 NSaved=10 IEnMin=10 EnMin= -288.744069819354     IErMin=10 ErrMin= 9.35D-09
 ErrMax= 9.35D-09  0.00D+00 EMaxC= 1.00D-01 BMatC= 2.57D-14 BMatP= 1.22D-12
 IDIUse=1 WtCom= 1.00D+00 WtEn= 0.00D+00
 Coeff-Com:  0.602D-05-0.486D-04 0.131D-03 0.276D-03 0.792D-03-0.951D-03
 Coeff-Com: -0.176D-01-0.193D-01 0.494D-01 0.987D+00
 Coeff:      0.602D-05-0.486D-04 0.131D-03 0.276D-03 0.792D-03-0.951D-03
 Coeff:     -0.176D-01-0.193D-01 0.494D-01 0.987D+00
 Gap=     0.476 Goal=   None    Shift=    0.000
 RMSDP=4.41D-09 MaxDP=9.87D-08 DE=-7.05D-12 OVMax= 1.76D-07

 Error on total polarization charges =  0.03459
 SCF Done:  E(RwB97XD) =  -288.744069819     A.U. after   10 cycles
            NFock= 10  Conv=0.44D-08     -V/T= 2.0108
 KE= 2.856497138308D+02 PE=-1.186098242867D+03 EE= 3.547126905293D+02
 SMD-CDS (non-electrostatic) energy       (kcal/mol) =       2.04
 (included in total energy above)
 Leave Link  502 at Wed Oct 22 13:11:41 2025, MaxMem=  4294967296 cpu:             152.5 elap:              19.1
 (Enter /lrz/sys/applications/gaussian/g16.C.01/x86_64_legacy/exe/l701.exe)
 ... and contract with generalized density number  0.
 Compute integral first derivatives.
 R6Disp: Adding Grimme-D2 dispersion energy 1st derivatives to the gradient.
   1 Symmetry operations used in ECPInt.
 ECPInt:  NShTT=    2415 NPrTT=    8239 LenC2=    2397 LenP2D=    6841.
 LDataN:  DoStor=T MaxTD1= 5 Len=  102
 D1PCM: PCM CHGder 1st derivatives, ID1Alg=3 FixD1E=F DoIter=F DoCFld=F I1PDM=0.
 GePol: Maximum number of non-zero 1st derivatives   =     268
 Leave Link  701 at Wed Oct 22 13:11:42 2025, MaxMem=  4294967296 cpu:               4.8 elap:               0.6
 (Enter /lrz/sys/applications/gaussian/g16.C.01/x86_64_legacy/exe/l702.exe)
 L702 exits ... SP integral derivatives will be done elsewhere.
 Leave Link  702 at Wed Oct 22 13:11:42 2025, MaxMem=  4294967296 cpu:               0.1 elap:               0.0
 (Enter /lrz/sys/applications/gaussian/g16.C.01/x86_64_legacy/exe/l703.exe)
 Integral derivatives from FoFJK, PRISM(SPDF).
 Compute integral first derivatives, UseDBF=F ICtDFT=           0.
 Calling FoFJK, ICntrl=      2127 FMM=F ISym2X=0 I1Cent= 0 IOpClX= 0 NMat=1 NMatS=1 NMatT=0.
 FoFJK:  IHMeth= 1 ICntrl=    2127 DoSepK=T KAlg= 0 I1Cent=           0 FoldK=F
 IRaf=         1 NMat=       1 IRICut=       1 DoRegI=T DoRafI=F ISym2E= 0 IDoP0=0 IntGTp=1.
 FoFCou: FMM=F IPFlag=           0 FMFlag=      100000 FMFlg1=         800
         NFxFlg=           0 DoJE=F BraDBF=F KetDBF=F FulRan=T
         wScrn=  0.000000 ICntrl=      2527 IOpCl=  0 I1Cent=           0 NGrid=           0
         NMat0=    1 NMatS0=      1 NMatT0=    0 NMatD0=    1 NMtDS0=    0 NMtDT0=    0
 Symmetry not used in FoFCou.
 Leave Link  703 at Wed Oct 22 13:11:45 2025, MaxMem=  4294967296 cpu:              24.4 elap:               3.1
 (Enter /lrz/sys/applications/gaussian/g16.C.01/x86_64_legacy/exe/l716.exe)
 Dipole        = 7.52764780D-01 2.27345171D-01 2.30424437D-01
 ***** Axes restored to original set *****
 -------------------------------------------------------------------
 Center     Atomic                   Forces (Hartrees/Bohr)
 Number     Number              X              Y              Z
 -------------------------------------------------------------------
      1        8          -0.000012897    0.000072328   -0.000041280
      2        6           0.001194437   -0.000194211    0.000676114
      3        7          -0.000238332    0.000668528   -0.000519796
      4        6           0.000008277   -0.000655905    0.000158047
      5        6           0.000147395   -0.000092896   -0.000325612
      6        6           0.000030183    0.000051901    0.000070083
      7        1           0.000045973    0.000050072    0.000043234
      8        1          -0.000208620   -0.000106029   -0.000256598
      9        1          -0.000280248    0.000143721   -0.000166062
     10        1          -0.000383462   -0.000238399    0.000154437
     11        1          -0.000254019   -0.000366857   -0.000036425
     12        1           0.000187122    0.000485790    0.000281525
     13        1           0.000279447    0.000456415    0.000077857
     14        1          -0.000104109   -0.000263748   -0.000283519
     15        1           0.000075450    0.000275444    0.000568179
     16        1          -0.000157612   -0.000617041   -0.000026703
     17        1          -0.000328984    0.000330886   -0.000373481
 -------------------------------------------------------------------
 Cartesian Forces:  Max     0.001194437 RMS     0.000341741
 Leave Link  716 at Wed Oct 22 13:11:45 2025, MaxMem=  4294967296 cpu:               0.1 elap:               0.0
 (Enter /lrz/sys/applications/gaussian/g16.C.01/x86_64_legacy/exe/l103.exe)

 GradGradGradGradGradGradGradGradGradGradGradGradGradGradGradGradGradGrad
 Berny optimization.
 Using GEDIIS/GDIIS optimizer.
 FormGI is forming the generalized inverse of G from B-inverse, IUseBI=4.
 Internal  Forces:  Max     0.001166900 RMS     0.000247488
 Search for a local minimum.
 Step number   3 out of a maximum of   90
 All quantities printed in internal units (Hartrees-Bohrs-Radians)
 RMS Force = .24749D-03 SwitMx=.10000D-02 MixMth= 2
 Mixed Optimization -- En-DIIS/RFO-DIIS
 Swapping is turned off.
 Update second derivatives using D2CorX and points    1    2    3
 DE= -2.05D-04 DEPred=-1.79D-04 R= 1.14D+00
 TightC=F SS=  1.41D+00  RLast= 1.62D-01 DXNew= 8.4853D-01 4.8725D-01
 Trust test= 1.14D+00 RLast= 1.62D-01 DXMaxT set to 5.05D-01
 ITU=  1  1  0
     Eigenvalues ---    0.00318   0.00435   0.00462   0.01066   0.01405
     Eigenvalues ---    0.03363   0.03567   0.04144   0.04829   0.04887
     Eigenvalues ---    0.05222   0.05522   0.05568   0.05883   0.07848
     Eigenvalues ---    0.08413   0.08640   0.12236   0.12517   0.15693
     Eigenvalues ---    0.15997   0.16000   0.16000   0.16123   0.16419
     Eigenvalues ---    0.17467   0.20954   0.21835   0.22807   0.29427
     Eigenvalues ---    0.29978   0.30784   0.33608   0.34618   0.34740
     Eigenvalues ---    0.34843   0.34908   0.35093   0.35144   0.37238
     Eigenvalues ---    0.40847   0.44496   0.45007   0.45429   0.54527
 En-DIIS/RFO-DIIS/Sim-DIIS IScMMF=       -3 using points:     3    2
 RFO step:  Lambda=-6.77447408D-05.
 NNeg= 0 NGDIIS= 2 SimSw=  2.50D-03 Rises=F DC= -2.05D-04 SmlDif=  1.00D-05
 NRisDI= 0 DoIntr=F SqrtH=F CThrHd= 10.0 CDAdj=  3.0
 RMS Error=  0.1278381730D-01 NUsed= 2 OKEnD=T EnDIS=F
 InvSVX:  RCond= 6.23D-03 Info=           0 Equed=N FErr=  3.14D-15 BErr=  5.08D-17
 DidBck=F Rises=F RFO-DIIS coefs:    1.67519   -0.67519
 Iteration  1 RMS(Cart)=  0.02179057 RMS(Int)=  0.00022833
 Iteration  2 RMS(Cart)=  0.00029324 RMS(Int)=  0.00002153
 Iteration  3 RMS(Cart)=  0.00000005 RMS(Int)=  0.00002153
 ITry= 1 IFail=0 DXMaxC= 7.53D-02 DCOld= 1.00D+10 DXMaxT= 5.05D-01 DXLimC= 3.00D+00 Rises=F
 Variable       Old X    -DE/DX   Delta X   Delta X   Delta X     New X
                                 (Linear)    (Quad)   (Total)
    R1        2.68924  -0.00013   0.00475  -0.00415   0.00060   2.68984
    R2        1.82267  -0.00002   0.00053  -0.00048   0.00005   1.82271
    R3        2.71752   0.00117  -0.00247   0.00544   0.00297   2.72048
    R4        2.87278  -0.00016  -0.00376   0.00210  -0.00166   2.87111
    R5        2.08980  -0.00028   0.00148  -0.00206  -0.00057   2.08922
    R6        1.92657   0.00019   0.00142  -0.00046   0.00096   1.92753
    R7        1.92977  -0.00005   0.00200  -0.00150   0.00050   1.93027
    R8        2.88314  -0.00026  -0.00532   0.00329  -0.00203   2.88111
    R9        2.08227  -0.00042   0.00251  -0.00303  -0.00052   2.08175
   R10        2.09068  -0.00044   0.00284  -0.00321  -0.00037   2.09031
   R11        2.88013  -0.00045  -0.00547   0.00269  -0.00278   2.87735
   R12        2.08320  -0.00051   0.00119  -0.00229  -0.00110   2.08210
   R13        2.08687  -0.00036   0.00200  -0.00241  -0.00041   2.08646
   R14        2.08418  -0.00063   0.00174  -0.00300  -0.00126   2.08293
   R15        2.08425  -0.00063   0.00178  -0.00304  -0.00126   2.08299
   R16        2.08158  -0.00059   0.00084  -0.00217  -0.00132   2.08026
    A1        1.87898  -0.00011   0.00220  -0.00326  -0.00107   1.87791
    A2        1.98713  -0.00016  -0.00352   0.00167  -0.00184   1.98529
    A3        1.86909   0.00008   0.00537  -0.00398   0.00137   1.87046
    A4        1.89517  -0.00003   0.00291  -0.00366  -0.00076   1.89441
    A5        1.93173   0.00011  -0.00437   0.00497   0.00060   1.93233
    A6        1.87443   0.00000   0.00001   0.00020   0.00021   1.87464
    A7        1.90509  -0.00000  -0.00020   0.00067   0.00045   1.90554
    A8        1.90787   0.00044  -0.00828   0.00840   0.00007   1.90793
    A9        1.89982  -0.00009  -0.00400   0.00125  -0.00281   1.89701
   A10        1.85679  -0.00029  -0.00800   0.00196  -0.00617   1.85063
   A11        1.99334   0.00041   0.00243   0.00176   0.00417   1.99750
   A12        1.88739  -0.00036   0.00311  -0.00664  -0.00352   1.88387
   A13        1.88160   0.00010   0.00311   0.00081   0.00389   1.88548
   A14        1.91678   0.00004  -0.00318   0.00205  -0.00113   1.91565
   A15        1.91471  -0.00016   0.00263  -0.00110   0.00148   1.91619
   A16        1.86541  -0.00006  -0.00875   0.00319  -0.00556   1.85985
   A17        1.96916  -0.00005  -0.00046   0.00092   0.00046   1.96962
   A18        1.90420   0.00010   0.00315  -0.00095   0.00220   1.90640
   A19        1.90263   0.00002   0.00069  -0.00058   0.00011   1.90274
   A20        1.91538  -0.00002   0.00096  -0.00077   0.00019   1.91556
   A21        1.91343   0.00003   0.00092  -0.00077   0.00015   1.91358
   A22        1.85554  -0.00008  -0.00556   0.00222  -0.00333   1.85220
   A23        1.93907   0.00006   0.00245  -0.00141   0.00103   1.94011
   A24        1.94049   0.00009   0.00360  -0.00205   0.00154   1.94203
   A25        1.94491   0.00009  -0.00060   0.00160   0.00100   1.94591
   A26        1.87666  -0.00010  -0.00245   0.00074  -0.00172   1.87494
   A27        1.87974  -0.00007  -0.00158   0.00054  -0.00105   1.87869
   A28        1.87995  -0.00008  -0.00173   0.00070  -0.00103   1.87892
    D1       -1.15898   0.00004  -0.00439   0.00191  -0.00248  -1.16146
    D2        2.98306  -0.00005  -0.00043  -0.00262  -0.00304   2.98002
    D3        0.92802  -0.00007  -0.00457   0.00067  -0.00391   0.92411
    D4        1.00160  -0.00003   0.00342   0.00676   0.01021   1.01180
    D5       -1.01983   0.00014   0.01999  -0.00089   0.01907  -1.00077
    D6        3.10802   0.00004   0.00467   0.00643   0.01114   3.11916
    D7        1.08660   0.00021   0.02125  -0.00122   0.02000   1.10659
    D8       -1.09712   0.00011   0.00194   0.01018   0.01216  -1.08496
    D9       -3.11854   0.00027   0.01851   0.00254   0.02102  -3.09752
   D10       -1.07867   0.00003   0.02653   0.00204   0.02855  -1.05012
   D11        3.06498  -0.00003   0.02669   0.00315   0.02982   3.09480
   D12        1.05393   0.00017   0.03373   0.00239   0.03613   1.09006
   D13        3.02929   0.00010   0.03006  -0.00052   0.02954   3.05883
   D14        0.88975   0.00004   0.03022   0.00059   0.03081   0.92056
   D15       -1.12129   0.00024   0.03727  -0.00017   0.03711  -1.08418
   D16        0.96987   0.00003   0.03278  -0.00413   0.02864   0.99851
   D17       -1.16967  -0.00003   0.03294  -0.00303   0.02991  -1.13976
   D18        3.10247   0.00017   0.03999  -0.00378   0.03622   3.13869
   D19        3.12222   0.00020   0.00865   0.01165   0.02031  -3.14066
   D20        0.98855   0.00018   0.00548   0.01269   0.01818   1.00673
   D21       -1.03091   0.00021   0.01000   0.01087   0.02088  -1.01003
   D22       -1.03753   0.00006   0.01202   0.00577   0.01779  -1.01974
   D23        3.11199   0.00004   0.00885   0.00681   0.01566   3.12765
   D24        1.09253   0.00007   0.01336   0.00500   0.01836   1.11089
   D25        1.00785  -0.00009   0.00105   0.01020   0.01124   1.01909
   D26       -1.12582  -0.00011  -0.00212   0.01124   0.00911  -1.11670
   D27        3.13791  -0.00008   0.00240   0.00943   0.01182  -3.13346
   D28       -1.05115  -0.00001  -0.00040   0.00165   0.00125  -1.04990
   D29        1.03827  -0.00003   0.00051   0.00028   0.00079   1.03905
   D30        3.13577  -0.00002   0.00034   0.00085   0.00120   3.13697
   D31        1.07622   0.00008   0.00401   0.00052   0.00452   1.08074
   D32       -3.11755   0.00005   0.00492  -0.00086   0.00406  -3.11349
   D33       -1.02005   0.00007   0.00476  -0.00028   0.00447  -1.01557
   D34        3.10807  -0.00001  -0.00162   0.00232   0.00069   3.10876
   D35       -1.08570  -0.00004  -0.00071   0.00094   0.00023  -1.08547
   D36        1.01180  -0.00002  -0.00088   0.00152   0.00064   1.01244
         Item               Value     Threshold  Converged?
 Maximum Force            0.001167     0.000450     NO 
 RMS     Force            0.000247     0.000300     YES
 Maximum Displacement     0.075275     0.001800     NO 
 RMS     Displacement     0.021795     0.001200     NO 
 Predicted change in Energy=-3.434628D-05
 Lowest energy point so far.  Saving SCF results.
 GradGradGradGradGradGradGradGradGradGradGradGradGradGradGradGradGradGrad

 Leave Link  103 at Wed Oct 22 13:11:45 2025, MaxMem=  4294967296 cpu:               0.1 elap:               0.0
 (Enter /lrz/sys/applications/gaussian/g16.C.01/x86_64_legacy/exe/l202.exe)
                          Input orientation:                          
 ---------------------------------------------------------------------
 Center     Atomic      Atomic             Coordinates (Angstroms)
 Number     Number       Type             X           Y           Z
 ---------------------------------------------------------------------
      1          8           0       -1.435665   -0.997900    0.249336
      2          6           0       -0.996804    0.356040    0.267146
      3          7           0       -1.863346    1.255843   -0.448366
      4          6           0        0.405051    0.380865   -0.318126
      5          6           0        1.423288   -0.456941    0.447207
      6          6           0        2.814596   -0.405101   -0.169209
      7          1           0       -2.258692   -1.044263    0.750148
      8          1           0       -0.958062    0.699267    1.317374
      9          1           0       -2.802058    1.206524   -0.052395
     10          1           0       -1.946854    0.931726   -1.413428
     11          1           0        0.738671    1.430089   -0.355282
     12          1           0        0.344788    0.031873   -1.366041
     13          1           0        1.074260   -1.501062    0.491440
     14          1           0        1.467063   -0.103738    1.492380
     15          1           0        2.805692   -0.784558   -1.204032
     16          1           0        3.200380    0.627017   -0.199387
     17          1           0        3.532113   -1.013105    0.402909
 ---------------------------------------------------------------------
                    Distance matrix (angstroms):
                    1          2          3          4          5
     1  O    0.000000
     2  C    1.423400   0.000000
     3  N    2.397720   1.439618   0.000000
     4  C    2.368805   1.519328   2.434785   0.000000
     5  C    2.916402   2.559337   3.812827   1.524618   0.000000
     6  C    4.311764   3.911076   4.971902   2.538863   1.522628
     7  H    0.964539   1.945893   2.623590   3.204329   3.740815
     8  H    2.061355   1.105569   2.060862   2.152746   2.786545
     9  H    2.611046   2.020983   1.020003   3.322330   4.568399
    10  H    2.597991   2.014532   1.021455   2.652281   4.092459
    11  H    3.314880   2.133747   2.609506   1.101615   2.161845
    12  H    2.615318   2.138284   2.686278   1.106144   2.165634
    13  H    2.571285   2.790778   4.136821   2.155199   1.101801
    14  H    3.281845   2.789845   4.087369   2.154215   1.104108
    15  H    4.488530   4.233711   5.151135   2.811782   2.178294
    16  H    4.933013   4.231718   5.108692   2.808657   2.179703
    17  H    4.970174   4.733295   5.914708   3.498794   2.181381
                    6          7          8          9         10
     6  C    0.000000
     7  H    5.195383   0.000000
     8  H    4.202679   2.247950   0.000000
     9  H    5.844467   2.450585   2.352424   0.000000
    10  H    5.099666   2.946665   2.913593   1.630735   0.000000
    11  H    2.777051   4.040864   2.492144   3.560686   2.929179
    12  H    2.779084   3.523412   3.056722   3.606676   2.462439
    13  H    2.160176   3.374042   3.107080   4.759477   4.321355
    14  H    2.160450   3.913661   2.560601   4.725306   4.601167
    15  H    1.102236   5.434543   4.767082   6.061150   5.057290
    16  H    1.102273   5.787595   4.427011   6.032139   5.297241
    17  H    1.100826   5.801290   4.891844   6.727241   6.091020
                   11         12         13         14         15
    11  H    0.000000
    12  H    1.769686   0.000000
    13  H    3.069398   2.516397   0.000000
    14  H    2.509390   3.073836   1.763148   0.000000
    15  H    3.146048   2.597856   2.527026   3.086435   0.000000
    16  H    2.594077   3.141605   3.086478   2.529915   1.776973
    17  H    3.787792   3.792124   2.507385   2.505659   1.778251
                   16         17
    16  H    0.000000
    17  H    1.778428   0.000000
 Stoichiometry    C4H11NO
 Framework group  C1[X(C4H11NO)]
 Deg. of freedom    45
 Full point group                 C1      NOp   1
 RotChk:  IX=0 Diff= 2.37D-02
 Largest Abelian subgroup         C1      NOp   1
 Largest concise Abelian subgroup C1      NOp   1
                         Standard orientation:                         
 ---------------------------------------------------------------------
 Center     Atomic      Atomic             Coordinates (Angstroms)
 Number     Number       Type             X           Y           Z
 ---------------------------------------------------------------------
      1          8           0        1.266615    1.258675   -0.316250
      2          6           0        1.089074   -0.003008    0.318339
      3          7           0        2.121261   -0.957777    0.009297
      4          6           0       -0.272858   -0.528915   -0.102282
      5          6           0       -1.443276    0.366492    0.288649
      6          6           0       -2.789243   -0.195052   -0.148887
      7          1           0        2.057503    1.664586    0.058006
      8          1           0        1.097044    0.149951    1.413247
      9          1           0        3.027040   -0.575039    0.280372
     10          1           0        2.159353   -1.082223   -1.003833
     11          1           0       -0.403198   -1.527927    0.343301
     12          1           0       -0.260813   -0.671995   -1.199066
     13          1           0       -1.296970    1.366832   -0.149393
     14          1           0       -1.438290    0.507558    1.383697
     15          1           0       -2.833577   -0.314576   -1.243726
     16          1           0       -2.974141   -1.185103    0.299018
     17          1           0       -3.617872    0.465874    0.148379
 ---------------------------------------------------------------------
 Rotational constants (GHZ):           7.5301638           1.7550252           1.5302009
 Leave Link  202 at Wed Oct 22 13:11:45 2025, MaxMem=  4294967296 cpu:               0.0 elap:               0.0
 (Enter /lrz/sys/applications/gaussian/g16.C.01/x86_64_legacy/exe/l301.exe)
 Standard basis: def2SVP (5D, 7F)
 Ernie: Thresh=  0.10000D-02 Tol=  0.10000D-05 Strict=F.
 There are   145 symmetry adapted cartesian basis functions of A   symmetry.
 There are   139 symmetry adapted basis functions of A   symmetry.
   139 basis functions,   227 primitive gaussians,   145 cartesian basis functions
    25 alpha electrons       25 beta electrons
       nuclear repulsion energy       257.0316550726 Hartrees.
 IExCor= 4639 DFT=T Ex+Corr=wB97XD ExCW=0 ScaHFX=  1.000000
 ScaDFX=  1.000000  1.000000  1.000000  1.000000 ScalE2=  1.000000  1.000000
 IRadAn=      5 IRanWt=     -1 IRanGd=            0 ICorTp=0 IEmpDi=121
 HFx  wShort=  0.000000 wLong=  0.200000 cFull=  0.222036 cShort=  0.000000 cLong=  0.777964
 DFx  wShort=  0.000000 wLong=  0.200000 cFull=  0.000000 cShort=  0.000000 cLong=  1.000000
 NAtoms=   17 NActive=   17 NUniq=   17 SFac= 1.00D+00 NAtFMM=   60 NAOKFM=F Big=F
 Integral buffers will be    131072 words long.
 Raffenetti 2 integral format.
 Two-electron integral symmetry is turned on.
 R6Disp:  Grimme-D2 Dispersion energy=       -0.0087308851 Hartrees.
 Nuclear repulsion after empirical dispersion term =      257.0229241875 Hartrees.
 ------------------------------------------------------------------------------
 Polarizable Continuum Model (PCM)
 =================================
 Model                : PCM.
 Atomic radii         : SMD-Coulomb.
 Polarization charges : Total charges.
 Charge compensation  : None.
 Solution method      : On-the-fly selection.
 Cavity type          : VdW (van der Waals Surface) (Alpha=1.000).
 Cavity algorithm     : GePol (No added spheres)
                        Default sphere list used, NSphG=   17.
                        Lebedev-Laikov grids with approx.  5.0 points / Ang**2.
                        Smoothing algorithm: York/Karplus (Gamma=1.0000).
                        Polarization charges: spherical gaussians, with
                                              point-specific exponents (IZeta= 3).
                        Self-potential: point-specific (ISelfS= 7).
                        Self-field    : sphere-specific E.n sum rule (ISelfD= 2).
 1st derivatives      : Analytical E(r).r(x)/FMM algorithm (CHGder, D1EAlg=3).
                        Cavity 1st derivative terms included.
 Solvent              : Water, Eps=  78.355300 Eps(inf)=   1.777849
 ------------------------------------------------------------------------------
 Spheres list:
 ISph  on   Nord     Re0    Alpha      Xe            Ye            Ze
    1   O      1    1.5200  1.000      1.266615      1.258675     -0.316250
    2   C      2    1.8500  1.000      1.089074     -0.003008      0.318339
    3   N      3    1.8900  1.000      2.121261     -0.957777      0.009297
    4   C      4    1.8500  1.000     -0.272858     -0.528915     -0.102282
    5   C      5    1.8500  1.000     -1.443276      0.366492      0.288649
    6   C      6    1.8500  1.000     -2.789243     -0.195052     -0.148887
    7   H      7    1.2000  1.000      2.057503      1.664586      0.058006
    8   H      8    1.2000  1.000      1.097044      0.149951      1.413247
    9   H      9    1.2000  1.000      3.027040     -0.575039      0.280372
   10   H     10    1.2000  1.000      2.159353     -1.082223     -1.003833
   11   H     11    1.2000  1.000     -0.403198     -1.527927      0.343301
   12   H     12    1.2000  1.000     -0.260813     -0.671995     -1.199066
   13   H     13    1.2000  1.000     -1.296970      1.366832     -0.149393
   14   H     14    1.2000  1.000     -1.438290      0.507558      1.383697
   15   H     15    1.2000  1.000     -2.833577     -0.314576     -1.243726
   16   H     16    1.2000  1.000     -2.974141     -1.185103      0.299018
   17   H     17    1.2000  1.000     -3.617872      0.465874      0.148379
 ------------------------------------------------------------------------------
 GePol: Number of generator spheres                  =      17
 GePol: Total number of spheres                      =      17
 GePol: Number of exposed spheres                    =      17 (100.00%)
 GePol: Number of points                             =    1192
 GePol: Average weight of points                     =       0.12
 GePol: Minimum weight of points                     =   0.51D-09
 GePol: Maximum weight of points                     =    0.21991
 GePol: Number of points with low weight             =      65
 GePol: Fraction of low-weight points (<1% of avg)   =       5.45%
 GePol: Cavity surface area                          =    138.388 Ang**2
 GePol: Cavity volume                                =    107.971 Ang**3
 ------------------------------------------------------------------------------
 Atomic radii for non-electrostatic terms: SMD-CDS.
 ------------------------------------------------------------------------------
 PCM non-electrostatic energy =         0.0032368704 Hartrees.
 Nuclear repulsion after PCM non-electrostatic terms =      257.0261610579 Hartrees.
 Leave Link  301 at Wed Oct 22 13:11:45 2025, MaxMem=  4294967296 cpu:               0.4 elap:               0.1
 (Enter /lrz/sys/applications/gaussian/g16.C.01/x86_64_legacy/exe/l302.exe)
 NPDir=0 NMtPBC=     1 NCelOv=     1 NCel=       1 NClECP=     1 NCelD=      1
         NCelK=      1 NCelE2=     1 NClLst=     1 CellRange=     0.0.
 One-electron integrals computed using PRISM.
 One-electron integral symmetry used in STVInt
   1 Symmetry operations used in ECPInt.
 ECPInt:  NShTT=    2415 NPrTT=    8239 LenC2=    2397 LenP2D=    6844.
 LDataN:  DoStor=T MaxTD1= 4 Len=   56
 NBasis=   139 RedAO= T EigKep=  1.39D-03  NBF=   139
 NBsUse=   139 1.00D-06 EigRej= -1.00D+00 NBFU=   139
 Precomputing XC quadrature grid using
 IXCGrd= 4 IRadAn=           5 IRanWt=          -1 IRanGd=           0 AccXCQ= 0.00D+00.
 Generated NRdTot=       0 NPtTot=           0 NUsed=           0 NTot=          32
 NSgBfM=   145   145   145   145   145 MxSgAt=    17 MxSgA2=    17.
 Leave Link  302 at Wed Oct 22 13:11:45 2025, MaxMem=  4294967296 cpu:               1.3 elap:               0.2
 (Enter /lrz/sys/applications/gaussian/g16.C.01/x86_64_legacy/exe/l303.exe)
 DipDrv:  MaxL=1.
 Leave Link  303 at Wed Oct 22 13:11:46 2025, MaxMem=  4294967296 cpu:               0.2 elap:               0.0
 (Enter /lrz/sys/applications/gaussian/g16.C.01/x86_64_legacy/exe/l401.exe)
 Initial guess from the checkpoint file:  "g16_C17-a_9.chk"
 B after Tr=    -0.000000   -0.000000    0.000000
         Rot=    0.999990    0.004454   -0.000120   -0.000109 Ang=   0.51 deg.
 Guess basis will be translated and rotated to current coordinates.
 JPrj=2 DoOrth=T DoCkMO=T.
 Generating alternative initial guess.
 ExpMin= 1.22D-01 ExpMax= 2.27D+03 ExpMxC= 3.41D+02 IAcc=3 IRadAn=         5 AccDes= 0.00D+00
 Harris functional with IExCor= 4639 and IRadAn=       5 diagonalized for initial guess.
 HarFok:  IExCor= 4639 AccDes= 0.00D+00 IRadAn=         5 IDoV= 1 UseB2=F ITyADJ=14
 ICtDFT=  3500011 ScaDFX=  1.000000  1.000000  1.000000  1.000000
 FoFCou: FMM=F IPFlag=           0 FMFlag=      100000 FMFlg1=           0
         NFxFlg=           0 DoJE=T BraDBF=F KetDBF=T FulRan=T
         wScrn=  0.000000 ICntrl=       500 IOpCl=  0 I1Cent=   200000004 NGrid=           0
         NMat0=    1 NMatS0=      1 NMatT0=    0 NMatD0=    1 NMtDS0=    0 NMtDT0=    0
 Petite list used in FoFCou.
 Harris En= -275.865778369518    
 Leave Link  401 at Wed Oct 22 13:11:46 2025, MaxMem=  4294967296 cpu:               6.8 elap:               0.9
 (Enter /lrz/sys/applications/gaussian/g16.C.01/x86_64_legacy/exe/l502.exe)
 Integral symmetry usage will be decided dynamically.
 Closed shell SCF:
 Using DIIS extrapolation, IDIIS=  1040.
 NGot=  4294967296 LenX=  4294921924 LenY=  4294900458
 Requested convergence on RMS density matrix=1.00D-08 within 128 cycles.
 Requested convergence on MAX density matrix=1.00D-06.
 Requested convergence on             energy=1.00D-06.
 No special actions if energy rises.
 Fock matrices will be formed incrementally for  20 cycles.

 Cycle   1  Pass 1  IDiag  1:
 FoFJK:  IHMeth= 1 ICntrl=       0 DoSepK=T KAlg= 0 I1Cent=           0 FoldK=F
 IRaf=         1 NMat=       1 IRICut=       1 DoRegI=T DoRafI=F ISym2E= 0 IDoP0=0 IntGTp=1.
 FoFCou: FMM=F IPFlag=           0 FMFlag=      100000 FMFlg1=           0
         NFxFlg=           0 DoJE=T BraDBF=F KetDBF=F FulRan=T
         wScrn=  0.000000 ICntrl=       500 IOpCl=  0 I1Cent=           0 NGrid=           0
         NMat0=    1 NMatS0=      1 NMatT0=    0 NMatD0=    1 NMtDS0=    0 NMtDT0=    0
 Symmetry not used in FoFCou.
 Inv3:  Mode=1 IEnd=     4262592.
 Iteration    1 A*A^-1 deviation from unit magnitude is 6.00D-15 for    629.
 Iteration    1 A*A^-1 deviation from orthogonality  is 3.31D-15 for   1141    354.
 Iteration    1 A^-1*A deviation from unit magnitude is 5.33D-15 for    629.
 Iteration    1 A^-1*A deviation from orthogonality  is 2.89D-15 for   1151    984.
 E= -288.743408960033    
 DIIS: error= 1.01D-03 at cycle   1 NSaved=   1.
 NSaved= 1 IEnMin= 1 EnMin= -288.743408960033     IErMin= 1 ErrMin= 1.01D-03
 ErrMax= 1.01D-03  0.00D+00 EMaxC= 1.00D-01 BMatC= 4.05D-04 BMatP= 4.05D-04
 IDIUse=3 WtCom= 9.90D-01 WtEn= 1.01D-02
 Coeff-Com:  0.100D+01
 Coeff-En:   0.100D+01
 Coeff:      0.100D+01
 Gap=     0.750 Goal=   None    Shift=    0.000
 GapD=    0.750 DampG=2.000 DampE=1.000 DampFc=2.0000 IDamp=-1.
 RMSDP=2.32D-04 MaxDP=5.04D-03              OVMax= 5.32D-03

 Cycle   2  Pass 1  IDiag  1:
 RMSU=  2.32D-04    CP:  1.00D+00
 E= -288.744069499169     Delta-E=       -0.000660539136 Rises=F Damp=F
 DIIS: error= 1.97D-04 at cycle   2 NSaved=   2.
 NSaved= 2 IEnMin= 2 EnMin= -288.744069499169     IErMin= 2 ErrMin= 1.97D-04
 ErrMax= 1.97D-04  0.00D+00 EMaxC= 1.00D-01 BMatC= 1.55D-05 BMatP= 4.05D-04
 IDIUse=3 WtCom= 9.98D-01 WtEn= 1.97D-03
 Coeff-Com: -0.198D+00 0.120D+01
 Coeff-En:   0.000D+00 0.100D+01
 Coeff:     -0.197D+00 0.120D+01
 Gap=     0.476 Goal=   None    Shift=    0.000
 RMSDP=6.43D-05 MaxDP=1.20D-03 DE=-6.61D-04 OVMax= 1.83D-03

 Cycle   3  Pass 1  IDiag  1:
 RMSU=  3.61D-05    CP:  1.00D+00  1.23D+00
 E= -288.744107533962     Delta-E=       -0.000038034792 Rises=F Damp=F
 DIIS: error= 4.00D-05 at cycle   3 NSaved=   3.
 NSaved= 3 IEnMin= 3 EnMin= -288.744107533962     IErMin= 3 ErrMin= 4.00D-05
 ErrMax= 4.00D-05  0.00D+00 EMaxC= 1.00D-01 BMatC= 5.85D-07 BMatP= 1.55D-05
 IDIUse=1 WtCom= 1.00D+00 WtEn= 0.00D+00
 Coeff-Com: -0.239D-01 0.838D-01 0.940D+00
 Coeff:     -0.239D-01 0.838D-01 0.940D+00
 Gap=     0.476 Goal=   None    Shift=    0.000
 RMSDP=1.30D-05 MaxDP=1.79D-04 DE=-3.80D-05 OVMax= 3.13D-04

 Cycle   4  Pass 1  IDiag  1:
 RMSU=  8.82D-06    CP:  1.00D+00  1.25D+00  1.23D+00
 E= -288.744108350812     Delta-E=       -0.000000816850 Rises=F Damp=F
 DIIS: error= 3.00D-05 at cycle   4 NSaved=   4.
 NSaved= 4 IEnMin= 4 EnMin= -288.744108350812     IErMin= 4 ErrMin= 3.00D-05
 ErrMax= 3.00D-05  0.00D+00 EMaxC= 1.00D-01 BMatC= 2.52D-07 BMatP= 5.85D-07
 IDIUse=1 WtCom= 1.00D+00 WtEn= 0.00D+00
 Coeff-Com:  0.141D-01-0.114D+00 0.405D+00 0.695D+00
 Coeff:      0.141D-01-0.114D+00 0.405D+00 0.695D+00
 Gap=     0.476 Goal=   None    Shift=    0.000
 RMSDP=4.81D-06 MaxDP=9.64D-05 DE=-8.17D-07 OVMax= 1.06D-04

 Cycle   5  Pass 1  IDiag  1:
 RMSU=  2.27D-06    CP:  1.00D+00  1.25D+00  1.34D+00  8.46D-01
 E= -288.744108598030     Delta-E=       -0.000000247218 Rises=F Damp=F
 DIIS: error= 4.24D-06 at cycle   5 NSaved=   5.
 NSaved= 5 IEnMin= 5 EnMin= -288.744108598030     IErMin= 5 ErrMin= 4.24D-06
 ErrMax= 4.24D-06  0.00D+00 EMaxC= 1.00D-01 BMatC= 5.54D-09 BMatP= 2.52D-07
 IDIUse=1 WtCom= 1.00D+00 WtEn= 0.00D+00
 Coeff-Com:  0.436D-02-0.319D-01 0.643D-01 0.169D+00 0.794D+00
 Coeff:      0.436D-02-0.319D-01 0.643D-01 0.169D+00 0.794D+00
 Gap=     0.476 Goal=   None    Shift=    0.000
 RMSDP=1.16D-06 MaxDP=1.93D-05 DE=-2.47D-07 OVMax= 2.80D-05

 Cycle   6  Pass 1  IDiag  1:
 RMSU=  6.75D-07    CP:  1.00D+00  1.26D+00  1.36D+00  8.92D-01  1.14D+00
 E= -288.744108604298     Delta-E=       -0.000000006268 Rises=F Damp=F
 DIIS: error= 1.72D-06 at cycle   6 NSaved=   6.
 NSaved= 6 IEnMin= 6 EnMin= -288.744108604298     IErMin= 6 ErrMin= 1.72D-06
 ErrMax= 1.72D-06  0.00D+00 EMaxC= 1.00D-01 BMatC= 1.29D-09 BMatP= 5.54D-09
 IDIUse=1 WtCom= 1.00D+00 WtEn= 0.00D+00
 Coeff-Com: -0.492D-03 0.538D-02-0.387D-01-0.446D-01 0.311D+00 0.767D+00
 Coeff:     -0.492D-03 0.538D-02-0.387D-01-0.446D-01 0.311D+00 0.767D+00
 Gap=     0.476 Goal=   None    Shift=    0.000
 RMSDP=5.17D-07 MaxDP=1.02D-05 DE=-6.27D-09 OVMax= 1.52D-05

 Cycle   7  Pass 1  IDiag  1:
 RMSU=  1.95D-07    CP:  1.00D+00  1.26D+00  1.37D+00  9.14D-01  1.28D+00
                    CP:  9.43D-01
 E= -288.744108605805     Delta-E=       -0.000000001507 Rises=F Damp=F
 DIIS: error= 3.65D-07 at cycle   7 NSaved=   7.
 NSaved= 7 IEnMin= 7 EnMin= -288.744108605805     IErMin= 7 ErrMin= 3.65D-07
 ErrMax= 3.65D-07  0.00D+00 EMaxC= 1.00D-01 BMatC= 3.83D-11 BMatP= 1.29D-09
 IDIUse=1 WtCom= 1.00D+00 WtEn= 0.00D+00
 Coeff-Com: -0.342D-03 0.293D-02-0.104D-01-0.184D-01 0.288D-03 0.138D+00
 Coeff-Com:  0.888D+00
 Coeff:     -0.342D-03 0.293D-02-0.104D-01-0.184D-01 0.288D-03 0.138D+00
 Coeff:      0.888D+00
 Gap=     0.476 Goal=   None    Shift=    0.000
 RMSDP=1.26D-07 MaxDP=3.22D-06 DE=-1.51D-09 OVMax= 4.68D-06

 Cycle   8  Pass 1  IDiag  1:
 RMSU=  5.94D-08    CP:  1.00D+00  1.26D+00  1.37D+00  9.18D-01  1.32D+00
                    CP:  1.03D+00  1.16D+00
 E= -288.744108605874     Delta-E=       -0.000000000068 Rises=F Damp=F
 DIIS: error= 1.11D-07 at cycle   8 NSaved=   8.
 NSaved= 8 IEnMin= 8 EnMin= -288.744108605874     IErMin= 8 ErrMin= 1.11D-07
 ErrMax= 1.11D-07  0.00D+00 EMaxC= 1.00D-01 BMatC= 5.57D-12 BMatP= 3.83D-11
 IDIUse=1 WtCom= 1.00D+00 WtEn= 0.00D+00
 Coeff-Com: -0.633D-04 0.460D-03-0.279D-03-0.223D-02-0.217D-01-0.133D-01
 Coeff-Com:  0.263D+00 0.774D+00
 Coeff:     -0.633D-04 0.460D-03-0.279D-03-0.223D-02-0.217D-01-0.133D-01
 Coeff:      0.263D+00 0.774D+00
 Gap=     0.476 Goal=   None    Shift=    0.000
 RMSDP=3.75D-08 MaxDP=8.69D-07 DE=-6.83D-11 OVMax= 1.42D-06

 Cycle   9  Pass 1  IDiag  1:
 RMSU=  1.85D-08    CP:  1.00D+00  1.26D+00  1.37D+00  9.18D-01  1.33D+00
                    CP:  1.05D+00  1.29D+00  1.09D+00
 E= -288.744108605883     Delta-E=       -0.000000000009 Rises=F Damp=F
 DIIS: error= 4.57D-08 at cycle   9 NSaved=   9.
 NSaved= 9 IEnMin= 9 EnMin= -288.744108605883     IErMin= 9 ErrMin= 4.57D-08
 ErrMax= 4.57D-08  0.00D+00 EMaxC= 1.00D-01 BMatC= 7.76D-13 BMatP= 5.57D-12
 IDIUse=1 WtCom= 1.00D+00 WtEn= 0.00D+00
 Coeff-Com:  0.418D-04-0.388D-03 0.180D-02 0.262D-02-0.705D-02-0.297D-01
 Coeff-Com: -0.785D-01 0.232D+00 0.879D+00
 Coeff:      0.418D-04-0.388D-03 0.180D-02 0.262D-02-0.705D-02-0.297D-01
 Coeff:     -0.785D-01 0.232D+00 0.879D+00
 Gap=     0.476 Goal=   None    Shift=    0.000
 RMSDP=1.82D-08 MaxDP=4.30D-07 DE=-9.09D-12 OVMax= 6.53D-07

 Cycle  10  Pass 1  IDiag  1:
 RMSU=  4.17D-09    CP:  1.00D+00  1.26D+00  1.37D+00  9.19D-01  1.33D+00
                    CP:  1.06D+00  1.34D+00  1.26D+00  1.07D+00
 E= -288.744108605883     Delta-E=       -0.000000000000 Rises=F Damp=F
 DIIS: error= 4.78D-09 at cycle  10 NSaved=  10.
 NSaved=10 IEnMin=10 EnMin= -288.744108605883     IErMin=10 ErrMin= 4.78D-09
 ErrMax= 4.78D-09  0.00D+00 EMaxC= 1.00D-01 BMatC= 1.42D-14 BMatP= 7.76D-13
 IDIUse=1 WtCom= 1.00D+00 WtEn= 0.00D+00
 Coeff-Com:  0.567D-05-0.464D-04 0.137D-03 0.265D-03 0.429D-03-0.129D-02
 Coeff-Com: -0.150D-01-0.147D-01 0.427D-01 0.988D+00
 Coeff:      0.567D-05-0.464D-04 0.137D-03 0.265D-03 0.429D-03-0.129D-02
 Coeff:     -0.150D-01-0.147D-01 0.427D-01 0.988D+00
 Gap=     0.476 Goal=   None    Shift=    0.000
 RMSDP=3.24D-09 MaxDP=5.70D-08 DE=-3.41D-13 OVMax= 1.00D-07

 Error on total polarization charges =  0.03458
 SCF Done:  E(RwB97XD) =  -288.744108606     A.U. after   10 cycles
            NFock= 10  Conv=0.32D-08     -V/T= 2.0108
 KE= 2.856553986347D+02 PE=-1.186171515128D+03 EE= 3.547458468296D+02
 SMD-CDS (non-electrostatic) energy       (kcal/mol) =       2.03
 (included in total energy above)
 Leave Link  502 at Wed Oct 22 13:12:05 2025, MaxMem=  4294967296 cpu:             152.2 elap:              19.1
 (Enter /lrz/sys/applications/gaussian/g16.C.01/x86_64_legacy/exe/l701.exe)
 ... and contract with generalized density number  0.
 Compute integral first derivatives.
 R6Disp: Adding Grimme-D2 dispersion energy 1st derivatives to the gradient.
   1 Symmetry operations used in ECPInt.
 ECPInt:  NShTT=    2415 NPrTT=    8239 LenC2=    2397 LenP2D=    6844.
 LDataN:  DoStor=T MaxTD1= 5 Len=  102
 D1PCM: PCM CHGder 1st derivatives, ID1Alg=3 FixD1E=F DoIter=F DoCFld=F I1PDM=0.
 GePol: Maximum number of non-zero 1st derivatives   =     265
 Leave Link  701 at Wed Oct 22 13:12:06 2025, MaxMem=  4294967296 cpu:               4.7 elap:               0.6
 (Enter /lrz/sys/applications/gaussian/g16.C.01/x86_64_legacy/exe/l702.exe)
 L702 exits ... SP integral derivatives will be done elsewhere.
 Leave Link  702 at Wed Oct 22 13:12:06 2025, MaxMem=  4294967296 cpu:               0.1 elap:               0.0
 (Enter /lrz/sys/applications/gaussian/g16.C.01/x86_64_legacy/exe/l703.exe)
 Integral derivatives from FoFJK, PRISM(SPDF).
 Compute integral first derivatives, UseDBF=F ICtDFT=           0.
 Calling FoFJK, ICntrl=      2127 FMM=F ISym2X=0 I1Cent= 0 IOpClX= 0 NMat=1 NMatS=1 NMatT=0.
 FoFJK:  IHMeth= 1 ICntrl=    2127 DoSepK=T KAlg= 0 I1Cent=           0 FoldK=F
 IRaf=         1 NMat=       1 IRICut=       1 DoRegI=T DoRafI=F ISym2E= 0 IDoP0=0 IntGTp=1.
 FoFCou: FMM=F IPFlag=           0 FMFlag=      100000 FMFlg1=         800
         NFxFlg=           0 DoJE=F BraDBF=F KetDBF=F FulRan=T
         wScrn=  0.000000 ICntrl=      2527 IOpCl=  0 I1Cent=           0 NGrid=           0
         NMat0=    1 NMatS0=      1 NMatT0=    0 NMatD0=    1 NMtDS0=    0 NMtDT0=    0
 Symmetry not used in FoFCou.
 Leave Link  703 at Wed Oct 22 13:12:09 2025, MaxMem=  4294967296 cpu:              24.5 elap:               3.1
 (Enter /lrz/sys/applications/gaussian/g16.C.01/x86_64_legacy/exe/l716.exe)
 Dipole        = 7.54675243D-01 2.35305783D-01 2.37275077D-01
 ***** Axes restored to original set *****
 -------------------------------------------------------------------
 Center     Atomic                   Forces (Hartrees/Bohr)
 Number     Number              X              Y              Z
 -------------------------------------------------------------------
      1        8           0.000023419    0.000306016    0.000023128
      2        6           0.000043090   -0.000647696    0.000424391
      3        7          -0.000230682    0.000034353   -0.000366515
      4        6           0.000115592    0.000256807   -0.000589675
      5        6          -0.000259405   -0.000241408    0.000508928
      6        6           0.000516455    0.000099160   -0.000265894
      7        1           0.000025962   -0.000013051   -0.000032153
      8        1          -0.000099846    0.000058891   -0.000166129
      9        1           0.000185841    0.000145798    0.000117277
     10        1           0.000027713   -0.000001266    0.000147577
     11        1          -0.000113770   -0.000048668    0.000055265
     12        1          -0.000003483   -0.000015747    0.000270170
     13        1           0.000064319    0.000126509   -0.000129388
     14        1          -0.000025932   -0.000014605   -0.000124501
     15        1          -0.000048262    0.000051652    0.000143380
     16        1          -0.000113122   -0.000139456    0.000040083
     17        1          -0.000107887    0.000042711   -0.000055944
 -------------------------------------------------------------------
 Cartesian Forces:  Max     0.000647696 RMS     0.000216917
 Leave Link  716 at Wed Oct 22 13:12:09 2025, MaxMem=  4294967296 cpu:               0.1 elap:               0.0
 (Enter /lrz/sys/applications/gaussian/g16.C.01/x86_64_legacy/exe/l103.exe)

 GradGradGradGradGradGradGradGradGradGradGradGradGradGradGradGradGradGrad
 Berny optimization.
 Using GEDIIS/GDIIS optimizer.
 FormGI is forming the generalized inverse of G from B-inverse, IUseBI=4.
 Internal  Forces:  Max     0.000293542 RMS     0.000094199
 Search for a local minimum.
 Step number   4 out of a maximum of   90
 All quantities printed in internal units (Hartrees-Bohrs-Radians)
 RMS Force = .94199D-04 SwitMx=.10000D-02 MixMth= 2
 Mixed Optimization -- En-DIIS/RFO-DIIS
 Swapping is turned off.
 Update second derivatives using D2CorX and points    1    2    3    4
 DE= -3.88D-05 DEPred=-3.43D-05 R= 1.13D+00
 TightC=F SS=  1.41D+00  RLast= 1.16D-01 DXNew= 8.4853D-01 3.4890D-01
 Trust test= 1.13D+00 RLast= 1.16D-01 DXMaxT set to 5.05D-01
 ITU=  1  1  1  0
     Eigenvalues ---    0.00251   0.00445   0.00464   0.00983   0.01410
     Eigenvalues ---    0.03364   0.03567   0.04532   0.04837   0.04889
     Eigenvalues ---    0.05285   0.05510   0.05557   0.05961   0.07842
     Eigenvalues ---    0.08429   0.08696   0.12256   0.12478   0.15747
     Eigenvalues ---    0.16000   0.16000   0.16016   0.16194   0.16486
     Eigenvalues ---    0.17537   0.20943   0.21846   0.23387   0.29485
     Eigenvalues ---    0.30005   0.31719   0.33618   0.34547   0.34704
     Eigenvalues ---    0.34820   0.34883   0.35090   0.35126   0.35578
     Eigenvalues ---    0.40388   0.45029   0.45234   0.45588   0.54557
 En-DIIS/RFO-DIIS/Sim-DIIS IScMMF=       -3 using points:     4    3    2
 RFO step:  Lambda=-1.21507743D-05.
 NNeg= 0 NGDIIS= 3 SimSw=  2.50D-01 Rises=F DC= -3.88D-05 SmlDif=  1.00D-05
 NRisDI= 0 DoIntr=F SqrtH=F CThrHd= 10.0 CDAdj=  3.0
 RMS Error=  0.5820025627D-02 NUsed= 3 OKEnD=T EnDIS=F
 InvSVX:  RCond= 3.41D-05 Info=           0 Equed=N FErr=  1.22D-13 BErr=  5.12D-17
 DidBck=F Rises=F RFO-DIIS coefs:    1.50613   -0.58217    0.07604
 Iteration  1 RMS(Cart)=  0.01087440 RMS(Int)=  0.00006336
 Iteration  2 RMS(Cart)=  0.00007346 RMS(Int)=  0.00000260
 Iteration  3 RMS(Cart)=  0.00000000 RMS(Int)=  0.00000260
 ITry= 1 IFail=0 DXMaxC= 3.26D-02 DCOld= 1.00D+10 DXMaxT= 5.05D-01 DXLimC= 3.00D+00 Rises=F
 Variable       Old X    -DE/DX   Delta X   Delta X   Delta X     New X
                                 (Linear)    (Quad)   (Total)
    R1        2.68984  -0.00029  -0.00023  -0.00036  -0.00059   2.68924
    R2        1.82271  -0.00004  -0.00004  -0.00003  -0.00007   1.82265
    R3        2.72048   0.00018   0.00178  -0.00102   0.00076   2.72124
    R4        2.87111   0.00008  -0.00042   0.00031  -0.00011   2.87101
    R5        2.08922  -0.00014  -0.00046  -0.00004  -0.00050   2.08873
    R6        1.92753  -0.00013   0.00032  -0.00048  -0.00015   1.92738
    R7        1.93027  -0.00014   0.00003  -0.00021  -0.00018   1.93009
    R8        2.88111   0.00012  -0.00043   0.00051   0.00008   2.88119
    R9        2.08175  -0.00008  -0.00055   0.00043  -0.00011   2.08164
   R10        2.09031  -0.00025  -0.00051  -0.00016  -0.00066   2.08964
   R11        2.87735   0.00028  -0.00079   0.00144   0.00065   2.87800
   R12        2.08210  -0.00014  -0.00069   0.00022  -0.00047   2.08164
   R13        2.08646  -0.00012  -0.00043   0.00016  -0.00028   2.08619
   R14        2.08293  -0.00015  -0.00083   0.00038  -0.00046   2.08247
   R15        2.08299  -0.00017  -0.00084   0.00031  -0.00052   2.08247
   R16        2.08026  -0.00012  -0.00076   0.00037  -0.00039   2.07986
    A1        1.87791   0.00003  -0.00079   0.00082   0.00003   1.87794
    A2        1.98529   0.00004  -0.00054   0.00061   0.00008   1.98537
    A3        1.87046   0.00016   0.00009   0.00171   0.00180   1.87227
    A4        1.89441  -0.00000  -0.00071   0.00165   0.00094   1.89535
    A5        1.93233  -0.00020   0.00080  -0.00217  -0.00138   1.93096
    A6        1.87464  -0.00003   0.00011  -0.00157  -0.00146   1.87317
    A7        1.90554   0.00004   0.00025  -0.00019   0.00006   1.90560
    A8        1.90793  -0.00002   0.00097  -0.00137  -0.00040   1.90754
    A9        1.89701  -0.00005  -0.00097   0.00035  -0.00061   1.89640
   A10        1.85063   0.00010  -0.00222   0.00253   0.00033   1.85095
   A11        1.99750  -0.00003   0.00183  -0.00149   0.00034   1.99784
   A12        1.88387  -0.00011  -0.00213   0.00025  -0.00189   1.88199
   A13        1.88548   0.00006   0.00162  -0.00036   0.00126   1.88674
   A14        1.91565   0.00009  -0.00021   0.00047   0.00026   1.91590
   A15        1.91619  -0.00004   0.00045  -0.00033   0.00012   1.91631
   A16        1.85985   0.00004  -0.00183   0.00169  -0.00013   1.85972
   A17        1.96962  -0.00009   0.00028  -0.00087  -0.00058   1.96904
   A18        1.90640  -0.00001   0.00076  -0.00082  -0.00006   1.90634
   A19        1.90274   0.00003  -0.00002   0.00031   0.00028   1.90302
   A20        1.91556   0.00003  -0.00001  -0.00002  -0.00004   1.91552
   A21        1.91358   0.00002  -0.00003   0.00027   0.00025   1.91382
   A22        1.85220   0.00002  -0.00106   0.00126   0.00020   1.85240
   A23        1.94011  -0.00005   0.00025  -0.00036  -0.00011   1.94000
   A24        1.94203  -0.00008   0.00037  -0.00061  -0.00023   1.94180
   A25        1.94591  -0.00002   0.00057  -0.00053   0.00005   1.94596
   A26        1.87494   0.00006  -0.00060   0.00064   0.00005   1.87498
   A27        1.87869   0.00004  -0.00035   0.00041   0.00006   1.87875
   A28        1.87892   0.00006  -0.00033   0.00054   0.00021   1.87913
    D1       -1.16146  -0.00002  -0.00076   0.00119   0.00043  -1.16102
    D2        2.98002   0.00009  -0.00149   0.00233   0.00083   2.98085
    D3        0.92411  -0.00004  -0.00147   0.00075  -0.00071   0.92339
    D4        1.01180   0.00008   0.00478   0.00530   0.01008   1.02188
    D5       -1.00077   0.00001   0.00740   0.00284   0.01024  -0.99053
    D6        3.11916   0.00017   0.00511   0.00635   0.01146   3.13062
    D7        1.10659   0.00009   0.00773   0.00389   0.01162   1.11821
    D8       -1.08496   0.00008   0.00594   0.00393   0.00987  -1.07509
    D9       -3.09752   0.00001   0.00855   0.00147   0.01003  -3.08750
   D10       -1.05012  -0.00001   0.01146  -0.00403   0.00743  -1.04269
   D11        3.09480  -0.00001   0.01209  -0.00381   0.00828   3.10308
   D12        1.09006  -0.00004   0.01449  -0.00573   0.00876   1.09882
   D13        3.05883  -0.00003   0.01156  -0.00456   0.00700   3.06583
   D14        0.92056  -0.00004   0.01219  -0.00434   0.00785   0.92841
   D15       -1.08418  -0.00006   0.01459  -0.00626   0.00832  -1.07586
   D16        0.99851   0.00009   0.01080  -0.00123   0.00957   1.00808
   D17       -1.13976   0.00009   0.01143  -0.00101   0.01042  -1.12934
   D18        3.13869   0.00007   0.01383  -0.00293   0.01090  -3.13360
   D19       -3.14066   0.00008   0.00930   0.00513   0.01443  -3.12623
   D20        1.00673   0.00011   0.00858   0.00634   0.01492   1.02165
   D21       -1.01003   0.00006   0.00944   0.00512   0.01456  -0.99547
   D22       -1.01974  -0.00002   0.00765   0.00476   0.01241  -1.00734
   D23        3.12765   0.00001   0.00693   0.00597   0.01289   3.14054
   D24        1.11089  -0.00004   0.00779   0.00474   0.01253   1.12342
   D25        1.01909   0.00005   0.00557   0.00689   0.01247   1.03155
   D26       -1.11670   0.00008   0.00485   0.00810   0.01295  -1.10375
   D27       -3.13346   0.00003   0.00571   0.00688   0.01259  -3.12087
   D28       -1.04990   0.00003   0.00068   0.00242   0.00310  -1.04680
   D29        1.03905   0.00002   0.00034   0.00259   0.00293   1.04198
   D30        3.13697   0.00002   0.00057   0.00250   0.00307   3.14003
   D31        1.08074  -0.00002   0.00184   0.00076   0.00260   1.08334
   D32       -3.11349  -0.00003   0.00150   0.00093   0.00243  -3.11106
   D33       -1.01557  -0.00002   0.00173   0.00084   0.00257  -1.01301
   D34        3.10876   0.00003   0.00053   0.00242   0.00296   3.11171
   D35       -1.08547   0.00003   0.00020   0.00259   0.00279  -1.08269
   D36        1.01244   0.00003   0.00042   0.00250   0.00293   1.01537
         Item               Value     Threshold  Converged?
 Maximum Force            0.000294     0.000450     YES
 RMS     Force            0.000094     0.000300     YES
 Maximum Displacement     0.032560     0.001800     NO 
 RMS     Displacement     0.010873     0.001200     NO 
 Predicted change in Energy=-6.043158D-06
 Lowest energy point so far.  Saving SCF results.
 GradGradGradGradGradGradGradGradGradGradGradGradGradGradGradGradGradGrad

 Leave Link  103 at Wed Oct 22 13:12:09 2025, MaxMem=  4294967296 cpu:               0.1 elap:               0.0
 (Enter /lrz/sys/applications/gaussian/g16.C.01/x86_64_legacy/exe/l202.exe)
                          Input orientation:                          
 ---------------------------------------------------------------------
 Center     Atomic      Atomic             Coordinates (Angstroms)
 Number     Number       Type             X           Y           Z
 ---------------------------------------------------------------------
      1          8           0       -1.437885   -0.995181    0.260958
      2          6           0       -0.995887    0.357512    0.266702
      3          7           0       -1.861679    1.253696   -0.455042
      4          6           0        0.404862    0.376893   -0.321269
      5          6           0        1.421952   -0.463923    0.442368
      6          6           0        2.816572   -0.400659   -0.166293
      7          1           0       -2.260350   -1.035350    0.763159
      8          1           0       -0.955379    0.710636    1.313298
      9          1           0       -2.797329    1.216868   -0.050757
     10          1           0       -1.955052    0.915860   -1.414379
     11          1           0        0.740694    1.425357   -0.358163
     12          1           0        0.342519    0.028980   -1.369050
     13          1           0        1.076981   -1.509567    0.474712
     14          1           0        1.458490   -0.120352    1.490870
     15          1           0        2.814005   -0.767651   -1.205381
     16          1           0        3.199072    0.632703   -0.182157
     17          1           0        3.532833   -1.013244    0.402098
 ---------------------------------------------------------------------
                    Distance matrix (angstroms):
                    1          2          3          4          5
     1  O    0.000000
     2  C    1.423086   0.000000
     3  N    2.397855   1.440019   0.000000
     4  C    2.370082   1.519271   2.433904   0.000000
     5  C    2.914414   2.559601   3.812846   1.524659   0.000000
     6  C    4.316990   3.911158   4.970543   2.538691   1.522970
     7  H    0.964504   1.945610   2.623486   3.205272   3.740158
     8  H    2.061563   1.105306   2.059932   2.152544   2.791022
     9  H    2.615037   2.021006   1.019923   3.321560   4.568431
    10  H    2.593509   2.014393   1.021362   2.656044   4.093344
    11  H    3.314894   2.132244   2.609828   1.101554   2.162022
    12  H    2.622150   2.138913   2.682132   1.105792   2.165495
    13  H    2.575817   2.797505   4.139540   2.155008   1.101555
    14  H    3.266038   2.784046   4.086332   2.154352   1.103962
    15  H    4.503387   4.236544   5.148872   2.809912   2.178335
    16  H    4.934341   4.227870   5.106006   2.809341   2.179628
    17  H    4.972754   4.733562   5.913921   3.498563   2.181558
                    6          7          8          9         10
     6  C    0.000000
     7  H    5.200178   0.000000
     8  H    4.201402   2.248125   0.000000
     9  H    5.843426   2.454239   2.347275   0.000000
    10  H    5.104835   2.939744   2.912333   1.630797   0.000000
    11  H    2.771357   4.039642   2.486216   3.557467   2.939767
    12  H    2.784269   3.529028   3.056826   3.606608   2.463218
    13  H    2.160264   3.383174   3.124582   4.766534   4.317938
    14  H    2.160821   3.898277   2.559069   4.719827   4.600704
    15  H    1.101996   5.449394   4.768368   6.062883   5.061798
    16  H    1.101997   5.786304   4.416097   6.026221   5.306933
    17  H    1.100617   5.804466   4.893474   6.726770   6.094088
                   11         12         13         14         15
    11  H    0.000000
    12  H    1.769267   0.000000
    13  H    3.069291   2.511180   0.000000
    14  H    2.514631   3.073571   1.762965   0.000000
    15  H    3.134594   2.601856   2.527926   3.086452   0.000000
    16  H    2.588995   3.151681   3.086109   2.528979   1.776585
    17  H    3.784285   3.794905   2.506555   2.507105   1.777926
                   16         17
    16  H    0.000000
    17  H    1.778171   0.000000
 Stoichiometry    C4H11NO
 Framework group  C1[X(C4H11NO)]
 Deg. of freedom    45
 Full point group                 C1      NOp   1
 RotChk:  IX=0 Diff= 9.14D-03
 Largest Abelian subgroup         C1      NOp   1
 Largest concise Abelian subgroup C1      NOp   1
                         Standard orientation:                         
 ---------------------------------------------------------------------
 Center     Atomic      Atomic             Coordinates (Angstroms)
 Number     Number       Type             X           Y           Z
 ---------------------------------------------------------------------
      1          8           0        1.269720    1.258788   -0.313119
      2          6           0        1.088588   -0.003531    0.318479
      3          7           0        2.119023   -0.960453    0.008381
      4          6           0       -0.273500   -0.527779   -0.103497
      5          6           0       -1.442897    0.372727    0.278841
      6          6           0       -2.790400   -0.198195   -0.142729
      7          1           0        2.061405    1.661844    0.062446
      8          1           0        1.096914    0.145868    1.413609
      9          1           0        3.024182   -0.584163    0.290048
     10          1           0        2.163983   -1.075126   -1.005527
     11          1           0       -0.406547   -1.523441    0.348584
     12          1           0       -0.259385   -0.678460   -1.198884
     13          1           0       -1.300268    1.365485   -0.176694
     14          1           0       -1.432492    0.532057    1.371195
     15          1           0       -2.838715   -0.338714   -1.234661
     16          1           0       -2.972470   -1.179394    0.324706
     17          1           0       -3.618273    0.467574    0.144907
 ---------------------------------------------------------------------
 Rotational constants (GHZ):           7.5299153           1.7553214           1.5291879
 Leave Link  202 at Wed Oct 22 13:12:09 2025, MaxMem=  4294967296 cpu:               0.0 elap:               0.0
 (Enter /lrz/sys/applications/gaussian/g16.C.01/x86_64_legacy/exe/l301.exe)
 Standard basis: def2SVP (5D, 7F)
 Ernie: Thresh=  0.10000D-02 Tol=  0.10000D-05 Strict=F.
 There are   145 symmetry adapted cartesian basis functions of A   symmetry.
 There are   139 symmetry adapted basis functions of A   symmetry.
   139 basis functions,   227 primitive gaussians,   145 cartesian basis functions
    25 alpha electrons       25 beta electrons
       nuclear repulsion energy       257.0258480099 Hartrees.
 IExCor= 4639 DFT=T Ex+Corr=wB97XD ExCW=0 ScaHFX=  1.000000
 ScaDFX=  1.000000  1.000000  1.000000  1.000000 ScalE2=  1.000000  1.000000
 IRadAn=      5 IRanWt=     -1 IRanGd=            0 ICorTp=0 IEmpDi=121
 HFx  wShort=  0.000000 wLong=  0.200000 cFull=  0.222036 cShort=  0.000000 cLong=  0.777964
 DFx  wShort=  0.000000 wLong=  0.200000 cFull=  0.000000 cShort=  0.000000 cLong=  1.000000
 NAtoms=   17 NActive=   17 NUniq=   17 SFac= 1.00D+00 NAtFMM=   60 NAOKFM=F Big=F
 Integral buffers will be    131072 words long.
 Raffenetti 2 integral format.
 Two-electron integral symmetry is turned on.
 R6Disp:  Grimme-D2 Dispersion energy=       -0.0087313221 Hartrees.
 Nuclear repulsion after empirical dispersion term =      257.0171166878 Hartrees.
 ------------------------------------------------------------------------------
 Polarizable Continuum Model (PCM)
 =================================
 Model                : PCM.
 Atomic radii         : SMD-Coulomb.
 Polarization charges : Total charges.
 Charge compensation  : None.
 Solution method      : On-the-fly selection.
 Cavity type          : VdW (van der Waals Surface) (Alpha=1.000).
 Cavity algorithm     : GePol (No added spheres)
                        Default sphere list used, NSphG=   17.
                        Lebedev-Laikov grids with approx.  5.0 points / Ang**2.
                        Smoothing algorithm: York/Karplus (Gamma=1.0000).
                        Polarization charges: spherical gaussians, with
                                              point-specific exponents (IZeta= 3).
                        Self-potential: point-specific (ISelfS= 7).
                        Self-field    : sphere-specific E.n sum rule (ISelfD= 2).
 1st derivatives      : Analytical E(r).r(x)/FMM algorithm (CHGder, D1EAlg=3).
                        Cavity 1st derivative terms included.
 Solvent              : Water, Eps=  78.355300 Eps(inf)=   1.777849
 ------------------------------------------------------------------------------
 Spheres list:
 ISph  on   Nord     Re0    Alpha      Xe            Ye            Ze
    1   O      1    1.5200  1.000      1.269720      1.258788     -0.313119
    2   C      2    1.8500  1.000      1.088588     -0.003531      0.318479
    3   N      3    1.8900  1.000      2.119023     -0.960453      0.008381
    4   C      4    1.8500  1.000     -0.273500     -0.527779     -0.103497
    5   C      5    1.8500  1.000     -1.442897      0.372727      0.278841
    6   C      6    1.8500  1.000     -2.790400     -0.198195     -0.142729
    7   H      7    1.2000  1.000      2.061405      1.661844      0.062446
    8   H      8    1.2000  1.000      1.096914      0.145868      1.413609
    9   H      9    1.2000  1.000      3.024182     -0.584163      0.290048
   10   H     10    1.2000  1.000      2.163983     -1.075126     -1.005527
   11   H     11    1.2000  1.000     -0.406547     -1.523441      0.348584
   12   H     12    1.2000  1.000     -0.259385     -0.678460     -1.198884
   13   H     13    1.2000  1.000     -1.300268      1.365485     -0.176694
   14   H     14    1.2000  1.000     -1.432492      0.532057      1.371195
   15   H     15    1.2000  1.000     -2.838715     -0.338714     -1.234661
   16   H     16    1.2000  1.000     -2.972470     -1.179394      0.324706
   17   H     17    1.2000  1.000     -3.618273      0.467574      0.144907
 ------------------------------------------------------------------------------
 GePol: Number of generator spheres                  =      17
 GePol: Total number of spheres                      =      17
 GePol: Number of exposed spheres                    =      17 (100.00%)
 GePol: Number of points                             =    1197
 GePol: Average weight of points                     =       0.12
 GePol: Minimum weight of points                     =   0.53D-10
 GePol: Maximum weight of points                     =    0.21991
 GePol: Number of points with low weight             =      70
 GePol: Fraction of low-weight points (<1% of avg)   =       5.85%
 GePol: Cavity surface area                          =    138.424 Ang**2
 GePol: Cavity volume                                =    107.984 Ang**3
 ------------------------------------------------------------------------------
 Atomic radii for non-electrostatic terms: SMD-CDS.
 ------------------------------------------------------------------------------
 PCM non-electrostatic energy =         0.0032386131 Hartrees.
 Nuclear repulsion after PCM non-electrostatic terms =      257.0203553010 Hartrees.
 Leave Link  301 at Wed Oct 22 13:12:09 2025, MaxMem=  4294967296 cpu:               0.4 elap:               0.1
 (Enter /lrz/sys/applications/gaussian/g16.C.01/x86_64_legacy/exe/l302.exe)
 NPDir=0 NMtPBC=     1 NCelOv=     1 NCel=       1 NClECP=     1 NCelD=      1
         NCelK=      1 NCelE2=     1 NClLst=     1 CellRange=     0.0.
 One-electron integrals computed using PRISM.
 One-electron integral symmetry used in STVInt
   1 Symmetry operations used in ECPInt.
 ECPInt:  NShTT=    2415 NPrTT=    8239 LenC2=    2397 LenP2D=    6846.
 LDataN:  DoStor=T MaxTD1= 4 Len=   56
 NBasis=   139 RedAO= T EigKep=  1.39D-03  NBF=   139
 NBsUse=   139 1.00D-06 EigRej= -1.00D+00 NBFU=   139
 Precomputing XC quadrature grid using
 IXCGrd= 4 IRadAn=           5 IRanWt=          -1 IRanGd=           0 AccXCQ= 0.00D+00.
 Generated NRdTot=       0 NPtTot=           0 NUsed=           0 NTot=          32
 NSgBfM=   145   145   145   145   145 MxSgAt=    17 MxSgA2=    17.
 Leave Link  302 at Wed Oct 22 13:12:10 2025, MaxMem=  4294967296 cpu:               1.3 elap:               0.2
 (Enter /lrz/sys/applications/gaussian/g16.C.01/x86_64_legacy/exe/l303.exe)
 DipDrv:  MaxL=1.
 Leave Link  303 at Wed Oct 22 13:12:10 2025, MaxMem=  4294967296 cpu:               0.2 elap:               0.0
 (Enter /lrz/sys/applications/gaussian/g16.C.01/x86_64_legacy/exe/l401.exe)
 Initial guess from the checkpoint file:  "g16_C17-a_9.chk"
 B after Tr=     0.000000   -0.000000    0.000000
         Rot=    0.999999    0.001643   -0.000001    0.000283 Ang=   0.19 deg.
 Guess basis will be translated and rotated to current coordinates.
 JPrj=2 DoOrth=T DoCkMO=T.
 Generating alternative initial guess.
 ExpMin= 1.22D-01 ExpMax= 2.27D+03 ExpMxC= 3.41D+02 IAcc=3 IRadAn=         5 AccDes= 0.00D+00
 Harris functional with IExCor= 4639 and IRadAn=       5 diagonalized for initial guess.
 HarFok:  IExCor= 4639 AccDes= 0.00D+00 IRadAn=         5 IDoV= 1 UseB2=F ITyADJ=14
 ICtDFT=  3500011 ScaDFX=  1.000000  1.000000  1.000000  1.000000
 FoFCou: FMM=F IPFlag=           0 FMFlag=      100000 FMFlg1=           0
         NFxFlg=           0 DoJE=T BraDBF=F KetDBF=T FulRan=T
         wScrn=  0.000000 ICntrl=       500 IOpCl=  0 I1Cent=   200000004 NGrid=           0
         NMat0=    1 NMatS0=      1 NMatT0=    0 NMatD0=    1 NMtDS0=    0 NMtDT0=    0
 Petite list used in FoFCou.
 Harris En= -275.865727679140    
 Leave Link  401 at Wed Oct 22 13:12:10 2025, MaxMem=  4294967296 cpu:               6.8 elap:               0.9
 (Enter /lrz/sys/applications/gaussian/g16.C.01/x86_64_legacy/exe/l502.exe)
 Integral symmetry usage will be decided dynamically.
 Closed shell SCF:
 Using DIIS extrapolation, IDIIS=  1040.
 NGot=  4294967296 LenX=  4294921924 LenY=  4294900458
 Requested convergence on RMS density matrix=1.00D-08 within 128 cycles.
 Requested convergence on MAX density matrix=1.00D-06.
 Requested convergence on             energy=1.00D-06.
 No special actions if energy rises.
 Fock matrices will be formed incrementally for  20 cycles.

 Cycle   1  Pass 1  IDiag  1:
 FoFJK:  IHMeth= 1 ICntrl=       0 DoSepK=T KAlg= 0 I1Cent=           0 FoldK=F
 IRaf=         1 NMat=       1 IRICut=       1 DoRegI=T DoRafI=F ISym2E= 0 IDoP0=0 IntGTp=1.
 FoFCou: FMM=F IPFlag=           0 FMFlag=      100000 FMFlg1=           0
         NFxFlg=           0 DoJE=T BraDBF=F KetDBF=F FulRan=T
         wScrn=  0.000000 ICntrl=       500 IOpCl=  0 I1Cent=           0 NGrid=           0
         NMat0=    1 NMatS0=      1 NMatT0=    0 NMatD0=    1 NMtDS0=    0 NMtDT0=    0
 Symmetry not used in FoFCou.
 Inv3:  Mode=1 IEnd=     4298427.
 Iteration    1 A*A^-1 deviation from unit magnitude is 5.11D-15 for    854.
 Iteration    1 A*A^-1 deviation from orthogonality  is 4.08D-15 for    852     54.
 Iteration    1 A^-1*A deviation from unit magnitude is 5.77D-15 for    130.
 Iteration    1 A^-1*A deviation from orthogonality  is 2.80D-15 for   1152    352.
 E= -288.743947754076    
 DIIS: error= 4.73D-04 at cycle   1 NSaved=   1.
 NSaved= 1 IEnMin= 1 EnMin= -288.743947754076     IErMin= 1 ErrMin= 4.73D-04
 ErrMax= 4.73D-04  0.00D+00 EMaxC= 1.00D-01 BMatC= 9.93D-05 BMatP= 9.93D-05
 IDIUse=3 WtCom= 9.95D-01 WtEn= 4.73D-03
 Coeff-Com:  0.100D+01
 Coeff-En:   0.100D+01
 Coeff:      0.100D+01
 Gap=     0.750 Goal=   None    Shift=    0.000
 RMSDP=1.07D-04 MaxDP=2.36D-03              OVMax= 2.53D-03

 Cycle   2  Pass 1  IDiag  1:
 RMSU=  1.07D-04    CP:  1.00D+00
 E= -288.744106977432     Delta-E=       -0.000159223356 Rises=F Damp=F
 DIIS: error= 8.83D-05 at cycle   2 NSaved=   2.
 NSaved= 2 IEnMin= 2 EnMin= -288.744106977432     IErMin= 2 ErrMin= 8.83D-05
 ErrMax= 8.83D-05  0.00D+00 EMaxC= 1.00D-01 BMatC= 3.70D-06 BMatP= 9.93D-05
 IDIUse=1 WtCom= 1.00D+00 WtEn= 0.00D+00
 Coeff-Com: -0.197D+00 0.120D+01
 Coeff:     -0.197D+00 0.120D+01
 Gap=     0.476 Goal=   None    Shift=    0.000
 RMSDP=3.10D-05 MaxDP=5.72D-04 DE=-1.59D-04 OVMax= 9.10D-04

 Cycle   3  Pass 1  IDiag  1:
 RMSU=  1.82D-05    CP:  1.00D+00  1.23D+00
 E= -288.744116122160     Delta-E=       -0.000009144728 Rises=F Damp=F
 DIIS: error= 1.65D-05 at cycle   3 NSaved=   3.
 NSaved= 3 IEnMin= 3 EnMin= -288.744116122160     IErMin= 3 ErrMin= 1.65D-05
 ErrMax= 1.65D-05  0.00D+00 EMaxC= 1.00D-01 BMatC= 7.34D-08 BMatP= 3.70D-06
 IDIUse=1 WtCom= 1.00D+00 WtEn= 0.00D+00
 Coeff-Com:  0.830D-02-0.110D+00 0.110D+01
 Coeff:      0.830D-02-0.110D+00 0.110D+01
 Gap=     0.476 Goal=   None    Shift=    0.000
 RMSDP=6.84D-06 MaxDP=9.59D-05 DE=-9.14D-06 OVMax= 1.85D-04

 Cycle   4  Pass 1  IDiag  1:
 RMSU=  3.11D-06    CP:  1.00D+00  1.26D+00  1.31D+00
 E= -288.744116298644     Delta-E=       -0.000000176484 Rises=F Damp=F
 DIIS: error= 7.33D-06 at cycle   4 NSaved=   4.
 NSaved= 4 IEnMin= 4 EnMin= -288.744116298644     IErMin= 4 ErrMin= 7.33D-06
 ErrMax= 7.33D-06  0.00D+00 EMaxC= 1.00D-01 BMatC= 2.98D-08 BMatP= 7.34D-08
 IDIUse=1 WtCom= 1.00D+00 WtEn= 0.00D+00
 Coeff-Com:  0.143D-01-0.114D+00 0.465D+00 0.635D+00
 Coeff:      0.143D-01-0.114D+00 0.465D+00 0.635D+00
 Gap=     0.476 Goal=   None    Shift=    0.000
 RMSDP=1.59D-06 MaxDP=3.58D-05 DE=-1.76D-07 OVMax= 4.51D-05

 Cycle   5  Pass 1  IDiag  1:
 RMSU=  1.02D-06    CP:  1.00D+00  1.26D+00  1.37D+00  8.66D-01
 E= -288.744116328353     Delta-E=       -0.000000029709 Rises=F Damp=F
 DIIS: error= 2.14D-06 at cycle   5 NSaved=   5.
 NSaved= 5 IEnMin= 5 EnMin= -288.744116328353     IErMin= 5 ErrMin= 2.14D-06
 ErrMax= 2.14D-06  0.00D+00 EMaxC= 1.00D-01 BMatC= 1.09D-09 BMatP= 2.98D-08
 IDIUse=1 WtCom= 1.00D+00 WtEn= 0.00D+00
 Coeff-Com:  0.256D-02-0.177D-01 0.186D-01 0.138D+00 0.859D+00
 Coeff:      0.256D-02-0.177D-01 0.186D-01 0.138D+00 0.859D+00
 Gap=     0.476 Goal=   None    Shift=    0.000
 RMSDP=5.96D-07 MaxDP=1.10D-05 DE=-2.97D-08 OVMax= 1.85D-05

 Cycle   6  Pass 1  IDiag  1:
 RMSU=  2.87D-07    CP:  1.00D+00  1.26D+00  1.39D+00  9.57D-01  1.15D+00
 E= -288.744116329817     Delta-E=       -0.000000001463 Rises=F Damp=F
 DIIS: error= 1.01D-06 at cycle   6 NSaved=   6.
 NSaved= 6 IEnMin= 6 EnMin= -288.744116329817     IErMin= 6 ErrMin= 1.01D-06
 ErrMax= 1.01D-06  0.00D+00 EMaxC= 1.00D-01 BMatC= 2.31D-10 BMatP= 1.09D-09
 IDIUse=1 WtCom= 1.00D+00 WtEn= 0.00D+00
 Coeff-Com: -0.685D-03 0.673D-02-0.492D-01-0.229D-01 0.337D+00 0.729D+00
 Coeff:     -0.685D-03 0.673D-02-0.492D-01-0.229D-01 0.337D+00 0.729D+00
 Gap=     0.476 Goal=   None    Shift=    0.000
 RMSDP=2.06D-07 MaxDP=4.24D-06 DE=-1.46D-09 OVMax= 7.09D-06

 Cycle   7  Pass 1  IDiag  1:
 RMSU=  9.07D-08    CP:  1.00D+00  1.26D+00  1.39D+00  9.88D-01  1.27D+00
                    CP:  9.29D-01
 E= -288.744116330076     Delta-E=       -0.000000000259 Rises=F Damp=F
 DIIS: error= 1.80D-07 at cycle   7 NSaved=   7.
 NSaved= 7 IEnMin= 7 EnMin= -288.744116330076     IErMin= 7 ErrMin= 1.80D-07
 ErrMax= 1.80D-07  0.00D+00 EMaxC= 1.00D-01 BMatC= 1.04D-11 BMatP= 2.31D-10
 IDIUse=1 WtCom= 1.00D+00 WtEn= 0.00D+00
 Coeff-Com: -0.336D-03 0.284D-02-0.111D-01-0.165D-01-0.725D-02 0.163D+00
 Coeff-Com:  0.869D+00
 Coeff:     -0.336D-03 0.284D-02-0.111D-01-0.165D-01-0.725D-02 0.163D+00
 Coeff:      0.869D+00
 Gap=     0.476 Goal=   None    Shift=    0.000
 RMSDP=5.85D-08 MaxDP=1.45D-06 DE=-2.59D-10 OVMax= 2.41D-06

 Cycle   8  Pass 1  IDiag  1:
 RMSU=  2.61D-08    CP:  1.00D+00  1.26D+00  1.39D+00  9.94D-01  1.30D+00
                    CP:  1.03D+00  1.14D+00
 E= -288.744116330092     Delta-E=       -0.000000000016 Rises=F Damp=F
 DIIS: error= 3.97D-08 at cycle   8 NSaved=   8.
 NSaved= 8 IEnMin= 8 EnMin= -288.744116330092     IErMin= 8 ErrMin= 3.97D-08
 ErrMax= 3.97D-08  0.00D+00 EMaxC= 1.00D-01 BMatC= 6.72D-13 BMatP= 1.04D-11
 IDIUse=1 WtCom= 1.00D+00 WtEn= 0.00D+00
 Coeff-Com: -0.165D-05-0.538D-04 0.165D-02-0.777D-03-0.237D-01-0.237D-01
 Coeff-Com:  0.125D+00 0.922D+00
 Coeff:     -0.165D-05-0.538D-04 0.165D-02-0.777D-03-0.237D-01-0.237D-01
 Coeff:      0.125D+00 0.922D+00
 Gap=     0.476 Goal=   None    Shift=    0.000
 RMSDP=1.81D-08 MaxDP=3.88D-07 DE=-1.63D-11 OVMax= 7.20D-07

 Cycle   9  Pass 1  IDiag  1:
 RMSU=  7.30D-09    CP:  1.00D+00  1.26D+00  1.39D+00  9.95D-01  1.31D+00
                    CP:  1.06D+00  1.27D+00  1.18D+00
 E= -288.744116330089     Delta-E=        0.000000000003 Rises=F Damp=F
 DIIS: error= 2.11D-08 at cycle   9 NSaved=   9.
 NSaved= 9 IEnMin= 8 EnMin= -288.744116330092     IErMin= 9 ErrMin= 2.11D-08
 ErrMax= 2.11D-08  0.00D+00 EMaxC= 1.00D-01 BMatC= 1.84D-13 BMatP= 6.72D-13
 IDIUse=1 WtCom= 1.00D+00 WtEn= 0.00D+00
 Coeff-Com:  0.438D-04-0.401D-03 0.218D-02 0.187D-02-0.939D-02-0.319D-01
 Coeff-Com: -0.624D-01 0.382D+00 0.718D+00
 Coeff:      0.438D-04-0.401D-03 0.218D-02 0.187D-02-0.939D-02-0.319D-01
 Coeff:     -0.624D-01 0.382D+00 0.718D+00
 Gap=     0.476 Goal=   None    Shift=    0.000
 RMSDP=5.96D-09 MaxDP=1.09D-07 DE= 3.07D-12 OVMax= 2.24D-07

 Error on total polarization charges =  0.03457
 SCF Done:  E(RwB97XD) =  -288.744116330     A.U. after    9 cycles
            NFock=  9  Conv=0.60D-08     -V/T= 2.0108
 KE= 2.856573261186D+02 PE=-1.186162377900D+03 EE= 3.547405801508D+02
 SMD-CDS (non-electrostatic) energy       (kcal/mol) =       2.03
 (included in total energy above)
 Leave Link  502 at Wed Oct 22 13:12:28 2025, MaxMem=  4294967296 cpu:             139.0 elap:              17.5
 (Enter /lrz/sys/applications/gaussian/g16.C.01/x86_64_legacy/exe/l701.exe)
 ... and contract with generalized density number  0.
 Compute integral first derivatives.
 R6Disp: Adding Grimme-D2 dispersion energy 1st derivatives to the gradient.
   1 Symmetry operations used in ECPInt.
 ECPInt:  NShTT=    2415 NPrTT=    8239 LenC2=    2397 LenP2D=    6846.
 LDataN:  DoStor=T MaxTD1= 5 Len=  102
 D1PCM: PCM CHGder 1st derivatives, ID1Alg=3 FixD1E=F DoIter=F DoCFld=F I1PDM=0.
 GePol: Maximum number of non-zero 1st derivatives   =     265
 Leave Link  701 at Wed Oct 22 13:12:29 2025, MaxMem=  4294967296 cpu:               5.2 elap:               0.7
 (Enter /lrz/sys/applications/gaussian/g16.C.01/x86_64_legacy/exe/l702.exe)
 L702 exits ... SP integral derivatives will be done elsewhere.
 Leave Link  702 at Wed Oct 22 13:12:29 2025, MaxMem=  4294967296 cpu:               0.1 elap:               0.0
 (Enter /lrz/sys/applications/gaussian/g16.C.01/x86_64_legacy/exe/l703.exe)
 Integral derivatives from FoFJK, PRISM(SPDF).
 Compute integral first derivatives, UseDBF=F ICtDFT=           0.
 Calling FoFJK, ICntrl=      2127 FMM=F ISym2X=0 I1Cent= 0 IOpClX= 0 NMat=1 NMatS=1 NMatT=0.
 FoFJK:  IHMeth= 1 ICntrl=    2127 DoSepK=T KAlg= 0 I1Cent=           0 FoldK=F
 IRaf=         1 NMat=       1 IRICut=       1 DoRegI=T DoRafI=F ISym2E= 0 IDoP0=0 IntGTp=1.
 FoFCou: FMM=F IPFlag=           0 FMFlag=      100000 FMFlg1=         800
         NFxFlg=           0 DoJE=F BraDBF=F KetDBF=F FulRan=T
         wScrn=  0.000000 ICntrl=      2527 IOpCl=  0 I1Cent=           0 NGrid=           0
         NMat0=    1 NMatS0=      1 NMatT0=    0 NMatD0=    1 NMtDS0=    0 NMtDT0=    0
 Symmetry not used in FoFCou.
 Leave Link  703 at Wed Oct 22 13:12:32 2025, MaxMem=  4294967296 cpu:              24.3 elap:               3.0
 (Enter /lrz/sys/applications/gaussian/g16.C.01/x86_64_legacy/exe/l716.exe)
 Dipole        = 7.58629790D-01 2.35984564D-01 2.43720189D-01
 ***** Axes restored to original set *****
 -------------------------------------------------------------------
 Center     Atomic                   Forces (Hartrees/Bohr)
 Number     Number              X              Y              Z
 -------------------------------------------------------------------
      1        8           0.000164304    0.000280056   -0.000002844
      2        6          -0.000138351   -0.000274963    0.000085093
      3        7          -0.000216015   -0.000117154   -0.000155747
      4        6           0.000134069    0.000187937   -0.000247278
      5        6          -0.000100348   -0.000109290    0.000243394
      6        6           0.000227144    0.000032663   -0.000103863
      7        1          -0.000020452    0.000001089   -0.000017958
      8        1           0.000002814   -0.000008474    0.000024445
      9        1           0.000081071    0.000096950    0.000065575
     10        1           0.000023859    0.000041003    0.000048723
     11        1          -0.000035822   -0.000027653    0.000042720
     12        1          -0.000032820   -0.000097760    0.000081132
     13        1           0.000011274   -0.000019079   -0.000069958
     14        1           0.000015659    0.000036261   -0.000044948
     15        1          -0.000051881   -0.000010194   -0.000000459
     16        1          -0.000047726    0.000016067    0.000034714
     17        1          -0.000016778   -0.000027458    0.000017259
 -------------------------------------------------------------------
 Cartesian Forces:  Max     0.000280056 RMS     0.000109853
 Leave Link  716 at Wed Oct 22 13:12:32 2025, MaxMem=  4294967296 cpu:               0.1 elap:               0.0
 (Enter /lrz/sys/applications/gaussian/g16.C.01/x86_64_legacy/exe/l103.exe)

 GradGradGradGradGradGradGradGradGradGradGradGradGradGradGradGradGradGrad
 Berny optimization.
 Using GEDIIS/GDIIS optimizer.
 FormGI is forming the generalized inverse of G from B-inverse, IUseBI=4.
 Internal  Forces:  Max     0.000310571 RMS     0.000054000
 Search for a local minimum.
 Step number   5 out of a maximum of   90
 All quantities printed in internal units (Hartrees-Bohrs-Radians)
 RMS Force = .54000D-04 SwitMx=.10000D-02 MixMth= 2
 Mixed Optimization -- En-DIIS/RFO-DIIS
 Swapping is turned off.
 Update second derivatives using D2CorX and points    1    2    3    4    5
 DE= -7.72D-06 DEPred=-6.04D-06 R= 1.28D+00
 TightC=F SS=  1.41D+00  RLast= 5.53D-02 DXNew= 8.4853D-01 1.6603D-01
 Trust test= 1.28D+00 RLast= 5.53D-02 DXMaxT set to 5.05D-01
 ITU=  1  1  1  1  0
     Eigenvalues ---    0.00210   0.00420   0.00463   0.00901   0.01414
     Eigenvalues ---    0.03451   0.03563   0.04317   0.04845   0.04884
     Eigenvalues ---    0.05278   0.05510   0.05559   0.05979   0.07882
     Eigenvalues ---    0.08425   0.08695   0.12243   0.12412   0.15719
     Eigenvalues ---    0.16000   0.16000   0.16031   0.16227   0.16543
     Eigenvalues ---    0.17527   0.21539   0.21907   0.23333   0.29442
     Eigenvalues ---    0.30051   0.31063   0.33678   0.34590   0.34687
     Eigenvalues ---    0.34857   0.34914   0.35092   0.35137   0.37225
     Eigenvalues ---    0.40897   0.44878   0.45314   0.45555   0.54547
 En-DIIS/RFO-DIIS/Sim-DIIS IScMMF=       -3 using points:     5    4    3    2
 RFO step:  Lambda=-3.24830261D-06.
 NNeg= 0 NGDIIS= 4 SimSw=  2.50D-01 Rises=F DC= -7.72D-06 SmlDif=  1.00D-05
 NRisDI= 0 DoIntr=F SqrtH=F CThrHd= 10.0 CDAdj=  3.0
 RMS Error=  0.2948003272D-02 NUsed= 4 OKEnD=F EnDIS=F
 InvSVX:  RCond= 1.09D-05 Info=           0 Equed=N FErr=  1.20D-13 BErr=  2.32D-17
 DidBck=F Rises=F RFO-DIIS coefs:    1.60010   -0.63492   -0.00664    0.04146
 Iteration  1 RMS(Cart)=  0.00480194 RMS(Int)=  0.00001410
 Iteration  2 RMS(Cart)=  0.00001545 RMS(Int)=  0.00000189
 Iteration  3 RMS(Cart)=  0.00000000 RMS(Int)=  0.00000189
 ITry= 1 IFail=0 DXMaxC= 1.70D-02 DCOld= 1.00D+10 DXMaxT= 5.05D-01 DXLimC= 3.00D+00 Rises=F
 Variable       Old X    -DE/DX   Delta X   Delta X   Delta X     New X
                                 (Linear)    (Quad)   (Total)
    R1        2.68924  -0.00031  -0.00067  -0.00034  -0.00101   2.68824
    R2        1.82265   0.00001  -0.00007   0.00010   0.00002   1.82267
    R3        2.72124   0.00010   0.00050  -0.00003   0.00048   2.72172
    R4        2.87101   0.00011   0.00022   0.00018   0.00041   2.87141
    R5        2.08873   0.00002  -0.00037   0.00039   0.00002   2.08875
    R6        1.92738  -0.00005  -0.00021   0.00005  -0.00016   1.92721
    R7        1.93009  -0.00006  -0.00025   0.00005  -0.00019   1.92990
    R8        2.88119   0.00012   0.00044  -0.00005   0.00039   2.88158
    R9        2.08164  -0.00004  -0.00020   0.00004  -0.00016   2.08147
   R10        2.08964  -0.00005  -0.00056   0.00028  -0.00028   2.08936
   R11        2.87800   0.00012   0.00082  -0.00035   0.00047   2.87846
   R12        2.08164   0.00001  -0.00031   0.00027  -0.00005   2.08159
   R13        2.08619  -0.00003  -0.00027   0.00010  -0.00017   2.08601
   R14        2.08247   0.00000  -0.00034   0.00024  -0.00010   2.08237
   R15        2.08247  -0.00000  -0.00038   0.00026  -0.00012   2.08235
   R16        2.07986   0.00002  -0.00024   0.00019  -0.00005   2.07981
    A1        1.87794   0.00001  -0.00008   0.00029   0.00021   1.87815
    A2        1.98537  -0.00000   0.00033  -0.00044  -0.00011   1.98525
    A3        1.87227  -0.00007   0.00071  -0.00079  -0.00009   1.87218
    A4        1.89535   0.00003   0.00041  -0.00006   0.00036   1.89570
    A5        1.93096   0.00009  -0.00058   0.00084   0.00026   1.93122
    A6        1.87317  -0.00002  -0.00089   0.00066  -0.00023   1.87294
    A7        1.90560  -0.00002   0.00003  -0.00022  -0.00019   1.90541
    A8        1.90754   0.00001   0.00027   0.00011   0.00038   1.90792
    A9        1.89640   0.00004  -0.00002   0.00062   0.00060   1.89700
   A10        1.85095   0.00004   0.00090   0.00023   0.00114   1.85210
   A11        1.99784  -0.00006  -0.00009  -0.00051  -0.00060   1.99724
   A12        1.88199  -0.00001  -0.00120   0.00082  -0.00038   1.88160
   A13        1.88674   0.00001   0.00043  -0.00041   0.00002   1.88676
   A14        1.91590   0.00004   0.00039   0.00008   0.00047   1.91637
   A15        1.91631  -0.00002  -0.00014  -0.00032  -0.00046   1.91586
   A16        1.85972   0.00004   0.00065   0.00042   0.00107   1.86078
   A17        1.96904  -0.00001  -0.00034  -0.00009  -0.00043   1.96861
   A18        1.90634  -0.00001  -0.00031   0.00012  -0.00018   1.90616
   A19        1.90302   0.00001   0.00012   0.00006   0.00018   1.90320
   A20        1.91552  -0.00000  -0.00009  -0.00009  -0.00018   1.91535
   A21        1.91382  -0.00001   0.00009  -0.00021  -0.00012   1.91370
   A22        1.85240   0.00003   0.00058   0.00023   0.00081   1.85321
   A23        1.94000  -0.00005  -0.00025  -0.00018  -0.00043   1.93957
   A24        1.94180  -0.00007  -0.00041  -0.00014  -0.00056   1.94124
   A25        1.94596  -0.00002   0.00003  -0.00026  -0.00022   1.94573
   A26        1.87498   0.00006   0.00024   0.00027   0.00051   1.87549
   A27        1.87875   0.00004   0.00017   0.00016   0.00032   1.87907
   A28        1.87913   0.00005   0.00027   0.00019   0.00046   1.87958
    D1       -1.16102   0.00004   0.00062   0.00127   0.00189  -1.15913
    D2        2.98085  -0.00002   0.00063   0.00106   0.00169   2.98254
    D3        0.92339   0.00003  -0.00001   0.00178   0.00177   0.92517
    D4        1.02188   0.00008   0.00548   0.00138   0.00686   1.02874
    D5       -0.99053   0.00001   0.00425   0.00071   0.00497  -0.98556
    D6        3.13062   0.00005   0.00620   0.00067   0.00686   3.13749
    D7        1.11821  -0.00002   0.00497  -0.00000   0.00497   1.12318
    D8       -1.07509   0.00007   0.00538   0.00127   0.00664  -1.06845
    D9       -3.08750  -0.00001   0.00415   0.00060   0.00475  -3.08275
   D10       -1.04269   0.00002   0.00184   0.00048   0.00232  -1.04036
   D11        3.10308   0.00002   0.00229   0.00012   0.00241   3.10549
   D12        1.09882  -0.00003   0.00193  -0.00058   0.00135   1.10016
   D13        3.06583   0.00002   0.00133   0.00103   0.00235   3.06818
   D14        0.92841   0.00002   0.00178   0.00066   0.00244   0.93084
   D15       -1.07586  -0.00003   0.00142  -0.00004   0.00138  -1.07448
   D16        1.00808   0.00001   0.00273  -0.00014   0.00259   1.01068
   D17       -1.12934   0.00000   0.00319  -0.00051   0.00268  -1.12666
   D18       -3.13360  -0.00004   0.00282  -0.00120   0.00162  -3.13198
   D19       -3.12623   0.00001   0.00742  -0.00104   0.00639  -3.11984
   D20        1.02165   0.00003   0.00798  -0.00095   0.00704   1.02868
   D21       -0.99547  -0.00001   0.00740  -0.00132   0.00607  -0.98940
   D22       -1.00734  -0.00001   0.00609  -0.00027   0.00582  -1.00152
   D23        3.14054   0.00000   0.00665  -0.00018   0.00647  -3.13617
   D24        1.12342  -0.00003   0.00606  -0.00056   0.00550   1.12893
   D25        1.03155   0.00004   0.00702   0.00010   0.00712   1.03867
   D26       -1.10375   0.00006   0.00758   0.00018   0.00777  -1.09598
   D27       -3.12087   0.00003   0.00700  -0.00019   0.00681  -3.11406
   D28       -1.04680   0.00001   0.00184   0.00096   0.00280  -1.04400
   D29        1.04198   0.00001   0.00170   0.00109   0.00279   1.04477
   D30        3.14003   0.00001   0.00178   0.00106   0.00284  -3.14032
   D31        1.08334  -0.00001   0.00115   0.00099   0.00215   1.08549
   D32       -3.11106  -0.00001   0.00101   0.00112   0.00213  -3.10893
   D33       -1.01301  -0.00001   0.00109   0.00109   0.00218  -1.01083
   D34        3.11171   0.00002   0.00185   0.00110   0.00295   3.11466
   D35       -1.08269   0.00002   0.00171   0.00122   0.00293  -1.07975
   D36        1.01537   0.00002   0.00179   0.00120   0.00298   1.01835
         Item               Value     Threshold  Converged?
 Maximum Force            0.000311     0.000450     YES
 RMS     Force            0.000054     0.000300     YES
 Maximum Displacement     0.016956     0.001800     NO 
 RMS     Displacement     0.004802     0.001200     NO 
 Predicted change in Energy=-1.599918D-06
 Lowest energy point so far.  Saving SCF results.
 GradGradGradGradGradGradGradGradGradGradGradGradGradGradGradGradGradGrad

 Leave Link  103 at Wed Oct 22 13:12:32 2025, MaxMem=  4294967296 cpu:               0.1 elap:               0.0
 (Enter /lrz/sys/applications/gaussian/g16.C.01/x86_64_legacy/exe/l202.exe)
                          Input orientation:                          
 ---------------------------------------------------------------------
 Center     Atomic      Atomic             Coordinates (Angstroms)
 Number     Number       Type             X           Y           Z
 ---------------------------------------------------------------------
      1          8           0       -1.437570   -0.993774    0.265016
      2          6           0       -0.995267    0.358271    0.266118
      3          7           0       -1.861914    1.252606   -0.457393
      4          6           0        0.405049    0.375228   -0.323515
      5          6           0        1.421371   -0.466544    0.440504
      6          6           0        2.817644   -0.398811   -0.164495
      7          1           0       -2.260337   -1.032045    0.766893
      8          1           0       -0.953303    0.714930    1.311471
      9          1           0       -2.795473    1.222422   -0.047974
     10          1           0       -1.960772    0.909727   -1.414281
     11          1           0        0.741866    1.423244   -0.361549
     12          1           0        0.341255    0.025465   -1.370435
     13          1           0        1.078096   -1.512863    0.467880
     14          1           0        1.454734   -0.126176    1.490058
     15          1           0        2.817373   -0.759826   -1.205624
     16          1           0        3.198933    0.635015   -0.173184
     17          1           0        3.532735   -1.014291    0.402184
 ---------------------------------------------------------------------
                    Distance matrix (angstroms):
                    1          2          3          4          5
     1  O    0.000000
     2  C    1.422554   0.000000
     3  N    2.397533   1.440271   0.000000
     4  C    2.369764   1.519487   2.434510   0.000000
     5  C    2.912441   2.559467   3.813353   1.524866   0.000000
     6  C    4.318021   3.911124   4.971040   2.538708   1.523217
     7  H    0.964516   1.945291   2.622451   3.205260   3.739157
     8  H    2.061371   1.105318   2.059988   2.152603   2.791692
     9  H    2.617898   2.021424   1.019837   3.322199   4.568697
    10  H    2.591736   2.014955   1.021260   2.659430   4.095514
    11  H    3.314288   2.132080   2.611126   1.101467   2.162479
    12  H    2.622550   2.139009   2.682065   1.105643   2.165230
    13  H    2.576661   2.800122   4.140967   2.155038   1.101531
    14  H    3.258661   2.781226   4.085800   2.154598   1.103869
    15  H    4.507998   4.237026   5.148345   2.808161   2.178203
    16  H    4.933774   4.226214   5.106306   2.809960   2.179397
    17  H    4.972239   4.733417   5.914383   3.498545   2.181594
                    6          7          8          9         10
     6  C    0.000000
     7  H    5.201381   0.000000
     8  H    4.199874   2.248738   0.000000
     9  H    5.843720   2.456217   2.345044   0.000000
    10  H    5.109550   2.935599   2.912501   1.631349   0.000000
    11  H    2.769038   4.039190   2.484815   3.556885   2.945538
    12  H    2.786899   3.529133   3.056773   3.608417   2.466408
    13  H    2.160333   3.386109   3.130701   4.769951   4.318123
    14  H    2.160879   3.891699   2.556950   4.716834   4.601517
    15  H    1.101944   5.454179   4.767459   6.064116   5.065729
    16  H    1.101931   5.785020   4.410402   6.024419   5.313975
    17  H    1.100588   5.804568   4.893010   6.726942   6.097541
                   11         12         13         14         15
    11  H    0.000000
    12  H    1.769782   0.000000
    13  H    3.069483   2.507746   0.000000
    14  H    2.517405   3.073312   1.763407   0.000000
    15  H    3.128256   2.602884   2.528391   3.086259   0.000000
    16  H    2.587269   3.157734   3.085821   2.527452   1.776823
    17  H    3.783360   3.795894   2.505622   2.508048   1.778072
                   16         17
    16  H    0.000000
    17  H    1.778393   0.000000
 Stoichiometry    C4H11NO
 Framework group  C1[X(C4H11NO)]
 Deg. of freedom    45
 Full point group                 C1      NOp   1
 RotChk:  IX=0 Diff= 3.22D-03
 Largest Abelian subgroup         C1      NOp   1
 Largest concise Abelian subgroup C1      NOp   1
                         Standard orientation:                         
 ---------------------------------------------------------------------
 Center     Atomic      Atomic             Coordinates (Angstroms)
 Number     Number       Type             X           Y           Z
 ---------------------------------------------------------------------
      1          8           0        1.269753    1.258568   -0.311605
      2          6           0        1.088276   -0.003877    0.318442
      3          7           0        2.119275   -0.960498    0.008123
      4          6           0       -0.273776   -0.527661   -0.105004
      5          6           0       -1.442647    0.374830    0.275082
      6          6           0       -2.790963   -0.199651   -0.139894
      7          1           0        2.062066    1.660741    0.063615
      8          1           0        1.095791    0.144106    1.413783
      9          1           0        3.023511   -0.587439    0.296658
     10          1           0        2.168695   -1.071003   -1.005938
     11          1           0       -0.407857   -1.522584    0.348187
     12          1           0       -0.258533   -0.678575   -1.200192
     13          1           0       -1.301723    1.364622   -0.187329
     14          1           0       -1.429805    0.540484    1.366375
     15          1           0       -2.840316   -0.349214   -1.230525
     16          1           0       -2.971883   -1.176769    0.336302
     17          1           0       -3.618231    0.468728    0.143286
 ---------------------------------------------------------------------
 Rotational constants (GHZ):           7.5340309           1.7552652           1.5288620
 Leave Link  202 at Wed Oct 22 13:12:32 2025, MaxMem=  4294967296 cpu:               0.0 elap:               0.0
 (Enter /lrz/sys/applications/gaussian/g16.C.01/x86_64_legacy/exe/l301.exe)
 Standard basis: def2SVP (5D, 7F)
 Ernie: Thresh=  0.10000D-02 Tol=  0.10000D-05 Strict=F.
 There are   145 symmetry adapted cartesian basis functions of A   symmetry.
 There are   139 symmetry adapted basis functions of A   symmetry.
   139 basis functions,   227 primitive gaussians,   145 cartesian basis functions
    25 alpha electrons       25 beta electrons
       nuclear repulsion energy       257.0281024984 Hartrees.
 IExCor= 4639 DFT=T Ex+Corr=wB97XD ExCW=0 ScaHFX=  1.000000
 ScaDFX=  1.000000  1.000000  1.000000  1.000000 ScalE2=  1.000000  1.000000
 IRadAn=      5 IRanWt=     -1 IRanGd=            0 ICorTp=0 IEmpDi=121
 HFx  wShort=  0.000000 wLong=  0.200000 cFull=  0.222036 cShort=  0.000000 cLong=  0.777964
 DFx  wShort=  0.000000 wLong=  0.200000 cFull=  0.000000 cShort=  0.000000 cLong=  1.000000
 NAtoms=   17 NActive=   17 NUniq=   17 SFac= 1.00D+00 NAtFMM=   60 NAOKFM=F Big=F
 Integral buffers will be    131072 words long.
 Raffenetti 2 integral format.
 Two-electron integral symmetry is turned on.
 R6Disp:  Grimme-D2 Dispersion energy=       -0.0087323736 Hartrees.
 Nuclear repulsion after empirical dispersion term =      257.0193701249 Hartrees.
 ------------------------------------------------------------------------------
 Polarizable Continuum Model (PCM)
 =================================
 Model                : PCM.
 Atomic radii         : SMD-Coulomb.
 Polarization charges : Total charges.
 Charge compensation  : None.
 Solution method      : On-the-fly selection.
 Cavity type          : VdW (van der Waals Surface) (Alpha=1.000).
 Cavity algorithm     : GePol (No added spheres)
                        Default sphere list used, NSphG=   17.
                        Lebedev-Laikov grids with approx.  5.0 points / Ang**2.
                        Smoothing algorithm: York/Karplus (Gamma=1.0000).
                        Polarization charges: spherical gaussians, with
                                              point-specific exponents (IZeta= 3).
                        Self-potential: point-specific (ISelfS= 7).
                        Self-field    : sphere-specific E.n sum rule (ISelfD= 2).
 1st derivatives      : Analytical E(r).r(x)/FMM algorithm (CHGder, D1EAlg=3).
                        Cavity 1st derivative terms included.
 Solvent              : Water, Eps=  78.355300 Eps(inf)=   1.777849
 ------------------------------------------------------------------------------
 Spheres list:
 ISph  on   Nord     Re0    Alpha      Xe            Ye            Ze
    1   O      1    1.5200  1.000      1.269753      1.258568     -0.311605
    2   C      2    1.8500  1.000      1.088276     -0.003877      0.318442
    3   N      3    1.8900  1.000      2.119275     -0.960498      0.008123
    4   C      4    1.8500  1.000     -0.273776     -0.527661     -0.105004
    5   C      5    1.8500  1.000     -1.442647      0.374830      0.275082
    6   C      6    1.8500  1.000     -2.790963     -0.199651     -0.139894
    7   H      7    1.2000  1.000      2.062066      1.660741      0.063615
    8   H      8    1.2000  1.000      1.095791      0.144106      1.413783
    9   H      9    1.2000  1.000      3.023511     -0.587439      0.296658
   10   H     10    1.2000  1.000      2.168695     -1.071003     -1.005938
   11   H     11    1.2000  1.000     -0.407857     -1.522584      0.348187
   12   H     12    1.2000  1.000     -0.258533     -0.678575     -1.200192
   13   H     13    1.2000  1.000     -1.301723      1.364622     -0.187329
   14   H     14    1.2000  1.000     -1.429805      0.540484      1.366375
   15   H     15    1.2000  1.000     -2.840316     -0.349214     -1.230525
   16   H     16    1.2000  1.000     -2.971883     -1.176769      0.336302
   17   H     17    1.2000  1.000     -3.618231      0.468728      0.143286
 ------------------------------------------------------------------------------
 GePol: Number of generator spheres                  =      17
 GePol: Total number of spheres                      =      17
 GePol: Number of exposed spheres                    =      17 (100.00%)
 GePol: Number of points                             =    1197
 GePol: Average weight of points                     =       0.12
 GePol: Minimum weight of points                     =   0.48D-10
 GePol: Maximum weight of points                     =    0.21991
 GePol: Number of points with low weight             =      68
 GePol: Fraction of low-weight points (<1% of avg)   =       5.68%
 GePol: Cavity surface area                          =    138.433 Ang**2
 GePol: Cavity volume                                =    107.994 Ang**3
 ------------------------------------------------------------------------------
 Atomic radii for non-electrostatic terms: SMD-CDS.
 ------------------------------------------------------------------------------
 PCM non-electrostatic energy =         0.0032436459 Hartrees.
 Nuclear repulsion after PCM non-electrostatic terms =      257.0226137708 Hartrees.
 Leave Link  301 at Wed Oct 22 13:12:32 2025, MaxMem=  4294967296 cpu:               0.4 elap:               0.1
 (Enter /lrz/sys/applications/gaussian/g16.C.01/x86_64_legacy/exe/l302.exe)
 NPDir=0 NMtPBC=     1 NCelOv=     1 NCel=       1 NClECP=     1 NCelD=      1
         NCelK=      1 NCelE2=     1 NClLst=     1 CellRange=     0.0.
 One-electron integrals computed using PRISM.
 One-electron integral symmetry used in STVInt
   1 Symmetry operations used in ECPInt.
 ECPInt:  NShTT=    2415 NPrTT=    8239 LenC2=    2397 LenP2D=    6843.
 LDataN:  DoStor=T MaxTD1= 4 Len=   56
 NBasis=   139 RedAO= T EigKep=  1.39D-03  NBF=   139
 NBsUse=   139 1.00D-06 EigRej= -1.00D+00 NBFU=   139
 Precomputing XC quadrature grid using
 IXCGrd= 4 IRadAn=           5 IRanWt=          -1 IRanGd=           0 AccXCQ= 0.00D+00.
 Generated NRdTot=       0 NPtTot=           0 NUsed=           0 NTot=          32
 NSgBfM=   145   145   145   145   145 MxSgAt=    17 MxSgA2=    17.
 Leave Link  302 at Wed Oct 22 13:12:32 2025, MaxMem=  4294967296 cpu:               1.3 elap:               0.2
 (Enter /lrz/sys/applications/gaussian/g16.C.01/x86_64_legacy/exe/l303.exe)
 DipDrv:  MaxL=1.
 Leave Link  303 at Wed Oct 22 13:12:32 2025, MaxMem=  4294967296 cpu:               0.2 elap:               0.0
 (Enter /lrz/sys/applications/gaussian/g16.C.01/x86_64_legacy/exe/l401.exe)
 Initial guess from the checkpoint file:  "g16_C17-a_9.chk"
 B after Tr=    -0.000000    0.000000   -0.000000
         Rot=    1.000000    0.000534    0.000008   -0.000011 Ang=   0.06 deg.
 Guess basis will be translated and rotated to current coordinates.
 JPrj=2 DoOrth=T DoCkMO=T.
 Leave Link  401 at Wed Oct 22 13:12:32 2025, MaxMem=  4294967296 cpu:               0.6 elap:               0.1
 (Enter /lrz/sys/applications/gaussian/g16.C.01/x86_64_legacy/exe/l502.exe)
 Integral symmetry usage will be decided dynamically.
 Closed shell SCF:
 Using DIIS extrapolation, IDIIS=  1040.
 NGot=  4294967296 LenX=  4294921924 LenY=  4294900458
 Requested convergence on RMS density matrix=1.00D-08 within 128 cycles.
 Requested convergence on MAX density matrix=1.00D-06.
 Requested convergence on             energy=1.00D-06.
 No special actions if energy rises.
 Fock matrices will be formed incrementally for  20 cycles.

 Cycle   1  Pass 1  IDiag  1:
 FoFJK:  IHMeth= 1 ICntrl=       0 DoSepK=T KAlg= 0 I1Cent=           0 FoldK=F
 IRaf=         1 NMat=       1 IRICut=       1 DoRegI=T DoRafI=F ISym2E= 0 IDoP0=0 IntGTp=1.
 FoFCou: FMM=F IPFlag=           0 FMFlag=      100000 FMFlg1=           0
         NFxFlg=           0 DoJE=T BraDBF=F KetDBF=F FulRan=T
         wScrn=  0.000000 ICntrl=       500 IOpCl=  0 I1Cent=           0 NGrid=           0
         NMat0=    1 NMatS0=      1 NMatT0=    0 NMatD0=    1 NMtDS0=    0 NMtDT0=    0
 Symmetry not used in FoFCou.
 Inv3:  Mode=1 IEnd=     4298427.
 Iteration    1 A*A^-1 deviation from unit magnitude is 5.66D-15 for     96.
 Iteration    1 A*A^-1 deviation from orthogonality  is 3.93D-15 for    842     91.
 Iteration    1 A^-1*A deviation from unit magnitude is 5.33D-15 for    692.
 Iteration    1 A^-1*A deviation from orthogonality  is 3.95D-15 for    816    657.
 E= -288.744084604061    
 DIIS: error= 2.39D-04 at cycle   1 NSaved=   1.
 NSaved= 1 IEnMin= 1 EnMin= -288.744084604061     IErMin= 1 ErrMin= 2.39D-04
 ErrMax= 2.39D-04  0.00D+00 EMaxC= 1.00D-01 BMatC= 1.99D-05 BMatP= 1.99D-05
 IDIUse=3 WtCom= 9.98D-01 WtEn= 2.39D-03
 Coeff-Com:  0.100D+01
 Coeff-En:   0.100D+01
 Coeff:      0.100D+01
 Gap=     0.750 Goal=   None    Shift=    0.000
 RMSDP=4.77D-05 MaxDP=1.14D-03              OVMax= 1.21D-03

 Cycle   2  Pass 1  IDiag  1:
 RMSU=  4.77D-05    CP:  1.00D+00
 E= -288.744116181126     Delta-E=       -0.000031577065 Rises=F Damp=F
 DIIS: error= 4.22D-05 at cycle   2 NSaved=   2.
 NSaved= 2 IEnMin= 2 EnMin= -288.744116181126     IErMin= 2 ErrMin= 4.22D-05
 ErrMax= 4.22D-05  0.00D+00 EMaxC= 1.00D-01 BMatC= 7.35D-07 BMatP= 1.99D-05
 IDIUse=1 WtCom= 1.00D+00 WtEn= 0.00D+00
 Coeff-Com: -0.195D+00 0.119D+01
 Coeff:     -0.195D+00 0.119D+01
 Gap=     0.475 Goal=   None    Shift=    0.000
 RMSDP=1.37D-05 MaxDP=2.66D-04 DE=-3.16D-05 OVMax= 4.38D-04

 Cycle   3  Pass 1  IDiag  1:
 RMSU=  8.18D-06    CP:  1.00D+00  1.23D+00
 E= -288.744117998548     Delta-E=       -0.000001817422 Rises=F Damp=F
 DIIS: error= 7.83D-06 at cycle   3 NSaved=   3.
 NSaved= 3 IEnMin= 3 EnMin= -288.744117998548     IErMin= 3 ErrMin= 7.83D-06
 ErrMax= 7.83D-06  0.00D+00 EMaxC= 1.00D-01 BMatC= 1.52D-08 BMatP= 7.35D-07
 IDIUse=1 WtCom= 1.00D+00 WtEn= 0.00D+00
 Coeff-Com:  0.879D-02-0.115D+00 0.111D+01
 Coeff:      0.879D-02-0.115D+00 0.111D+01
 Gap=     0.475 Goal=   None    Shift=    0.000
 RMSDP=3.02D-06 MaxDP=4.62D-05 DE=-1.82D-06 OVMax= 8.87D-05

 Cycle   4  Pass 1  IDiag  1:
 RMSU=  1.36D-06    CP:  1.00D+00  1.25D+00  1.30D+00
 E= -288.744118034823     Delta-E=       -0.000000036275 Rises=F Damp=F
 DIIS: error= 4.81D-06 at cycle   4 NSaved=   4.
 NSaved= 4 IEnMin= 4 EnMin= -288.744118034823     IErMin= 4 ErrMin= 4.81D-06
 ErrMax= 4.81D-06  0.00D+00 EMaxC= 1.00D-01 BMatC= 7.34D-09 BMatP= 1.52D-08
 IDIUse=1 WtCom= 1.00D+00 WtEn= 0.00D+00
 Coeff-Com:  0.146D-01-0.119D+00 0.499D+00 0.605D+00
 Coeff:      0.146D-01-0.119D+00 0.499D+00 0.605D+00
 Gap=     0.475 Goal=   None    Shift=    0.000
 RMSDP=7.37D-07 MaxDP=1.73D-05 DE=-3.63D-08 OVMax= 1.88D-05

 Cycle   5  Pass 1  IDiag  1:
 RMSU=  4.61D-07    CP:  1.00D+00  1.26D+00  1.36D+00  8.47D-01
 E= -288.744118041280     Delta-E=       -0.000000006457 Rises=F Damp=F
 DIIS: error= 1.09D-06 at cycle   5 NSaved=   5.
 NSaved= 5 IEnMin= 5 EnMin= -288.744118041280     IErMin= 5 ErrMin= 1.09D-06
 ErrMax= 1.09D-06  0.00D+00 EMaxC= 1.00D-01 BMatC= 2.63D-10 BMatP= 7.34D-09
 IDIUse=1 WtCom= 1.00D+00 WtEn= 0.00D+00
 Coeff-Com:  0.276D-02-0.194D-01 0.192D-01 0.142D+00 0.855D+00
 Coeff:      0.276D-02-0.194D-01 0.192D-01 0.142D+00 0.855D+00
 Gap=     0.475 Goal=   None    Shift=    0.000
 RMSDP=2.85D-07 MaxDP=5.33D-06 DE=-6.46D-09 OVMax= 9.33D-06

 Cycle   6  Pass 1  IDiag  1:
 RMSU=  1.34D-07    CP:  1.00D+00  1.26D+00  1.39D+00  9.47D-01  1.14D+00
 E= -288.744118041622     Delta-E=       -0.000000000343 Rises=F Damp=F
 DIIS: error= 2.97D-07 at cycle   6 NSaved=   6.
 NSaved= 6 IEnMin= 6 EnMin= -288.744118041622     IErMin= 6 ErrMin= 2.97D-07
 ErrMax= 2.97D-07  0.00D+00 EMaxC= 1.00D-01 BMatC= 3.25D-11 BMatP= 2.63D-10
 IDIUse=1 WtCom= 1.00D+00 WtEn= 0.00D+00
 Coeff-Com: -0.531D-03 0.558D-02-0.431D-01-0.161D-01 0.258D+00 0.796D+00
 Coeff:     -0.531D-03 0.558D-02-0.431D-01-0.161D-01 0.258D+00 0.796D+00
 Gap=     0.475 Goal=   None    Shift=    0.000
 RMSDP=9.22D-08 MaxDP=2.02D-06 DE=-3.43D-10 OVMax= 3.53D-06

 Cycle   7  Pass 1  IDiag  1:
 RMSU=  3.94D-08    CP:  1.00D+00  1.26D+00  1.39D+00  9.80D-01  1.25D+00
                    CP:  9.81D-01
 E= -288.744118041667     Delta-E=       -0.000000000045 Rises=F Damp=F
 DIIS: error= 1.01D-07 at cycle   7 NSaved=   7.
 NSaved= 7 IEnMin= 7 EnMin= -288.744118041667     IErMin= 7 ErrMin= 1.01D-07
 ErrMax= 1.01D-07  0.00D+00 EMaxC= 1.00D-01 BMatC= 2.46D-12 BMatP= 3.25D-11
 IDIUse=1 WtCom= 1.00D+00 WtEn= 0.00D+00
 Coeff-Com: -0.356D-03 0.302D-02-0.116D-01-0.165D-01-0.186D-01 0.205D+00
 Coeff-Com:  0.839D+00
 Coeff:     -0.356D-03 0.302D-02-0.116D-01-0.165D-01-0.186D-01 0.205D+00
 Coeff:      0.839D+00
 Gap=     0.475 Goal=   None    Shift=    0.000
 RMSDP=2.62D-08 MaxDP=6.87D-07 DE=-4.46D-11 OVMax= 1.19D-06

 Cycle   8  Pass 1  IDiag  1:
 RMSU=  1.17D-08    CP:  1.00D+00  1.26D+00  1.39D+00  9.86D-01  1.28D+00
                    CP:  1.09D+00  1.11D+00
 E= -288.744118041664     Delta-E=        0.000000000003 Rises=F Damp=F
 DIIS: error= 2.20D-08 at cycle   8 NSaved=   8.
 NSaved= 8 IEnMin= 7 EnMin= -288.744118041667     IErMin= 8 ErrMin= 2.20D-08
 ErrMax= 2.20D-08  0.00D+00 EMaxC= 1.00D-01 BMatC= 1.29D-13 BMatP= 2.46D-12
 IDIUse=1 WtCom= 1.00D+00 WtEn= 0.00D+00
 Coeff-Com: -0.607D-05-0.156D-04 0.139D-02-0.961D-03-0.191D-01-0.244D-01
 Coeff-Com:  0.990D-01 0.944D+00
 Coeff:     -0.607D-05-0.156D-04 0.139D-02-0.961D-03-0.191D-01-0.244D-01
 Coeff:      0.990D-01 0.944D+00
 Gap=     0.475 Goal=   None    Shift=    0.000
 RMSDP=8.23D-09 MaxDP=2.17D-07 DE= 3.18D-12 OVMax= 3.89D-07

 Error on total polarization charges =  0.03457
 SCF Done:  E(RwB97XD) =  -288.744118042     A.U. after    8 cycles
            NFock=  8  Conv=0.82D-08     -V/T= 2.0108
 KE= 2.856573910952D+02 PE=-1.186168328397D+03 EE= 3.547442054898D+02
 SMD-CDS (non-electrostatic) energy       (kcal/mol) =       2.04
 (included in total energy above)
 Leave Link  502 at Wed Oct 22 13:12:48 2025, MaxMem=  4294967296 cpu:             125.3 elap:              15.7
 (Enter /lrz/sys/applications/gaussian/g16.C.01/x86_64_legacy/exe/l701.exe)
 ... and contract with generalized density number  0.
 Compute integral first derivatives.
 R6Disp: Adding Grimme-D2 dispersion energy 1st derivatives to the gradient.
   1 Symmetry operations used in ECPInt.
 ECPInt:  NShTT=    2415 NPrTT=    8239 LenC2=    2397 LenP2D=    6843.
 LDataN:  DoStor=T MaxTD1= 5 Len=  102
 D1PCM: PCM CHGder 1st derivatives, ID1Alg=3 FixD1E=F DoIter=F DoCFld=F I1PDM=0.
 GePol: Maximum number of non-zero 1st derivatives   =     265
 Leave Link  701 at Wed Oct 22 13:12:49 2025, MaxMem=  4294967296 cpu:               5.3 elap:               0.7
 (Enter /lrz/sys/applications/gaussian/g16.C.01/x86_64_legacy/exe/l702.exe)
 L702 exits ... SP integral derivatives will be done elsewhere.
 Leave Link  702 at Wed Oct 22 13:12:49 2025, MaxMem=  4294967296 cpu:               0.1 elap:               0.0
 (Enter /lrz/sys/applications/gaussian/g16.C.01/x86_64_legacy/exe/l703.exe)
 Integral derivatives from FoFJK, PRISM(SPDF).
 Compute integral first derivatives, UseDBF=F ICtDFT=           0.
 Calling FoFJK, ICntrl=      2127 FMM=F ISym2X=0 I1Cent= 0 IOpClX= 0 NMat=1 NMatS=1 NMatT=0.
 FoFJK:  IHMeth= 1 ICntrl=    2127 DoSepK=T KAlg= 0 I1Cent=           0 FoldK=F
 IRaf=         1 NMat=       1 IRICut=       1 DoRegI=T DoRafI=F ISym2E= 0 IDoP0=0 IntGTp=1.
 FoFCou: FMM=F IPFlag=           0 FMFlag=      100000 FMFlg1=         800
         NFxFlg=           0 DoJE=F BraDBF=F KetDBF=F FulRan=T
         wScrn=  0.000000 ICntrl=      2527 IOpCl=  0 I1Cent=           0 NGrid=           0
         NMat0=    1 NMatS0=      1 NMatT0=    0 NMatD0=    1 NMtDS0=    0 NMtDT0=    0
 Symmetry not used in FoFCou.
 Leave Link  703 at Wed Oct 22 13:12:52 2025, MaxMem=  4294967296 cpu:              24.3 elap:               3.1
 (Enter /lrz/sys/applications/gaussian/g16.C.01/x86_64_legacy/exe/l716.exe)
 Dipole        = 7.61698769D-01 2.36738734D-01 2.46653163D-01
 ***** Axes restored to original set *****
 -------------------------------------------------------------------
 Center     Atomic                   Forces (Hartrees/Bohr)
 Number     Number              X              Y              Z
 -------------------------------------------------------------------
      1        8           0.000048516    0.000005601    0.000034909
      2        6          -0.000117859    0.000001848   -0.000096869
      3        7           0.000007160   -0.000046911    0.000039146
      4        6          -0.000005675    0.000035048    0.000004783
      5        6          -0.000003586   -0.000007983    0.000007039
      6        6           0.000017386    0.000001845    0.000002638
      7        1          -0.000015131    0.000004575   -0.000021929
      8        1           0.000009504    0.000017438    0.000014609
      9        1           0.000019891    0.000015062    0.000020938
     10        1           0.000010734   -0.000003872    0.000019056
     11        1           0.000016043    0.000000101    0.000002000
     12        1          -0.000015408   -0.000030216   -0.000022350
     13        1          -0.000004344   -0.000008798    0.000002603
     14        1           0.000006401    0.000019534    0.000014998
     15        1          -0.000004281   -0.000010960   -0.000028934
     16        1           0.000009701    0.000024848   -0.000000916
     17        1           0.000020950   -0.000017161    0.000008278
 -------------------------------------------------------------------
 Cartesian Forces:  Max     0.000117859 RMS     0.000028157
 Leave Link  716 at Wed Oct 22 13:12:52 2025, MaxMem=  4294967296 cpu:               0.1 elap:               0.0
 (Enter /lrz/sys/applications/gaussian/g16.C.01/x86_64_legacy/exe/l103.exe)

 GradGradGradGradGradGradGradGradGradGradGradGradGradGradGradGradGradGrad
 Berny optimization.
 Using GEDIIS/GDIIS optimizer.
 FormGI is forming the generalized inverse of G from B-inverse, IUseBI=4.
 Internal  Forces:  Max     0.000080440 RMS     0.000017558
 Search for a local minimum.
 Step number   6 out of a maximum of   90
 All quantities printed in internal units (Hartrees-Bohrs-Radians)
 RMS Force = .17558D-04 SwitMx=.10000D-02 MixMth= 2
 Mixed Optimization -- En-DIIS/RFO-DIIS
 Swapping is turned off.
 Update second derivatives using D2CorX and points    1    2    3    4    5
                                                      6
 DE= -1.71D-06 DEPred=-1.60D-06 R= 1.07D+00
 TightC=F SS=  1.41D+00  RLast= 2.69D-02 DXNew= 8.4853D-01 8.0801D-02
 Trust test= 1.07D+00 RLast= 2.69D-02 DXMaxT set to 5.05D-01
 ITU=  1  1  1  1  1  0
     Eigenvalues ---    0.00218   0.00391   0.00460   0.00839   0.01392
     Eigenvalues ---    0.03369   0.03570   0.04042   0.04839   0.04890
     Eigenvalues ---    0.05303   0.05513   0.05564   0.05979   0.07874
     Eigenvalues ---    0.08424   0.08710   0.12235   0.12587   0.15634
     Eigenvalues ---    0.16000   0.16002   0.16053   0.16205   0.16543
     Eigenvalues ---    0.17582   0.21372   0.21859   0.23618   0.29272
     Eigenvalues ---    0.30054   0.30941   0.33765   0.34630   0.34771
     Eigenvalues ---    0.34882   0.34925   0.35093   0.35151   0.37667
     Eigenvalues ---    0.41747   0.44026   0.45203   0.45456   0.54556
 En-DIIS/RFO-DIIS/Sim-DIIS IScMMF=       -3 using points:     6    5    4    3    2
 RFO step:  Lambda=-3.03103364D-07.
 NNeg= 0 NGDIIS= 5 SimSw=  2.50D-01 Rises=F DC= -1.71D-06 SmlDif=  1.00D-05
 NRisDI= 0 DoIntr=F SqrtH=F CThrHd= 10.0 CDAdj=  3.0
 RMS Error=  0.6439526895D-03 NUsed= 5 OKEnD=F EnDIS=F
 InvSVX:  RCond= 8.06D-07 Info=           0 Equed=N FErr=  1.65D-13 BErr=  9.36D-17
 DidBck=F Rises=F RFO-DIIS coefs:    1.28677   -0.31120   -0.02864    0.06054   -0.00748
 Iteration  1 RMS(Cart)=  0.00088479 RMS(Int)=  0.00000053
 Iteration  2 RMS(Cart)=  0.00000048 RMS(Int)=  0.00000031
 ITry= 1 IFail=0 DXMaxC= 3.08D-03 DCOld= 1.00D+10 DXMaxT= 5.05D-01 DXLimC= 3.00D+00 Rises=F
 Variable       Old X    -DE/DX   Delta X   Delta X   Delta X     New X
                                 (Linear)    (Quad)   (Total)
    R1        2.68824  -0.00002  -0.00025   0.00013  -0.00013   2.68811
    R2        1.82267  -0.00000   0.00001  -0.00001   0.00000   1.82267
    R3        2.72172  -0.00008  -0.00007  -0.00013  -0.00020   2.72152
    R4        2.87141   0.00003   0.00017  -0.00000   0.00017   2.87158
    R5        2.08875   0.00002   0.00007   0.00000   0.00007   2.08882
    R6        1.92721  -0.00001  -0.00008   0.00003  -0.00005   1.92717
    R7        1.92990  -0.00002  -0.00006  -0.00001  -0.00007   1.92983
    R8        2.88158   0.00004   0.00016   0.00002   0.00018   2.88176
    R9        2.08147   0.00001   0.00001  -0.00002  -0.00001   2.08146
   R10        2.08936   0.00003  -0.00001   0.00008   0.00007   2.08943
   R11        2.87846   0.00004   0.00021  -0.00001   0.00019   2.87865
   R12        2.08159   0.00001   0.00007  -0.00005   0.00002   2.08161
   R13        2.08601   0.00002   0.00000   0.00004   0.00004   2.08605
   R14        2.08237   0.00003   0.00007  -0.00000   0.00007   2.08244
   R15        2.08235   0.00003   0.00006  -0.00000   0.00006   2.08241
   R16        2.07981   0.00003   0.00007   0.00000   0.00008   2.07989
    A1        1.87815   0.00000   0.00014  -0.00007   0.00007   1.87822
    A2        1.98525   0.00002   0.00002   0.00017   0.00020   1.98545
    A3        1.87218  -0.00003  -0.00008  -0.00004  -0.00012   1.87206
    A4        1.89570   0.00001   0.00015  -0.00001   0.00014   1.89584
    A5        1.93122   0.00003   0.00003   0.00021   0.00023   1.93145
    A6        1.87294  -0.00002  -0.00004  -0.00025  -0.00029   1.87265
    A7        1.90541  -0.00001  -0.00008  -0.00009  -0.00017   1.90524
    A8        1.90792  -0.00001   0.00002   0.00003   0.00006   1.90797
    A9        1.89700  -0.00001   0.00029  -0.00027   0.00002   1.89702
   A10        1.85210   0.00002   0.00056  -0.00021   0.00035   1.85244
   A11        1.99724   0.00000  -0.00037   0.00028  -0.00009   1.99715
   A12        1.88160   0.00002   0.00016  -0.00000   0.00015   1.88175
   A13        1.88676  -0.00001  -0.00020   0.00006  -0.00014   1.88662
   A14        1.91637  -0.00002   0.00015  -0.00026  -0.00011   1.91625
   A15        1.91586   0.00001  -0.00018   0.00014  -0.00004   1.91582
   A16        1.86078   0.00001   0.00051  -0.00025   0.00026   1.86104
   A17        1.96861   0.00002  -0.00014   0.00022   0.00008   1.96869
   A18        1.90616  -0.00001  -0.00013   0.00006  -0.00007   1.90609
   A19        1.90320  -0.00001   0.00005  -0.00007  -0.00003   1.90317
   A20        1.91535  -0.00000  -0.00005   0.00004  -0.00001   1.91534
   A21        1.91370  -0.00001  -0.00004  -0.00005  -0.00009   1.91361
   A22        1.85321   0.00001   0.00034  -0.00023   0.00011   1.85332
   A23        1.93957  -0.00000  -0.00015   0.00008  -0.00007   1.93950
   A24        1.94124  -0.00000  -0.00020   0.00015  -0.00005   1.94119
   A25        1.94573   0.00000  -0.00013   0.00012  -0.00000   1.94573
   A26        1.87549   0.00000   0.00021  -0.00013   0.00008   1.87557
   A27        1.87907  -0.00000   0.00013  -0.00012   0.00001   1.87909
   A28        1.87958  -0.00000   0.00016  -0.00012   0.00004   1.87963
    D1       -1.15913   0.00003   0.00061   0.00136   0.00197  -1.15716
    D2        2.98254   0.00000   0.00062   0.00101   0.00163   2.98417
    D3        0.92517   0.00002   0.00068   0.00115   0.00183   0.92700
    D4        1.02874   0.00002   0.00122   0.00017   0.00139   1.03014
    D5       -0.98556   0.00001   0.00038   0.00056   0.00094  -0.98462
    D6        3.13749   0.00001   0.00115   0.00040   0.00155   3.13903
    D7        1.12318   0.00000   0.00032   0.00078   0.00110   1.12428
    D8       -1.06845   0.00001   0.00104   0.00026   0.00130  -1.06715
    D9       -3.08275  -0.00000   0.00021   0.00064   0.00085  -3.08190
   D10       -1.04036   0.00000  -0.00074  -0.00015  -0.00089  -1.04125
   D11        3.10549   0.00001  -0.00080   0.00001  -0.00079   3.10469
   D12        1.10016   0.00000  -0.00137   0.00027  -0.00110   1.09906
   D13        3.06818  -0.00002  -0.00073  -0.00047  -0.00120   3.06698
   D14        0.93084  -0.00001  -0.00079  -0.00032  -0.00111   0.92974
   D15       -1.07448  -0.00002  -0.00137  -0.00005  -0.00142  -1.07590
   D16        1.01068  -0.00000  -0.00065  -0.00024  -0.00088   1.00980
   D17       -1.12666   0.00001  -0.00071  -0.00008  -0.00079  -1.12745
   D18       -3.13198  -0.00000  -0.00128   0.00018  -0.00110  -3.13308
   D19       -3.11984  -0.00001   0.00050  -0.00016   0.00033  -3.11951
   D20        1.02868  -0.00001   0.00075  -0.00041   0.00034   1.02902
   D21       -0.98940  -0.00001   0.00039  -0.00013   0.00026  -0.98914
   D22       -1.00152   0.00000   0.00055  -0.00017   0.00038  -1.00113
   D23       -3.13617  -0.00000   0.00081  -0.00042   0.00039  -3.13579
   D24        1.12893   0.00000   0.00045  -0.00014   0.00031   1.12923
   D25        1.03867   0.00001   0.00115  -0.00054   0.00061   1.03928
   D26       -1.09598   0.00000   0.00140  -0.00079   0.00061  -1.09537
   D27       -3.11406   0.00000   0.00104  -0.00051   0.00053  -3.11354
   D28       -1.04400   0.00000   0.00066   0.00016   0.00082  -1.04318
   D29        1.04477   0.00000   0.00069   0.00014   0.00084   1.04560
   D30       -3.14032   0.00000   0.00068   0.00017   0.00085  -3.13946
   D31        1.08549   0.00000   0.00036   0.00042   0.00078   1.08627
   D32       -3.10893   0.00000   0.00039   0.00041   0.00080  -3.10813
   D33       -1.01083   0.00000   0.00038   0.00043   0.00081  -1.01001
   D34        3.11466   0.00000   0.00072   0.00014   0.00086   3.11553
   D35       -1.07975   0.00000   0.00075   0.00013   0.00088  -1.07887
   D36        1.01835   0.00000   0.00074   0.00016   0.00090   1.01925
         Item               Value     Threshold  Converged?
 Maximum Force            0.000080     0.000450     YES
 RMS     Force            0.000018     0.000300     YES
 Maximum Displacement     0.003081     0.001800     NO 
 RMS     Displacement     0.000885     0.001200     YES
 Predicted change in Energy=-1.484444D-07
 Lowest energy point so far.  Saving SCF results.
 GradGradGradGradGradGradGradGradGradGradGradGradGradGradGradGradGradGrad

 Leave Link  103 at Wed Oct 22 13:12:52 2025, MaxMem=  4294967296 cpu:               0.1 elap:               0.0
 (Enter /lrz/sys/applications/gaussian/g16.C.01/x86_64_legacy/exe/l202.exe)
                          Input orientation:                          
 ---------------------------------------------------------------------
 Center     Atomic      Atomic             Coordinates (Angstroms)
 Number     Number       Type             X           Y           Z
 ---------------------------------------------------------------------
      1          8           0       -1.437689   -0.993944    0.264560
      2          6           0       -0.995313    0.358005    0.265835
      3          7           0       -1.861983    1.252751   -0.456929
      4          6           0        0.405005    0.374781   -0.324024
      5          6           0        1.421527   -0.466383    0.440589
      6          6           0        2.817993   -0.398633   -0.164215
      7          1           0       -2.261180   -1.032054    0.765263
      8          1           0       -0.952951    0.714568    1.311241
      9          1           0       -2.795042    1.223668   -0.046352
     10          1           0       -1.962043    0.909788   -1.413622
     11          1           0        0.741830    1.422762   -0.362807
     12          1           0        0.341013    0.024036   -1.370640
     13          1           0        1.078474   -1.512775    0.468394
     14          1           0        1.454697   -0.125405    1.489974
     15          1           0        2.817773   -0.759425   -1.205460
     16          1           0        3.199353    0.635203   -0.172560
     17          1           0        3.532954   -1.014365    0.402429
 ---------------------------------------------------------------------
                    Distance matrix (angstroms):
                    1          2          3          4          5
     1  O    0.000000
     2  C    1.422486   0.000000
     3  N    2.397543   1.440165   0.000000
     4  C    2.369676   1.519574   2.434693   0.000000
     5  C    2.912803   2.559544   3.813449   1.524960   0.000000
     6  C    4.318458   3.911361   4.971411   2.538940   1.523318
     7  H    0.964517   1.945280   2.621726   3.205351   3.740017
     8  H    2.061438   1.105353   2.059710   2.152578   2.791205
     9  H    2.618564   2.021351   1.019813   3.322350   4.568679
    10  H    2.591417   2.014847   1.021224   2.660146   4.096400
    11  H    3.314266   2.132267   2.611054   1.101462   2.162476
    12  H    2.621821   2.139007   2.682871   1.105678   2.165311
    13  H    2.577171   2.800256   4.141333   2.155076   1.101542
    14  H    3.259126   2.781142   4.085354   2.154676   1.103891
    15  H    4.508317   4.237096   5.148716   2.807989   2.178269
    16  H    4.934304   4.226612   5.106794   2.810541   2.179475
    17  H    4.972597   4.733631   5.914699   3.498789   2.181712
                    6          7          8          9         10
     6  C    0.000000
     7  H    5.202226   0.000000
     8  H    4.199549   2.249499   0.000000
     9  H    5.843964   2.456015   2.344257   0.000000
    10  H    5.110942   2.933901   2.912260   1.631513   0.000000
    11  H    2.769002   4.039398   2.485208   3.556577   2.945893
    12  H    2.787389   3.528289   3.056741   3.609390   2.467888
    13  H    2.160424   3.387110   3.130197   4.770451   4.319206
    14  H    2.160919   3.892938   2.556222   4.715992   4.601805
    15  H    1.101981   5.454709   4.767054   6.064642   5.067174
    16  H    1.101963   5.785904   4.410170   6.024532   5.315604
    17  H    1.100628   5.805511   4.892699   6.727090   6.098804
                   11         12         13         14         15
    11  H    0.000000
    12  H    1.769976   0.000000
    13  H    3.069462   2.507525   0.000000
    14  H    2.517499   3.073392   1.763509   0.000000
    15  H    3.127547   2.602967   2.528732   3.086312   0.000000
    16  H    2.587636   3.158960   3.085897   2.527126   1.776928
    17  H    3.783590   3.796122   2.505441   2.508417   1.778141
                   16         17
    16  H    0.000000
    17  H    1.778477   0.000000
 Stoichiometry    C4H11NO
 Framework group  C1[X(C4H11NO)]
 Deg. of freedom    45
 Full point group                 C1      NOp   1
 RotChk:  IX=0 Diff= 6.44D-04
 Largest Abelian subgroup         C1      NOp   1
 Largest concise Abelian subgroup C1      NOp   1
                         Standard orientation:                         
 ---------------------------------------------------------------------
 Center     Atomic      Atomic             Coordinates (Angstroms)
 Number     Number       Type             X           Y           Z
 ---------------------------------------------------------------------
      1          8           0        1.269932    1.258617   -0.311397
      2          6           0        1.088282   -0.003957    0.318187
      3          7           0        2.119350   -0.960498    0.008342
      4          6           0       -0.273798   -0.527444   -0.105848
      5          6           0       -1.442749    0.374614    0.275395
      6          6           0       -2.791253   -0.199594   -0.139717
      7          1           0        2.062999    1.660053    0.063018
      8          1           0        1.095335    0.143570    1.413629
      9          1           0        3.023279   -0.588136    0.298650
     10          1           0        2.169983   -1.070176   -1.005712
     11          1           0       -0.407938   -1.522872    0.346201
     12          1           0       -0.258495   -0.676833   -1.201280
     13          1           0       -1.302004    1.364826   -0.186195
     14          1           0       -1.429653    0.539198    1.366870
     15          1           0       -2.840560   -0.348920   -1.230420
     16          1           0       -2.972308   -1.176787    0.336346
     17          1           0       -3.618432    0.468916    0.143569
 ---------------------------------------------------------------------
 Rotational constants (GHZ):           7.5347974           1.7549602           1.5286821
 Leave Link  202 at Wed Oct 22 13:12:52 2025, MaxMem=  4294967296 cpu:               0.0 elap:               0.0
 (Enter /lrz/sys/applications/gaussian/g16.C.01/x86_64_legacy/exe/l301.exe)
 Standard basis: def2SVP (5D, 7F)
 Ernie: Thresh=  0.10000D-02 Tol=  0.10000D-05 Strict=F.
 There are   145 symmetry adapted cartesian basis functions of A   symmetry.
 There are   139 symmetry adapted basis functions of A   symmetry.
   139 basis functions,   227 primitive gaussians,   145 cartesian basis functions
    25 alpha electrons       25 beta electrons
       nuclear repulsion energy       257.0212048622 Hartrees.
 IExCor= 4639 DFT=T Ex+Corr=wB97XD ExCW=0 ScaHFX=  1.000000
 ScaDFX=  1.000000  1.000000  1.000000  1.000000 ScalE2=  1.000000  1.000000
 IRadAn=      5 IRanWt=     -1 IRanGd=            0 ICorTp=0 IEmpDi=121
 HFx  wShort=  0.000000 wLong=  0.200000 cFull=  0.222036 cShort=  0.000000 cLong=  0.777964
 DFx  wShort=  0.000000 wLong=  0.200000 cFull=  0.000000 cShort=  0.000000 cLong=  1.000000
 NAtoms=   17 NActive=   17 NUniq=   17 SFac= 1.00D+00 NAtFMM=   60 NAOKFM=F Big=F
 Integral buffers will be    131072 words long.
 Raffenetti 2 integral format.
 Two-electron integral symmetry is turned on.
 R6Disp:  Grimme-D2 Dispersion energy=       -0.0087323759 Hartrees.
 Nuclear repulsion after empirical dispersion term =      257.0124724864 Hartrees.
 ------------------------------------------------------------------------------
 Polarizable Continuum Model (PCM)
 =================================
 Model                : PCM.
 Atomic radii         : SMD-Coulomb.
 Polarization charges : Total charges.
 Charge compensation  : None.
 Solution method      : On-the-fly selection.
 Cavity type          : VdW (van der Waals Surface) (Alpha=1.000).
 Cavity algorithm     : GePol (No added spheres)
                        Default sphere list used, NSphG=   17.
                        Lebedev-Laikov grids with approx.  5.0 points / Ang**2.
                        Smoothing algorithm: York/Karplus (Gamma=1.0000).
                        Polarization charges: spherical gaussians, with
                                              point-specific exponents (IZeta= 3).
                        Self-potential: point-specific (ISelfS= 7).
                        Self-field    : sphere-specific E.n sum rule (ISelfD= 2).
 1st derivatives      : Analytical E(r).r(x)/FMM algorithm (CHGder, D1EAlg=3).
                        Cavity 1st derivative terms included.
 Solvent              : Water, Eps=  78.355300 Eps(inf)=   1.777849
 ------------------------------------------------------------------------------
 Spheres list:
 ISph  on   Nord     Re0    Alpha      Xe            Ye            Ze
    1   O      1    1.5200  1.000      1.269932      1.258617     -0.311397
    2   C      2    1.8500  1.000      1.088282     -0.003957      0.318187
    3   N      3    1.8900  1.000      2.119350     -0.960498      0.008342
    4   C      4    1.8500  1.000     -0.273798     -0.527444     -0.105848
    5   C      5    1.8500  1.000     -1.442749      0.374614      0.275395
    6   C      6    1.8500  1.000     -2.791253     -0.199594     -0.139717
    7   H      7    1.2000  1.000      2.062999      1.660053      0.063018
    8   H      8    1.2000  1.000      1.095335      0.143570      1.413629
    9   H      9    1.2000  1.000      3.023279     -0.588136      0.298650
   10   H     10    1.2000  1.000      2.169983     -1.070176     -1.005712
   11   H     11    1.2000  1.000     -0.407938     -1.522872      0.346201
   12   H     12    1.2000  1.000     -0.258495     -0.676833     -1.201280
   13   H     13    1.2000  1.000     -1.302004      1.364826     -0.186195
   14   H     14    1.2000  1.000     -1.429653      0.539198      1.366870
   15   H     15    1.2000  1.000     -2.840560     -0.348920     -1.230420
   16   H     16    1.2000  1.000     -2.972308     -1.176787      0.336346
   17   H     17    1.2000  1.000     -3.618432      0.468916      0.143569
 ------------------------------------------------------------------------------
 GePol: Number of generator spheres                  =      17
 GePol: Total number of spheres                      =      17
 GePol: Number of exposed spheres                    =      17 (100.00%)
 GePol: Number of points                             =    1197
 GePol: Average weight of points                     =       0.12
 GePol: Minimum weight of points                     =   0.77D-10
 GePol: Maximum weight of points                     =    0.21991
 GePol: Number of points with low weight             =      68
 GePol: Fraction of low-weight points (<1% of avg)   =       5.68%
 GePol: Cavity surface area                          =    138.437 Ang**2
 GePol: Cavity volume                                =    107.999 Ang**3
 ------------------------------------------------------------------------------
 Atomic radii for non-electrostatic terms: SMD-CDS.
 ------------------------------------------------------------------------------
 PCM non-electrostatic energy =         0.0032448473 Hartrees.
 Nuclear repulsion after PCM non-electrostatic terms =      257.0157173337 Hartrees.
 Leave Link  301 at Wed Oct 22 13:12:52 2025, MaxMem=  4294967296 cpu:               0.4 elap:               0.1
 (Enter /lrz/sys/applications/gaussian/g16.C.01/x86_64_legacy/exe/l302.exe)
 NPDir=0 NMtPBC=     1 NCelOv=     1 NCel=       1 NClECP=     1 NCelD=      1
         NCelK=      1 NCelE2=     1 NClLst=     1 CellRange=     0.0.
 One-electron integrals computed using PRISM.
 One-electron integral symmetry used in STVInt
   1 Symmetry operations used in ECPInt.
 ECPInt:  NShTT=    2415 NPrTT=    8239 LenC2=    2397 LenP2D=    6843.
 LDataN:  DoStor=T MaxTD1= 4 Len=   56
 NBasis=   139 RedAO= T EigKep=  1.39D-03  NBF=   139
 NBsUse=   139 1.00D-06 EigRej= -1.00D+00 NBFU=   139
 Precomputing XC quadrature grid using
 IXCGrd= 4 IRadAn=           5 IRanWt=          -1 IRanGd=           0 AccXCQ= 0.00D+00.
 Generated NRdTot=       0 NPtTot=           0 NUsed=           0 NTot=          32
 NSgBfM=   145   145   145   145   145 MxSgAt=    17 MxSgA2=    17.
 Leave Link  302 at Wed Oct 22 13:12:52 2025, MaxMem=  4294967296 cpu:               1.3 elap:               0.2
 (Enter /lrz/sys/applications/gaussian/g16.C.01/x86_64_legacy/exe/l303.exe)
 DipDrv:  MaxL=1.
 Leave Link  303 at Wed Oct 22 13:12:52 2025, MaxMem=  4294967296 cpu:               0.2 elap:               0.0
 (Enter /lrz/sys/applications/gaussian/g16.C.01/x86_64_legacy/exe/l401.exe)
 Initial guess from the checkpoint file:  "g16_C17-a_9.chk"
 B after Tr=     0.000000    0.000000    0.000000
         Rot=    1.000000   -0.000162    0.000011    0.000010 Ang=  -0.02 deg.
 Guess basis will be translated and rotated to current coordinates.
 JPrj=2 DoOrth=T DoCkMO=T.
 Leave Link  401 at Wed Oct 22 13:12:52 2025, MaxMem=  4294967296 cpu:               0.6 elap:               0.1
 (Enter /lrz/sys/applications/gaussian/g16.C.01/x86_64_legacy/exe/l502.exe)
 Integral symmetry usage will be decided dynamically.
 Closed shell SCF:
 Using DIIS extrapolation, IDIIS=  1040.
 NGot=  4294967296 LenX=  4294921924 LenY=  4294900458
 Requested convergence on RMS density matrix=1.00D-08 within 128 cycles.
 Requested convergence on MAX density matrix=1.00D-06.
 Requested convergence on             energy=1.00D-06.
 No special actions if energy rises.
 Fock matrices will be formed incrementally for  20 cycles.

 Cycle   1  Pass 1  IDiag  1:
 FoFJK:  IHMeth= 1 ICntrl=       0 DoSepK=T KAlg= 0 I1Cent=           0 FoldK=F
 IRaf=         1 NMat=       1 IRICut=       1 DoRegI=T DoRafI=F ISym2E= 0 IDoP0=0 IntGTp=1.
 FoFCou: FMM=F IPFlag=           0 FMFlag=      100000 FMFlg1=           0
         NFxFlg=           0 DoJE=T BraDBF=F KetDBF=F FulRan=T
         wScrn=  0.000000 ICntrl=       500 IOpCl=  0 I1Cent=           0 NGrid=           0
         NMat0=    1 NMatS0=      1 NMatT0=    0 NMatD0=    1 NMtDS0=    0 NMtDT0=    0
 Symmetry not used in FoFCou.
 Inv3:  Mode=1 IEnd=     4298427.
 Iteration    1 A*A^-1 deviation from unit magnitude is 5.77D-15 for    430.
 Iteration    1 A*A^-1 deviation from orthogonality  is 4.02D-15 for    940    440.
 Iteration    1 A^-1*A deviation from unit magnitude is 5.00D-15 for     41.
 Iteration    1 A^-1*A deviation from orthogonality  is 3.35D-15 for    917    484.
 E= -288.744117163126    
 DIIS: error= 5.55D-05 at cycle   1 NSaved=   1.
 NSaved= 1 IEnMin= 1 EnMin= -288.744117163126     IErMin= 1 ErrMin= 5.55D-05
 ErrMax= 5.55D-05  0.00D+00 EMaxC= 1.00D-01 BMatC= 7.48D-07 BMatP= 7.48D-07
 IDIUse=1 WtCom= 1.00D+00 WtEn= 0.00D+00
 Coeff-Com:  0.100D+01
 Coeff:      0.100D+01
 Gap=     0.750 Goal=   None    Shift=    0.000
 RMSDP=9.95D-06 MaxDP=2.57D-04              OVMax= 2.22D-04

 Cycle   2  Pass 1  IDiag  1:
 RMSU=  9.94D-06    CP:  1.00D+00
 E= -288.744118241876     Delta-E=       -0.000001078750 Rises=F Damp=F
 DIIS: error= 8.44D-06 at cycle   2 NSaved=   2.
 NSaved= 2 IEnMin= 2 EnMin= -288.744118241876     IErMin= 2 ErrMin= 8.44D-06
 ErrMax= 8.44D-06  0.00D+00 EMaxC= 1.00D-01 BMatC= 2.47D-08 BMatP= 7.48D-07
 IDIUse=1 WtCom= 1.00D+00 WtEn= 0.00D+00
 Coeff-Com: -0.172D+00 0.117D+01
 Coeff:     -0.172D+00 0.117D+01
 Gap=     0.475 Goal=   None    Shift=    0.000
 RMSDP=2.47D-06 MaxDP=5.83D-05 DE=-1.08D-06 OVMax= 8.15D-05

 Cycle   3  Pass 1  IDiag  1:
 RMSU=  1.53D-06    CP:  1.00D+00  1.20D+00
 E= -288.744118298671     Delta-E=       -0.000000056795 Rises=F Damp=F
 DIIS: error= 1.93D-06 at cycle   3 NSaved=   3.
 NSaved= 3 IEnMin= 3 EnMin= -288.744118298671     IErMin= 3 ErrMin= 1.93D-06
 ErrMax= 1.93D-06  0.00D+00 EMaxC= 1.00D-01 BMatC= 1.20D-09 BMatP= 2.47D-08
 IDIUse=1 WtCom= 1.00D+00 WtEn= 0.00D+00
 Coeff-Com: -0.235D-01 0.935D-01 0.930D+00
 Coeff:     -0.235D-01 0.935D-01 0.930D+00
 Gap=     0.475 Goal=   None    Shift=    0.000
 RMSDP=5.23D-07 MaxDP=9.66D-06 DE=-5.68D-08 OVMax= 1.76D-05

 Cycle   4  Pass 1  IDiag  1:
 RMSU=  3.80D-07    CP:  1.00D+00  1.22D+00  1.19D+00
 E= -288.744118300380     Delta-E=       -0.000000001709 Rises=F Damp=F
 DIIS: error= 1.10D-06 at cycle   4 NSaved=   4.
 NSaved= 4 IEnMin= 4 EnMin= -288.744118300380     IErMin= 4 ErrMin= 1.10D-06
 ErrMax= 1.10D-06  0.00D+00 EMaxC= 1.00D-01 BMatC= 4.81D-10 BMatP= 1.20D-09
 IDIUse=1 WtCom= 1.00D+00 WtEn= 0.00D+00
 Coeff-Com:  0.129D-01-0.117D+00 0.388D+00 0.716D+00
 Coeff:      0.129D-01-0.117D+00 0.388D+00 0.716D+00
 Gap=     0.475 Goal=   None    Shift=    0.000
 RMSDP=2.32D-07 MaxDP=5.13D-06 DE=-1.71D-09 OVMax= 7.55D-06

 Cycle   5  Pass 1  IDiag  1:
 RMSU=  1.05D-07    CP:  1.00D+00  1.22D+00  1.32D+00  8.66D-01
 E= -288.744118300923     Delta-E=       -0.000000000543 Rises=F Damp=F
 DIIS: error= 2.05D-07 at cycle   5 NSaved=   5.
 NSaved= 5 IEnMin= 5 EnMin= -288.744118300923     IErMin= 5 ErrMin= 2.05D-07
 ErrMax= 2.05D-07  0.00D+00 EMaxC= 1.00D-01 BMatC= 8.24D-12 BMatP= 4.81D-10
 IDIUse=1 WtCom= 1.00D+00 WtEn= 0.00D+00
 Coeff-Com:  0.282D-02-0.211D-01 0.688D-02 0.861D-01 0.925D+00
 Coeff:      0.282D-02-0.211D-01 0.688D-02 0.861D-01 0.925D+00
 Gap=     0.475 Goal=   None    Shift=    0.000
 RMSDP=6.30D-08 MaxDP=1.15D-06 DE=-5.43D-10 OVMax= 2.48D-06

 Cycle   6  Pass 1  IDiag  1:
 RMSU=  2.75D-08    CP:  1.00D+00  1.22D+00  1.34D+00  9.33D-01  1.25D+00
 E= -288.744118300948     Delta-E=       -0.000000000025 Rises=F Damp=F
 DIIS: error= 6.43D-08 at cycle   6 NSaved=   6.
 NSaved= 6 IEnMin= 6 EnMin= -288.744118300948     IErMin= 6 ErrMin= 6.43D-08
 ErrMax= 6.43D-08  0.00D+00 EMaxC= 1.00D-01 BMatC= 1.63D-12 BMatP= 8.24D-12
 IDIUse=1 WtCom= 1.00D+00 WtEn= 0.00D+00
 Coeff-Com: -0.343D-03 0.482D-02-0.358D-01-0.455D-01 0.276D+00 0.801D+00
 Coeff:     -0.343D-03 0.482D-02-0.358D-01-0.455D-01 0.276D+00 0.801D+00
 Gap=     0.475 Goal=   None    Shift=    0.000
 RMSDP=2.17D-08 MaxDP=4.21D-07 DE=-2.55D-11 OVMax= 8.81D-07

 Cycle   7  Pass 1  IDiag  1:
 RMSU=  9.46D-09    CP:  1.00D+00  1.22D+00  1.35D+00  9.55D-01  1.38D+00
                    CP:  1.01D+00
 E= -288.744118300949     Delta-E=       -0.000000000001 Rises=F Damp=F
 DIIS: error= 2.52D-08 at cycle   7 NSaved=   7.
 NSaved= 7 IEnMin= 7 EnMin= -288.744118300949     IErMin= 7 ErrMin= 2.52D-08
 ErrMax= 2.52D-08  0.00D+00 EMaxC= 1.00D-01 BMatC= 1.25D-13 BMatP= 1.63D-12
 IDIUse=1 WtCom= 1.00D+00 WtEn= 0.00D+00
 Coeff-Com: -0.338D-03 0.308D-02-0.645D-02-0.178D-01-0.575D-01 0.171D+00
 Coeff-Com:  0.908D+00
 Coeff:     -0.338D-03 0.308D-02-0.645D-02-0.178D-01-0.575D-01 0.171D+00
 Coeff:      0.908D+00
 Gap=     0.475 Goal=   None    Shift=    0.000
 RMSDP=7.14D-09 MaxDP=1.72D-07 DE=-1.02D-12 OVMax= 3.49D-07

 Error on total polarization charges =  0.03457
 SCF Done:  E(RwB97XD) =  -288.744118301     A.U. after    7 cycles
            NFock=  7  Conv=0.71D-08     -V/T= 2.0108
 KE= 2.856570007522D+02 PE=-1.186154301952D+03 EE= 3.547374655651D+02
 SMD-CDS (non-electrostatic) energy       (kcal/mol) =       2.04
 (included in total energy above)
 Leave Link  502 at Wed Oct 22 13:13:06 2025, MaxMem=  4294967296 cpu:             111.7 elap:              14.0
 (Enter /lrz/sys/applications/gaussian/g16.C.01/x86_64_legacy/exe/l701.exe)
 ... and contract with generalized density number  0.
 Compute integral first derivatives.
 R6Disp: Adding Grimme-D2 dispersion energy 1st derivatives to the gradient.
   1 Symmetry operations used in ECPInt.
 ECPInt:  NShTT=    2415 NPrTT=    8239 LenC2=    2397 LenP2D=    6843.
 LDataN:  DoStor=T MaxTD1= 5 Len=  102
 D1PCM: PCM CHGder 1st derivatives, ID1Alg=3 FixD1E=F DoIter=F DoCFld=F I1PDM=0.
 GePol: Maximum number of non-zero 1st derivatives   =     265
 Leave Link  701 at Wed Oct 22 13:13:07 2025, MaxMem=  4294967296 cpu:               4.8 elap:               0.6
 (Enter /lrz/sys/applications/gaussian/g16.C.01/x86_64_legacy/exe/l702.exe)
 L702 exits ... SP integral derivatives will be done elsewhere.
 Leave Link  702 at Wed Oct 22 13:13:07 2025, MaxMem=  4294967296 cpu:               0.1 elap:               0.0
 (Enter /lrz/sys/applications/gaussian/g16.C.01/x86_64_legacy/exe/l703.exe)
 Integral derivatives from FoFJK, PRISM(SPDF).
 Compute integral first derivatives, UseDBF=F ICtDFT=           0.
 Calling FoFJK, ICntrl=      2127 FMM=F ISym2X=0 I1Cent= 0 IOpClX= 0 NMat=1 NMatS=1 NMatT=0.
 FoFJK:  IHMeth= 1 ICntrl=    2127 DoSepK=T KAlg= 0 I1Cent=           0 FoldK=F
 IRaf=         1 NMat=       1 IRICut=       1 DoRegI=T DoRafI=F ISym2E= 0 IDoP0=0 IntGTp=1.
 FoFCou: FMM=F IPFlag=           0 FMFlag=      100000 FMFlg1=         800
         NFxFlg=           0 DoJE=F BraDBF=F KetDBF=F FulRan=T
         wScrn=  0.000000 ICntrl=      2527 IOpCl=  0 I1Cent=           0 NGrid=           0
         NMat0=    1 NMatS0=      1 NMatT0=    0 NMatD0=    1 NMtDS0=    0 NMtDT0=    0
 Symmetry not used in FoFCou.
 Leave Link  703 at Wed Oct 22 13:13:10 2025, MaxMem=  4294967296 cpu:              24.4 elap:               3.1
 (Enter /lrz/sys/applications/gaussian/g16.C.01/x86_64_legacy/exe/l716.exe)
 Dipole        = 7.63069995D-01 2.36116579D-01 2.46670847D-01
 ***** Axes restored to original set *****
 -------------------------------------------------------------------
 Center     Atomic                   Forces (Hartrees/Bohr)
 Number     Number              X              Y              Z
 -------------------------------------------------------------------
      1        8           0.000025910   -0.000019893    0.000017792
      2        6          -0.000012167    0.000050800   -0.000007906
      3        7           0.000019747   -0.000030113    0.000012082
      4        6          -0.000011083   -0.000010961    0.000013769
      5        6           0.000007617    0.000005349   -0.000019432
      6        6          -0.000023629   -0.000001478    0.000004779
      7        1          -0.000013420    0.000008646   -0.000010665
      8        1           0.000013047   -0.000005145    0.000011456
      9        1          -0.000002570    0.000001019    0.000003761
     10        1          -0.000013058   -0.000003006   -0.000009188
     11        1           0.000000921    0.000002287   -0.000006260
     12        1          -0.000001435   -0.000001848   -0.000007006
     13        1           0.000001274   -0.000004352    0.000010394
     14        1           0.000000476    0.000006536    0.000002588
     15        1           0.000002399   -0.000001993   -0.000006626
     16        1           0.000003733    0.000002757   -0.000007553
     17        1           0.000002238    0.000001395   -0.000001985
 -------------------------------------------------------------------
 Cartesian Forces:  Max     0.000050800 RMS     0.000012911
 Leave Link  716 at Wed Oct 22 13:13:10 2025, MaxMem=  4294967296 cpu:               0.1 elap:               0.0
 (Enter /lrz/sys/applications/gaussian/g16.C.01/x86_64_legacy/exe/l103.exe)

 GradGradGradGradGradGradGradGradGradGradGradGradGradGradGradGradGradGrad
 Berny optimization.
 Using GEDIIS/GDIIS optimizer.
 FormGI is forming the generalized inverse of G from B-inverse, IUseBI=4.
 Internal  Forces:  Max     0.000021579 RMS     0.000006321
 Search for a local minimum.
 Step number   7 out of a maximum of   90
 All quantities printed in internal units (Hartrees-Bohrs-Radians)
 RMS Force = .63213D-05 SwitMx=.10000D-02 MixMth= 2
 Mixed Optimization -- En-DIIS/RFO-DIIS
 Swapping is turned off.
 Update second derivatives using D2CorX and points    1    2    3    4    5
                                                      6    7
 DE= -2.59D-07 DEPred=-1.48D-07 R= 1.75D+00
 Trust test= 1.75D+00 RLast= 6.12D-03 DXMaxT set to 5.05D-01
 ITU=  0  1  1  1  1  1  0
     Eigenvalues ---    0.00214   0.00382   0.00451   0.00677   0.01170
     Eigenvalues ---    0.03401   0.03573   0.04255   0.04843   0.04888
     Eigenvalues ---    0.05513   0.05558   0.05672   0.06060   0.07862
     Eigenvalues ---    0.08427   0.08711   0.12267   0.12507   0.15788
     Eigenvalues ---    0.16000   0.16002   0.16177   0.16304   0.16743
     Eigenvalues ---    0.17597   0.21060   0.21865   0.23350   0.29778
     Eigenvalues ---    0.30048   0.32250   0.33826   0.34627   0.34723
     Eigenvalues ---    0.34845   0.34943   0.35093   0.35161   0.36566
     Eigenvalues ---    0.40428   0.44855   0.45273   0.45651   0.54599
 En-DIIS/RFO-DIIS/Sim-DIIS IScMMF=       -3 using points:     7    6    5    4    3    2
 RFO step:  Lambda=-9.67172362D-08.
 NNeg= 0 NGDIIS= 6 SimSw=  2.50D-01 Rises=F DC= -2.59D-07 SmlDif=  1.00D-05
 NRisDI= 0 DoIntr=F SqrtH=F CThrHd= 10.0 CDAdj=  3.0
 RMS Error=  0.4197994196D-03 NUsed= 6 OKEnD=F EnDIS=F
 InvSVX:  RCond= 1.73D-07 Info=           0 Equed=N FErr=  3.15D-13 BErr=  6.10D-17
 DidBck=F Rises=F RFO-DIIS coefs:    1.70970   -0.58548   -0.25858    0.17348   -0.03400
                  RFO-DIIS coefs:   -0.00513
 Iteration  1 RMS(Cart)=  0.00045826 RMS(Int)=  0.00000055
 Iteration  2 RMS(Cart)=  0.00000038 RMS(Int)=  0.00000040
 ITry= 1 IFail=0 DXMaxC= 2.70D-03 DCOld= 1.00D+10 DXMaxT= 5.05D-01 DXLimC= 3.00D+00 Rises=F
 Variable       Old X    -DE/DX   Delta X   Delta X   Delta X     New X
                                 (Linear)    (Quad)   (Total)
    R1        2.68811   0.00001  -0.00008   0.00007  -0.00001   2.68810
    R2        1.82267   0.00000   0.00002  -0.00001   0.00001   1.82268
    R3        2.72152  -0.00002  -0.00009  -0.00004  -0.00012   2.72139
    R4        2.87158  -0.00002   0.00009  -0.00013  -0.00004   2.87154
    R5        2.08882   0.00001   0.00011  -0.00006   0.00004   2.08886
    R6        1.92717   0.00000   0.00002  -0.00002  -0.00001   1.92716
    R7        1.92983   0.00001  -0.00001   0.00003   0.00001   1.92984
    R8        2.88176  -0.00001   0.00004  -0.00004   0.00001   2.88176
    R9        2.08146   0.00000  -0.00001   0.00002   0.00001   2.08147
   R10        2.08943   0.00001   0.00011  -0.00008   0.00003   2.08946
   R11        2.87865  -0.00001  -0.00004   0.00003  -0.00001   2.87864
   R12        2.08161   0.00001   0.00004  -0.00002   0.00002   2.08163
   R13        2.08605   0.00000   0.00004  -0.00002   0.00002   2.08608
   R14        2.08244   0.00000   0.00006  -0.00004   0.00002   2.08247
   R15        2.08241   0.00000   0.00006  -0.00004   0.00002   2.08243
   R16        2.07989   0.00000   0.00005  -0.00004   0.00002   2.07990
    A1        1.87822  -0.00001   0.00005  -0.00009  -0.00005   1.87818
    A2        1.98545  -0.00000   0.00002  -0.00002   0.00000   1.98545
    A3        1.87206  -0.00001  -0.00024   0.00006  -0.00018   1.87188
    A4        1.89584   0.00000   0.00001   0.00005   0.00006   1.89590
    A5        1.93145   0.00001   0.00037  -0.00029   0.00008   1.93153
    A6        1.87265   0.00000  -0.00003   0.00010   0.00008   1.87273
    A7        1.90524  -0.00000  -0.00014   0.00010  -0.00004   1.90521
    A8        1.90797  -0.00000   0.00008  -0.00006   0.00002   1.90799
    A9        1.89702   0.00002   0.00003   0.00012   0.00014   1.89716
   A10        1.85244  -0.00001   0.00004   0.00002   0.00006   1.85250
   A11        1.99715  -0.00001  -0.00000  -0.00005  -0.00006   1.99710
   A12        1.88175   0.00000   0.00020  -0.00014   0.00006   1.88181
   A13        1.88662   0.00000  -0.00009   0.00007  -0.00002   1.88661
   A14        1.91625   0.00000  -0.00013   0.00011  -0.00001   1.91624
   A15        1.91582   0.00000  -0.00002   0.00003   0.00001   1.91583
   A16        1.86104  -0.00000   0.00005  -0.00003   0.00002   1.86106
   A17        1.96869  -0.00000   0.00010  -0.00008   0.00002   1.96871
   A18        1.90609   0.00000   0.00004   0.00002   0.00006   1.90615
   A19        1.90317  -0.00000  -0.00003  -0.00003  -0.00006   1.90311
   A20        1.91534  -0.00000  -0.00001   0.00002   0.00001   1.91535
   A21        1.91361   0.00000  -0.00010   0.00009  -0.00001   1.91361
   A22        1.85332  -0.00000  -0.00002  -0.00001  -0.00003   1.85330
   A23        1.93950   0.00001  -0.00003   0.00007   0.00004   1.93954
   A24        1.94119   0.00000   0.00001   0.00001   0.00003   1.94122
   A25        1.94573  -0.00000  -0.00000  -0.00001  -0.00001   1.94572
   A26        1.87557  -0.00000   0.00003  -0.00004  -0.00002   1.87555
   A27        1.87909  -0.00000  -0.00001  -0.00001  -0.00002   1.87907
   A28        1.87963  -0.00000   0.00000  -0.00002  -0.00002   1.87961
    D1       -1.15716   0.00001   0.00145   0.00054   0.00198  -1.15518
    D2        2.98417   0.00001   0.00113   0.00088   0.00201   2.98619
    D3        0.92700   0.00002   0.00143   0.00069   0.00212   0.92912
    D4        1.03014   0.00001   0.00091   0.00010   0.00101   1.03114
    D5       -0.98462   0.00001   0.00081   0.00004   0.00085  -0.98377
    D6        3.13903  -0.00000   0.00088  -0.00005   0.00083   3.13987
    D7        1.12428  -0.00000   0.00078  -0.00010   0.00068   1.12496
    D8       -1.06715   0.00000   0.00091  -0.00003   0.00088  -1.06627
    D9       -3.08190   0.00000   0.00081  -0.00008   0.00072  -3.08118
   D10       -1.04125   0.00000  -0.00002  -0.00000  -0.00003  -1.04128
   D11        3.10469  -0.00000  -0.00001  -0.00001  -0.00002   3.10467
   D12        1.09906   0.00000  -0.00012   0.00006  -0.00006   1.09900
   D13        3.06698   0.00001  -0.00012   0.00016   0.00004   3.06702
   D14        0.92974   0.00000  -0.00010   0.00015   0.00005   0.92979
   D15       -1.07590   0.00001  -0.00022   0.00022   0.00001  -1.07589
   D16        1.00980  -0.00000  -0.00022   0.00015  -0.00007   1.00972
   D17       -1.12745  -0.00000  -0.00021   0.00014  -0.00007  -1.12751
   D18       -3.13308  -0.00000  -0.00032   0.00021  -0.00011  -3.13319
   D19       -3.11951  -0.00000  -0.00005  -0.00002  -0.00007  -3.11958
   D20        1.02902  -0.00000  -0.00014  -0.00000  -0.00014   1.02888
   D21       -0.98914  -0.00000  -0.00013   0.00002  -0.00010  -0.98925
   D22       -1.00113  -0.00000   0.00012  -0.00015  -0.00003  -1.00117
   D23       -3.13579  -0.00000   0.00003  -0.00013  -0.00011  -3.13589
   D24        1.12923   0.00000   0.00004  -0.00011  -0.00007   1.12916
   D25        1.03928  -0.00000   0.00009  -0.00010  -0.00001   1.03927
   D26       -1.09537  -0.00000  -0.00000  -0.00008  -0.00009  -1.09546
   D27       -3.11354  -0.00000   0.00001  -0.00006  -0.00005  -3.11359
   D28       -1.04318  -0.00000   0.00056  -0.00025   0.00031  -1.04287
   D29        1.04560  -0.00000   0.00058  -0.00025   0.00033   1.04594
   D30       -3.13946  -0.00000   0.00059  -0.00028   0.00032  -3.13914
   D31        1.08627   0.00000   0.00068  -0.00027   0.00041   1.08668
   D32       -3.10813   0.00000   0.00070  -0.00027   0.00043  -3.10770
   D33       -1.01001   0.00000   0.00071  -0.00029   0.00042  -1.00960
   D34        3.11553   0.00000   0.00060  -0.00022   0.00038   3.11590
   D35       -1.07887   0.00000   0.00062  -0.00022   0.00040  -1.07847
   D36        1.01925   0.00000   0.00063  -0.00025   0.00039   1.01963
         Item               Value     Threshold  Converged?
 Maximum Force            0.000022     0.000450     YES
 RMS     Force            0.000006     0.000300     YES
 Maximum Displacement     0.002702     0.001800     NO 
 RMS     Displacement     0.000458     0.001200     YES
 Predicted change in Energy=-4.500200D-08
 Lowest energy point so far.  Saving SCF results.
 GradGradGradGradGradGradGradGradGradGradGradGradGradGradGradGradGradGrad

 Leave Link  103 at Wed Oct 22 13:13:10 2025, MaxMem=  4294967296 cpu:               0.1 elap:               0.0
 (Enter /lrz/sys/applications/gaussian/g16.C.01/x86_64_legacy/exe/l202.exe)
                          Input orientation:                          
 ---------------------------------------------------------------------
 Center     Atomic      Atomic             Coordinates (Angstroms)
 Number     Number       Type             X           Y           Z
 ---------------------------------------------------------------------
      1          8           0       -1.437327   -0.994001    0.264645
      2          6           0       -0.995220    0.358031    0.265879
      3          7           0       -1.862031    1.252544   -0.456874
      4          6           0        0.405045    0.374798   -0.324050
      5          6           0        1.421585   -0.466259    0.440660
      6          6           0        2.818032   -0.398665   -0.164194
      7          1           0       -2.261751   -1.031907    0.763833
      8          1           0       -0.952766    0.714655    1.311286
      9          1           0       -2.794843    1.224022   -0.045704
     10          1           0       -1.962769    0.909197   -1.413365
     11          1           0        0.741886    1.422772   -0.362991
     12          1           0        0.340999    0.023886   -1.370624
     13          1           0        1.078526   -1.512650    0.468761
     14          1           0        1.454796   -0.125027    1.489976
     15          1           0        2.817754   -0.759341   -1.205492
     16          1           0        3.199591    0.635109   -0.172434
     17          1           0        3.532913   -1.014587    0.402363
 ---------------------------------------------------------------------
                    Distance matrix (angstroms):
                    1          2          3          4          5
     1  O    0.000000
     2  C    1.422480   0.000000
     3  N    2.397484   1.440100   0.000000
     4  C    2.369495   1.519553   2.434690   0.000000
     5  C    2.912537   2.559483   3.813396   1.524963   0.000000
     6  C    4.318149   3.911323   4.971433   2.538957   1.523313
     7  H    0.964522   1.945247   2.620805   3.205326   3.740504
     8  H    2.061494   1.105377   2.059727   2.152551   2.791074
     9  H    2.618930   2.021303   1.019810   3.322340   4.568574
    10  H    2.591133   2.014893   1.021230   2.660590   4.096724
    11  H    3.314164   2.132297   2.611164   1.101466   2.162472
    12  H    2.621572   2.138990   2.682887   1.105694   2.165332
    13  H    2.576853   2.800184   4.141253   2.155130   1.101550
    14  H    3.258976   2.781068   4.085250   2.154644   1.103904
    15  H    4.508002   4.237007   5.148641   2.807913   2.178303
    16  H    4.934171   4.226740   5.107069   2.810735   2.179495
    17  H    4.972190   4.733572   5.914693   3.498803   2.181705
                    6          7          8          9         10
     6  C    0.000000
     7  H    5.202541   0.000000
     8  H    4.199457   2.250250   0.000000
     9  H    5.843930   2.455352   2.343954   0.000000
    10  H    5.111457   2.932143   2.912331   1.631551   0.000000
    11  H    2.769032   4.039433   2.485252   3.556491   2.946558
    12  H    2.787422   3.527735   3.056735   3.609605   2.468390
    13  H    2.160435   3.387570   3.129997   4.770433   4.319400
    14  H    2.160918   3.893898   2.556042   4.715684   4.602038
    15  H    1.101994   5.454715   4.766934   6.064659   5.067606
    16  H    1.101972   5.786346   4.410195   6.024626   5.316483
    17  H    1.100636   5.805954   4.892621   6.727008   6.099208
                   11         12         13         14         15
    11  H    0.000000
    12  H    1.770006   0.000000
    13  H    3.069502   2.507633   0.000000
    14  H    2.517421   3.073394   1.763507   0.000000
    15  H    3.127404   2.602889   2.528935   3.086350   0.000000
    16  H    2.587863   3.159241   3.085922   2.526998   1.776936
    17  H    3.783691   3.796080   2.505293   2.508543   1.778145
                   16         17
    16  H    0.000000
    17  H    1.778480   0.000000
 Stoichiometry    C4H11NO
 Framework group  C1[X(C4H11NO)]
 Deg. of freedom    45
 Full point group                 C1      NOp   1
 RotChk:  IX=0 Diff= 1.29D-04
 Largest Abelian subgroup         C1      NOp   1
 Largest concise Abelian subgroup C1      NOp   1
                         Standard orientation:                         
 ---------------------------------------------------------------------
 Center     Atomic      Atomic             Coordinates (Angstroms)
 Number     Number       Type             X           Y           Z
 ---------------------------------------------------------------------
      1          8           0        1.269642    1.258646   -0.311216
      2          6           0        1.088263   -0.004027    0.318234
      3          7           0        2.119426   -0.960309    0.008211
      4          6           0       -0.273763   -0.527486   -0.105934
      5          6           0       -1.442716    0.374489    0.275513
      6          6           0       -2.791227   -0.199560   -0.139781
      7          1           0        2.063688    1.659353    0.061916
      8          1           0        1.095224    0.143332    1.413722
      9          1           0        3.023204   -0.588246    0.299358
     10          1           0        2.170660   -1.069350   -1.005888
     11          1           0       -0.407927   -1.523021    0.345881
     12          1           0       -0.258427   -0.676600   -1.201420
     13          1           0       -1.301961    1.364875   -0.185723
     14          1           0       -1.429622    0.538713    1.367055
     15          1           0       -2.840442   -0.348902   -1.230498
     16          1           0       -2.972498   -1.176728    0.336271
     17          1           0       -3.618361    0.469069    0.143388
 ---------------------------------------------------------------------
 Rotational constants (GHZ):           7.5356696           1.7549880           1.5287525
 Leave Link  202 at Wed Oct 22 13:13:10 2025, MaxMem=  4294967296 cpu:               0.0 elap:               0.0
 (Enter /lrz/sys/applications/gaussian/g16.C.01/x86_64_legacy/exe/l301.exe)
 Standard basis: def2SVP (5D, 7F)
 Ernie: Thresh=  0.10000D-02 Tol=  0.10000D-05 Strict=F.
 There are   145 symmetry adapted cartesian basis functions of A   symmetry.
 There are   139 symmetry adapted basis functions of A   symmetry.
   139 basis functions,   227 primitive gaussians,   145 cartesian basis functions
    25 alpha electrons       25 beta electrons
       nuclear repulsion energy       257.0249143690 Hartrees.
 IExCor= 4639 DFT=T Ex+Corr=wB97XD ExCW=0 ScaHFX=  1.000000
 ScaDFX=  1.000000  1.000000  1.000000  1.000000 ScalE2=  1.000000  1.000000
 IRadAn=      5 IRanWt=     -1 IRanGd=            0 ICorTp=0 IEmpDi=121
 HFx  wShort=  0.000000 wLong=  0.200000 cFull=  0.222036 cShort=  0.000000 cLong=  0.777964
 DFx  wShort=  0.000000 wLong=  0.200000 cFull=  0.000000 cShort=  0.000000 cLong=  1.000000
 NAtoms=   17 NActive=   17 NUniq=   17 SFac= 1.00D+00 NAtFMM=   60 NAOKFM=F Big=F
 Integral buffers will be    131072 words long.
 Raffenetti 2 integral format.
 Two-electron integral symmetry is turned on.
 R6Disp:  Grimme-D2 Dispersion energy=       -0.0087324314 Hartrees.
 Nuclear repulsion after empirical dispersion term =      257.0161819376 Hartrees.
 ------------------------------------------------------------------------------
 Polarizable Continuum Model (PCM)
 =================================
 Model                : PCM.
 Atomic radii         : SMD-Coulomb.
 Polarization charges : Total charges.
 Charge compensation  : None.
 Solution method      : On-the-fly selection.
 Cavity type          : VdW (van der Waals Surface) (Alpha=1.000).
 Cavity algorithm     : GePol (No added spheres)
                        Default sphere list used, NSphG=   17.
                        Lebedev-Laikov grids with approx.  5.0 points / Ang**2.
                        Smoothing algorithm: York/Karplus (Gamma=1.0000).
                        Polarization charges: spherical gaussians, with
                                              point-specific exponents (IZeta= 3).
                        Self-potential: point-specific (ISelfS= 7).
                        Self-field    : sphere-specific E.n sum rule (ISelfD= 2).
 1st derivatives      : Analytical E(r).r(x)/FMM algorithm (CHGder, D1EAlg=3).
                        Cavity 1st derivative terms included.
 Solvent              : Water, Eps=  78.355300 Eps(inf)=   1.777849
 ------------------------------------------------------------------------------
 Spheres list:
 ISph  on   Nord     Re0    Alpha      Xe            Ye            Ze
    1   O      1    1.5200  1.000      1.269642      1.258646     -0.311216
    2   C      2    1.8500  1.000      1.088263     -0.004027      0.318234
    3   N      3    1.8900  1.000      2.119426     -0.960309      0.008211
    4   C      4    1.8500  1.000     -0.273763     -0.527486     -0.105934
    5   C      5    1.8500  1.000     -1.442716      0.374489      0.275513
    6   C      6    1.8500  1.000     -2.791227     -0.199560     -0.139781
    7   H      7    1.2000  1.000      2.063688      1.659353      0.061916
    8   H      8    1.2000  1.000      1.095224      0.143332      1.413722
    9   H      9    1.2000  1.000      3.023204     -0.588246      0.299358
   10   H     10    1.2000  1.000      2.170660     -1.069350     -1.005888
   11   H     11    1.2000  1.000     -0.407927     -1.523021      0.345881
   12   H     12    1.2000  1.000     -0.258427     -0.676600     -1.201420
   13   H     13    1.2000  1.000     -1.301961      1.364875     -0.185723
   14   H     14    1.2000  1.000     -1.429622      0.538713      1.367055
   15   H     15    1.2000  1.000     -2.840442     -0.348902     -1.230498
   16   H     16    1.2000  1.000     -2.972498     -1.176728      0.336271
   17   H     17    1.2000  1.000     -3.618361      0.469069      0.143388
 ------------------------------------------------------------------------------
 GePol: Number of generator spheres                  =      17
 GePol: Total number of spheres                      =      17
 GePol: Number of exposed spheres                    =      17 (100.00%)
 GePol: Number of points                             =    1196
 GePol: Average weight of points                     =       0.12
 GePol: Minimum weight of points                     =   0.47D-10
 GePol: Maximum weight of points                     =    0.21991
 GePol: Number of points with low weight             =      67
 GePol: Fraction of low-weight points (<1% of avg)   =       5.60%
 GePol: Cavity surface area                          =    138.434 Ang**2
 GePol: Cavity volume                                =    108.000 Ang**3
 ------------------------------------------------------------------------------
 Atomic radii for non-electrostatic terms: SMD-CDS.
 ------------------------------------------------------------------------------
 PCM non-electrostatic energy =         0.0032451669 Hartrees.
 Nuclear repulsion after PCM non-electrostatic terms =      257.0194271045 Hartrees.
 Leave Link  301 at Wed Oct 22 13:13:10 2025, MaxMem=  4294967296 cpu:               0.4 elap:               0.1
 (Enter /lrz/sys/applications/gaussian/g16.C.01/x86_64_legacy/exe/l302.exe)
 NPDir=0 NMtPBC=     1 NCelOv=     1 NCel=       1 NClECP=     1 NCelD=      1
         NCelK=      1 NCelE2=     1 NClLst=     1 CellRange=     0.0.
 One-electron integrals computed using PRISM.
 One-electron integral symmetry used in STVInt
   1 Symmetry operations used in ECPInt.
 ECPInt:  NShTT=    2415 NPrTT=    8239 LenC2=    2397 LenP2D=    6843.
 LDataN:  DoStor=T MaxTD1= 4 Len=   56
 NBasis=   139 RedAO= T EigKep=  1.39D-03  NBF=   139
 NBsUse=   139 1.00D-06 EigRej= -1.00D+00 NBFU=   139
 Precomputing XC quadrature grid using
 IXCGrd= 4 IRadAn=           5 IRanWt=          -1 IRanGd=           0 AccXCQ= 0.00D+00.
 Generated NRdTot=       0 NPtTot=           0 NUsed=           0 NTot=          32
 NSgBfM=   145   145   145   145   145 MxSgAt=    17 MxSgA2=    17.
 Leave Link  302 at Wed Oct 22 13:13:10 2025, MaxMem=  4294967296 cpu:               1.3 elap:               0.2
 (Enter /lrz/sys/applications/gaussian/g16.C.01/x86_64_legacy/exe/l303.exe)
 DipDrv:  MaxL=1.
 Leave Link  303 at Wed Oct 22 13:13:10 2025, MaxMem=  4294967296 cpu:               0.2 elap:               0.0
 (Enter /lrz/sys/applications/gaussian/g16.C.01/x86_64_legacy/exe/l401.exe)
 Initial guess from the checkpoint file:  "g16_C17-a_9.chk"
 B after Tr=     0.000000    0.000000   -0.000000
         Rot=    1.000000   -0.000061    0.000002   -0.000014 Ang=  -0.01 deg.
 Guess basis will be translated and rotated to current coordinates.
 JPrj=2 DoOrth=T DoCkMO=T.
 Leave Link  401 at Wed Oct 22 13:13:10 2025, MaxMem=  4294967296 cpu:               0.6 elap:               0.1
 (Enter /lrz/sys/applications/gaussian/g16.C.01/x86_64_legacy/exe/l502.exe)
 Integral symmetry usage will be decided dynamically.
 Closed shell SCF:
 Using DIIS extrapolation, IDIIS=  1040.
 NGot=  4294967296 LenX=  4294921924 LenY=  4294900458
 Requested convergence on RMS density matrix=1.00D-08 within 128 cycles.
 Requested convergence on MAX density matrix=1.00D-06.
 Requested convergence on             energy=1.00D-06.
 No special actions if energy rises.
 Fock matrices will be formed incrementally for  20 cycles.

 Cycle   1  Pass 1  IDiag  1:
 FoFJK:  IHMeth= 1 ICntrl=       0 DoSepK=T KAlg= 0 I1Cent=           0 FoldK=F
 IRaf=         1 NMat=       1 IRICut=       1 DoRegI=T DoRafI=F ISym2E= 0 IDoP0=0 IntGTp=1.
 FoFCou: FMM=F IPFlag=           0 FMFlag=      100000 FMFlg1=           0
         NFxFlg=           0 DoJE=T BraDBF=F KetDBF=F FulRan=T
         wScrn=  0.000000 ICntrl=       500 IOpCl=  0 I1Cent=           0 NGrid=           0
         NMat0=    1 NMatS0=      1 NMatT0=    0 NMatD0=    1 NMtDS0=    0 NMtDT0=    0
 Symmetry not used in FoFCou.
 Inv3:  Mode=1 IEnd=     4291248.
 Iteration    1 A*A^-1 deviation from unit magnitude is 6.44D-15 for    892.
 Iteration    1 A*A^-1 deviation from orthogonality  is 5.44D-15 for   1161    422.
 Iteration    1 A^-1*A deviation from unit magnitude is 6.88D-15 for    172.
 Iteration    1 A^-1*A deviation from orthogonality  is 4.24D-15 for    908    443.
 E= -288.744117740977    
 DIIS: error= 6.80D-05 at cycle   1 NSaved=   1.
 NSaved= 1 IEnMin= 1 EnMin= -288.744117740977     IErMin= 1 ErrMin= 6.80D-05
 ErrMax= 6.80D-05  0.00D+00 EMaxC= 1.00D-01 BMatC= 4.79D-07 BMatP= 4.79D-07
 IDIUse=1 WtCom= 1.00D+00 WtEn= 0.00D+00
 Coeff-Com:  0.100D+01
 Coeff:      0.100D+01
 Gap=     0.750 Goal=   None    Shift=    0.000
 RMSDP=8.07D-06 MaxDP=3.08D-04              OVMax= 2.31D-04

 Cycle   2  Pass 1  IDiag  1:
 RMSU=  8.07D-06    CP:  1.00D+00
 E= -288.744118355981     Delta-E=       -0.000000615004 Rises=F Damp=F
 DIIS: error= 9.09D-06 at cycle   2 NSaved=   2.
 NSaved= 2 IEnMin= 2 EnMin= -288.744118355981     IErMin= 2 ErrMin= 9.09D-06
 ErrMax= 9.09D-06  0.00D+00 EMaxC= 1.00D-01 BMatC= 1.43D-08 BMatP= 4.79D-07
 IDIUse=1 WtCom= 1.00D+00 WtEn= 0.00D+00
 Coeff-Com: -0.157D+00 0.116D+01
 Coeff:     -0.157D+00 0.116D+01
 Gap=     0.475 Goal=   None    Shift=    0.000
 RMSDP=1.86D-06 MaxDP=6.45D-05 DE=-6.15D-07 OVMax= 7.87D-05

 Cycle   3  Pass 1  IDiag  1:
 RMSU=  1.08D-06    CP:  1.00D+00  1.19D+00
 E= -288.744118384983     Delta-E=       -0.000000029002 Rises=F Damp=F
 DIIS: error= 2.02D-06 at cycle   3 NSaved=   3.
 NSaved= 3 IEnMin= 3 EnMin= -288.744118384983     IErMin= 3 ErrMin= 2.02D-06
 ErrMax= 2.02D-06  0.00D+00 EMaxC= 1.00D-01 BMatC= 8.05D-10 BMatP= 1.43D-08
 IDIUse=1 WtCom= 1.00D+00 WtEn= 0.00D+00
 Coeff-Com: -0.220D-01 0.105D+00 0.917D+00
 Coeff:     -0.220D-01 0.105D+00 0.917D+00
 Gap=     0.475 Goal=   None    Shift=    0.000
 RMSDP=3.94D-07 MaxDP=9.48D-06 DE=-2.90D-08 OVMax= 1.54D-05

 Cycle   4  Pass 1  IDiag  1:
 RMSU=  3.09D-07    CP:  1.00D+00  1.21D+00  1.18D+00
 E= -288.744118385934     Delta-E=       -0.000000000951 Rises=F Damp=F
 DIIS: error= 1.62D-06 at cycle   4 NSaved=   4.
 NSaved= 4 IEnMin= 4 EnMin= -288.744118385934     IErMin= 4 ErrMin= 1.62D-06
 ErrMax= 1.62D-06  0.00D+00 EMaxC= 1.00D-01 BMatC= 4.78D-10 BMatP= 8.05D-10
 IDIUse=1 WtCom= 1.00D+00 WtEn= 0.00D+00
 Coeff-Com:  0.118D-01-0.115D+00 0.449D+00 0.655D+00
 Coeff:      0.118D-01-0.115D+00 0.449D+00 0.655D+00
 Gap=     0.475 Goal=   None    Shift=    0.000
 RMSDP=1.79D-07 MaxDP=4.59D-06 DE=-9.51D-10 OVMax= 6.95D-06

 Cycle   5  Pass 1  IDiag  1:
 RMSU=  9.34D-08    CP:  1.00D+00  1.21D+00  1.29D+00  8.00D-01
 E= -288.744118386388     Delta-E=       -0.000000000455 Rises=F Damp=F
 DIIS: error= 2.04D-07 at cycle   5 NSaved=   5.
 NSaved= 5 IEnMin= 5 EnMin= -288.744118386388     IErMin= 5 ErrMin= 2.04D-07
 ErrMax= 2.04D-07  0.00D+00 EMaxC= 1.00D-01 BMatC= 9.47D-12 BMatP= 4.78D-10
 IDIUse=1 WtCom= 1.00D+00 WtEn= 0.00D+00
 Coeff-Com:  0.356D-02-0.291D-01 0.172D-02 0.926D-01 0.931D+00
 Coeff:      0.356D-02-0.291D-01 0.172D-02 0.926D-01 0.931D+00
 Gap=     0.475 Goal=   None    Shift=    0.000
 RMSDP=5.98D-08 MaxDP=1.75D-06 DE=-4.55D-10 OVMax= 2.55D-06

 Cycle   6  Pass 1  IDiag  1:
 RMSU=  2.45D-08    CP:  1.00D+00  1.22D+00  1.33D+00  8.83D-01  1.28D+00
 E= -288.744118386411     Delta-E=       -0.000000000022 Rises=F Damp=F
 DIIS: error= 7.75D-08 at cycle   6 NSaved=   6.
 NSaved= 6 IEnMin= 6 EnMin= -288.744118386411     IErMin= 6 ErrMin= 7.75D-08
 ErrMax= 7.75D-08  0.00D+00 EMaxC= 1.00D-01 BMatC= 1.33D-12 BMatP= 9.47D-12
 IDIUse=1 WtCom= 1.00D+00 WtEn= 0.00D+00
 Coeff-Com:  0.887D-04 0.127D-02-0.368D-01-0.302D-01 0.242D+00 0.823D+00
 Coeff:      0.887D-04 0.127D-02-0.368D-01-0.302D-01 0.242D+00 0.823D+00
 Gap=     0.475 Goal=   None    Shift=    0.000
 RMSDP=1.89D-08 MaxDP=5.90D-07 DE=-2.21D-11 OVMax= 7.53D-07

 Cycle   7  Pass 1  IDiag  1:
 RMSU=  9.05D-09    CP:  1.00D+00  1.22D+00  1.33D+00  9.03D-01  1.43D+00
                    CP:  9.89D-01
 E= -288.744118386411     Delta-E=       -0.000000000001 Rises=F Damp=F
 DIIS: error= 2.81D-08 at cycle   7 NSaved=   7.
 NSaved= 7 IEnMin= 7 EnMin= -288.744118386411     IErMin= 7 ErrMin= 2.81D-08
 ErrMax= 2.81D-08  0.00D+00 EMaxC= 1.00D-01 BMatC= 1.68D-13 BMatP= 1.33D-12
 IDIUse=1 WtCom= 1.00D+00 WtEn= 0.00D+00
 Coeff-Com: -0.421D-03 0.422D-02-0.778D-02-0.197D-01-0.758D-01 0.229D+00
 Coeff-Com:  0.871D+00
 Coeff:     -0.421D-03 0.422D-02-0.778D-02-0.197D-01-0.758D-01 0.229D+00
 Coeff:      0.871D+00
 Gap=     0.475 Goal=   None    Shift=    0.000
 RMSDP=6.66D-09 MaxDP=2.10D-07 DE=-7.96D-13 OVMax= 2.84D-07

 Error on total polarization charges =  0.03457
 SCF Done:  E(RwB97XD) =  -288.744118386     A.U. after    7 cycles
            NFock=  7  Conv=0.67D-08     -V/T= 2.0108
 KE= 2.856570456483D+02 PE=-1.186161877503D+03 EE= 3.547412863639D+02
 SMD-CDS (non-electrostatic) energy       (kcal/mol) =       2.04
 (included in total energy above)
 Leave Link  502 at Wed Oct 22 13:13:24 2025, MaxMem=  4294967296 cpu:             110.8 elap:              13.9
 (Enter /lrz/sys/applications/gaussian/g16.C.01/x86_64_legacy/exe/l701.exe)
 ... and contract with generalized density number  0.
 Compute integral first derivatives.
 R6Disp: Adding Grimme-D2 dispersion energy 1st derivatives to the gradient.
   1 Symmetry operations used in ECPInt.
 ECPInt:  NShTT=    2415 NPrTT=    8239 LenC2=    2397 LenP2D=    6843.
 LDataN:  DoStor=T MaxTD1= 5 Len=  102
 D1PCM: PCM CHGder 1st derivatives, ID1Alg=3 FixD1E=F DoIter=F DoCFld=F I1PDM=0.
 GePol: Maximum number of non-zero 1st derivatives   =     264
 Leave Link  701 at Wed Oct 22 13:13:25 2025, MaxMem=  4294967296 cpu:               4.8 elap:               0.6
 (Enter /lrz/sys/applications/gaussian/g16.C.01/x86_64_legacy/exe/l702.exe)
 L702 exits ... SP integral derivatives will be done elsewhere.
 Leave Link  702 at Wed Oct 22 13:13:25 2025, MaxMem=  4294967296 cpu:               0.1 elap:               0.0
 (Enter /lrz/sys/applications/gaussian/g16.C.01/x86_64_legacy/exe/l703.exe)
 Integral derivatives from FoFJK, PRISM(SPDF).
 Compute integral first derivatives, UseDBF=F ICtDFT=           0.
 Calling FoFJK, ICntrl=      2127 FMM=F ISym2X=0 I1Cent= 0 IOpClX= 0 NMat=1 NMatS=1 NMatT=0.
 FoFJK:  IHMeth= 1 ICntrl=    2127 DoSepK=T KAlg= 0 I1Cent=           0 FoldK=F
 IRaf=         1 NMat=       1 IRICut=       1 DoRegI=T DoRafI=F ISym2E= 0 IDoP0=0 IntGTp=1.
 FoFCou: FMM=F IPFlag=           0 FMFlag=      100000 FMFlg1=         800
         NFxFlg=           0 DoJE=F BraDBF=F KetDBF=F FulRan=T
         wScrn=  0.000000 ICntrl=      2527 IOpCl=  0 I1Cent=           0 NGrid=           0
         NMat0=    1 NMatS0=      1 NMatT0=    0 NMatD0=    1 NMtDS0=    0 NMtDT0=    0
 Symmetry not used in FoFCou.
 Leave Link  703 at Wed Oct 22 13:13:28 2025, MaxMem=  4294967296 cpu:              25.1 elap:               3.2
 (Enter /lrz/sys/applications/gaussian/g16.C.01/x86_64_legacy/exe/l716.exe)
 Dipole        = 7.64326986D-01 2.35518810D-01 2.46122303D-01
 ***** Axes restored to original set *****
 -------------------------------------------------------------------
 Center     Atomic                   Forces (Hartrees/Bohr)
 Number     Number              X              Y              Z
 -------------------------------------------------------------------
      1        8          -0.000002234   -0.000024874    0.000022947
      2        6           0.000019134    0.000026917   -0.000007909
      3        7          -0.000004216   -0.000002952    0.000009985
      4        6           0.000006401   -0.000011534    0.000000066
      5        6           0.000009329    0.000008033   -0.000008943
      6        6          -0.000011680   -0.000002531    0.000000806
      7        1          -0.000009353    0.000002758   -0.000001943
      8        1           0.000002784   -0.000002129   -0.000001357
      9        1          -0.000007521   -0.000000041   -0.000002178
     10        1          -0.000002989   -0.000004234    0.000000248
     11        1          -0.000001088    0.000000433   -0.000005215
     12        1          -0.000000577    0.000003424    0.000003545
     13        1           0.000000985    0.000002910    0.000003571
     14        1           0.000003245    0.000001392   -0.000003133
     15        1          -0.000001015   -0.000001234    0.000001533
     16        1          -0.000000946   -0.000001726   -0.000008233
     17        1          -0.000000260    0.000005386   -0.000003791
 -------------------------------------------------------------------
 Cartesian Forces:  Max     0.000026917 RMS     0.000008162
 Leave Link  716 at Wed Oct 22 13:13:28 2025, MaxMem=  4294967296 cpu:               0.1 elap:               0.0
 (Enter /lrz/sys/applications/gaussian/g16.C.01/x86_64_legacy/exe/l103.exe)

 GradGradGradGradGradGradGradGradGradGradGradGradGradGradGradGradGradGrad
 Berny optimization.
 Using GEDIIS/GDIIS optimizer.
 FormGI is forming the generalized inverse of G from B-inverse, IUseBI=4.
 Internal  Forces:  Max     0.000026426 RMS     0.000004556
 Search for a local minimum.
 Step number   8 out of a maximum of   90
 All quantities printed in internal units (Hartrees-Bohrs-Radians)
 RMS Force = .45561D-05 SwitMx=.10000D-02 MixMth= 2
 Mixed Optimization -- En-DIIS/RFO-DIIS
 Swapping is turned off.
 Update second derivatives using D2CorX and points    1    2    3    4    5
                                                      6    7    8
 DE= -8.55D-08 DEPred=-4.50D-08 R= 1.90D+00
 Trust test= 1.90D+00 RLast= 4.26D-03 DXMaxT set to 5.05D-01
 ITU=  0  0  1  1  1  1  1  0
     Eigenvalues ---    0.00215   0.00344   0.00427   0.00502   0.01031
     Eigenvalues ---    0.03419   0.03569   0.04137   0.04842   0.04883
     Eigenvalues ---    0.05513   0.05560   0.05742   0.06046   0.08033
     Eigenvalues ---    0.08428   0.08726   0.12237   0.12561   0.15661
     Eigenvalues ---    0.16000   0.16003   0.16231   0.16502   0.16810
     Eigenvalues ---    0.17800   0.21592   0.21991   0.23394   0.29807
     Eigenvalues ---    0.30083   0.31564   0.33803   0.34647   0.34790
     Eigenvalues ---    0.34867   0.34984   0.35094   0.35150   0.37518
     Eigenvalues ---    0.42341   0.45018   0.45407   0.45745   0.54596
 En-DIIS/RFO-DIIS/Sim-DIIS IScMMF=       -3 using points:     8    7    6    5    4    3    2
 RFO step:  Lambda=-4.25226925D-08.
 NNeg= 0 NGDIIS= 7 SimSw=  2.50D-01 Rises=F DC= -8.55D-08 SmlDif=  1.00D-05
 NRisDI= 0 DoIntr=F SqrtH=F CThrHd= 10.0 CDAdj=  3.0
 RMS Error=  0.3333230157D-03 NUsed= 7 OKEnD=F EnDIS=F
 InvSVX:  RCond= 1.59D-08 Info=           0 Equed=N FErr=  1.08D-12 BErr=  5.06D-17
 DIIS inversion failure, remove point   7.
 InvSVX:  RCond= 2.18D-08 Info=           0 Equed=N FErr=  7.47D-13 BErr=  1.07D-16
 DIIS inversion failure, remove point   6.
 InvSVX:  RCond= 1.24D-07 Info=           0 Equed=N FErr=  8.64D-14 BErr=  8.17D-17
 RFO-DIIS uses    5 points instead of    7
 DidBck=F Rises=F RFO-DIIS coefs:    1.86874   -0.96428    0.04429    0.05549   -0.00424
                  RFO-DIIS coefs:    0.00000    0.00000
 Iteration  1 RMS(Cart)=  0.00037907 RMS(Int)=  0.00000029
 Iteration  2 RMS(Cart)=  0.00000029 RMS(Int)=  0.00000001
 ITry= 1 IFail=0 DXMaxC= 2.31D-03 DCOld= 1.00D+10 DXMaxT= 5.05D-01 DXLimC= 3.00D+00 Rises=F
 Variable       Old X    -DE/DX   Delta X   Delta X   Delta X     New X
                                 (Linear)    (Quad)   (Total)
    R1        2.68810   0.00003   0.00005   0.00004   0.00009   2.68819
    R2        1.82268   0.00000   0.00001   0.00001   0.00002   1.82270
    R3        2.72139   0.00000  -0.00011   0.00006  -0.00005   2.72134
    R4        2.87154   0.00001  -0.00007   0.00010   0.00003   2.87157
    R5        2.08886  -0.00000   0.00003  -0.00003   0.00000   2.08886
    R6        1.92716   0.00000   0.00001   0.00000   0.00001   1.92717
    R7        1.92984   0.00000   0.00003  -0.00003   0.00000   1.92985
    R8        2.88176  -0.00001  -0.00003   0.00001  -0.00002   2.88175
    R9        2.08147   0.00000   0.00001  -0.00001   0.00001   2.08148
   R10        2.08946  -0.00001   0.00003  -0.00004  -0.00001   2.08945
   R11        2.87864  -0.00001  -0.00005  -0.00000  -0.00005   2.87859
   R12        2.08163  -0.00000   0.00001  -0.00001   0.00000   2.08163
   R13        2.08608  -0.00000   0.00003  -0.00002   0.00000   2.08608
   R14        2.08247  -0.00000   0.00002  -0.00002  -0.00000   2.08246
   R15        2.08243  -0.00000   0.00001  -0.00001   0.00000   2.08243
   R16        2.07990  -0.00000   0.00001  -0.00001  -0.00000   2.07990
    A1        1.87818   0.00000  -0.00006   0.00005  -0.00001   1.87817
    A2        1.98545  -0.00001  -0.00001  -0.00000  -0.00001   1.98544
    A3        1.87188   0.00001  -0.00013   0.00015   0.00001   1.87189
    A4        1.89590  -0.00000   0.00002  -0.00008  -0.00006   1.89584
    A5        1.93153   0.00000   0.00003   0.00005   0.00008   1.93161
    A6        1.87273   0.00000   0.00010  -0.00012  -0.00002   1.87271
    A7        1.90521   0.00000  -0.00000   0.00000  -0.00000   1.90520
    A8        1.90799   0.00001  -0.00001   0.00012   0.00011   1.90810
    A9        1.89716  -0.00000   0.00009  -0.00005   0.00004   1.89720
   A10        1.85250  -0.00000  -0.00004   0.00006   0.00002   1.85251
   A11        1.99710   0.00001  -0.00001   0.00004   0.00003   1.99713
   A12        1.88181  -0.00000   0.00005  -0.00003   0.00002   1.88184
   A13        1.88661  -0.00000   0.00000  -0.00002  -0.00002   1.88659
   A14        1.91624  -0.00000  -0.00002  -0.00000  -0.00003   1.91622
   A15        1.91583  -0.00000   0.00003  -0.00002   0.00002   1.91584
   A16        1.86106  -0.00000  -0.00006   0.00003  -0.00003   1.86103
   A17        1.96871  -0.00000   0.00003  -0.00002   0.00001   1.96872
   A18        1.90615   0.00000   0.00007  -0.00005   0.00002   1.90616
   A19        1.90311   0.00000  -0.00006   0.00005  -0.00001   1.90311
   A20        1.91535   0.00000   0.00002  -0.00002   0.00000   1.91535
   A21        1.91361   0.00000   0.00001  -0.00001   0.00000   1.91361
   A22        1.85330  -0.00000  -0.00008   0.00006  -0.00002   1.85327
   A23        1.93954   0.00000   0.00006  -0.00005   0.00001   1.93955
   A24        1.94122   0.00000   0.00005  -0.00004   0.00002   1.94124
   A25        1.94572   0.00000  -0.00000   0.00001   0.00001   1.94573
   A26        1.87555  -0.00000  -0.00005   0.00003  -0.00002   1.87553
   A27        1.87907  -0.00000  -0.00004   0.00003  -0.00001   1.87906
   A28        1.87961  -0.00000  -0.00004   0.00003  -0.00001   1.87960
    D1       -1.15518   0.00001   0.00144   0.00039   0.00182  -1.15335
    D2        2.98619   0.00001   0.00151   0.00022   0.00173   2.98791
    D3        0.92912   0.00001   0.00157   0.00018   0.00175   0.93087
    D4        1.03114  -0.00001   0.00043  -0.00023   0.00021   1.03135
    D5       -0.98377  -0.00001   0.00044  -0.00033   0.00011  -0.98365
    D6        3.13987   0.00000   0.00027  -0.00000   0.00027   3.14014
    D7        1.12496   0.00000   0.00028  -0.00010   0.00017   1.12513
    D8       -1.06627   0.00000   0.00034  -0.00004   0.00030  -1.06597
    D9       -3.08118   0.00000   0.00035  -0.00014   0.00021  -3.08097
   D10       -1.04128  -0.00000  -0.00002   0.00011   0.00008  -1.04119
   D11        3.10467  -0.00000  -0.00003   0.00011   0.00008   3.10475
   D12        1.09900   0.00000   0.00002   0.00010   0.00011   1.09911
   D13        3.06702   0.00000   0.00006  -0.00002   0.00004   3.06707
   D14        0.92979   0.00000   0.00006  -0.00002   0.00004   0.92983
   D15       -1.07589   0.00000   0.00011  -0.00003   0.00007  -1.07582
   D16        1.00972  -0.00000  -0.00007   0.00009   0.00002   1.00974
   D17       -1.12751  -0.00000  -0.00008   0.00009   0.00001  -1.12750
   D18       -3.13319   0.00000  -0.00003   0.00008   0.00005  -3.13314
   D19       -3.11958  -0.00000  -0.00035   0.00003  -0.00032  -3.11990
   D20        1.02888  -0.00000  -0.00045   0.00011  -0.00034   1.02854
   D21       -0.98925  -0.00000  -0.00036   0.00004  -0.00032  -0.98957
   D22       -1.00117  -0.00000  -0.00031   0.00002  -0.00029  -1.00146
   D23       -3.13589   0.00000  -0.00041   0.00010  -0.00031  -3.13620
   D24        1.12916   0.00000  -0.00032   0.00003  -0.00029   1.12887
   D25        1.03927  -0.00000  -0.00038   0.00005  -0.00033   1.03894
   D26       -1.09546  -0.00000  -0.00048   0.00012  -0.00035  -1.09581
   D27       -3.11359  -0.00000  -0.00039   0.00006  -0.00033  -3.11392
   D28       -1.04287  -0.00000   0.00006  -0.00015  -0.00009  -1.04296
   D29        1.04594  -0.00000   0.00008  -0.00017  -0.00010   1.04584
   D30       -3.13914  -0.00000   0.00006  -0.00016  -0.00009  -3.13924
   D31        1.08668  -0.00000   0.00018  -0.00024  -0.00006   1.08662
   D32       -3.10770  -0.00000   0.00020  -0.00027  -0.00007  -3.10777
   D33       -1.00960  -0.00000   0.00019  -0.00025  -0.00006  -1.00966
   D34        3.11590  -0.00000   0.00011  -0.00019  -0.00009   3.11582
   D35       -1.07847  -0.00000   0.00012  -0.00022  -0.00009  -1.07857
   D36        1.01963  -0.00000   0.00011  -0.00020  -0.00009   1.01954
         Item               Value     Threshold  Converged?
 Maximum Force            0.000026     0.000450     YES
 RMS     Force            0.000005     0.000300     YES
 Maximum Displacement     0.002313     0.001800     NO 
 RMS     Displacement     0.000379     0.001200     YES
 Predicted change in Energy=-2.038278D-08
 Lowest energy point so far.  Saving SCF results.
 GradGradGradGradGradGradGradGradGradGradGradGradGradGradGradGradGradGrad

 Leave Link  103 at Wed Oct 22 13:13:28 2025, MaxMem=  4294967296 cpu:               0.1 elap:               0.0
 (Enter /lrz/sys/applications/gaussian/g16.C.01/x86_64_legacy/exe/l202.exe)
                          Input orientation:                          
 ---------------------------------------------------------------------
 Center     Atomic      Atomic             Coordinates (Angstroms)
 Number     Number       Type             X           Y           Z
 ---------------------------------------------------------------------
      1          8           0       -1.437178   -0.994113    0.264781
      2          6           0       -0.995175    0.358003    0.265962
      3          7           0       -1.862098    1.252394   -0.456755
      4          6           0        0.405129    0.374879   -0.323913
      5          6           0        1.421718   -0.466118    0.440781
      6          6           0        2.818054   -0.398751   -0.164288
      7          1           0       -2.262445   -1.031792    0.762609
      8          1           0       -0.952790    0.714618    1.311377
      9          1           0       -2.794874    1.224012   -0.045481
     10          1           0       -1.962963    0.908980   -1.413209
     11          1           0        0.741925    1.422872   -0.362823
     12          1           0        0.341125    0.024022   -1.370504
     13          1           0        1.078586   -1.512479    0.469148
     14          1           0        1.455117   -0.124696    1.490030
     15          1           0        2.817615   -0.759697   -1.205492
     16          1           0        3.199675    0.634998   -0.172868
     17          1           0        3.532997   -1.014554    0.402319
 ---------------------------------------------------------------------
                    Distance matrix (angstroms):
                    1          2          3          4          5
     1  O    0.000000
     2  C    1.422527   0.000000
     3  N    2.397491   1.440073   0.000000
     4  C    2.369555   1.519569   2.434749   0.000000
     5  C    2.912566   2.559514   3.813438   1.524954   0.000000
     6  C    4.318050   3.911331   4.971483   2.538935   1.523286
     7  H    0.964530   1.945291   2.620044   3.205496   3.741205
     8  H    2.061493   1.105379   2.059693   2.152566   2.791123
     9  H    2.619099   2.021357   1.019815   3.322435   4.568659
    10  H    2.591112   2.014896   1.021230   2.660769   4.096858
    11  H    3.314241   2.132331   2.611288   1.101470   2.162448
    12  H    2.621663   2.138986   2.682914   1.105690   2.165334
    13  H    2.576730   2.800084   4.141189   2.155135   1.101551
    14  H    3.259215   2.781235   4.085372   2.154631   1.103905
    15  H    4.507762   4.236957   5.148673   2.807941   2.178287
    16  H    4.934161   4.226827   5.107183   2.810687   2.179485
    17  H    4.972119   4.733587   5.914737   3.498784   2.181687
                    6          7          8          9         10
     6  C    0.000000
     7  H    5.203013   0.000000
     8  H    4.199577   2.250841   0.000000
     9  H    5.844009   2.454617   2.343889   0.000000
    10  H    5.111565   2.930951   2.912318   1.631564   0.000000
    11  H    2.769122   4.039581   2.485283   3.556571   2.946832
    12  H    2.787270   3.527533   3.056735   3.609731   2.468562
    13  H    2.160412   3.388166   3.129824   4.770422   4.319463
    14  H    2.160896   3.895154   2.556244   4.715848   4.602233
    15  H    1.101993   5.454766   4.766990   6.064715   5.067698
    16  H    1.101973   5.786887   4.410475   6.024764   5.316610
    17  H    1.100636   5.806655   4.892720   6.727083   6.099320
                   11         12         13         14         15
    11  H    0.000000
    12  H    1.769984   0.000000
    13  H    3.069495   2.507789   0.000000
    14  H    2.517275   3.073393   1.763495   0.000000
    15  H    3.127649   2.602777   2.528898   3.086335   0.000000
    16  H    2.587927   3.158944   3.085913   2.527024   1.776923
    17  H    3.783724   3.795996   2.505300   2.508495   1.778139
                   16         17
    16  H    0.000000
    17  H    1.778472   0.000000
 Stoichiometry    C4H11NO
 Framework group  C1[X(C4H11NO)]
 Deg. of freedom    45
 Full point group                 C1      NOp   1
 RotChk:  IX=0 Diff= 1.25D-04
 Largest Abelian subgroup         C1      NOp   1
 Largest concise Abelian subgroup C1      NOp   1
                         Standard orientation:                         
 ---------------------------------------------------------------------
 Center     Atomic      Atomic             Coordinates (Angstroms)
 Number     Number       Type             X           Y           Z
 ---------------------------------------------------------------------
      1          8           0        1.269555    1.258726   -0.311083
      2          6           0        1.088260   -0.004072    0.318246
      3          7           0        2.119477   -0.960218    0.008107
      4          6           0       -0.273804   -0.527532   -0.105856
      5          6           0       -1.442763    0.374380    0.275689
      6          6           0       -2.791224   -0.199470   -0.139943
      7          1           0        2.064510    1.658717    0.060902
      8          1           0        1.095299    0.143220    1.413746
      9          1           0        3.023258   -0.588291    0.299437
     10          1           0        2.170813   -1.069080   -1.006006
     11          1           0       -0.407949   -1.523095    0.345911
     12          1           0       -0.258512   -0.676620   -1.201342
     13          1           0       -1.301908    1.364904   -0.185218
     14          1           0       -1.429804    0.538284    1.367281
     15          1           0       -2.840346   -0.348414   -1.230718
     16          1           0       -2.972583   -1.176813    0.335718
     17          1           0       -3.618375    0.469068    0.143389
 ---------------------------------------------------------------------
 Rotational constants (GHZ):           7.5359056           1.7549425           1.5287380
 Leave Link  202 at Wed Oct 22 13:13:28 2025, MaxMem=  4294967296 cpu:               0.0 elap:               0.0
 (Enter /lrz/sys/applications/gaussian/g16.C.01/x86_64_legacy/exe/l301.exe)
 Standard basis: def2SVP (5D, 7F)
 Ernie: Thresh=  0.10000D-02 Tol=  0.10000D-05 Strict=F.
 There are   145 symmetry adapted cartesian basis functions of A   symmetry.
 There are   139 symmetry adapted basis functions of A   symmetry.
   139 basis functions,   227 primitive gaussians,   145 cartesian basis functions
    25 alpha electrons       25 beta electrons
       nuclear repulsion energy       257.0236990735 Hartrees.
 IExCor= 4639 DFT=T Ex+Corr=wB97XD ExCW=0 ScaHFX=  1.000000
 ScaDFX=  1.000000  1.000000  1.000000  1.000000 ScalE2=  1.000000  1.000000
 IRadAn=      5 IRanWt=     -1 IRanGd=            0 ICorTp=0 IEmpDi=121
 HFx  wShort=  0.000000 wLong=  0.200000 cFull=  0.222036 cShort=  0.000000 cLong=  0.777964
 DFx  wShort=  0.000000 wLong=  0.200000 cFull=  0.000000 cShort=  0.000000 cLong=  1.000000
 NAtoms=   17 NActive=   17 NUniq=   17 SFac= 1.00D+00 NAtFMM=   60 NAOKFM=F Big=F
 Integral buffers will be    131072 words long.
 Raffenetti 2 integral format.
 Two-electron integral symmetry is turned on.
 R6Disp:  Grimme-D2 Dispersion energy=       -0.0087324015 Hartrees.
 Nuclear repulsion after empirical dispersion term =      257.0149666721 Hartrees.
 ------------------------------------------------------------------------------
 Polarizable Continuum Model (PCM)
 =================================
 Model                : PCM.
 Atomic radii         : SMD-Coulomb.
 Polarization charges : Total charges.
 Charge compensation  : None.
 Solution method      : On-the-fly selection.
 Cavity type          : VdW (van der Waals Surface) (Alpha=1.000).
 Cavity algorithm     : GePol (No added spheres)
                        Default sphere list used, NSphG=   17.
                        Lebedev-Laikov grids with approx.  5.0 points / Ang**2.
                        Smoothing algorithm: York/Karplus (Gamma=1.0000).
                        Polarization charges: spherical gaussians, with
                                              point-specific exponents (IZeta= 3).
                        Self-potential: point-specific (ISelfS= 7).
                        Self-field    : sphere-specific E.n sum rule (ISelfD= 2).
 1st derivatives      : Analytical E(r).r(x)/FMM algorithm (CHGder, D1EAlg=3).
                        Cavity 1st derivative terms included.
 Solvent              : Water, Eps=  78.355300 Eps(inf)=   1.777849
 ------------------------------------------------------------------------------
 Spheres list:
 ISph  on   Nord     Re0    Alpha      Xe            Ye            Ze
    1   O      1    1.5200  1.000      1.269555      1.258726     -0.311083
    2   C      2    1.8500  1.000      1.088260     -0.004072      0.318246
    3   N      3    1.8900  1.000      2.119477     -0.960218      0.008107
    4   C      4    1.8500  1.000     -0.273804     -0.527532     -0.105856
    5   C      5    1.8500  1.000     -1.442763      0.374380      0.275689
    6   C      6    1.8500  1.000     -2.791224     -0.199470     -0.139943
    7   H      7    1.2000  1.000      2.064510      1.658717      0.060902
    8   H      8    1.2000  1.000      1.095299      0.143220      1.413746
    9   H      9    1.2000  1.000      3.023258     -0.588291      0.299437
   10   H     10    1.2000  1.000      2.170813     -1.069080     -1.006006
   11   H     11    1.2000  1.000     -0.407949     -1.523095      0.345911
   12   H     12    1.2000  1.000     -0.258512     -0.676620     -1.201342
   13   H     13    1.2000  1.000     -1.301908      1.364904     -0.185218
   14   H     14    1.2000  1.000     -1.429804      0.538284      1.367281
   15   H     15    1.2000  1.000     -2.840346     -0.348414     -1.230718
   16   H     16    1.2000  1.000     -2.972583     -1.176813      0.335718
   17   H     17    1.2000  1.000     -3.618375      0.469068      0.143389
 ------------------------------------------------------------------------------
 GePol: Number of generator spheres                  =      17
 GePol: Total number of spheres                      =      17
 GePol: Number of exposed spheres                    =      17 (100.00%)
 GePol: Number of points                             =    1196
 GePol: Average weight of points                     =       0.12
 GePol: Minimum weight of points                     =   0.43D-10
 GePol: Maximum weight of points                     =    0.21991
 GePol: Number of points with low weight             =      66
 GePol: Fraction of low-weight points (<1% of avg)   =       5.52%
 GePol: Cavity surface area                          =    138.434 Ang**2
 GePol: Cavity volume                                =    108.001 Ang**3
 ------------------------------------------------------------------------------
 Atomic radii for non-electrostatic terms: SMD-CDS.
 ------------------------------------------------------------------------------
 PCM non-electrostatic energy =         0.0032453260 Hartrees.
 Nuclear repulsion after PCM non-electrostatic terms =      257.0182119981 Hartrees.
 Leave Link  301 at Wed Oct 22 13:13:28 2025, MaxMem=  4294967296 cpu:               0.4 elap:               0.1
 (Enter /lrz/sys/applications/gaussian/g16.C.01/x86_64_legacy/exe/l302.exe)
 NPDir=0 NMtPBC=     1 NCelOv=     1 NCel=       1 NClECP=     1 NCelD=      1
         NCelK=      1 NCelE2=     1 NClLst=     1 CellRange=     0.0.
 One-electron integrals computed using PRISM.
 One-electron integral symmetry used in STVInt
   1 Symmetry operations used in ECPInt.
 ECPInt:  NShTT=    2415 NPrTT=    8239 LenC2=    2397 LenP2D=    6843.
 LDataN:  DoStor=T MaxTD1= 4 Len=   56
 NBasis=   139 RedAO= T EigKep=  1.39D-03  NBF=   139
 NBsUse=   139 1.00D-06 EigRej= -1.00D+00 NBFU=   139
 Precomputing XC quadrature grid using
 IXCGrd= 4 IRadAn=           5 IRanWt=          -1 IRanGd=           0 AccXCQ= 0.00D+00.
 Generated NRdTot=       0 NPtTot=           0 NUsed=           0 NTot=          32
 NSgBfM=   145   145   145   145   145 MxSgAt=    17 MxSgA2=    17.
 Leave Link  302 at Wed Oct 22 13:13:28 2025, MaxMem=  4294967296 cpu:               1.3 elap:               0.2
 (Enter /lrz/sys/applications/gaussian/g16.C.01/x86_64_legacy/exe/l303.exe)
 DipDrv:  MaxL=1.
 Leave Link  303 at Wed Oct 22 13:13:28 2025, MaxMem=  4294967296 cpu:               0.2 elap:               0.0
 (Enter /lrz/sys/applications/gaussian/g16.C.01/x86_64_legacy/exe/l401.exe)
 Initial guess from the checkpoint file:  "g16_C17-a_9.chk"
 B after Tr=    -0.000000   -0.000000    0.000000
         Rot=    1.000000   -0.000051    0.000001    0.000001 Ang=  -0.01 deg.
 Guess basis will be translated and rotated to current coordinates.
 JPrj=2 DoOrth=T DoCkMO=T.
 Leave Link  401 at Wed Oct 22 13:13:28 2025, MaxMem=  4294967296 cpu:               0.6 elap:               0.1
 (Enter /lrz/sys/applications/gaussian/g16.C.01/x86_64_legacy/exe/l502.exe)
 Integral symmetry usage will be decided dynamically.
 Closed shell SCF:
 Using DIIS extrapolation, IDIIS=  1040.
 NGot=  4294967296 LenX=  4294921924 LenY=  4294900458
 Requested convergence on RMS density matrix=1.00D-08 within 128 cycles.
 Requested convergence on MAX density matrix=1.00D-06.
 Requested convergence on             energy=1.00D-06.
 No special actions if energy rises.
 Fock matrices will be formed incrementally for  20 cycles.

 Cycle   1  Pass 1  IDiag  1:
 FoFJK:  IHMeth= 1 ICntrl=       0 DoSepK=T KAlg= 0 I1Cent=           0 FoldK=F
 IRaf=         1 NMat=       1 IRICut=       1 DoRegI=T DoRafI=F ISym2E= 0 IDoP0=0 IntGTp=1.
 FoFCou: FMM=F IPFlag=           0 FMFlag=      100000 FMFlg1=           0
         NFxFlg=           0 DoJE=T BraDBF=F KetDBF=F FulRan=T
         wScrn=  0.000000 ICntrl=       500 IOpCl=  0 I1Cent=           0 NGrid=           0
         NMat0=    1 NMatS0=      1 NMatT0=    0 NMatD0=    1 NMtDS0=    0 NMtDT0=    0
 Symmetry not used in FoFCou.
 Inv3:  Mode=1 IEnd=     4291248.
 Iteration    1 A*A^-1 deviation from unit magnitude is 6.00D-15 for     38.
 Iteration    1 A*A^-1 deviation from orthogonality  is 4.18D-15 for    872    458.
 Iteration    1 A^-1*A deviation from unit magnitude is 6.55D-15 for    799.
 Iteration    1 A^-1*A deviation from orthogonality  is 2.46D-15 for    870    530.
 E= -288.744117984486    
 DIIS: error= 6.48D-05 at cycle   1 NSaved=   1.
 NSaved= 1 IEnMin= 1 EnMin= -288.744117984486     IErMin= 1 ErrMin= 6.48D-05
 ErrMax= 6.48D-05  0.00D+00 EMaxC= 1.00D-01 BMatC= 3.26D-07 BMatP= 3.26D-07
 IDIUse=1 WtCom= 1.00D+00 WtEn= 0.00D+00
 Coeff-Com:  0.100D+01
 Coeff:      0.100D+01
 Gap=     0.750 Goal=   None    Shift=    0.000
 RMSDP=6.72D-06 MaxDP=2.75D-04              OVMax= 1.99D-04

 Cycle   2  Pass 1  IDiag  1:
 RMSU=  6.72D-06    CP:  1.00D+00
 E= -288.744118398120     Delta-E=       -0.000000413634 Rises=F Damp=F
 DIIS: error= 8.45D-06 at cycle   2 NSaved=   2.
 NSaved= 2 IEnMin= 2 EnMin= -288.744118398120     IErMin= 2 ErrMin= 8.45D-06
 ErrMax= 8.45D-06  0.00D+00 EMaxC= 1.00D-01 BMatC= 9.61D-09 BMatP= 3.26D-07
 IDIUse=1 WtCom= 1.00D+00 WtEn= 0.00D+00
 Coeff-Com: -0.154D+00 0.115D+01
 Coeff:     -0.154D+00 0.115D+01
 Gap=     0.475 Goal=   None    Shift=    0.000
 RMSDP=1.48D-06 MaxDP=5.68D-05 DE=-4.14D-07 OVMax= 6.71D-05

 Cycle   3  Pass 1  IDiag  1:
 RMSU=  8.95D-07    CP:  1.00D+00  1.18D+00
 E= -288.744118417047     Delta-E=       -0.000000018927 Rises=F Damp=F
 DIIS: error= 1.39D-06 at cycle   3 NSaved=   3.
 NSaved= 3 IEnMin= 3 EnMin= -288.744118417047     IErMin= 3 ErrMin= 1.39D-06
 ErrMax= 1.39D-06  0.00D+00 EMaxC= 1.00D-01 BMatC= 5.38D-10 BMatP= 9.61D-09
 IDIUse=1 WtCom= 1.00D+00 WtEn= 0.00D+00
 Coeff-Com: -0.216D-01 0.105D+00 0.916D+00
 Coeff:     -0.216D-01 0.105D+00 0.916D+00
 Gap=     0.475 Goal=   None    Shift=    0.000
 RMSDP=3.22D-07 MaxDP=9.48D-06 DE=-1.89D-08 OVMax= 1.35D-05

 Cycle   4  Pass 1  IDiag  1:
 RMSU=  2.51D-07    CP:  1.00D+00  1.19D+00  1.19D+00
 E= -288.744118417673     Delta-E=       -0.000000000625 Rises=F Damp=F
 DIIS: error= 1.40D-06 at cycle   4 NSaved=   4.
 NSaved= 4 IEnMin= 4 EnMin= -288.744118417673     IErMin= 3 ErrMin= 1.39D-06
 ErrMax= 1.40D-06  0.00D+00 EMaxC= 1.00D-01 BMatC= 3.27D-10 BMatP= 5.38D-10
 IDIUse=1 WtCom= 1.00D+00 WtEn= 0.00D+00
 Coeff-Com:  0.114D-01-0.112D+00 0.451D+00 0.649D+00
 Coeff:      0.114D-01-0.112D+00 0.451D+00 0.649D+00
 Gap=     0.475 Goal=   None    Shift=    0.000
 RMSDP=1.40D-07 MaxDP=4.09D-06 DE=-6.25D-10 OVMax= 6.09D-06

 Cycle   5  Pass 1  IDiag  1:
 RMSU=  7.64D-08    CP:  1.00D+00  1.20D+00  1.30D+00  7.86D-01
 E= -288.744118417970     Delta-E=       -0.000000000297 Rises=F Damp=F
 DIIS: error= 2.07D-07 at cycle   5 NSaved=   5.
 NSaved= 5 IEnMin= 5 EnMin= -288.744118417970     IErMin= 5 ErrMin= 2.07D-07
 ErrMax= 2.07D-07  0.00D+00 EMaxC= 1.00D-01 BMatC= 6.19D-12 BMatP= 3.27D-10
 IDIUse=1 WtCom= 1.00D+00 WtEn= 0.00D+00
 Coeff-Com:  0.336D-02-0.270D-01-0.156D-01 0.725D-01 0.967D+00
 Coeff:      0.336D-02-0.270D-01-0.156D-01 0.725D-01 0.967D+00
 Gap=     0.475 Goal=   None    Shift=    0.000
 RMSDP=4.85D-08 MaxDP=1.68D-06 DE=-2.97D-10 OVMax= 2.42D-06

 Cycle   6  Pass 1  IDiag  1:
 RMSU=  1.89D-08    CP:  1.00D+00  1.20D+00  1.32D+00  8.71D-01  1.31D+00
 E= -288.744118417980     Delta-E=       -0.000000000010 Rises=F Damp=F
 DIIS: error= 5.88D-08 at cycle   6 NSaved=   6.
 NSaved= 6 IEnMin= 6 EnMin= -288.744118417980     IErMin= 6 ErrMin= 5.88D-08
 ErrMax= 5.88D-08  0.00D+00 EMaxC= 1.00D-01 BMatC= 5.99D-13 BMatP= 6.19D-12
 IDIUse=1 WtCom= 1.00D+00 WtEn= 0.00D+00
 Coeff-Com: -0.622D-04 0.242D-02-0.322D-01-0.322D-01 0.160D+00 0.902D+00
 Coeff:     -0.622D-04 0.242D-02-0.322D-01-0.322D-01 0.160D+00 0.902D+00
 Gap=     0.475 Goal=   None    Shift=    0.000
 RMSDP=1.45D-08 MaxDP=5.15D-07 DE=-1.03D-11 OVMax= 6.89D-07

 Cycle   7  Pass 1  IDiag  1:
 RMSU=  6.77D-09    CP:  1.00D+00  1.20D+00  1.33D+00  8.88D-01  1.45D+00
                    CP:  1.07D+00
 E= -288.744118417986     Delta-E=       -0.000000000005 Rises=F Damp=F
 DIIS: error= 1.75D-08 at cycle   7 NSaved=   7.
 NSaved= 7 IEnMin= 7 EnMin= -288.744118417986     IErMin= 7 ErrMin= 1.75D-08
 ErrMax= 1.75D-08  0.00D+00 EMaxC= 1.00D-01 BMatC= 1.42D-13 BMatP= 5.99D-13
 IDIUse=1 WtCom= 1.00D+00 WtEn= 0.00D+00
 Coeff-Com: -0.434D-03 0.434D-02-0.730D-02-0.202D-01-0.858D-01 0.335D+00
 Coeff-Com:  0.775D+00
 Coeff:     -0.434D-03 0.434D-02-0.730D-02-0.202D-01-0.858D-01 0.335D+00
 Coeff:      0.775D+00
 Gap=     0.475 Goal=   None    Shift=    0.000
 RMSDP=4.82D-09 MaxDP=1.57D-07 DE=-5.23D-12 OVMax= 2.10D-07

 Error on total polarization charges =  0.03457
 SCF Done:  E(RwB97XD) =  -288.744118418     A.U. after    7 cycles
            NFock=  7  Conv=0.48D-08     -V/T= 2.0108
 KE= 2.856569755827D+02 PE=-1.186159418396D+03 EE= 3.547401123973D+02
 SMD-CDS (non-electrostatic) energy       (kcal/mol) =       2.04
 (included in total energy above)
 Leave Link  502 at Wed Oct 22 13:13:42 2025, MaxMem=  4294967296 cpu:             110.8 elap:              13.9
 (Enter /lrz/sys/applications/gaussian/g16.C.01/x86_64_legacy/exe/l701.exe)
 ... and contract with generalized density number  0.
 Compute integral first derivatives.
 R6Disp: Adding Grimme-D2 dispersion energy 1st derivatives to the gradient.
   1 Symmetry operations used in ECPInt.
 ECPInt:  NShTT=    2415 NPrTT=    8239 LenC2=    2397 LenP2D=    6843.
 LDataN:  DoStor=T MaxTD1= 5 Len=  102
 D1PCM: PCM CHGder 1st derivatives, ID1Alg=3 FixD1E=F DoIter=F DoCFld=F I1PDM=0.
 GePol: Maximum number of non-zero 1st derivatives   =     264
 Leave Link  701 at Wed Oct 22 13:13:43 2025, MaxMem=  4294967296 cpu:               5.7 elap:               0.7
 (Enter /lrz/sys/applications/gaussian/g16.C.01/x86_64_legacy/exe/l702.exe)
 L702 exits ... SP integral derivatives will be done elsewhere.
 Leave Link  702 at Wed Oct 22 13:13:43 2025, MaxMem=  4294967296 cpu:               0.1 elap:               0.0
 (Enter /lrz/sys/applications/gaussian/g16.C.01/x86_64_legacy/exe/l703.exe)
 Integral derivatives from FoFJK, PRISM(SPDF).
 Compute integral first derivatives, UseDBF=F ICtDFT=           0.
 Calling FoFJK, ICntrl=      2127 FMM=F ISym2X=0 I1Cent= 0 IOpClX= 0 NMat=1 NMatS=1 NMatT=0.
 FoFJK:  IHMeth= 1 ICntrl=    2127 DoSepK=T KAlg= 0 I1Cent=           0 FoldK=F
 IRaf=         1 NMat=       1 IRICut=       1 DoRegI=T DoRafI=F ISym2E= 0 IDoP0=0 IntGTp=1.
 FoFCou: FMM=F IPFlag=           0 FMFlag=      100000 FMFlg1=         800
         NFxFlg=           0 DoJE=F BraDBF=F KetDBF=F FulRan=T
         wScrn=  0.000000 ICntrl=      2527 IOpCl=  0 I1Cent=           0 NGrid=           0
         NMat0=    1 NMatS0=      1 NMatT0=    0 NMatD0=    1 NMtDS0=    0 NMtDT0=    0
 Symmetry not used in FoFCou.
 Leave Link  703 at Wed Oct 22 13:13:46 2025, MaxMem=  4294967296 cpu:              24.2 elap:               3.0
 (Enter /lrz/sys/applications/gaussian/g16.C.01/x86_64_legacy/exe/l716.exe)
 Dipole        = 7.65089142D-01 2.34702293D-01 2.45306949D-01
 ***** Axes restored to original set *****
 -------------------------------------------------------------------
 Center     Atomic                   Forces (Hartrees/Bohr)
 Number     Number              X              Y              Z
 -------------------------------------------------------------------
      1        8           0.000005041   -0.000008333    0.000005282
      2        6           0.000006636    0.000005351    0.000015377
      3        7          -0.000002325    0.000002765   -0.000004763
      4        6          -0.000007735   -0.000008549   -0.000005574
      5        6          -0.000002177    0.000002990    0.000003714
      6        6           0.000002266   -0.000000114   -0.000005991
      7        1           0.000001313    0.000005951    0.000004279
      8        1           0.000005288    0.000002825   -0.000000529
      9        1           0.000000322   -0.000003920    0.000000673
     10        1          -0.000001002   -0.000003198    0.000000314
     11        1          -0.000006096   -0.000000307   -0.000002702
     12        1          -0.000000457   -0.000000802    0.000001741
     13        1           0.000000799    0.000002376    0.000000981
     14        1           0.000002421    0.000001410   -0.000003473
     15        1          -0.000001876   -0.000002031    0.000000850
     16        1          -0.000001892   -0.000001060   -0.000007076
     17        1          -0.000000525    0.000004647   -0.000003102
 -------------------------------------------------------------------
 Cartesian Forces:  Max     0.000015377 RMS     0.000004404
 Leave Link  716 at Wed Oct 22 13:13:46 2025, MaxMem=  4294967296 cpu:               0.1 elap:               0.0
 (Enter /lrz/sys/applications/gaussian/g16.C.01/x86_64_legacy/exe/l103.exe)

 GradGradGradGradGradGradGradGradGradGradGradGradGradGradGradGradGradGrad
 Berny optimization.
 Using GEDIIS/GDIIS optimizer.
 FormGI is forming the generalized inverse of G from B-inverse, IUseBI=4.
 Internal  Forces:  Max     0.000012712 RMS     0.000002697
 Search for a local minimum.
 Step number   9 out of a maximum of   90
 All quantities printed in internal units (Hartrees-Bohrs-Radians)
 RMS Force = .26973D-05 SwitMx=.10000D-02 MixMth= 2
 Mixed Optimization -- En-DIIS/RFO-DIIS
 Swapping is turned off.
 Update second derivatives using D2CorX and points    1    2    3    4    5
                                                      6    7    8    9
 DE= -3.16D-08 DEPred=-2.04D-08 R= 1.55D+00
 Trust test= 1.55D+00 RLast= 3.28D-03 DXMaxT set to 5.05D-01
 ITU=  0  0  0  1  1  1  1  1  0
     Eigenvalues ---    0.00216   0.00313   0.00409   0.00474   0.00932
     Eigenvalues ---    0.03394   0.03585   0.04045   0.04834   0.04890
     Eigenvalues ---    0.05513   0.05566   0.05880   0.06109   0.08105
     Eigenvalues ---    0.08429   0.08759   0.12265   0.12765   0.15625
     Eigenvalues ---    0.16003   0.16009   0.16321   0.16600   0.16680
     Eigenvalues ---    0.18103   0.21693   0.21961   0.23555   0.29955
     Eigenvalues ---    0.30673   0.31380   0.33906   0.34649   0.34807
     Eigenvalues ---    0.34898   0.34996   0.35093   0.35164   0.37007
     Eigenvalues ---    0.42096   0.43876   0.45418   0.45515   0.54584
 En-DIIS/RFO-DIIS/Sim-DIIS IScMMF=       -3 using points:     9    8    7    6    5    4    3    2
 RFO step:  Lambda=-2.73173729D-09.
 NNeg= 0 NGDIIS= 8 SimSw=  2.50D-01 Rises=F DC= -3.16D-08 SmlDif=  1.00D-05
 NRisDI= 0 DoIntr=F SqrtH=F CThrHd= 10.0 CDAdj=  3.0
 RMS Error=  0.1211279633D-03 NUsed= 8 OKEnD=F EnDIS=F
 InvSVX:  RCond= 6.21D-09 Info=           0 Equed=N FErr=  1.66D-12 BErr=  7.19D-17
 DIIS inversion failure, remove point   8.
 InvSVX:  RCond= 8.05D-09 Info=           0 Equed=N FErr=  1.16D-12 BErr=  3.98D-17
 DIIS inversion failure, remove point   7.
 InvSVX:  RCond= 1.14D-08 Info=           0 Equed=N FErr=  2.54D-13 BErr=  7.69D-17
 DIIS inversion failure, remove point   6.
 InvSVX:  RCond= 1.37D-08 Info=           0 Equed=N FErr=  2.11D-13 BErr=  3.21D-17
 DIIS inversion failure, remove point   5.
 InvSVX:  RCond= 6.94D-08 Info=           0 Equed=N FErr=  3.86D-14 BErr=  9.84D-17
 DIIS inversion failure, remove point   4.
 InvSVX:  RCond= 1.44D-07 Info=           0 Equed=N FErr=  2.22D-14 BErr=  3.23D-17
 RFO-DIIS uses    3 points instead of    8
 DidBck=F Rises=F RFO-DIIS coefs:    1.50589   -0.71698    0.21110    0.00000    0.00000
                  RFO-DIIS coefs:    0.00000    0.00000    0.00000
 Iteration  1 RMS(Cart)=  0.00014258 RMS(Int)=  0.00000003
 Iteration  2 RMS(Cart)=  0.00000003 RMS(Int)=  0.00000000
 ITry= 1 IFail=0 DXMaxC= 5.27D-04 DCOld= 1.00D+10 DXMaxT= 5.05D-01 DXLimC= 3.00D+00 Rises=F
 Variable       Old X    -DE/DX   Delta X   Delta X   Delta X     New X
                                 (Linear)    (Quad)   (Total)
    R1        2.68819   0.00000   0.00005  -0.00002   0.00002   2.68821
    R2        1.82270  -0.00000   0.00001  -0.00001  -0.00000   1.82270
    R3        2.72134   0.00001   0.00000  -0.00000  -0.00000   2.72134
    R4        2.87157  -0.00001   0.00002  -0.00007  -0.00005   2.87152
    R5        2.08886  -0.00000  -0.00001   0.00001   0.00000   2.08886
    R6        1.92717  -0.00000   0.00001  -0.00001  -0.00000   1.92717
    R7        1.92985   0.00000  -0.00000   0.00000   0.00000   1.92985
    R8        2.88175  -0.00000  -0.00001  -0.00001  -0.00002   2.88173
    R9        2.08148  -0.00000   0.00000  -0.00000  -0.00000   2.08147
   R10        2.08945  -0.00000  -0.00001   0.00001  -0.00001   2.08945
   R11        2.87859  -0.00000  -0.00002   0.00002  -0.00001   2.87859
   R12        2.08163  -0.00000  -0.00000   0.00000  -0.00000   2.08163
   R13        2.08608  -0.00000  -0.00000  -0.00000  -0.00001   2.08607
   R14        2.08246  -0.00000  -0.00001  -0.00000  -0.00001   2.08246
   R15        2.08243  -0.00000  -0.00000  -0.00000  -0.00000   2.08242
   R16        2.07990  -0.00000  -0.00000  -0.00000  -0.00001   2.07989
    A1        1.87817  -0.00001   0.00001  -0.00007  -0.00006   1.87811
    A2        1.98544   0.00000  -0.00001   0.00001   0.00000   1.98544
    A3        1.87189  -0.00000   0.00004  -0.00008  -0.00004   1.87185
    A4        1.89584  -0.00000  -0.00004   0.00007   0.00002   1.89586
    A5        1.93161  -0.00001   0.00002  -0.00007  -0.00005   1.93156
    A6        1.87271   0.00000  -0.00003   0.00007   0.00004   1.87276
    A7        1.90520   0.00000   0.00001   0.00001   0.00002   1.90522
    A8        1.90810  -0.00000   0.00005  -0.00005  -0.00000   1.90809
    A9        1.89720   0.00000  -0.00001   0.00001   0.00000   1.89720
   A10        1.85251   0.00000  -0.00000   0.00001   0.00000   1.85252
   A11        1.99713   0.00000   0.00003  -0.00002   0.00001   1.99714
   A12        1.88184  -0.00000  -0.00000  -0.00006  -0.00006   1.88178
   A13        1.88659   0.00000  -0.00001   0.00003   0.00002   1.88661
   A14        1.91622   0.00000  -0.00001   0.00002   0.00001   1.91623
   A15        1.91584  -0.00000   0.00001   0.00001   0.00001   1.91586
   A16        1.86103  -0.00000  -0.00002   0.00001  -0.00001   1.86102
   A17        1.96872  -0.00000  -0.00000  -0.00002  -0.00002   1.96870
   A18        1.90616   0.00000  -0.00000  -0.00000  -0.00000   1.90616
   A19        1.90311   0.00000   0.00001   0.00000   0.00001   1.90312
   A20        1.91535   0.00000  -0.00000   0.00000   0.00000   1.91535
   A21        1.91361   0.00000   0.00000   0.00001   0.00001   1.91362
   A22        1.85327  -0.00000  -0.00000   0.00000  -0.00000   1.85327
   A23        1.93955  -0.00000  -0.00000   0.00000  -0.00000   1.93955
   A24        1.94124  -0.00000   0.00000  -0.00000   0.00000   1.94124
   A25        1.94573   0.00000   0.00001  -0.00000   0.00000   1.94573
   A26        1.87553   0.00000  -0.00001   0.00000  -0.00000   1.87553
   A27        1.87906   0.00000   0.00000   0.00000   0.00000   1.87906
   A28        1.87960   0.00000  -0.00000  -0.00000  -0.00000   1.87959
    D1       -1.15335  -0.00000   0.00050  -0.00006   0.00045  -1.15290
    D2        2.98791   0.00001   0.00045   0.00009   0.00054   2.98845
    D3        0.93087   0.00000   0.00044   0.00009   0.00052   0.93140
    D4        1.03135   0.00000  -0.00011   0.00002  -0.00008   1.03127
    D5       -0.98365   0.00000  -0.00012   0.00004  -0.00008  -0.98374
    D6        3.14014  -0.00000  -0.00004  -0.00013  -0.00017   3.13997
    D7        1.12513  -0.00000  -0.00005  -0.00011  -0.00017   1.12497
    D8       -1.06597  -0.00000  -0.00003  -0.00011  -0.00015  -1.06611
    D9       -3.08097  -0.00000  -0.00005  -0.00010  -0.00015  -3.08112
   D10       -1.04119   0.00000   0.00005   0.00003   0.00008  -1.04111
   D11        3.10475  -0.00000   0.00004   0.00005   0.00010   3.10485
   D12        1.09911   0.00000   0.00007   0.00005   0.00013   1.09924
   D13        3.06707   0.00000   0.00001   0.00012   0.00013   3.06720
   D14        0.92983   0.00000   0.00001   0.00014   0.00015   0.92998
   D15       -1.07582   0.00000   0.00004   0.00014   0.00018  -1.07564
   D16        1.00974   0.00000   0.00003   0.00007   0.00010   1.00984
   D17       -1.12750  -0.00000   0.00002   0.00009   0.00012  -1.12738
   D18       -3.13314   0.00000   0.00005   0.00009   0.00014  -3.13300
   D19       -3.11990   0.00000  -0.00015   0.00009  -0.00006  -3.11996
   D20        1.02854   0.00000  -0.00014   0.00010  -0.00004   1.02850
   D21       -0.98957   0.00000  -0.00014   0.00010  -0.00004  -0.98961
   D22       -1.00146  -0.00000  -0.00014   0.00003  -0.00011  -1.00157
   D23       -3.13620  -0.00000  -0.00013   0.00004  -0.00010  -3.13630
   D24        1.12887  -0.00000  -0.00013   0.00003  -0.00010   1.12877
   D25        1.03894  -0.00000  -0.00017   0.00006  -0.00011   1.03883
   D26       -1.09581  -0.00000  -0.00016   0.00007  -0.00009  -1.09590
   D27       -3.11392  -0.00000  -0.00016   0.00006  -0.00009  -3.11401
   D28       -1.04296  -0.00000  -0.00011  -0.00009  -0.00020  -1.04316
   D29        1.04584  -0.00000  -0.00012  -0.00008  -0.00020   1.04564
   D30       -3.13924  -0.00000  -0.00011  -0.00009  -0.00020  -3.13944
   D31        1.08662  -0.00000  -0.00012  -0.00010  -0.00021   1.08640
   D32       -3.10777  -0.00000  -0.00013  -0.00009  -0.00022  -3.10799
   D33       -1.00966  -0.00000  -0.00012  -0.00010  -0.00022  -1.00988
   D34        3.11582  -0.00000  -0.00012  -0.00009  -0.00021   3.11561
   D35       -1.07857  -0.00000  -0.00013  -0.00008  -0.00022  -1.07878
   D36        1.01954  -0.00000  -0.00013  -0.00009  -0.00022   1.01933
         Item               Value     Threshold  Converged?
 Maximum Force            0.000013     0.000450     YES
 RMS     Force            0.000003     0.000300     YES
 Maximum Displacement     0.000527     0.001800     YES
 RMS     Displacement     0.000143     0.001200     YES
 Predicted change in Energy=-3.885472D-09
 Optimization completed.
    -- Stationary point found.
                           ----------------------------
                           !   Optimized Parameters   !
                           ! (Angstroms and Degrees)  !
 --------------------------                            --------------------------
 ! Name  Definition              Value          Derivative Info.                !
 --------------------------------------------------------------------------------
 ! R1    R(1,2)                  1.4225         -DE/DX =    0.0                 !
 ! R2    R(1,7)                  0.9645         -DE/DX =    0.0                 !
 ! R3    R(2,3)                  1.4401         -DE/DX =    0.0                 !
 ! R4    R(2,4)                  1.5196         -DE/DX =    0.0                 !
 ! R5    R(2,8)                  1.1054         -DE/DX =    0.0                 !
 ! R6    R(3,9)                  1.0198         -DE/DX =    0.0                 !
 ! R7    R(3,10)                 1.0212         -DE/DX =    0.0                 !
 ! R8    R(4,5)                  1.525          -DE/DX =    0.0                 !
 ! R9    R(4,11)                 1.1015         -DE/DX =    0.0                 !
 ! R10   R(4,12)                 1.1057         -DE/DX =    0.0                 !
 ! R11   R(5,6)                  1.5233         -DE/DX =    0.0                 !
 ! R12   R(5,13)                 1.1016         -DE/DX =    0.0                 !
 ! R13   R(5,14)                 1.1039         -DE/DX =    0.0                 !
 ! R14   R(6,15)                 1.102          -DE/DX =    0.0                 !
 ! R15   R(6,16)                 1.102          -DE/DX =    0.0                 !
 ! R16   R(6,17)                 1.1006         -DE/DX =    0.0                 !
 ! A1    A(2,1,7)              107.6112         -DE/DX =    0.0                 !
 ! A2    A(1,2,3)              113.7573         -DE/DX =    0.0                 !
 ! A3    A(1,2,4)              107.2513         -DE/DX =    0.0                 !
 ! A4    A(1,2,8)              108.6235         -DE/DX =    0.0                 !
 ! A5    A(3,2,4)              110.6732         -DE/DX =    0.0                 !
 ! A6    A(3,2,8)              107.2985         -DE/DX =    0.0                 !
 ! A7    A(4,2,8)              109.1601         -DE/DX =    0.0                 !
 ! A8    A(2,3,9)              109.326          -DE/DX =    0.0                 !
 ! A9    A(2,3,10)             108.7014         -DE/DX =    0.0                 !
 ! A10   A(9,3,10)             106.1413         -DE/DX =    0.0                 !
 ! A11   A(2,4,5)              114.4269         -DE/DX =    0.0                 !
 ! A12   A(2,4,11)             107.8214         -DE/DX =    0.0                 !
 ! A13   A(2,4,12)             108.0936         -DE/DX =    0.0                 !
 ! A14   A(5,4,11)             109.7912         -DE/DX =    0.0                 !
 ! A15   A(5,4,12)             109.7698         -DE/DX =    0.0                 !
 ! A16   A(11,4,12)            106.6291         -DE/DX =    0.0                 !
 ! A17   A(4,5,6)              112.7993         -DE/DX =    0.0                 !
 ! A18   A(4,5,13)             109.2152         -DE/DX =    0.0                 !
 ! A19   A(4,5,14)             109.0399         -DE/DX =    0.0                 !
 ! A20   A(6,5,13)             109.7415         -DE/DX =    0.0                 !
 ! A21   A(6,5,14)             109.6415         -DE/DX =    0.0                 !
 ! A22   A(13,5,14)            106.1848         -DE/DX =    0.0                 !
 ! A23   A(5,6,15)             111.1279         -DE/DX =    0.0                 !
 ! A24   A(5,6,16)             111.2246         -DE/DX =    0.0                 !
 ! A25   A(5,6,17)             111.482          -DE/DX =    0.0                 !
 ! A26   A(15,6,16)            107.4601         -DE/DX =    0.0                 !
 ! A27   A(15,6,17)            107.6621         -DE/DX =    0.0                 !
 ! A28   A(16,6,17)            107.6929         -DE/DX =    0.0                 !
 ! D1    D(7,1,2,3)            -66.0822         -DE/DX =    0.0                 !
 ! D2    D(7,1,2,4)            171.1947         -DE/DX =    0.0                 !
 ! D3    D(7,1,2,8)             53.335          -DE/DX =    0.0                 !
 ! D4    D(1,2,3,9)             59.0921         -DE/DX =    0.0                 !
 ! D5    D(1,2,3,10)           -56.3592         -DE/DX =    0.0                 !
 ! D6    D(4,2,3,9)            179.9166         -DE/DX =    0.0                 !
 ! D7    D(4,2,3,10)            64.4653         -DE/DX =    0.0                 !
 ! D8    D(8,2,3,9)            -61.0753         -DE/DX =    0.0                 !
 ! D9    D(8,2,3,10)          -176.5267         -DE/DX =    0.0                 !
 ! D10   D(1,2,4,5)            -59.6558         -DE/DX =    0.0                 !
 ! D11   D(1,2,4,11)           177.8893         -DE/DX =    0.0                 !
 ! D12   D(1,2,4,12)            62.9744         -DE/DX =    0.0                 !
 ! D13   D(3,2,4,5)            175.7299         -DE/DX =    0.0                 !
 ! D14   D(3,2,4,11)            53.2751         -DE/DX =    0.0                 !
 ! D15   D(3,2,4,12)           -61.6399         -DE/DX =    0.0                 !
 ! D16   D(8,2,4,5)             57.8539         -DE/DX =    0.0                 !
 ! D17   D(8,2,4,11)           -64.601          -DE/DX =    0.0                 !
 ! D18   D(8,2,4,12)          -179.5159         -DE/DX =    0.0                 !
 ! D19   D(2,4,5,6)           -178.757          -DE/DX =    0.0                 !
 ! D20   D(2,4,5,13)            58.9311         -DE/DX =    0.0                 !
 ! D21   D(2,4,5,14)           -56.6981         -DE/DX =    0.0                 !
 ! D22   D(11,4,5,6)           -57.3792         -DE/DX =    0.0                 !
 ! D23   D(11,4,5,13)         -179.6911         -DE/DX =    0.0                 !
 ! D24   D(11,4,5,14)           64.6796         -DE/DX =    0.0                 !
 ! D25   D(12,4,5,6)            59.5268         -DE/DX =    0.0                 !
 ! D26   D(12,4,5,13)          -62.7851         -DE/DX =    0.0                 !
 ! D27   D(12,4,5,14)         -178.4144         -DE/DX =    0.0                 !
 ! D28   D(4,5,6,15)           -59.7573         -DE/DX =    0.0                 !
 ! D29   D(4,5,6,16)            59.9222         -DE/DX =    0.0                 !
 ! D30   D(4,5,6,17)          -179.8651         -DE/DX =    0.0                 !
 ! D31   D(13,5,6,15)           62.2585         -DE/DX =    0.0                 !
 ! D32   D(13,5,6,16)         -178.0619         -DE/DX =    0.0                 !
 ! D33   D(13,5,6,17)          -57.8492         -DE/DX =    0.0                 !
 ! D34   D(14,5,6,15)          178.5232         -DE/DX =    0.0                 !
 ! D35   D(14,5,6,16)          -61.7972         -DE/DX =    0.0                 !
 ! D36   D(14,5,6,17)           58.4154         -DE/DX =    0.0                 !
 --------------------------------------------------------------------------------
 Lowest energy point so far.  Saving SCF results.
 Largest change from initial coordinates is atom   14       0.085 Angstoms.
 GradGradGradGradGradGradGradGradGradGradGradGradGradGradGradGradGradGrad

 Leave Link  103 at Wed Oct 22 13:13:46 2025, MaxMem=  4294967296 cpu:               0.1 elap:               0.0
 (Enter /lrz/sys/applications/gaussian/g16.C.01/x86_64_legacy/exe/l202.exe)
                          Input orientation:                          
 ---------------------------------------------------------------------
 Center     Atomic      Atomic             Coordinates (Angstroms)
 Number     Number       Type             X           Y           Z
 ---------------------------------------------------------------------
      1          8           0       -1.437178   -0.994113    0.264781
      2          6           0       -0.995175    0.358003    0.265962
      3          7           0       -1.862098    1.252394   -0.456755
      4          6           0        0.405129    0.374879   -0.323913
      5          6           0        1.421718   -0.466118    0.440781
      6          6           0        2.818054   -0.398751   -0.164288
      7          1           0       -2.262445   -1.031792    0.762609
      8          1           0       -0.952790    0.714618    1.311377
      9          1           0       -2.794874    1.224012   -0.045481
     10          1           0       -1.962963    0.908980   -1.413209
     11          1           0        0.741925    1.422872   -0.362823
     12          1           0        0.341125    0.024022   -1.370504
     13          1           0        1.078586   -1.512479    0.469148
     14          1           0        1.455117   -0.124696    1.490030
     15          1           0        2.817615   -0.759697   -1.205492
     16          1           0        3.199675    0.634998   -0.172868
     17          1           0        3.532997   -1.014554    0.402319
 ---------------------------------------------------------------------
                    Distance matrix (angstroms):
                    1          2          3          4          5
     1  O    0.000000
     2  C    1.422527   0.000000
     3  N    2.397491   1.440073   0.000000
     4  C    2.369555   1.519569   2.434749   0.000000
     5  C    2.912566   2.559514   3.813438   1.524954   0.000000
     6  C    4.318050   3.911331   4.971483   2.538935   1.523286
     7  H    0.964530   1.945291   2.620044   3.205496   3.741205
     8  H    2.061493   1.105379   2.059693   2.152566   2.791123
     9  H    2.619099   2.021357   1.019815   3.322435   4.568659
    10  H    2.591112   2.014896   1.021230   2.660769   4.096858
    11  H    3.314241   2.132331   2.611288   1.101470   2.162448
    12  H    2.621663   2.138986   2.682914   1.105690   2.165334
    13  H    2.576730   2.800084   4.141189   2.155135   1.101551
    14  H    3.259215   2.781235   4.085372   2.154631   1.103905
    15  H    4.507762   4.236957   5.148673   2.807941   2.178287
    16  H    4.934161   4.226827   5.107183   2.810687   2.179485
    17  H    4.972119   4.733587   5.914737   3.498784   2.181687
                    6          7          8          9         10
     6  C    0.000000
     7  H    5.203013   0.000000
     8  H    4.199577   2.250841   0.000000
     9  H    5.844009   2.454617   2.343889   0.000000
    10  H    5.111565   2.930951   2.912318   1.631564   0.000000
    11  H    2.769122   4.039581   2.485283   3.556571   2.946832
    12  H    2.787270   3.527533   3.056735   3.609731   2.468562
    13  H    2.160412   3.388166   3.129824   4.770422   4.319463
    14  H    2.160896   3.895154   2.556244   4.715848   4.602233
    15  H    1.101993   5.454766   4.766990   6.064715   5.067698
    16  H    1.101973   5.786887   4.410475   6.024764   5.316610
    17  H    1.100636   5.806655   4.892720   6.727083   6.099320
                   11         12         13         14         15
    11  H    0.000000
    12  H    1.769984   0.000000
    13  H    3.069495   2.507789   0.000000
    14  H    2.517275   3.073393   1.763495   0.000000
    15  H    3.127649   2.602777   2.528898   3.086335   0.000000
    16  H    2.587927   3.158944   3.085913   2.527024   1.776923
    17  H    3.783724   3.795996   2.505300   2.508495   1.778139
                   16         17
    16  H    0.000000
    17  H    1.778472   0.000000
 Stoichiometry    C4H11NO
 Framework group  C1[X(C4H11NO)]
 Deg. of freedom    45
 Full point group                 C1      NOp   1
 RotChk:  IX=0 Diff= 2.43D-15
 Largest Abelian subgroup         C1      NOp   1
 Largest concise Abelian subgroup C1      NOp   1
                         Standard orientation:                         
 ---------------------------------------------------------------------
 Center     Atomic      Atomic             Coordinates (Angstroms)
 Number     Number       Type             X           Y           Z
 ---------------------------------------------------------------------
      1          8           0        1.269555    1.258726   -0.311083
      2          6           0        1.088260   -0.004072    0.318246
      3          7           0        2.119477   -0.960218    0.008107
      4          6           0       -0.273804   -0.527532   -0.105856
      5          6           0       -1.442763    0.374380    0.275689
      6          6           0       -2.791224   -0.199470   -0.139943
      7          1           0        2.064510    1.658717    0.060902
      8          1           0        1.095299    0.143220    1.413746
      9          1           0        3.023258   -0.588291    0.299437
     10          1           0        2.170813   -1.069080   -1.006006
     11          1           0       -0.407949   -1.523095    0.345911
     12          1           0       -0.258512   -0.676620   -1.201342
     13          1           0       -1.301908    1.364904   -0.185218
     14          1           0       -1.429804    0.538284    1.367281
     15          1           0       -2.840346   -0.348414   -1.230718
     16          1           0       -2.972583   -1.176813    0.335718
     17          1           0       -3.618375    0.469068    0.143389
 ---------------------------------------------------------------------
 Rotational constants (GHZ):           7.5359056           1.7549425           1.5287380
 Leave Link  202 at Wed Oct 22 13:13:46 2025, MaxMem=  4294967296 cpu:               0.0 elap:               0.0
 (Enter /lrz/sys/applications/gaussian/g16.C.01/x86_64_legacy/exe/l601.exe)
 Copying SCF densities to generalized density rwf, IOpCl= 0 IROHF=0.

 **********************************************************************

            Population analysis using the SCF Density.

 **********************************************************************

 Orbital symmetries:
       Occupied  (A) (A) (A) (A) (A) (A) (A) (A) (A) (A) (A) (A)
                 (A) (A) (A) (A) (A) (A) (A) (A) (A) (A) (A) (A)
                 (A)
       Virtual   (A) (A) (A) (A) (A) (A) (A) (A) (A) (A) (A) (A)
                 (A) (A) (A) (A) (A) (A) (A) (A) (A) (A) (A) (A)
                 (A) (A) (A) (A) (A) (A) (A) (A) (A) (A) (A) (A)
                 (A) (A) (A) (A) (A) (A) (A) (A) (A) (A) (A) (A)
                 (A) (A) (A) (A) (A) (A) (A) (A) (A) (A) (A) (A)
                 (A) (A) (A) (A) (A) (A) (A) (A) (A) (A) (A) (A)
                 (A) (A) (A) (A) (A) (A) (A) (A) (A) (A) (A) (A)
                 (A) (A) (A) (A) (A) (A) (A) (A) (A) (A) (A) (A)
                 (A) (A) (A) (A) (A) (A) (A) (A) (A) (A) (A) (A)
                 (A) (A) (A) (A) (A) (A)
 The electronic state is 1-A.
 Alpha  occ. eigenvalues --  -19.24753 -14.41636 -10.35681 -10.28347 -10.28105
 Alpha  occ. eigenvalues --  -10.27929  -1.11034  -0.95715  -0.87339  -0.79033
 Alpha  occ. eigenvalues --   -0.69540  -0.65874  -0.61653  -0.56251  -0.53801
 Alpha  occ. eigenvalues --   -0.52104  -0.49772  -0.47612  -0.45458  -0.44301
 Alpha  occ. eigenvalues --   -0.41051  -0.40263  -0.39420  -0.37224  -0.32973
 Alpha virt. eigenvalues --    0.14571   0.15967   0.17193   0.19263   0.20426
 Alpha virt. eigenvalues --    0.20791   0.22716   0.24399   0.25404   0.25776
 Alpha virt. eigenvalues --    0.26283   0.30472   0.32151   0.33934   0.34863
 Alpha virt. eigenvalues --    0.39326   0.51505   0.52743   0.53098   0.53397
 Alpha virt. eigenvalues --    0.56187   0.62394   0.63623   0.66395   0.68190
 Alpha virt. eigenvalues --    0.70486   0.72716   0.73039   0.74831   0.75170
 Alpha virt. eigenvalues --    0.75990   0.76473   0.78060   0.79354   0.79968
 Alpha virt. eigenvalues --    0.80825   0.81811   0.82496   0.85118   0.88362
 Alpha virt. eigenvalues --    0.90242   0.98668   1.04608   1.06224   1.09945
 Alpha virt. eigenvalues --    1.10588   1.12928   1.15416   1.22166   1.28455
 Alpha virt. eigenvalues --    1.35635   1.35715   1.38404   1.45434   1.45874
 Alpha virt. eigenvalues --    1.52970   1.54472   1.56309   1.61323   1.63497
 Alpha virt. eigenvalues --    1.67794   1.75980   1.79718   1.85113   1.85468
 Alpha virt. eigenvalues --    1.85981   1.86741   1.88657   1.89661   1.91008
 Alpha virt. eigenvalues --    1.92930   1.94888   1.96564   1.99325   2.00187
 Alpha virt. eigenvalues --    2.01491   2.01804   2.04927   2.07617   2.09564
 Alpha virt. eigenvalues --    2.14390   2.17432   2.20890   2.23587   2.31648
 Alpha virt. eigenvalues --    2.36660   2.38012   2.41872   2.45405   2.49903
 Alpha virt. eigenvalues --    2.53445   2.55443   2.57219   2.66417   2.68946
 Alpha virt. eigenvalues --    2.69707   2.80097   2.83976   2.88253   2.91077
 Alpha virt. eigenvalues --    2.96063   2.96602   3.01498   3.04735   3.09366
 Alpha virt. eigenvalues --    3.11550   3.13754   3.15721   3.20043   3.24303
 Alpha virt. eigenvalues --    3.34923   3.45736   3.52075   3.87623
          Condensed to atoms (all electrons):
               1          2          3          4          5          6
     1  O    7.902371   0.316446  -0.075735  -0.083093   0.002538   0.000146
     2  C    0.316446   4.535609   0.371872   0.334508  -0.043251   0.007099
     3  N   -0.075735   0.371872   6.353833  -0.051849   0.007990  -0.000129
     4  C   -0.083093   0.334508  -0.051849   4.927395   0.358687  -0.051906
     5  C    0.002538  -0.043251   0.007990   0.358687   4.708597   0.419795
     6  C    0.000146   0.007099  -0.000129  -0.051906   0.419795   4.570854
     7  H    0.325390  -0.017346   0.002947   0.008861  -0.000057   0.000019
     8  H   -0.032767   0.408259  -0.043890  -0.033723  -0.012362   0.000008
     9  H    0.000686  -0.017574   0.354347   0.010206  -0.000621   0.000014
    10  H    0.004045  -0.012255   0.347980  -0.018572  -0.000185  -0.000040
    11  H    0.005157  -0.014930   0.008004   0.361463  -0.019043  -0.004950
    12  H    0.000659  -0.007197  -0.008661   0.360433  -0.028881  -0.005697
    13  H    0.017428  -0.006674   0.000357  -0.027090   0.371438  -0.021237
    14  H   -0.001259  -0.003135  -0.000104  -0.026864   0.381925  -0.026095
    15  H   -0.000012   0.000431   0.000001  -0.007836  -0.021476   0.395029
    16  H   -0.000012   0.000241  -0.000021  -0.006306  -0.023814   0.396204
    17  H   -0.000001  -0.000378   0.000003   0.006968  -0.016094   0.389567
               7          8          9         10         11         12
     1  O    0.325390  -0.032767   0.000686   0.004045   0.005157   0.000659
     2  C   -0.017346   0.408259  -0.017574  -0.012255  -0.014930  -0.007197
     3  N    0.002947  -0.043890   0.354347   0.347980   0.008004  -0.008661
     4  C    0.008861  -0.033723   0.010206  -0.018572   0.361463   0.360433
     5  C   -0.000057  -0.012362  -0.000621  -0.000185  -0.019043  -0.028881
     6  C    0.000019   0.000008   0.000014  -0.000040  -0.004950  -0.005697
     7  H    0.476771  -0.006853   0.004411  -0.000572  -0.000532  -0.000339
     8  H   -0.006853   0.687056  -0.009383   0.010012  -0.005985   0.008848
     9  H    0.004411  -0.009383   0.555739  -0.026935  -0.000203  -0.000431
    10  H   -0.000572   0.010012  -0.026935   0.564498  -0.000804   0.007971
    11  H   -0.000532  -0.005985  -0.000203  -0.000804   0.662528  -0.024926
    12  H   -0.000339   0.008848  -0.000431   0.007971  -0.024926   0.667374
    13  H   -0.000606  -0.000209  -0.000020   0.000026   0.008384  -0.008522
    14  H   -0.000078   0.007452   0.000004   0.000051  -0.009258   0.008446
    15  H   -0.000001   0.000015   0.000000  -0.000006  -0.001476   0.006337
    16  H    0.000001  -0.000033   0.000001   0.000004   0.005935  -0.001335
    17  H   -0.000002   0.000001  -0.000000   0.000000   0.000022  -0.000062
              13         14         15         16         17
     1  O    0.017428  -0.001259  -0.000012  -0.000012  -0.000001
     2  C   -0.006674  -0.003135   0.000431   0.000241  -0.000378
     3  N    0.000357  -0.000104   0.000001  -0.000021   0.000003
     4  C   -0.027090  -0.026864  -0.007836  -0.006306   0.006968
     5  C    0.371438   0.381925  -0.021476  -0.023814  -0.016094
     6  C   -0.021237  -0.026095   0.395029   0.396204   0.389567
     7  H   -0.000606  -0.000078  -0.000001   0.000001  -0.000002
     8  H   -0.000209   0.007452   0.000015  -0.000033   0.000001
     9  H   -0.000020   0.000004   0.000000   0.000001  -0.000000
    10  H    0.000026   0.000051  -0.000006   0.000004   0.000000
    11  H    0.008384  -0.009258  -0.001476   0.005935   0.000022
    12  H   -0.008522   0.008446   0.006337  -0.001335  -0.000062
    13  H    0.677593  -0.028564  -0.008425   0.007241  -0.005706
    14  H   -0.028564   0.673106   0.007502  -0.008270  -0.005643
    15  H   -0.008425   0.007502   0.639113  -0.024317  -0.022401
    16  H    0.007241  -0.008270  -0.024317   0.639692  -0.022850
    17  H   -0.005706  -0.005643  -0.022401  -0.022850   0.633986
 Mulliken charges:
               1
     1  O   -0.381987
     2  C    0.148277
     3  N   -0.266944
     4  C   -0.061282
     5  C   -0.085186
     6  C   -0.068681
     7  H    0.207985
     8  H    0.023554
     9  H    0.129762
    10  H    0.124782
    11  H    0.030615
    12  H    0.025982
    13  H    0.024586
    14  H    0.030784
    15  H    0.037523
    16  H    0.037638
    17  H    0.042590
 Sum of Mulliken charges =  -0.00000
 Mulliken charges with hydrogens summed into heavy atoms:
               1
     1  O   -0.174001
     2  C    0.171831
     3  N   -0.012400
     4  C   -0.004685
     5  C   -0.029815
     6  C    0.049071
 Electronic spatial extent (au):  <R**2>=            822.7116
 Charge=             -0.0000 electrons
 Dipole moment (field-independent basis, Debye):
    X=              1.9447    Y=              0.5966    Z=              0.6235  Tot=              2.1275
 Quadrupole moment (field-independent basis, Debye-Ang):
   XX=            -30.3524   YY=            -41.9665   ZZ=            -37.8240
   XY=              4.0633   XZ=              0.2768   YZ=              3.1582
 Traceless Quadrupole moment (field-independent basis, Debye-Ang):
   XX=              6.3619   YY=             -5.2522   ZZ=             -1.1097
   XY=              4.0633   XZ=              0.2768   YZ=              3.1582
 Octapole moment (field-independent basis, Debye-Ang**2):
  XXX=             44.9574  YYY=             10.8941  ZZZ=             -1.7553  XYY=              3.0503
  XXY=             13.2153  XXZ=              0.5270  XZZ=              5.9300  YZZ=             -0.5182
  YYZ=              0.0504  XYZ=              5.9930
 Hexadecapole moment (field-independent basis, Debye-Ang**3):
 XXXX=           -711.9178 YYYY=           -183.4741 ZZZZ=            -78.6637 XXXY=             22.2347
 XXXZ=             -3.3811 YYYX=             27.5661 YYYZ=              3.5529 ZZZX=             -2.4240
 ZZZY=              3.0587 XXYY=           -157.7634 XXZZ=           -142.5987 YYZZ=            -44.2495
 XXYZ=             10.0643 YYXZ=             -3.1304 ZZXY=             -1.1608
 N-N= 2.570182119981D+02 E-N=-1.186159417226D+03  KE= 2.856569755827D+02
 No NMR shielding tensors so no spin-rotation constants.
 Leave Link  601 at Wed Oct 22 13:13:46 2025, MaxMem=  4294967296 cpu:               0.6 elap:               0.1
 (Enter /lrz/sys/applications/gaussian/g16.C.01/x86_64_legacy/exe/l9999.exe)
 Unable to Open any file for archive entry.
 1\1\GINC-CM4R13C02S05\FOpt\RwB97XD\def2SVP\C4H11N1O1\GO29TIZ2\22-Oct-2
 025\0\\#p opt freq wb97xd scrf=(smd,solvent=water) def2svp\\g16_C17-a_
 9\\0,1\O,-1.4371777232,-0.9941125991,0.2647807904\C,-0.9951753494,0.35
 80025634,0.2659620669\N,-1.8620983555,1.2523939574,-0.4567551044\C,0.4
 051293906,0.3748788923,-0.3239125123\C,1.4217181271,-0.4661183606,0.44
 07809583\C,2.8180542916,-0.3987509835,-0.1642879004\H,-2.2624445939,-1
 .0317919674,0.7626090435\H,-0.9527904634,0.7146176276,1.311377091\H,-2
 .7948740027,1.2240122872,-0.0454807154\H,-1.9629632264,0.908980236,-1.
 4132091985\H,0.7419251787,1.4228721828,-0.3628229968\H,0.3411252853,0.
 0240220232,-1.3705038949\H,1.0785864885,-1.5124787035,0.4691484354\H,1
 .4551166182,-0.1246963827,1.4900295299\H,2.8176154302,-0.7596970728,-1
 .2054920418\H,3.1996750929,0.6349976757,-0.1728682492\H,3.5329968115,-
 1.0145535758,0.4023187981\\Version=EM64L-G16RevC.01\State=1-A\HF=-288.
 7441184\RMSD=4.819e-09\RMSF=4.404e-06\Dipole=-0.7757095,0.045697,0.311
 1408\Quadrupole=5.3935943,-5.779401,0.3858067,0.6017424,-1.459148,0.14
 39555\PG=C01 [X(C4H11N1O1)]\\@
 The archive entry for this job was punched.


 The juvenile sea squirt wanders through the sea searching
 for a suitable rock or hunk of coral to cling to and make
 its home for life.  For this task it has a rudimentary
 nervous system.  When it finds its spot and takes root, it
 doesn't need its brain any more so it eats it.
 It's rather like getting tenure.

                               -- source unknown
 Leave Link 9999 at Wed Oct 22 13:13:46 2025, MaxMem=  4294967296 cpu:               0.1 elap:               0.0
 Job cpu time:       0 days  0 hours 26 minutes  6.6 seconds.
 Elapsed time:       0 days  0 hours  3 minutes 17.9 seconds.
 File lengths (MBytes):  RWF=    288 Int=      0 D2E=      0 Chk=      8 Scr=     32
 Normal termination of Gaussian 16 at Wed Oct 22 13:13:46 2025.
 (Enter /lrz/sys/applications/gaussian/g16.C.01/x86_64_legacy/exe/l1.exe)
 Link1:  Proceeding to internal job step number  2.
 --------------------------------------------------------------------
 #P Geom=AllCheck Guess=TCheck SCRF=Check GenChk RwB97XD/def2SVP Freq
 --------------------------------------------------------------------
 1/10=4,29=7,30=1,38=1,40=1/1,3;
 2/12=2,40=1/2;
 3/5=43,7=101,11=2,14=-4,25=1,30=1,70=2,71=2,74=-58,116=1,140=1/1,2,3;
 4/5=101/1;
 5/5=2,38=6,98=1/2;
 8/6=4,10=90,11=11/1;
 11/6=1,8=1,9=11,15=111,16=1/1,2,10;
 10/6=1/2;
 6/7=2,8=2,9=2,10=2,28=1/1;
 7/8=1,10=1,25=1/1,2,3,16;
 1/10=4,30=1/3;
 99//99;
 Leave Link    1 at Wed Oct 22 13:13:46 2025, MaxMem=  4294967296 cpu:               0.2 elap:               0.0
 (Enter /lrz/sys/applications/gaussian/g16.C.01/x86_64_legacy/exe/l101.exe)
 Structure from the checkpoint file:  "g16_C17-a_9.chk"
 -----------
 g16_C17-a_9
 -----------
 Charge =  0 Multiplicity = 1
 Redundant internal coordinates found in file.  (old form).
 O,0,-1.4371777232,-0.9941125991,0.2647807904
 C,0,-0.9951753494,0.3580025634,0.2659620669
 N,0,-1.8620983555,1.2523939574,-0.4567551044
 C,0,0.4051293906,0.3748788923,-0.3239125123
 C,0,1.4217181271,-0.4661183606,0.4407809583
 C,0,2.8180542916,-0.3987509835,-0.1642879004
 H,0,-2.2624445939,-1.0317919674,0.7626090435
 H,0,-0.9527904634,0.7146176276,1.311377091
 H,0,-2.7948740027,1.2240122872,-0.0454807154
 H,0,-1.9629632264,0.908980236,-1.4132091985
 H,0,0.7419251787,1.4228721828,-0.3628229968
 H,0,0.3411252853,0.0240220232,-1.3705038949
 H,0,1.0785864885,-1.5124787035,0.4691484354
 H,0,1.4551166182,-0.1246963827,1.4900295299
 H,0,2.8176154302,-0.7596970728,-1.2054920418
 H,0,3.1996750929,0.6349976757,-0.1728682492
 H,0,3.5329968115,-1.0145535758,0.4023187981
 Recover connectivity data from disk.
 ITRead=  0  0  0  0  0  0  0  0  0  0  0  0  0  0  0  0  0
 MicOpt= -1 -1 -1 -1 -1 -1 -1 -1 -1 -1 -1 -1 -1 -1 -1 -1 -1
 NAtoms=     17 NQM=       17 NQMF=       0 NMMI=      0 NMMIF=      0
                NMic=       0 NMicF=      0.
                    Isotopes and Nuclear Properties:
 (Nuclear quadrupole moments (NQMom) in fm**2, nuclear magnetic moments (NMagM)
  in nuclear magnetons)

  Atom         1           2           3           4           5           6           7           8           9          10
 IAtWgt=          16          12          14          12          12          12           1           1           1           1
 AtmWgt=  15.9949146  12.0000000  14.0030740  12.0000000  12.0000000  12.0000000   1.0078250   1.0078250   1.0078250   1.0078250
 NucSpn=           0           0           2           0           0           0           1           1           1           1
 AtZEff=   5.6000000   3.6000000   4.5500000   3.6000000   3.6000000   3.6000000   1.0000000   1.0000000   1.0000000   1.0000000
 NQMom=    0.0000000   0.0000000   2.0440000   0.0000000   0.0000000   0.0000000   0.0000000   0.0000000   0.0000000   0.0000000
 NMagM=    0.0000000   0.0000000   0.4037610   0.0000000   0.0000000   0.0000000   2.7928460   2.7928460   2.7928460   2.7928460
 AtZNuc=   8.0000000   6.0000000   7.0000000   6.0000000   6.0000000   6.0000000   1.0000000   1.0000000   1.0000000   1.0000000

  Atom        11          12          13          14          15          16          17
 IAtWgt=           1           1           1           1           1           1           1
 AtmWgt=   1.0078250   1.0078250   1.0078250   1.0078250   1.0078250   1.0078250   1.0078250
 NucSpn=           1           1           1           1           1           1           1
 AtZEff=   1.0000000   1.0000000   1.0000000   1.0000000   1.0000000   1.0000000   1.0000000
 NQMom=    0.0000000   0.0000000   0.0000000   0.0000000   0.0000000   0.0000000   0.0000000
 NMagM=    2.7928460   2.7928460   2.7928460   2.7928460   2.7928460   2.7928460   2.7928460
 AtZNuc=   1.0000000   1.0000000   1.0000000   1.0000000   1.0000000   1.0000000   1.0000000
 Leave Link  101 at Wed Oct 22 13:13:47 2025, MaxMem=  4294967296 cpu:               2.2 elap:               0.3
 (Enter /lrz/sys/applications/gaussian/g16.C.01/x86_64_legacy/exe/l103.exe)

 GradGradGradGradGradGradGradGradGradGradGradGradGradGradGradGradGradGrad
 Berny optimization.
 Initialization pass.
                           ----------------------------
                           !    Initial Parameters    !
                           ! (Angstroms and Degrees)  !
 --------------------------                            --------------------------
 ! Name  Definition              Value          Derivative Info.                !
 --------------------------------------------------------------------------------
 ! R1    R(1,2)                  1.4225         calculate D2E/DX2 analytically  !
 ! R2    R(1,7)                  0.9645         calculate D2E/DX2 analytically  !
 ! R3    R(2,3)                  1.4401         calculate D2E/DX2 analytically  !
 ! R4    R(2,4)                  1.5196         calculate D2E/DX2 analytically  !
 ! R5    R(2,8)                  1.1054         calculate D2E/DX2 analytically  !
 ! R6    R(3,9)                  1.0198         calculate D2E/DX2 analytically  !
 ! R7    R(3,10)                 1.0212         calculate D2E/DX2 analytically  !
 ! R8    R(4,5)                  1.525          calculate D2E/DX2 analytically  !
 ! R9    R(4,11)                 1.1015         calculate D2E/DX2 analytically  !
 ! R10   R(4,12)                 1.1057         calculate D2E/DX2 analytically  !
 ! R11   R(5,6)                  1.5233         calculate D2E/DX2 analytically  !
 ! R12   R(5,13)                 1.1016         calculate D2E/DX2 analytically  !
 ! R13   R(5,14)                 1.1039         calculate D2E/DX2 analytically  !
 ! R14   R(6,15)                 1.102          calculate D2E/DX2 analytically  !
 ! R15   R(6,16)                 1.102          calculate D2E/DX2 analytically  !
 ! R16   R(6,17)                 1.1006         calculate D2E/DX2 analytically  !
 ! A1    A(2,1,7)              107.6112         calculate D2E/DX2 analytically  !
 ! A2    A(1,2,3)              113.7573         calculate D2E/DX2 analytically  !
 ! A3    A(1,2,4)              107.2513         calculate D2E/DX2 analytically  !
 ! A4    A(1,2,8)              108.6235         calculate D2E/DX2 analytically  !
 ! A5    A(3,2,4)              110.6732         calculate D2E/DX2 analytically  !
 ! A6    A(3,2,8)              107.2985         calculate D2E/DX2 analytically  !
 ! A7    A(4,2,8)              109.1601         calculate D2E/DX2 analytically  !
 ! A8    A(2,3,9)              109.326          calculate D2E/DX2 analytically  !
 ! A9    A(2,3,10)             108.7014         calculate D2E/DX2 analytically  !
 ! A10   A(9,3,10)             106.1413         calculate D2E/DX2 analytically  !
 ! A11   A(2,4,5)              114.4269         calculate D2E/DX2 analytically  !
 ! A12   A(2,4,11)             107.8214         calculate D2E/DX2 analytically  !
 ! A13   A(2,4,12)             108.0936         calculate D2E/DX2 analytically  !
 ! A14   A(5,4,11)             109.7912         calculate D2E/DX2 analytically  !
 ! A15   A(5,4,12)             109.7698         calculate D2E/DX2 analytically  !
 ! A16   A(11,4,12)            106.6291         calculate D2E/DX2 analytically  !
 ! A17   A(4,5,6)              112.7993         calculate D2E/DX2 analytically  !
 ! A18   A(4,5,13)             109.2152         calculate D2E/DX2 analytically  !
 ! A19   A(4,5,14)             109.0399         calculate D2E/DX2 analytically  !
 ! A20   A(6,5,13)             109.7415         calculate D2E/DX2 analytically  !
 ! A21   A(6,5,14)             109.6415         calculate D2E/DX2 analytically  !
 ! A22   A(13,5,14)            106.1848         calculate D2E/DX2 analytically  !
 ! A23   A(5,6,15)             111.1279         calculate D2E/DX2 analytically  !
 ! A24   A(5,6,16)             111.2246         calculate D2E/DX2 analytically  !
 ! A25   A(5,6,17)             111.482          calculate D2E/DX2 analytically  !
 ! A26   A(15,6,16)            107.4601         calculate D2E/DX2 analytically  !
 ! A27   A(15,6,17)            107.6621         calculate D2E/DX2 analytically  !
 ! A28   A(16,6,17)            107.6929         calculate D2E/DX2 analytically  !
 ! D1    D(7,1,2,3)            -66.0822         calculate D2E/DX2 analytically  !
 ! D2    D(7,1,2,4)            171.1947         calculate D2E/DX2 analytically  !
 ! D3    D(7,1,2,8)             53.335          calculate D2E/DX2 analytically  !
 ! D4    D(1,2,3,9)             59.0921         calculate D2E/DX2 analytically  !
 ! D5    D(1,2,3,10)           -56.3592         calculate D2E/DX2 analytically  !
 ! D6    D(4,2,3,9)            179.9166         calculate D2E/DX2 analytically  !
 ! D7    D(4,2,3,10)            64.4653         calculate D2E/DX2 analytically  !
 ! D8    D(8,2,3,9)            -61.0753         calculate D2E/DX2 analytically  !
 ! D9    D(8,2,3,10)          -176.5267         calculate D2E/DX2 analytically  !
 ! D10   D(1,2,4,5)            -59.6558         calculate D2E/DX2 analytically  !
 ! D11   D(1,2,4,11)           177.8893         calculate D2E/DX2 analytically  !
 ! D12   D(1,2,4,12)            62.9744         calculate D2E/DX2 analytically  !
 ! D13   D(3,2,4,5)            175.7299         calculate D2E/DX2 analytically  !
 ! D14   D(3,2,4,11)            53.2751         calculate D2E/DX2 analytically  !
 ! D15   D(3,2,4,12)           -61.6399         calculate D2E/DX2 analytically  !
 ! D16   D(8,2,4,5)             57.8539         calculate D2E/DX2 analytically  !
 ! D17   D(8,2,4,11)           -64.601          calculate D2E/DX2 analytically  !
 ! D18   D(8,2,4,12)          -179.5159         calculate D2E/DX2 analytically  !
 ! D19   D(2,4,5,6)           -178.757          calculate D2E/DX2 analytically  !
 ! D20   D(2,4,5,13)            58.9311         calculate D2E/DX2 analytically  !
 ! D21   D(2,4,5,14)           -56.6981         calculate D2E/DX2 analytically  !
 ! D22   D(11,4,5,6)           -57.3792         calculate D2E/DX2 analytically  !
 ! D23   D(11,4,5,13)         -179.6911         calculate D2E/DX2 analytically  !
 ! D24   D(11,4,5,14)           64.6796         calculate D2E/DX2 analytically  !
 ! D25   D(12,4,5,6)            59.5268         calculate D2E/DX2 analytically  !
 ! D26   D(12,4,5,13)          -62.7851         calculate D2E/DX2 analytically  !
 ! D27   D(12,4,5,14)         -178.4144         calculate D2E/DX2 analytically  !
 ! D28   D(4,5,6,15)           -59.7573         calculate D2E/DX2 analytically  !
 ! D29   D(4,5,6,16)            59.9222         calculate D2E/DX2 analytically  !
 ! D30   D(4,5,6,17)          -179.8651         calculate D2E/DX2 analytically  !
 ! D31   D(13,5,6,15)           62.2585         calculate D2E/DX2 analytically  !
 ! D32   D(13,5,6,16)         -178.0619         calculate D2E/DX2 analytically  !
 ! D33   D(13,5,6,17)          -57.8492         calculate D2E/DX2 analytically  !
 ! D34   D(14,5,6,15)          178.5232         calculate D2E/DX2 analytically  !
 ! D35   D(14,5,6,16)          -61.7972         calculate D2E/DX2 analytically  !
 ! D36   D(14,5,6,17)           58.4154         calculate D2E/DX2 analytically  !
 --------------------------------------------------------------------------------
 Trust Radius=3.00D-01 FncErr=1.00D-07 GrdErr=1.00D-07 EigMax=2.50D+02 EigMin=1.00D-04
 Number of steps in this run=      2 maximum allowed number of steps=      2.
 GradGradGradGradGradGradGradGradGradGradGradGradGradGradGradGradGradGrad

 Leave Link  103 at Wed Oct 22 13:13:47 2025, MaxMem=  4294967296 cpu:               0.1 elap:               0.0
 (Enter /lrz/sys/applications/gaussian/g16.C.01/x86_64_legacy/exe/l202.exe)
                          Input orientation:                          
 ---------------------------------------------------------------------
 Center     Atomic      Atomic             Coordinates (Angstroms)
 Number     Number       Type             X           Y           Z
 ---------------------------------------------------------------------
      1          8           0       -1.437178   -0.994113    0.264781
      2          6           0       -0.995175    0.358003    0.265962
      3          7           0       -1.862098    1.252394   -0.456755
      4          6           0        0.405129    0.374879   -0.323913
      5          6           0        1.421718   -0.466118    0.440781
      6          6           0        2.818054   -0.398751   -0.164288
      7          1           0       -2.262445   -1.031792    0.762609
      8          1           0       -0.952790    0.714618    1.311377
      9          1           0       -2.794874    1.224012   -0.045481
     10          1           0       -1.962963    0.908980   -1.413209
     11          1           0        0.741925    1.422872   -0.362823
     12          1           0        0.341125    0.024022   -1.370504
     13          1           0        1.078586   -1.512479    0.469148
     14          1           0        1.455117   -0.124696    1.490030
     15          1           0        2.817615   -0.759697   -1.205492
     16          1           0        3.199675    0.634998   -0.172868
     17          1           0        3.532997   -1.014554    0.402319
 ---------------------------------------------------------------------
                    Distance matrix (angstroms):
                    1          2          3          4          5
     1  O    0.000000
     2  C    1.422527   0.000000
     3  N    2.397491   1.440073   0.000000
     4  C    2.369555   1.519569   2.434749   0.000000
     5  C    2.912566   2.559514   3.813438   1.524954   0.000000
     6  C    4.318050   3.911331   4.971483   2.538935   1.523286
     7  H    0.964530   1.945291   2.620044   3.205496   3.741205
     8  H    2.061493   1.105379   2.059693   2.152566   2.791123
     9  H    2.619099   2.021357   1.019815   3.322435   4.568659
    10  H    2.591112   2.014896   1.021230   2.660769   4.096858
    11  H    3.314241   2.132331   2.611288   1.101470   2.162448
    12  H    2.621663   2.138986   2.682914   1.105690   2.165334
    13  H    2.576730   2.800084   4.141189   2.155135   1.101551
    14  H    3.259215   2.781235   4.085372   2.154631   1.103905
    15  H    4.507762   4.236957   5.148673   2.807941   2.178287
    16  H    4.934161   4.226827   5.107183   2.810687   2.179485
    17  H    4.972119   4.733587   5.914737   3.498784   2.181687
                    6          7          8          9         10
     6  C    0.000000
     7  H    5.203013   0.000000
     8  H    4.199577   2.250841   0.000000
     9  H    5.844009   2.454617   2.343889   0.000000
    10  H    5.111565   2.930951   2.912318   1.631564   0.000000
    11  H    2.769122   4.039581   2.485283   3.556571   2.946832
    12  H    2.787270   3.527533   3.056735   3.609731   2.468562
    13  H    2.160412   3.388166   3.129824   4.770422   4.319463
    14  H    2.160896   3.895154   2.556244   4.715848   4.602233
    15  H    1.101993   5.454766   4.766990   6.064715   5.067698
    16  H    1.101973   5.786887   4.410475   6.024764   5.316610
    17  H    1.100636   5.806655   4.892720   6.727083   6.099320
                   11         12         13         14         15
    11  H    0.000000
    12  H    1.769984   0.000000
    13  H    3.069495   2.507789   0.000000
    14  H    2.517275   3.073393   1.763495   0.000000
    15  H    3.127649   2.602777   2.528898   3.086335   0.000000
    16  H    2.587927   3.158944   3.085913   2.527024   1.776923
    17  H    3.783724   3.795996   2.505300   2.508495   1.778139
                   16         17
    16  H    0.000000
    17  H    1.778472   0.000000
 Stoichiometry    C4H11NO
 Framework group  C1[X(C4H11NO)]
 Deg. of freedom    45
 Full point group                 C1      NOp   1
 RotChk:  IX=0 Diff= 5.00D-15
 Largest Abelian subgroup         C1      NOp   1
 Largest concise Abelian subgroup C1      NOp   1
                         Standard orientation:                         
 ---------------------------------------------------------------------
 Center     Atomic      Atomic             Coordinates (Angstroms)
 Number     Number       Type             X           Y           Z
 ---------------------------------------------------------------------
      1          8           0        1.269555    1.258726   -0.311083
      2          6           0        1.088260   -0.004072    0.318246
      3          7           0        2.119477   -0.960218    0.008107
      4          6           0       -0.273804   -0.527532   -0.105856
      5          6           0       -1.442763    0.374380    0.275689
      6          6           0       -2.791224   -0.199470   -0.139943
      7          1           0        2.064510    1.658717    0.060902
      8          1           0        1.095299    0.143220    1.413746
      9          1           0        3.023258   -0.588291    0.299437
     10          1           0        2.170813   -1.069080   -1.006006
     11          1           0       -0.407949   -1.523095    0.345911
     12          1           0       -0.258512   -0.676620   -1.201342
     13          1           0       -1.301908    1.364904   -0.185218
     14          1           0       -1.429804    0.538284    1.367281
     15          1           0       -2.840346   -0.348414   -1.230718
     16          1           0       -2.972583   -1.176813    0.335718
     17          1           0       -3.618375    0.469068    0.143389
 ---------------------------------------------------------------------
 Rotational constants (GHZ):           7.5359056           1.7549425           1.5287380
 Leave Link  202 at Wed Oct 22 13:13:47 2025, MaxMem=  4294967296 cpu:               0.0 elap:               0.0
 (Enter /lrz/sys/applications/gaussian/g16.C.01/x86_64_legacy/exe/l301.exe)
 Standard basis: def2SVP (5D, 7F)
 Ernie: Thresh=  0.10000D-02 Tol=  0.10000D-05 Strict=F.
 There are   145 symmetry adapted cartesian basis functions of A   symmetry.
 There are   139 symmetry adapted basis functions of A   symmetry.
   139 basis functions,   227 primitive gaussians,   145 cartesian basis functions
    25 alpha electrons       25 beta electrons
       nuclear repulsion energy       257.0236990735 Hartrees.
 IExCor= 4639 DFT=T Ex+Corr=wB97XD ExCW=0 ScaHFX=  1.000000
 ScaDFX=  1.000000  1.000000  1.000000  1.000000 ScalE2=  1.000000  1.000000
 IRadAn=      5 IRanWt=     -1 IRanGd=            0 ICorTp=0 IEmpDi=121
 HFx  wShort=  0.000000 wLong=  0.200000 cFull=  0.222036 cShort=  0.000000 cLong=  0.777964
 DFx  wShort=  0.000000 wLong=  0.200000 cFull=  0.000000 cShort=  0.000000 cLong=  1.000000
 NAtoms=   17 NActive=   17 NUniq=   17 SFac= 1.00D+00 NAtFMM=   60 NAOKFM=F Big=F
 Integral buffers will be    131072 words long.
 Raffenetti 2 integral format.
 Two-electron integral symmetry is turned on.
 R6Disp:  Grimme-D2 Dispersion energy=       -0.0087324015 Hartrees.
 Nuclear repulsion after empirical dispersion term =      257.0149666721 Hartrees.
 Force inversion solution in PCM.
 ------------------------------------------------------------------------------
 Polarizable Continuum Model (PCM)
 =================================
 Model                : PCM.
 Atomic radii         : SMD-Coulomb.
 Polarization charges : Total charges.
 Charge compensation  : None.
 Solution method      : Matrix inversion.
 Cavity type          : VdW (van der Waals Surface) (Alpha=1.000).
 Cavity algorithm     : GePol (No added spheres)
                        Default sphere list used, NSphG=   17.
                        Lebedev-Laikov grids with approx.  5.0 points / Ang**2.
                        Smoothing algorithm: York/Karplus (Gamma=1.0000).
                        Polarization charges: spherical gaussians, with
                                              point-specific exponents (IZeta= 3).
                        Self-potential: point-specific (ISelfS= 7).
                        Self-field    : sphere-specific E.n sum rule (ISelfD= 2).
 1st derivatives      : Analytical E(r).r(x)/FMM algorithm (CHGder, D1EAlg=3).
                        Cavity 1st derivative terms included.
 2nd derivatives      : Analytical E(r).r(xy)/FMM algorithm (CHGder, D2EAlg=3).
                        Cavity 2nd derivative terms included.
 Solvent              : Water, Eps=  78.355300 Eps(inf)=   1.777849
 ------------------------------------------------------------------------------
 Spheres list:
 ISph  on   Nord     Re0    Alpha      Xe            Ye            Ze
    1   O      1    1.5200  1.000      1.269555      1.258726     -0.311083
    2   C      2    1.8500  1.000      1.088260     -0.004072      0.318246
    3   N      3    1.8900  1.000      2.119477     -0.960218      0.008107
    4   C      4    1.8500  1.000     -0.273804     -0.527532     -0.105856
    5   C      5    1.8500  1.000     -1.442763      0.374380      0.275689
    6   C      6    1.8500  1.000     -2.791224     -0.199470     -0.139943
    7   H      7    1.2000  1.000      2.064510      1.658717      0.060902
    8   H      8    1.2000  1.000      1.095299      0.143220      1.413746
    9   H      9    1.2000  1.000      3.023258     -0.588291      0.299437
   10   H     10    1.2000  1.000      2.170813     -1.069080     -1.006006
   11   H     11    1.2000  1.000     -0.407949     -1.523095      0.345911
   12   H     12    1.2000  1.000     -0.258512     -0.676620     -1.201342
   13   H     13    1.2000  1.000     -1.301908      1.364904     -0.185218
   14   H     14    1.2000  1.000     -1.429804      0.538284      1.367281
   15   H     15    1.2000  1.000     -2.840346     -0.348414     -1.230718
   16   H     16    1.2000  1.000     -2.972583     -1.176813      0.335718
   17   H     17    1.2000  1.000     -3.618375      0.469068      0.143389
 ------------------------------------------------------------------------------
 GePol: Number of generator spheres                  =      17
 GePol: Total number of spheres                      =      17
 GePol: Number of exposed spheres                    =      17 (100.00%)
 GePol: Number of points                             =    1196
 GePol: Average weight of points                     =       0.12
 GePol: Minimum weight of points                     =   0.43D-10
 GePol: Maximum weight of points                     =    0.21991
 GePol: Number of points with low weight             =      66
 GePol: Fraction of low-weight points (<1% of avg)   =       5.52%
 GePol: Cavity surface area                          =    138.434 Ang**2
 GePol: Cavity volume                                =    108.001 Ang**3
 ------------------------------------------------------------------------------
 Atomic radii for non-electrostatic terms: SMD-CDS.
 ------------------------------------------------------------------------------
 PCM non-electrostatic energy =         0.0032453260 Hartrees.
 Nuclear repulsion after PCM non-electrostatic terms =      257.0182119981 Hartrees.
 Leave Link  301 at Wed Oct 22 13:13:47 2025, MaxMem=  4294967296 cpu:               0.4 elap:               0.1
 (Enter /lrz/sys/applications/gaussian/g16.C.01/x86_64_legacy/exe/l302.exe)
 NPDir=0 NMtPBC=     1 NCelOv=     1 NCel=       1 NClECP=     1 NCelD=      1
         NCelK=      1 NCelE2=     1 NClLst=     1 CellRange=     0.0.
 One-electron integrals computed using PRISM.
 One-electron integral symmetry used in STVInt
   1 Symmetry operations used in ECPInt.
 ECPInt:  NShTT=    2415 NPrTT=    8239 LenC2=    2397 LenP2D=    6843.
 LDataN:  DoStor=T MaxTD1= 4 Len=   56
 NBasis=   139 RedAO= T EigKep=  1.39D-03  NBF=   139
 NBsUse=   139 1.00D-06 EigRej= -1.00D+00 NBFU=   139
 Precomputing XC quadrature grid using
 IXCGrd= 4 IRadAn=           5 IRanWt=          -1 IRanGd=           0 AccXCQ= 0.00D+00.
 Generated NRdTot=       0 NPtTot=           0 NUsed=           0 NTot=          32
 NSgBfM=   145   145   145   145   145 MxSgAt=    17 MxSgA2=    17.
 Leave Link  302 at Wed Oct 22 13:13:47 2025, MaxMem=  4294967296 cpu:               1.3 elap:               0.2
 (Enter /lrz/sys/applications/gaussian/g16.C.01/x86_64_legacy/exe/l303.exe)
 DipDrv:  MaxL=1.
 Leave Link  303 at Wed Oct 22 13:13:47 2025, MaxMem=  4294967296 cpu:               0.2 elap:               0.0
 (Enter /lrz/sys/applications/gaussian/g16.C.01/x86_64_legacy/exe/l401.exe)
 Initial guess from the checkpoint file:  "g16_C17-a_9.chk"
 B after Tr=     0.000000    0.000000   -0.000000
         Rot=    1.000000   -0.000000   -0.000000    0.000000 Ang=   0.00 deg.
 Guess basis will be translated and rotated to current coordinates.
 JPrj=2 DoOrth=T DoCkMO=T.
 Leave Link  401 at Wed Oct 22 13:13:47 2025, MaxMem=  4294967296 cpu:               0.7 elap:               0.1
 (Enter /lrz/sys/applications/gaussian/g16.C.01/x86_64_legacy/exe/l502.exe)
 Integral symmetry usage will be decided dynamically.
 Closed shell SCF:
 Using DIIS extrapolation, IDIIS=  1040.
 NGot=  4294967296 LenX=  4294921924 LenY=  4294900458
 Requested convergence on RMS density matrix=1.00D-08 within 128 cycles.
 Requested convergence on MAX density matrix=1.00D-06.
 Requested convergence on             energy=1.00D-06.
 No special actions if energy rises.
 Fock matrices will be formed incrementally for  20 cycles.

 Cycle   1  Pass 1  IDiag  1:
 FoFJK:  IHMeth= 1 ICntrl=       0 DoSepK=T KAlg= 0 I1Cent=           0 FoldK=F
 IRaf=         1 NMat=       1 IRICut=       1 DoRegI=T DoRafI=F ISym2E= 0 IDoP0=0 IntGTp=1.
 FoFCou: FMM=F IPFlag=           0 FMFlag=      100000 FMFlg1=           0
         NFxFlg=           0 DoJE=T BraDBF=F KetDBF=F FulRan=T
         wScrn=  0.000000 ICntrl=       500 IOpCl=  0 I1Cent=           0 NGrid=           0
         NMat0=    1 NMatS0=      1 NMatT0=    0 NMatD0=    1 NMtDS0=    0 NMtDT0=    0
 Symmetry not used in FoFCou.
 Inv3:  Mode=1 IEnd=     4291248.
 Iteration    1 A*A^-1 deviation from unit magnitude is 6.44D-15 for     38.
 Iteration    1 A*A^-1 deviation from orthogonality  is 3.03D-15 for    872    458.
 Iteration    1 A^-1*A deviation from unit magnitude is 6.11D-15 for    799.
 Iteration    1 A^-1*A deviation from orthogonality  is 2.94D-15 for   1152    417.
 E= -288.744118417989    
 DIIS: error= 3.77D-09 at cycle   1 NSaved=   1.
 NSaved= 1 IEnMin= 1 EnMin= -288.744118417989     IErMin= 1 ErrMin= 3.77D-09
 ErrMax= 3.77D-09  0.00D+00 EMaxC= 1.00D-01 BMatC= 2.48D-15 BMatP= 2.48D-15
 IDIUse=1 WtCom= 1.00D+00 WtEn= 0.00D+00
 Coeff-Com:  0.100D+01
 Coeff:      0.100D+01
 Gap=     0.475 Goal=   None    Shift=    0.000
 RMSDP=1.02D-09 MaxDP=1.85D-08              OVMax= 3.96D-08

 Error on total polarization charges =  0.03457
 SCF Done:  E(RwB97XD) =  -288.744118418     A.U. after    1 cycles
            NFock=  1  Conv=0.10D-08     -V/T= 2.0108
 KE= 2.856569759483D+02 PE=-1.186159417591D+03 EE= 3.547401112270D+02
 SMD-CDS (non-electrostatic) energy       (kcal/mol) =       2.04
 (included in total energy above)
 Leave Link  502 at Wed Oct 22 13:13:51 2025, MaxMem=  4294967296 cpu:              29.0 elap:               3.7
 (Enter /lrz/sys/applications/gaussian/g16.C.01/x86_64_legacy/exe/l801.exe)
 DoSCS=F DFT=T ScalE2(SS,OS)=  1.000000  1.000000
 Range of M.O.s used for correlation:     1   139
 NBasis=   139 NAE=    25 NBE=    25 NFC=     0 NFV=     0
 NROrb=    139 NOA=    25 NOB=    25 NVA=   114 NVB=   114
 Leave Link  801 at Wed Oct 22 13:13:51 2025, MaxMem=  4294967296 cpu:               0.1 elap:               0.0
 (Enter /lrz/sys/applications/gaussian/g16.C.01/x86_64_legacy/exe/l1101.exe)
 Using compressed storage, NAtomX=    17.
 Will process     18 centers per pass.
   1 Symmetry operations used in ECPInt.
 ECPInt:  NShTT=    2415 NPrTT=    8239 LenC2=    2397 LenP2D=    6843.
 LDataN:  DoStor=T MaxTD1= 5 Len=  102
 R6Disp: Adding Grimme-D2 dispersion energy 1st derivatives to the gradient.
 Leave Link 1101 at Wed Oct 22 13:13:51 2025, MaxMem=  4294967296 cpu:               0.8 elap:               0.1
 (Enter /lrz/sys/applications/gaussian/g16.C.01/x86_64_legacy/exe/l1102.exe)
 Symmetrizing basis deriv contribution to polar:
 IMax=3 JMax=2 DiffMx= 0.00D+00
 Leave Link 1102 at Wed Oct 22 13:13:51 2025, MaxMem=  4294967296 cpu:               0.2 elap:               0.0
 (Enter /lrz/sys/applications/gaussian/g16.C.01/x86_64_legacy/exe/l1110.exe)
 Forming Gx(P) for the SCF density, NAtomX=    17.
 Integral derivatives from FoFJK, PRISM(SPDF).
 Do as many integral derivatives as possible in FoFJK.
 G2DrvN: MDV=    4294965409.
 G2DrvN: will do    18 centers at a time, making    1 passes.
 Calling FoFCou, ICntrl=  3107 FMM=F I1Cent=   0 AccDes= 0.00D+00.
 FoFJK:  IHMeth= 1 ICntrl=    3107 DoSepK=T KAlg= 0 I1Cent=           0 FoldK=F
 IRaf=         1 NMat=       1 IRICut=       1 DoRegI=T DoRafI=F ISym2E= 0 IDoP0=0 IntGTp=1.
 FoFCou: FMM=F IPFlag=           0 FMFlag=      100000 FMFlg1=           0
         NFxFlg=           0 DoJE=F BraDBF=F KetDBF=F FulRan=T
         wScrn=  0.000000 ICntrl=      3507 IOpCl=  0 I1Cent=           0 NGrid=           0
         NMat0=    1 NMatS0=      1 NMatT0=    0 NMatD0=    1 NMtDS0=    0 NMtDT0=    0
 Symmetry not used in FoFCou.
 NEqPCM:  Using equilibrium solvation (IEInf=0, Eps=  78.3553, EpsInf=   1.7778)
 G2PCM: DoFxE=T DoFxN=T DoGrad=T DoDP/DQ/DG/TGxP=FFFF NFrqRd=   0 IEInf=0 SqF1=F DoCFld=F IF1Alg=4.
 GePol: Maximum number of non-zero 1st derivatives   =     264
 End of G2Drv F.D. properties file   721 does not exist.
 End of G2Drv F.D. properties file   722 does not exist.
 End of G2Drv F.D. properties file   788 does not exist.
 Leave Link 1110 at Wed Oct 22 13:14:23 2025, MaxMem=  4294967296 cpu:             258.7 elap:              32.4
 (Enter /lrz/sys/applications/gaussian/g16.C.01/x86_64_legacy/exe/l1002.exe)
 Minotr:  Closed shell wavefunction.
          IDoAtm=11111111111111111
 NEqPCM:  Using equilibrium solvation (IEInf=0, Eps=  78.3553, EpsInf=   1.7778)
          Direct CPHF calculation.
          Differentiating once with respect to electric field.
                with respect to dipole field.
          Differentiating once with respect to nuclear coordinates.
          Requested convergence is 1.0D-08 RMS, and 1.0D-07 maximum.
          Secondary convergence is 1.0D-12 RMS, and 1.0D-12 maximum.
          NewPWx=T KeepS1=F KeepF1=F KeepIn=T MapXYZ=F SortEE=F KeepMc=T.
         5067 words used for storage of precomputed grid.
 Keep R1 ints in memory in canonical form, NReq=103826828.
 FoFCou: FMM=F IPFlag=           0 FMFlag=           0 FMFlg1=           0
         NFxFlg=           0 DoJE=F BraDBF=F KetDBF=F FulRan=T
         wScrn=  0.000000 ICntrl=       600 IOpCl=  0 I1Cent=           0 NGrid=           0
         NMat0=    1 NMatS0=   9730 NMatT0=    0 NMatD0=    1 NMtDS0=    0 NMtDT0=    0
 Symmetry not used in FoFCou.
 Two-electron integral symmetry not used.
          MDV=    4294967296 using IRadAn=       1.
          Solving linear equations simultaneously, MaxMat=       0.
          There are    54 degrees of freedom in the 1st order CPHF.  IDoFFX=6 NUNeed=     3.
     51 vectors produced by pass  0 Test12= 5.28D-15 1.85D-09 XBig12= 1.82D+01 1.19D+00.
 AX will form    51 AO Fock derivatives at one time.
     51 vectors produced by pass  1 Test12= 5.28D-15 1.85D-09 XBig12= 8.31D-01 1.30D-01.
     51 vectors produced by pass  2 Test12= 5.28D-15 1.85D-09 XBig12= 1.95D-02 2.01D-02.
     51 vectors produced by pass  3 Test12= 5.28D-15 1.85D-09 XBig12= 1.32D-04 2.26D-03.
     51 vectors produced by pass  4 Test12= 5.28D-15 1.85D-09 XBig12= 7.26D-07 1.28D-04.
     51 vectors produced by pass  5 Test12= 5.28D-15 1.85D-09 XBig12= 2.97D-09 7.11D-06.
     23 vectors produced by pass  6 Test12= 5.28D-15 1.85D-09 XBig12= 1.18D-11 4.10D-07.
      3 vectors produced by pass  7 Test12= 5.28D-15 1.85D-09 XBig12= 4.79D-14 2.51D-08.
 InvSVY:  IOpt=1 It=  1 EMax= 3.55D-15
 Solved reduced A of dimension   332 with    54 vectors.
 FullF1:  Do perturbations      1 to       3.
 Isotropic polarizability for W=    0.000000       72.78 Bohr**3.
 End of Minotr F.D. properties file   721 does not exist.
 End of Minotr F.D. properties file   722 does not exist.
 End of Minotr F.D. properties file   788 does not exist.
 Leave Link 1002 at Wed Oct 22 13:15:00 2025, MaxMem=  4294967296 cpu:             294.0 elap:              36.8
 (Enter /lrz/sys/applications/gaussian/g16.C.01/x86_64_legacy/exe/l601.exe)
 Copying SCF densities to generalized density rwf, IOpCl= 0 IROHF=0.

 **********************************************************************

            Population analysis using the SCF Density.

 **********************************************************************

 Orbital symmetries:
       Occupied  (A) (A) (A) (A) (A) (A) (A) (A) (A) (A) (A) (A)
                 (A) (A) (A) (A) (A) (A) (A) (A) (A) (A) (A) (A)
                 (A)
       Virtual   (A) (A) (A) (A) (A) (A) (A) (A) (A) (A) (A) (A)
                 (A) (A) (A) (A) (A) (A) (A) (A) (A) (A) (A) (A)
                 (A) (A) (A) (A) (A) (A) (A) (A) (A) (A) (A) (A)
                 (A) (A) (A) (A) (A) (A) (A) (A) (A) (A) (A) (A)
                 (A) (A) (A) (A) (A) (A) (A) (A) (A) (A) (A) (A)
                 (A) (A) (A) (A) (A) (A) (A) (A) (A) (A) (A) (A)
                 (A) (A) (A) (A) (A) (A) (A) (A) (A) (A) (A) (A)
                 (A) (A) (A) (A) (A) (A) (A) (A) (A) (A) (A) (A)
                 (A) (A) (A) (A) (A) (A) (A) (A) (A) (A) (A) (A)
                 (A) (A) (A) (A) (A) (A)
 The electronic state is 1-A.
 Alpha  occ. eigenvalues --  -19.24753 -14.41636 -10.35681 -10.28347 -10.28105
 Alpha  occ. eigenvalues --  -10.27929  -1.11034  -0.95715  -0.87339  -0.79033
 Alpha  occ. eigenvalues --   -0.69540  -0.65874  -0.61653  -0.56251  -0.53801
 Alpha  occ. eigenvalues --   -0.52104  -0.49772  -0.47612  -0.45458  -0.44301
 Alpha  occ. eigenvalues --   -0.41051  -0.40263  -0.39420  -0.37224  -0.32973
 Alpha virt. eigenvalues --    0.14571   0.15967   0.17193   0.19263   0.20426
 Alpha virt. eigenvalues --    0.20791   0.22716   0.24399   0.25404   0.25776
 Alpha virt. eigenvalues --    0.26283   0.30472   0.32151   0.33934   0.34863
 Alpha virt. eigenvalues --    0.39326   0.51505   0.52743   0.53098   0.53397
 Alpha virt. eigenvalues --    0.56187   0.62394   0.63623   0.66395   0.68190
 Alpha virt. eigenvalues --    0.70486   0.72716   0.73039   0.74831   0.75170
 Alpha virt. eigenvalues --    0.75990   0.76473   0.78060   0.79354   0.79968
 Alpha virt. eigenvalues --    0.80825   0.81811   0.82496   0.85118   0.88362
 Alpha virt. eigenvalues --    0.90242   0.98668   1.04608   1.06224   1.09945
 Alpha virt. eigenvalues --    1.10588   1.12928   1.15416   1.22166   1.28455
 Alpha virt. eigenvalues --    1.35635   1.35715   1.38404   1.45434   1.45874
 Alpha virt. eigenvalues --    1.52970   1.54472   1.56309   1.61323   1.63497
 Alpha virt. eigenvalues --    1.67794   1.75980   1.79718   1.85113   1.85468
 Alpha virt. eigenvalues --    1.85981   1.86741   1.88657   1.89661   1.91008
 Alpha virt. eigenvalues --    1.92930   1.94888   1.96564   1.99325   2.00187
 Alpha virt. eigenvalues --    2.01491   2.01804   2.04927   2.07617   2.09564
 Alpha virt. eigenvalues --    2.14390   2.17432   2.20890   2.23587   2.31648
 Alpha virt. eigenvalues --    2.36660   2.38012   2.41872   2.45405   2.49903
 Alpha virt. eigenvalues --    2.53445   2.55443   2.57219   2.66417   2.68946
 Alpha virt. eigenvalues --    2.69707   2.80097   2.83976   2.88253   2.91077
 Alpha virt. eigenvalues --    2.96063   2.96602   3.01498   3.04735   3.09366
 Alpha virt. eigenvalues --    3.11550   3.13754   3.15721   3.20043   3.24303
 Alpha virt. eigenvalues --    3.34923   3.45736   3.52075   3.87623
          Condensed to atoms (all electrons):
               1          2          3          4          5          6
     1  O    7.902371   0.316446  -0.075735  -0.083093   0.002538   0.000146
     2  C    0.316446   4.535609   0.371872   0.334508  -0.043251   0.007099
     3  N   -0.075735   0.371872   6.353833  -0.051849   0.007990  -0.000129
     4  C   -0.083093   0.334508  -0.051849   4.927395   0.358687  -0.051906
     5  C    0.002538  -0.043251   0.007990   0.358687   4.708597   0.419795
     6  C    0.000146   0.007099  -0.000129  -0.051906   0.419795   4.570854
     7  H    0.325390  -0.017346   0.002947   0.008861  -0.000057   0.000019
     8  H   -0.032767   0.408259  -0.043890  -0.033723  -0.012362   0.000008
     9  H    0.000686  -0.017574   0.354347   0.010206  -0.000621   0.000014
    10  H    0.004045  -0.012255   0.347980  -0.018572  -0.000185  -0.000040
    11  H    0.005157  -0.014930   0.008004   0.361463  -0.019043  -0.004950
    12  H    0.000659  -0.007197  -0.008661   0.360433  -0.028881  -0.005697
    13  H    0.017428  -0.006674   0.000357  -0.027090   0.371438  -0.021237
    14  H   -0.001259  -0.003135  -0.000104  -0.026864   0.381925  -0.026095
    15  H   -0.000012   0.000431   0.000001  -0.007836  -0.021476   0.395029
    16  H   -0.000012   0.000241  -0.000021  -0.006306  -0.023814   0.396204
    17  H   -0.000001  -0.000378   0.000003   0.006968  -0.016094   0.389567
               7          8          9         10         11         12
     1  O    0.325390  -0.032767   0.000686   0.004045   0.005157   0.000659
     2  C   -0.017346   0.408259  -0.017574  -0.012255  -0.014930  -0.007197
     3  N    0.002947  -0.043890   0.354347   0.347980   0.008004  -0.008661
     4  C    0.008861  -0.033723   0.010206  -0.018572   0.361463   0.360433
     5  C   -0.000057  -0.012362  -0.000621  -0.000185  -0.019043  -0.028881
     6  C    0.000019   0.000008   0.000014  -0.000040  -0.004950  -0.005697
     7  H    0.476771  -0.006853   0.004411  -0.000572  -0.000532  -0.000339
     8  H   -0.006853   0.687057  -0.009383   0.010012  -0.005985   0.008848
     9  H    0.004411  -0.009383   0.555739  -0.026935  -0.000203  -0.000431
    10  H   -0.000572   0.010012  -0.026935   0.564498  -0.000804   0.007971
    11  H   -0.000532  -0.005985  -0.000203  -0.000804   0.662528  -0.024926
    12  H   -0.000339   0.008848  -0.000431   0.007971  -0.024926   0.667374
    13  H   -0.000606  -0.000209  -0.000020   0.000026   0.008384  -0.008522
    14  H   -0.000078   0.007452   0.000004   0.000051  -0.009258   0.008446
    15  H   -0.000001   0.000015   0.000000  -0.000006  -0.001476   0.006337
    16  H    0.000001  -0.000033   0.000001   0.000004   0.005935  -0.001335
    17  H   -0.000002   0.000001  -0.000000   0.000000   0.000022  -0.000062
              13         14         15         16         17
     1  O    0.017428  -0.001259  -0.000012  -0.000012  -0.000001
     2  C   -0.006674  -0.003135   0.000431   0.000241  -0.000378
     3  N    0.000357  -0.000104   0.000001  -0.000021   0.000003
     4  C   -0.027090  -0.026864  -0.007836  -0.006306   0.006968
     5  C    0.371438   0.381925  -0.021476  -0.023814  -0.016094
     6  C   -0.021237  -0.026095   0.395029   0.396204   0.389567
     7  H   -0.000606  -0.000078  -0.000001   0.000001  -0.000002
     8  H   -0.000209   0.007452   0.000015  -0.000033   0.000001
     9  H   -0.000020   0.000004   0.000000   0.000001  -0.000000
    10  H    0.000026   0.000051  -0.000006   0.000004   0.000000
    11  H    0.008384  -0.009258  -0.001476   0.005935   0.000022
    12  H   -0.008522   0.008446   0.006337  -0.001335  -0.000062
    13  H    0.677593  -0.028564  -0.008425   0.007241  -0.005706
    14  H   -0.028564   0.673106   0.007502  -0.008270  -0.005643
    15  H   -0.008425   0.007502   0.639113  -0.024317  -0.022401
    16  H    0.007241  -0.008270  -0.024317   0.639692  -0.022850
    17  H   -0.005706  -0.005643  -0.022401  -0.022850   0.633986
 Mulliken charges:
               1
     1  O   -0.381987
     2  C    0.148277
     3  N   -0.266944
     4  C   -0.061282
     5  C   -0.085186
     6  C   -0.068681
     7  H    0.207985
     8  H    0.023554
     9  H    0.129762
    10  H    0.124782
    11  H    0.030615
    12  H    0.025982
    13  H    0.024586
    14  H    0.030784
    15  H    0.037523
    16  H    0.037638
    17  H    0.042590
 Sum of Mulliken charges =   0.00000
 Mulliken charges with hydrogens summed into heavy atoms:
               1
     1  O   -0.174001
     2  C    0.171831
     3  N   -0.012400
     4  C   -0.004685
     5  C   -0.029815
     6  C    0.049071
 APT charges:
               1
     1  O   -0.969001
     2  C    1.077833
     3  N   -0.747950
     4  C    0.055402
     5  C    0.148997
     6  C    0.069958
     7  H    0.350730
     8  H   -0.107700
     9  H    0.188671
    10  H    0.198766
    11  H   -0.029190
    12  H   -0.048232
    13  H   -0.038857
    14  H   -0.062744
    15  H   -0.028077
    16  H   -0.028831
    17  H   -0.029774
 Sum of APT charges =   0.00000
 APT charges with hydrogens summed into heavy atoms:
               1
     1  O   -0.618271
     2  C    0.970133
     3  N   -0.360513
     4  C   -0.022020
     5  C    0.047395
     6  C   -0.016724
 Electronic spatial extent (au):  <R**2>=            822.7116
 Charge=             -0.0000 electrons
 Dipole moment (field-independent basis, Debye):
    X=              1.9447    Y=              0.5966    Z=              0.6235  Tot=              2.1275
 Quadrupole moment (field-independent basis, Debye-Ang):
   XX=            -30.3524   YY=            -41.9665   ZZ=            -37.8240
   XY=              4.0633   XZ=              0.2768   YZ=              3.1582
 Traceless Quadrupole moment (field-independent basis, Debye-Ang):
   XX=              6.3619   YY=             -5.2522   ZZ=             -1.1097
   XY=              4.0633   XZ=              0.2768   YZ=              3.1582
 Octapole moment (field-independent basis, Debye-Ang**2):
  XXX=             44.9574  YYY=             10.8941  ZZZ=             -1.7553  XYY=              3.0503
  XXY=             13.2153  XXZ=              0.5270  XZZ=              5.9300  YZZ=             -0.5182
  YYZ=              0.0504  XYZ=              5.9930
 Hexadecapole moment (field-independent basis, Debye-Ang**3):
 XXXX=           -711.9177 YYYY=           -183.4741 ZZZZ=            -78.6637 XXXY=             22.2347
 XXXZ=             -3.3811 YYYX=             27.5661 YYYZ=              3.5529 ZZZX=             -2.4240
 ZZZY=              3.0587 XXYY=           -157.7634 XXZZ=           -142.5987 YYZZ=            -44.2495
 XXYZ=             10.0643 YYXZ=             -3.1304 ZZXY=             -1.1608
 N-N= 2.570182119981D+02 E-N=-1.186159417896D+03  KE= 2.856569759483D+02
  Exact polarizability:      76.457       0.329      70.469       0.859       2.208      71.411
 Approx polarizability:      56.994       0.096      55.651       0.897       0.829      55.592
 No NMR shielding tensors so no spin-rotation constants.
 Leave Link  601 at Wed Oct 22 13:15:00 2025, MaxMem=  4294967296 cpu:               0.7 elap:               0.1
 (Enter /lrz/sys/applications/gaussian/g16.C.01/x86_64_legacy/exe/l701.exe)
 ... and contract with generalized density number  0.
 Compute integral second derivatives.
 R6Disp: Adding Grimme-D2 dispersion energy 2nd derivatives to the Hessian.
   1 Symmetry operations used in ECPInt.
 ECPInt:  NShTT=    2415 NPrTT=    8239 LenC2=    2397 LenP2D=    6843.
 LDataN:  DoStor=T MaxTD1= 6 Len=  172
 D2PCM: PCM CHGder 2nd derivatives, FixD1E=F FixD2E=F DoIter=F DoCFld=F I1PDM=0
 GePol: Maximum number of non-zero 2nd derivatives   =     264
 Leave Link  701 at Wed Oct 22 13:15:05 2025, MaxMem=  4294967296 cpu:              35.2 elap:               4.4
 (Enter /lrz/sys/applications/gaussian/g16.C.01/x86_64_legacy/exe/l702.exe)
 L702 exits ... SP integral derivatives will be done elsewhere.
 Leave Link  702 at Wed Oct 22 13:15:05 2025, MaxMem=  4294967296 cpu:               0.1 elap:               0.0
 (Enter /lrz/sys/applications/gaussian/g16.C.01/x86_64_legacy/exe/l703.exe)
 Integral derivatives from FoFJK, PRISM(SPDF).
 Compute integral second derivatives, UseDBF=F ICtDFT=           0.
 Calling FoFJK, ICntrl=    100127 FMM=F ISym2X=0 I1Cent= 0 IOpClX= 0 NMat=1 NMatS=1 NMatT=0.
 FoFJK:  IHMeth= 1 ICntrl=  100127 DoSepK=T KAlg= 0 I1Cent=           0 FoldK=F
 IRaf=         1 NMat=       1 IRICut=       1 DoRegI=T DoRafI=F ISym2E= 0 IDoP0=0 IntGTp=1.
 FoFCou: FMM=F IPFlag=           0 FMFlag=      100000 FMFlg1=         800
         NFxFlg=           0 DoJE=F BraDBF=F KetDBF=F FulRan=T
         wScrn=  0.000000 ICntrl=    100527 IOpCl=  0 I1Cent=           0 NGrid=           0
         NMat0=    1 NMatS0=      1 NMatT0=    0 NMatD0=    1 NMtDS0=    0 NMtDT0=    0
 Symmetry not used in FoFCou.
 Leave Link  703 at Wed Oct 22 13:15:46 2025, MaxMem=  4294967296 cpu:             326.2 elap:              40.8
 (Enter /lrz/sys/applications/gaussian/g16.C.01/x86_64_legacy/exe/l716.exe)
 Dipole        = 7.65089093D-01 2.34702372D-01 2.45306955D-01
 Polarizability= 7.64565364D+01 3.28729940D-01 7.04685387D+01
                 8.59345407D-01 2.20788685D+00 7.14105225D+01
 Full mass-weighted force constant matrix:
 Low frequencies ---  -36.1920  -13.4923  -11.6896    0.0009    0.0011    0.0014
 Low frequencies ---   84.4687  119.2034  180.8089
 Diagonal vibrational polarizability:
       31.7214431      40.3497945      44.0698836
 Harmonic frequencies (cm**-1), IR intensities (KM/Mole), Raman scattering
 activities (A**4/AMU), depolarization ratios for plane and unpolarized
 incident light, reduced masses (AMU), force constants (mDyne/A),
 and normal coordinates:
                      1                      2                      3
                      A                      A                      A
 Frequencies --     84.1567               119.1557               180.8011
 Red. masses --      1.9138                 2.5059                 2.7270
 Frc consts  --      0.0080                 0.0210                 0.0525
 IR Inten    --      0.4552                 2.8472                 5.4696
  Atom  AN      X      Y      Z        X      Y      Z        X      Y      Z
     1   8    -0.02  -0.02  -0.12    -0.14  -0.01   0.05    -0.14  -0.04  -0.00
     2   6     0.01   0.03  -0.01     0.03  -0.03   0.04    -0.04  -0.07  -0.03
     3   7     0.01   0.02   0.04     0.04   0.04  -0.14     0.13   0.08   0.08
     4   6     0.00  -0.01   0.05     0.01  -0.11   0.21     0.02  -0.14  -0.13
     5   6    -0.01  -0.08   0.18     0.04   0.02  -0.02     0.09  -0.06  -0.06
     6   6     0.01   0.07  -0.11     0.04   0.08  -0.11    -0.05   0.17   0.09
     7   1    -0.03   0.03  -0.15    -0.07   0.01  -0.10    -0.25   0.08   0.10
     8   1     0.03   0.11  -0.02     0.18  -0.06   0.05    -0.16  -0.07  -0.03
     9   1     0.02   0.06  -0.02     0.06   0.07  -0.25     0.02   0.18   0.28
    10   1    -0.02  -0.08   0.05    -0.10   0.08  -0.15     0.34   0.17   0.08
    11   1     0.07  -0.05  -0.02    -0.01  -0.00   0.44     0.00  -0.15  -0.16
    12   1    -0.05   0.07   0.04    -0.02  -0.37   0.24     0.04  -0.08  -0.13
    13   1     0.07   0.03   0.45     0.16  -0.06  -0.14     0.18  -0.07  -0.05
    14   1    -0.11  -0.37   0.22    -0.07   0.17  -0.04     0.21  -0.07  -0.06
    15   1     0.10   0.44  -0.17     0.17  -0.08  -0.09    -0.21   0.19   0.09
    16   1    -0.04  -0.09  -0.46    -0.12   0.17   0.01    -0.18   0.19   0.10
    17   1     0.00  -0.01   0.05     0.06   0.20  -0.32     0.12   0.32   0.20
                      4                      5                      6
                      A                      A                      A
 Frequencies --    256.3811               285.9877               339.3480
 Red. masses --      1.1117                 1.0521                 1.6773
 Frc consts  --      0.0431                 0.0507                 0.1138
 IR Inten    --      2.4052                90.6183               114.4717
  Atom  AN      X      Y      Z        X      Y      Z        X      Y      Z
     1   8    -0.02  -0.00   0.01     0.01   0.01  -0.02     0.13  -0.01  -0.04
     2   6     0.00  -0.01   0.01     0.00   0.01  -0.00     0.03   0.01  -0.03
     3   7     0.00  -0.00  -0.01    -0.02  -0.03   0.02     0.05   0.01  -0.05
     4   6    -0.00  -0.01   0.03     0.02  -0.01  -0.00    -0.03  -0.02   0.07
     5   6     0.01   0.04  -0.07     0.03  -0.00  -0.02    -0.08  -0.03   0.00
     6   6     0.01  -0.01   0.01     0.02   0.00   0.01    -0.11   0.00  -0.01
     7   1     0.05  -0.05  -0.08    -0.45   0.38   0.56    -0.22   0.23   0.46
     8   1     0.02  -0.01   0.01    -0.00   0.06  -0.01     0.07   0.01  -0.03
     9   1     0.00  -0.02   0.02     0.03   0.12  -0.34    -0.03  -0.13   0.36
    10   1     0.01   0.03  -0.01    -0.28  -0.33   0.04     0.36   0.41  -0.08
    11   1    -0.03   0.04   0.15     0.02  -0.01   0.00     0.03   0.04   0.21
    12   1     0.02  -0.14   0.05     0.02  -0.02  -0.00    -0.08  -0.18   0.09
    13   1    -0.00  -0.00  -0.17     0.04  -0.01  -0.03    -0.08  -0.04  -0.02
    14   1     0.02   0.15  -0.09     0.03   0.02  -0.02    -0.13   0.01  -0.00
    15   1    -0.25   0.45  -0.04    -0.02   0.05   0.00    -0.14   0.04  -0.02
    16   1     0.30  -0.24  -0.36     0.04  -0.02  -0.03    -0.16  -0.00  -0.04
    17   1    -0.04  -0.27   0.51     0.02  -0.01   0.06    -0.08   0.03   0.02
                      7                      8                      9
                      A                      A                      A
 Frequencies --    346.4740               440.8913               502.8225
 Red. masses --      1.8144                 2.8516                 2.4194
 Frc consts  --      0.1283                 0.3266                 0.3604
 IR Inten    --     51.3052                35.4846                21.3078
  Atom  AN      X      Y      Z        X      Y      Z        X      Y      Z
     1   8    -0.10  -0.04  -0.04    -0.00  -0.16  -0.00     0.14  -0.01   0.02
     2   6    -0.03  -0.04  -0.02     0.02  -0.11   0.03    -0.16  -0.01  -0.08
     3   7    -0.03  -0.04  -0.01     0.23   0.07   0.00    -0.05   0.13   0.01
     4   6    -0.03   0.05  -0.01    -0.08   0.09  -0.00    -0.12  -0.11  -0.02
     5   6     0.05   0.11   0.06    -0.11   0.14   0.03     0.05   0.01   0.04
     6   6     0.16  -0.04  -0.01    -0.05  -0.02  -0.02     0.11   0.00   0.01
     7   1    -0.34   0.19   0.21    -0.06  -0.08   0.03     0.19  -0.27   0.19
     8   1    -0.02  -0.05  -0.02     0.03  -0.12   0.04    -0.33  -0.03  -0.08
     9   1    -0.09  -0.24   0.43     0.15   0.56  -0.37    -0.13   0.43  -0.11
    10   1     0.31   0.32  -0.03     0.01  -0.10   0.01    -0.07   0.11   0.01
    11   1    -0.12   0.04  -0.05    -0.25   0.03  -0.18    -0.08  -0.00   0.23
    12   1    -0.08   0.11  -0.01    -0.09   0.28  -0.03    -0.29  -0.35   0.01
    13   1     0.04   0.11   0.05    -0.17   0.14   0.01     0.13  -0.00   0.04
    14   1     0.05   0.09   0.06    -0.15   0.15   0.03     0.11  -0.01   0.04
    15   1     0.29  -0.07  -0.01     0.03  -0.05  -0.02     0.22  -0.02   0.01
    16   1     0.29  -0.06  -0.01     0.08  -0.05  -0.02     0.17  -0.02  -0.01
    17   1     0.01  -0.18  -0.10    -0.17  -0.15  -0.06     0.03  -0.08  -0.06
                     10                     11                     12
                      A                      A                      A
 Frequencies --    553.8043               756.5925               862.4232
 Red. masses --      2.4337                 1.1235                 1.4778
 Frc consts  --      0.4398                 0.3789                 0.6476
 IR Inten    --     68.6615                 5.5502                85.3463
  Atom  AN      X      Y      Z        X      Y      Z        X      Y      Z
     1   8     0.05  -0.16  -0.06     0.01   0.03  -0.01    -0.03  -0.07   0.03
     2   6    -0.05   0.04   0.20    -0.01  -0.00  -0.01    -0.01   0.03  -0.04
     3   7    -0.11   0.10  -0.06    -0.00   0.00   0.00    -0.01  -0.04   0.01
     4   6     0.06   0.02   0.01    -0.02  -0.04   0.03     0.07   0.13  -0.06
     5   6     0.04  -0.05  -0.05    -0.01  -0.04   0.07     0.01  -0.03   0.02
     6   6     0.01   0.01   0.01     0.00  -0.01   0.02     0.01  -0.04   0.04
     7   1    -0.08   0.01   0.02     0.03  -0.02   0.02    -0.04  -0.01  -0.02
     8   1    -0.00   0.09   0.20     0.02   0.01  -0.02    -0.11  -0.05  -0.03
     9   1    -0.10   0.12  -0.12    -0.00  -0.02   0.03    -0.06   0.20  -0.08
    10   1    -0.26   0.64  -0.13     0.03  -0.05   0.01     0.02   0.14  -0.01
    11   1     0.03  -0.10  -0.25     0.07  -0.19  -0.28     0.15   0.29   0.34
    12   1     0.32   0.29  -0.02    -0.10   0.32  -0.02    -0.01  -0.30   0.00
    13   1     0.06  -0.06  -0.05    -0.00  -0.28  -0.45    -0.36  -0.04  -0.11
    14   1     0.04  -0.03  -0.05     0.07   0.53  -0.02     0.23   0.09  -0.00
    15   1    -0.08   0.02   0.01     0.23   0.19  -0.02     0.21   0.23  -0.01
    16   1    -0.02   0.02   0.02    -0.18  -0.07  -0.20    -0.38  -0.08  -0.20
    17   1     0.08   0.06   0.07     0.00   0.04  -0.10     0.13   0.18  -0.10
                     13                     14                     15
                      A                      A                      A
 Frequencies --    895.9688               910.5135               960.5779
 Red. masses --      1.8715                 1.5712                 1.8412
 Frc consts  --      0.8852                 0.7674                 1.0009
 IR Inten    --    164.1292                 6.1515                43.7305
  Atom  AN      X      Y      Z        X      Y      Z        X      Y      Z
     1   8     0.00  -0.11   0.02    -0.01  -0.02   0.02    -0.03  -0.07   0.05
     2   6     0.03  -0.01  -0.03    -0.04  -0.01  -0.08    -0.02   0.05  -0.13
     3   7    -0.05   0.21  -0.04    -0.00  -0.01  -0.00    -0.05  -0.02   0.02
     4   6     0.03   0.03  -0.00    -0.02   0.10   0.10     0.14   0.01   0.04
     5   6     0.00   0.01   0.00     0.01  -0.08  -0.04     0.04   0.04   0.05
     6   6    -0.01  -0.01   0.00     0.10  -0.03  -0.04    -0.11   0.03  -0.04
     7   1    -0.04  -0.10   0.10     0.01  -0.12   0.08    -0.00  -0.13   0.06
     8   1     0.03  -0.08  -0.01     0.04  -0.04  -0.08    -0.05  -0.03  -0.11
     9   1     0.10  -0.53   0.33    -0.11   0.22   0.06    -0.17   0.30   0.00
    10   1    -0.02  -0.69   0.09     0.16  -0.11   0.02     0.13   0.03   0.01
    11   1     0.03   0.05   0.05     0.03   0.02  -0.06     0.54  -0.07  -0.02
    12   1     0.03  -0.03   0.01    -0.14   0.29   0.08     0.06   0.12   0.02
    13   1    -0.07   0.02   0.00     0.00  -0.08  -0.04     0.35  -0.02  -0.00
    14   1     0.02   0.01   0.00    -0.34  -0.03  -0.04    -0.07   0.15   0.04
    15   1     0.01   0.03  -0.00    -0.39  -0.02  -0.02    -0.11  -0.20  -0.01
    16   1    -0.07  -0.02  -0.03    -0.07   0.11   0.17     0.23   0.01   0.07
    17   1     0.01   0.02  -0.02     0.46   0.28   0.30    -0.34  -0.26  -0.04
                     16                     17                     18
                      A                      A                      A
 Frequencies --   1043.7218              1076.2937              1103.1503
 Red. masses --      1.9860                 1.7382                 1.9773
 Frc consts  --      1.2746                 1.1864                 1.4177
 IR Inten    --    119.7141                 0.1381                42.0835
  Atom  AN      X      Y      Z        X      Y      Z        X      Y      Z
     1   8    -0.01  -0.10   0.06     0.00   0.01  -0.01     0.00   0.05  -0.04
     2   6     0.04   0.17  -0.00     0.03  -0.02   0.03     0.00  -0.12   0.01
     3   7     0.06  -0.02   0.01     0.01   0.01   0.02    -0.03   0.03   0.02
     4   6    -0.06  -0.02  -0.08    -0.03   0.03  -0.03     0.15  -0.09  -0.06
     5   6    -0.10  -0.06   0.02     0.16   0.05   0.08    -0.10   0.10   0.08
     6   6     0.08   0.07  -0.00    -0.08  -0.10  -0.09     0.06  -0.01  -0.03
     7   1    -0.05   0.17  -0.16    -0.02   0.12  -0.09     0.01  -0.03   0.04
     8   1    -0.21   0.10   0.02    -0.24  -0.04   0.03    -0.31  -0.14   0.01
     9   1     0.25  -0.36  -0.14     0.13  -0.21  -0.07     0.03  -0.08  -0.03
    10   1    -0.16   0.15  -0.03    -0.20   0.16  -0.01    -0.19   0.15  -0.00
    11   1     0.29  -0.01   0.04    -0.11   0.09   0.07     0.27  -0.08   0.00
    12   1    -0.43  -0.10  -0.07    -0.47  -0.01  -0.03     0.08  -0.17  -0.05
    13   1     0.05  -0.15  -0.13     0.31  -0.01  -0.02    -0.39   0.11   0.00
    14   1    -0.28   0.11  -0.01     0.12   0.17   0.07    -0.50   0.25   0.06
    15   1     0.02  -0.07   0.02    -0.45  -0.10  -0.08    -0.18   0.02  -0.02
    16   1     0.30   0.10   0.13    -0.30  -0.02   0.02    -0.04   0.08   0.11
    17   1     0.04  -0.03   0.10     0.08   0.04   0.09     0.21   0.11   0.13
                     19                     20                     21
                      A                      A                      A
 Frequencies --   1140.0400              1147.0486              1220.6747
 Red. masses --      1.6281                 2.3557                 1.6708
 Frc consts  --      1.2467                 1.8261                 1.4669
 IR Inten    --     27.4599               124.0322                55.1889
  Atom  AN      X      Y      Z        X      Y      Z        X      Y      Z
     1   8     0.03   0.01   0.01     0.00   0.07  -0.08    -0.03   0.02  -0.01
     2   6     0.13  -0.11   0.01    -0.13  -0.13   0.11     0.10  -0.09  -0.10
     3   7    -0.10   0.05   0.02     0.08  -0.01  -0.04    -0.03   0.04   0.08
     4   6    -0.02   0.04  -0.04     0.01   0.17   0.00     0.04   0.05   0.05
     5   6    -0.02  -0.06   0.01    -0.01  -0.13   0.01     0.02  -0.06  -0.07
     6   6     0.01   0.04  -0.01    -0.02   0.08  -0.01    -0.02   0.04   0.05
     7   1    -0.06   0.53  -0.37     0.02  -0.12   0.11     0.04  -0.36   0.26
     8   1     0.26  -0.30   0.04    -0.43  -0.22   0.13    -0.04   0.12  -0.13
     9   1    -0.25   0.35   0.09     0.10  -0.17   0.05     0.14  -0.20  -0.14
    10   1     0.04  -0.01   0.04    -0.02  -0.18  -0.02    -0.38   0.42   0.01
    11   1    -0.01   0.08   0.06     0.32   0.23   0.23    -0.21   0.04  -0.04
    12   1    -0.26  -0.11  -0.03     0.02  -0.05   0.04    -0.35   0.13   0.03
    13   1     0.07  -0.13  -0.09     0.24  -0.24  -0.15    -0.06  -0.01   0.01
    14   1    -0.04   0.05  -0.01     0.07   0.06  -0.02    -0.10  -0.12  -0.06
    15   1     0.03  -0.07   0.01     0.08  -0.13   0.02     0.19  -0.00   0.04
    16   1     0.17   0.04   0.05     0.31   0.04   0.05     0.11  -0.04  -0.08
    17   1    -0.06  -0.06   0.03    -0.18  -0.14   0.01    -0.13  -0.05  -0.09
                     22                     23                     24
                      A                      A                      A
 Frequencies --   1231.5169              1284.3774              1311.5048
 Red. masses --      1.3444                 1.2534                 1.2135
 Frc consts  --      1.2013                 1.2182                 1.2297
 IR Inten    --     14.3966                28.6266                 0.7902
  Atom  AN      X      Y      Z        X      Y      Z        X      Y      Z
     1   8    -0.02   0.00  -0.01    -0.02   0.01  -0.02     0.00   0.00   0.00
     2   6     0.02   0.01   0.01     0.02  -0.03   0.04     0.01  -0.05  -0.03
     3   7    -0.01   0.00   0.01    -0.01   0.01   0.01     0.00   0.02   0.03
     4   6    -0.01   0.01  -0.07    -0.05   0.03  -0.07    -0.07  -0.00   0.05
     5   6    -0.01  -0.05   0.11    -0.05   0.04  -0.01    -0.06   0.03  -0.01
     6   6     0.01   0.04  -0.09     0.01  -0.05   0.03     0.01  -0.01  -0.05
     7   1     0.03  -0.33   0.24     0.03  -0.28   0.20    -0.01   0.05  -0.03
     8   1     0.40   0.24  -0.03     0.48   0.13   0.02     0.04  -0.07  -0.03
     9   1    -0.02   0.03  -0.01    -0.01   0.02   0.01     0.07  -0.09  -0.04
    10   1     0.01   0.04   0.00    -0.04   0.04   0.01    -0.14   0.12   0.01
    11   1    -0.29   0.10   0.05     0.41   0.01   0.04     0.52  -0.14  -0.06
    12   1     0.19  -0.19  -0.04    -0.06  -0.17  -0.05     0.00   0.09   0.04
    13   1    -0.23  -0.15  -0.16     0.55  -0.02   0.03    -0.21   0.07   0.02
    14   1     0.22   0.22   0.06    -0.16  -0.01  -0.00     0.70  -0.14   0.00
    15   1    -0.22  -0.19  -0.04     0.06   0.15   0.00    -0.09  -0.00  -0.04
    16   1     0.18   0.13   0.16    -0.14  -0.05  -0.03     0.07   0.07   0.12
    17   1    -0.01  -0.09   0.17     0.11   0.10  -0.04     0.10   0.05   0.08
                     25                     26                     27
                      A                      A                      A
 Frequencies --   1320.2123              1388.8021              1409.8761
 Red. masses --      1.2604                 1.3453                 1.5412
 Frc consts  --      1.2943                 1.5288                 1.8049
 IR Inten    --     11.9761                 1.3032                 2.4101
  Atom  AN      X      Y      Z        X      Y      Z        X      Y      Z
     1   8     0.01  -0.01   0.02    -0.01   0.00  -0.01     0.01  -0.00   0.01
     2   6     0.02  -0.03  -0.10     0.02   0.03   0.03    -0.04  -0.01  -0.02
     3   7    -0.00   0.02   0.03    -0.01  -0.01  -0.02     0.01   0.01   0.02
     4   6    -0.03   0.03   0.01     0.10  -0.01   0.01    -0.09   0.00  -0.01
     5   6    -0.07  -0.00   0.04    -0.08   0.01  -0.00     0.14  -0.01   0.01
     6   6     0.01  -0.03  -0.01    -0.08  -0.05  -0.04    -0.13  -0.02  -0.02
     7   1    -0.02   0.18  -0.13     0.01  -0.10   0.06    -0.01   0.10  -0.06
     8   1    -0.25  -0.01  -0.10    -0.16   0.02   0.04     0.23  -0.05  -0.02
     9   1     0.09  -0.13  -0.07    -0.08   0.10   0.05     0.08  -0.10  -0.05
    10   1    -0.13   0.15   0.00     0.11  -0.10  -0.01    -0.09   0.08   0.01
    11   1    -0.25   0.06   0.00    -0.26  -0.00  -0.07     0.22   0.01   0.08
    12   1     0.66  -0.09   0.03    -0.32  -0.01  -0.00     0.25   0.03  -0.01
    13   1     0.47  -0.12  -0.05     0.20   0.01   0.07    -0.28   0.06   0.01
    14   1     0.03   0.06   0.03     0.26   0.03  -0.00    -0.35   0.08   0.00
    15   1     0.05   0.07  -0.02     0.37   0.21  -0.08     0.42  -0.02  -0.04
    16   1    -0.02   0.02   0.07     0.35   0.03   0.27     0.40  -0.08   0.05
    17   1     0.11   0.06   0.07     0.29   0.30   0.18     0.22   0.31   0.18
                     28                     29                     30
                      A                      A                      A
 Frequencies --   1412.1117              1444.7859              1459.8136
 Red. masses --      1.1534                 1.0876                 1.0802
 Frc consts  --      1.3551                 1.3376                 1.3562
 IR Inten    --     11.0206                 2.8875                 1.2713
  Atom  AN      X      Y      Z        X      Y      Z        X      Y      Z
     1   8     0.01  -0.01   0.04     0.00   0.00   0.01    -0.00  -0.00  -0.00
     2   6     0.00  -0.09   0.01    -0.01  -0.02  -0.00     0.00   0.01   0.00
     3   7     0.00  -0.00  -0.04    -0.00   0.00  -0.00     0.00  -0.00  -0.00
     4   6    -0.01   0.02   0.00     0.01  -0.06  -0.04    -0.01   0.04   0.02
     5   6     0.01  -0.00  -0.00    -0.01   0.03   0.01     0.05   0.02   0.02
     6   6    -0.01   0.00   0.00     0.00  -0.01  -0.01    -0.00  -0.03  -0.02
     7   1    -0.01   0.17  -0.13    -0.00   0.03  -0.02     0.00  -0.01   0.01
     8   1    -0.19   0.91  -0.13     0.05   0.10  -0.02    -0.03  -0.03   0.01
     9   1    -0.09   0.08   0.12    -0.00   0.00   0.01     0.00   0.00  -0.00
    10   1     0.01  -0.08  -0.02    -0.02   0.01  -0.00     0.01  -0.01   0.00
    11   1     0.11  -0.03  -0.06    -0.01   0.23   0.57     0.02  -0.11  -0.29
    12   1    -0.04  -0.07   0.01     0.02   0.58  -0.11    -0.00  -0.30   0.06
    13   1    -0.05   0.01   0.01     0.01  -0.11  -0.27    -0.11  -0.13  -0.34
    14   1    -0.02   0.01  -0.00    -0.02  -0.28   0.05    -0.15  -0.34   0.06
    15   1     0.01  -0.02   0.00     0.01   0.19  -0.03     0.02   0.46  -0.08
    16   1     0.03  -0.01  -0.02    -0.01   0.08   0.18    -0.03   0.20   0.43
    17   1     0.00   0.02  -0.00    -0.05  -0.06  -0.03    -0.17  -0.18  -0.10
                     31                     32                     33
                      A                      A                      A
 Frequencies --   1461.8964              1476.0786              1487.0482
 Red. masses --      1.0379                 1.1520                 1.8075
 Frc consts  --      1.3069                 1.4788                 2.3549
 IR Inten    --      9.9988                17.9098                42.7492
  Atom  AN      X      Y      Z        X      Y      Z        X      Y      Z
     1   8    -0.00   0.00  -0.00     0.01  -0.00   0.01    -0.03   0.01  -0.03
     2   6     0.00  -0.00   0.00    -0.07  -0.02  -0.02     0.21   0.03   0.04
     3   7    -0.00  -0.00  -0.00     0.02   0.00   0.01    -0.05  -0.01  -0.02
     4   6    -0.00  -0.00   0.00     0.02  -0.00  -0.00    -0.13  -0.02  -0.01
     5   6     0.00   0.01  -0.02     0.00  -0.07  -0.04     0.04  -0.03  -0.02
     6   6     0.00   0.02  -0.04     0.02  -0.02  -0.01     0.00  -0.01  -0.01
     7   1     0.00  -0.00   0.00    -0.01   0.12  -0.08     0.02  -0.31   0.22
     8   1    -0.00   0.01   0.00     0.21   0.03  -0.03    -0.57  -0.04   0.07
     9   1    -0.00   0.00   0.00     0.05  -0.08  -0.01    -0.14   0.21   0.01
    10   1     0.00  -0.00  -0.00    -0.08   0.04   0.00     0.20  -0.09  -0.00
    11   1     0.03  -0.01  -0.01    -0.03   0.04   0.07     0.20   0.01   0.15
    12   1    -0.03   0.01  -0.00    -0.03   0.08  -0.01     0.24   0.12  -0.03
    13   1     0.03   0.03   0.01    -0.01   0.18   0.47    -0.08   0.10   0.23
    14   1    -0.03  -0.04  -0.02     0.02   0.48  -0.11    -0.05   0.25  -0.05
    15   1     0.46  -0.22  -0.02    -0.01   0.39  -0.06     0.00   0.16  -0.03
    16   1    -0.46   0.15   0.08    -0.07   0.18   0.35    -0.01   0.07   0.15
    17   1    -0.05  -0.32   0.62    -0.16  -0.20  -0.10    -0.05  -0.06  -0.04
                     34                     35                     36
                      A                      A                      A
 Frequencies --   1607.5614              3039.8092              3043.2392
 Red. masses --      1.1092                 1.0688                 1.0397
 Frc consts  --      1.6889                 5.8188                 5.6735
 IR Inten    --     41.7364                 7.6656                54.8042
  Atom  AN      X      Y      Z        X      Y      Z        X      Y      Z
     1   8     0.00   0.00   0.00    -0.00  -0.00   0.00    -0.00  -0.00   0.00
     2   6    -0.01  -0.04   0.01     0.00   0.01   0.03     0.00   0.00   0.01
     3   7    -0.07   0.03   0.03    -0.00  -0.00  -0.00    -0.00  -0.00  -0.00
     4   6     0.01   0.01  -0.00    -0.00  -0.04  -0.05    -0.00  -0.01  -0.01
     5   6    -0.00  -0.00  -0.00    -0.00   0.01   0.01     0.00  -0.01  -0.01
     6   6     0.00   0.00   0.00     0.01   0.00   0.00    -0.04  -0.02  -0.02
     7   1    -0.00   0.03  -0.02     0.00  -0.00   0.00    -0.00  -0.00   0.00
     8   1     0.01   0.09  -0.01    -0.01  -0.06  -0.39    -0.00  -0.01  -0.09
     9   1     0.26  -0.21  -0.61     0.00   0.00   0.00    -0.00   0.00   0.00
    10   1     0.70   0.03   0.05    -0.00  -0.00   0.01    -0.00  -0.00   0.00
    11   1     0.02   0.01   0.00     0.04   0.31  -0.15     0.01   0.08  -0.04
    12   1    -0.03   0.00   0.00    -0.01   0.10   0.80    -0.00   0.03   0.20
    13   1     0.00  -0.00   0.00    -0.00  -0.04   0.02     0.01   0.07  -0.03
    14   1     0.01  -0.00  -0.00     0.00  -0.02  -0.12    -0.00   0.01   0.11
    15   1     0.00   0.00   0.00    -0.00  -0.02  -0.13     0.02   0.07   0.57
    16   1    -0.00   0.00   0.00    -0.02  -0.12   0.06     0.09   0.51  -0.26
    17   1    -0.00  -0.00  -0.00    -0.09   0.08   0.04     0.37  -0.31  -0.13
                     37                     38                     39
                      A                      A                      A
 Frequencies --   3047.2126              3052.8461              3104.6235
 Red. masses --      1.0820                 1.0648                 1.0996
 Frc consts  --      5.9195                 5.8469                 6.2448
 IR Inten    --    102.2899                79.5402                 0.0365
  Atom  AN      X      Y      Z        X      Y      Z        X      Y      Z
     1   8     0.00   0.00  -0.00    -0.00   0.00  -0.00    -0.00   0.00   0.00
     2   6    -0.00  -0.01  -0.07    -0.00  -0.00  -0.01    -0.00  -0.00  -0.00
     3   7     0.00  -0.00   0.00     0.00   0.00   0.00     0.00  -0.00   0.00
     4   6    -0.00  -0.02  -0.02    -0.00  -0.01  -0.01     0.01   0.04  -0.03
     5   6     0.00   0.01   0.01    -0.01  -0.05  -0.05    -0.01  -0.05   0.06
     6   6    -0.00  -0.00  -0.00     0.01   0.01   0.01     0.00   0.01  -0.02
     7   1    -0.00   0.00   0.00    -0.00   0.00  -0.00    -0.00   0.00   0.00
     8   1     0.01   0.13   0.88     0.00   0.02   0.13     0.00   0.01   0.05
     9   1    -0.00  -0.00  -0.00    -0.00  -0.00  -0.00    -0.00  -0.00   0.00
    10   1    -0.00   0.00  -0.02    -0.00   0.00  -0.00    -0.00   0.00  -0.00
    11   1     0.02   0.20  -0.10     0.01   0.09  -0.04    -0.06  -0.46   0.21
    12   1    -0.00   0.04   0.33    -0.00   0.02   0.13     0.00   0.03   0.21
    13   1    -0.01  -0.08   0.04     0.06   0.43  -0.22     0.09   0.62  -0.29
    14   1    -0.00  -0.02  -0.16     0.01   0.11   0.82    -0.01  -0.06  -0.38
    15   1     0.00   0.00   0.02    -0.00  -0.02  -0.13     0.00   0.02   0.15
    16   1     0.00   0.01  -0.01    -0.02  -0.09   0.05    -0.03  -0.16   0.08
    17   1     0.00  -0.00  -0.00    -0.03   0.02   0.01     0.02  -0.02  -0.01
                     40                     41                     42
                      A                      A                      A
 Frequencies --   3120.0853              3135.3933              3143.6391
 Red. masses --      1.1021                 1.1045                 1.1041
 Frc consts  --      6.3215                 6.3973                 6.4289
 IR Inten    --     53.1297                89.6577                46.7077
  Atom  AN      X      Y      Z        X      Y      Z        X      Y      Z
     1   8    -0.00   0.00  -0.00     0.00  -0.00   0.00    -0.00  -0.00   0.00
     2   6     0.00   0.00   0.01    -0.00   0.00  -0.00     0.00   0.00   0.00
     3   7     0.00   0.00  -0.00    -0.00  -0.00   0.00    -0.00  -0.00  -0.00
     4   6    -0.01  -0.05   0.05     0.00   0.01  -0.01     0.00  -0.00  -0.00
     5   6    -0.00  -0.03   0.04     0.00   0.02  -0.03     0.00   0.01  -0.00
     6   6     0.00   0.01  -0.02     0.01   0.04  -0.08    -0.05   0.07   0.03
     7   1    -0.00  -0.00  -0.00     0.00  -0.00   0.00     0.00  -0.00   0.00
     8   1    -0.00  -0.01  -0.06     0.00   0.00   0.00    -0.00  -0.00  -0.00
     9   1     0.00   0.00  -0.00    -0.00  -0.00   0.00    -0.00   0.00   0.00
    10   1     0.00  -0.00   0.00    -0.00   0.00   0.00     0.00  -0.00   0.00
    11   1     0.09   0.67  -0.30    -0.01  -0.09   0.04     0.00  -0.00   0.00
    12   1     0.00  -0.05  -0.35    -0.00   0.01   0.05     0.00   0.00   0.01
    13   1     0.05   0.37  -0.17    -0.04  -0.26   0.12    -0.01  -0.07   0.03
    14   1     0.00  -0.04  -0.25     0.00   0.03   0.20    -0.00  -0.00  -0.02
    15   1     0.01   0.03   0.19     0.03   0.09   0.66    -0.02  -0.03  -0.34
    16   1    -0.03  -0.19   0.09    -0.10  -0.57   0.27    -0.07  -0.33   0.17
    17   1     0.02  -0.01  -0.01    -0.03   0.03  -0.00     0.64  -0.52  -0.22
                     43                     44                     45
                      A                      A                      A
 Frequencies --   3519.2119              3600.8291              3872.1667
 Red. masses --      1.0520                 1.0922                 1.0668
 Frc consts  --      7.6763                 8.3438                 9.4245
 IR Inten    --      4.9486                13.7577               107.1752
  Atom  AN      X      Y      Z        X      Y      Z        X      Y      Z
     1   8    -0.00   0.00   0.00    -0.00  -0.00   0.00    -0.05  -0.03  -0.02
     2   6    -0.00   0.00  -0.00    -0.00  -0.00  -0.00    -0.00   0.00  -0.00
     3   7     0.04   0.01  -0.04    -0.05  -0.02  -0.06     0.00   0.00   0.00
     4   6    -0.00  -0.00   0.00     0.00   0.00   0.00     0.00   0.00   0.00
     5   6    -0.00   0.00   0.00     0.00  -0.00   0.00     0.00  -0.00   0.00
     6   6     0.00  -0.00   0.00    -0.00   0.00   0.00    -0.00   0.00  -0.00
     7   1    -0.00  -0.00  -0.00     0.00   0.00   0.00     0.82   0.42   0.38
     8   1     0.00  -0.00   0.01     0.00   0.00   0.01     0.00   0.00  -0.00
     9   1    -0.56  -0.22  -0.21     0.68   0.28   0.22    -0.00  -0.00  -0.00
    10   1    -0.02   0.10   0.76    -0.04   0.07   0.63    -0.00  -0.00  -0.00
    11   1    -0.00   0.00   0.00     0.00  -0.00   0.00     0.00   0.00  -0.00
    12   1     0.00   0.00  -0.00     0.00   0.00  -0.00     0.00   0.00   0.00
    13   1     0.00  -0.00   0.00    -0.00   0.00  -0.00     0.00   0.00  -0.00
    14   1    -0.00   0.00  -0.00    -0.00   0.00   0.00    -0.00  -0.00  -0.00
    15   1     0.00   0.00  -0.00    -0.00  -0.00  -0.00     0.00   0.00   0.00
    16   1    -0.00   0.00  -0.00    -0.00  -0.00   0.00     0.00   0.00  -0.00
    17   1    -0.00   0.00   0.00    -0.00  -0.00  -0.00     0.00  -0.00  -0.00

 -------------------
 - Thermochemistry -
 -------------------
 Temperature   298.150 Kelvin.  Pressure   1.00000 Atm.
 Atom     1 has atomic number  8 and mass  15.99491
 Atom     2 has atomic number  6 and mass  12.00000
 Atom     3 has atomic number  7 and mass  14.00307
 Atom     4 has atomic number  6 and mass  12.00000
 Atom     5 has atomic number  6 and mass  12.00000
 Atom     6 has atomic number  6 and mass  12.00000
 Atom     7 has atomic number  1 and mass   1.00783
 Atom     8 has atomic number  1 and mass   1.00783
 Atom     9 has atomic number  1 and mass   1.00783
 Atom    10 has atomic number  1 and mass   1.00783
 Atom    11 has atomic number  1 and mass   1.00783
 Atom    12 has atomic number  1 and mass   1.00783
 Atom    13 has atomic number  1 and mass   1.00783
 Atom    14 has atomic number  1 and mass   1.00783
 Atom    15 has atomic number  1 and mass   1.00783
 Atom    16 has atomic number  1 and mass   1.00783
 Atom    17 has atomic number  1 and mass   1.00783
 Molecular mass:    89.08406 amu.
 Principal axes and moments of inertia in atomic units:
                           1         2         3
     Eigenvalues --   239.485641028.376271180.54318
           X            0.99999   0.00250   0.00316
           Y           -0.00265   0.99883   0.04821
           Z           -0.00303  -0.04822   0.99883
 This molecule is an asymmetric top.
 Rotational symmetry number  1.
 Rotational temperatures (Kelvin)      0.36167     0.08422     0.07337
 Rotational constants (GHZ):           7.53591     1.75494     1.52874
 Zero-point vibrational energy     407935.4 (Joules/Mol)
                                   97.49889 (Kcal/Mol)
 Warning -- explicit consideration of  10 degrees of freedom as
           vibrations may cause significant error
 Vibrational temperatures:    121.08   171.44   260.13   368.88   411.47
          (Kelvin)            488.25   498.50   634.34   723.45   796.80
                             1088.57  1240.83  1289.10  1310.03  1382.06
                             1501.68  1548.55  1587.19  1640.26  1650.35
                             1756.28  1771.88  1847.93  1886.96  1899.49
                             1998.18  2028.50  2031.71  2078.72  2100.35
                             2103.34  2123.75  2139.53  2312.92  4373.61
                             4378.54  4384.26  4392.36  4466.86  4489.11
                             4511.13  4523.00  5063.36  5180.79  5571.18
 
 Zero-point correction=                           0.155374 (Hartree/Particle)
 Thermal correction to Energy=                    0.163143
 Thermal correction to Enthalpy=                  0.164087
 Thermal correction to Gibbs Free Energy=         0.123821
 Sum of electronic and zero-point Energies=           -288.588744
 Sum of electronic and thermal Energies=              -288.580976
 Sum of electronic and thermal Enthalpies=            -288.580032
 Sum of electronic and thermal Free Energies=         -288.620298
 
                     E (Thermal)             CV                S
                      KCal/Mol        Cal/Mol-Kelvin    Cal/Mol-Kelvin
 Total                  102.374             27.802             84.747
 Electronic               0.000              0.000              0.000
 Translational            0.889              2.981             39.373
 Rotational               0.889              2.981             27.166
 Vibrational            100.596             21.840             18.208
 Vibration     1          0.601              1.960              3.792
 Vibration     2          0.609              1.933              3.114
 Vibration     3          0.630              1.866              2.320
 Vibration     4          0.666              1.752              1.686
 Vibration     5          0.684              1.700              1.498
 Vibration     6          0.719              1.597              1.215
 Vibration     7          0.724              1.582              1.182
 Vibration     8          0.801              1.381              0.824
 Vibration     9          0.858              1.244              0.651
 Vibration    10          0.909              1.131              0.536
                       Q            Log10(Q)             Ln(Q)
 Total Bot       0.111298D-56        -56.953511       -131.140306
 Total V=0       0.326346D+15         14.513678         33.418980
 Vib (Bot)       0.174475D-69        -69.758267       -160.624346
 Vib (Bot)    1  0.244553D+01          0.388372          0.894260
 Vib (Bot)    2  0.171538D+01          0.234360          0.539634
 Vib (Bot)    3  0.111058D+01          0.045552          0.104887
 Vib (Bot)    4  0.758929D+00         -0.119799         -0.275846
 Vib (Bot)    5  0.670131D+00         -0.173841         -0.400283
 Vib (Bot)    6  0.547406D+00         -0.261690         -0.602564
 Vib (Bot)    7  0.533720D+00         -0.272687         -0.627884
 Vib (Bot)    8  0.391816D+00         -0.406918         -0.936964
 Vib (Bot)    9  0.326041D+00         -0.486728         -1.120733
 Vib (Bot)   10  0.282335D+00         -0.549235         -1.264659
 Vib (V=0)       0.511590D+02          1.708922          3.934939
 Vib (V=0)    1  0.299612D+01          0.476559          1.097317
 Vib (V=0)    2  0.228676D+01          0.359221          0.827137
 Vib (V=0)    3  0.171795D+01          0.235010          0.541131
 Vib (V=0)    4  0.140883D+01          0.148859          0.342760
 Vib (V=0)    5  0.133611D+01          0.125841          0.289760
 Vib (V=0)    6  0.124139D+01          0.093907          0.216229
 Vib (V=0)    7  0.123134D+01          0.090378          0.208102
 Vib (V=0)    8  0.113523D+01          0.055085          0.126837
 Vib (V=0)    9  0.109691D+01          0.040171          0.092498
 Vib (V=0)   10  0.107421D+01          0.031088          0.071582
 Electronic      0.100000D+01          0.000000          0.000000
 Translational   0.330487D+08          7.519154         17.313492
 Rotational      0.193020D+06          5.285602         12.170549
 
                                                             g16_C17-a_9
                                                             IR Spectrum
 
     3        3  3        33333333                                             11111111111111 11111                                  
     8        6  5        11110000                                             64444444333222 11100  9988   7     5 5 4 33 22  1 1   
     7        0  1        43205444                                             08766411821832 44074  6196   5     5 0 4 43 85  8 18  
     2        1  9        45053730                                             87620520902421 70364  1162   7     4 3 1 69 66  1 94  
 
     X        X  X        XXX XXXX                                             XXXXXXXXXXXXXX XXXXX  XXXX   X     X X X XX XX  X XX  
     X        X           XXX XXX                                              XXX        XXX XXX X  X XX         X X X XX X         
     X                    XXX XXX                                              XX         X X XXX X  X XX         X X X XX X         
     X                    XXX XXX                                              XX           X X X X  X XX         X   X XX X         
     X                    XXX XXX                                              XX           X X X X  X XX         X     XX X         
     X                    XXX XXX                                                           X X   X    XX         X     XX X         
     X                     X  XXX                                                           X X   X    XX         X      X X         
     X                     X  XX                                                              X   X    XX         X      X X         
     X                     X  XX                                                              X   X    XX                X X         
     X                     X  XX                                                              X   X    XX                X X         
     X                     X   X                                                              X   X    X                 X X         
     X                         X                                                              X   X    X                 X           
     X                                                                                        X   X    X                 X           
                                                                                              X   X    X                 X           
                                                                                              X   X    X                             
                                                                                                       X                             
                                                                                                       X                             
                                                                                                       X                             
                                                                                                       X                             
                                                                                                       X                             
 
 ***** Axes restored to original set *****
 -------------------------------------------------------------------
 Center     Atomic                   Forces (Hartrees/Bohr)
 Number     Number              X              Y              Z
 -------------------------------------------------------------------
      1        8           0.000005042   -0.000008329    0.000005279
      2        6           0.000006654    0.000005341    0.000015383
      3        7          -0.000002324    0.000002774   -0.000004761
      4        6          -0.000007737   -0.000008550   -0.000005570
      5        6          -0.000002179    0.000002990    0.000003712
      6        6           0.000002264   -0.000000113   -0.000005989
      7        1           0.000001308    0.000005950    0.000004281
      8        1           0.000005286    0.000002826   -0.000000529
      9        1           0.000000313   -0.000003919    0.000000676
     10        1          -0.000001003   -0.000003201    0.000000303
     11        1          -0.000006096   -0.000000308   -0.000002703
     12        1          -0.000000457   -0.000000802    0.000001741
     13        1           0.000000800    0.000002378    0.000000980
     14        1           0.000002421    0.000001408   -0.000003474
     15        1          -0.000001876   -0.000002030    0.000000851
     16        1          -0.000001892   -0.000001061   -0.000007075
     17        1          -0.000000525    0.000004647   -0.000003103
 -------------------------------------------------------------------
 Cartesian Forces:  Max     0.000015383 RMS     0.000004405
 FormGI is forming the generalized inverse of G from B-inverse, IUseBI=4.
 Leave Link  716 at Wed Oct 22 13:15:46 2025, MaxMem=  4294967296 cpu:               0.2 elap:               0.0
 (Enter /lrz/sys/applications/gaussian/g16.C.01/x86_64_legacy/exe/l103.exe)

 GradGradGradGradGradGradGradGradGradGradGradGradGradGradGradGradGradGrad
 Berny optimization.
 Red2BG is reusing G-inverse.
 Internal  Forces:  Max     0.000012717 RMS     0.000002698
 Search for a local minimum.
 Step number   1 out of a maximum of    2
 All quantities printed in internal units (Hartrees-Bohrs-Radians)
 Second derivative matrix not updated -- analytic derivatives used.
 ITU=  0
     Eigenvalues ---    0.00170   0.00269   0.00312   0.00360   0.00464
     Eigenvalues ---    0.02967   0.03274   0.03722   0.03726   0.03839
     Eigenvalues ---    0.04429   0.04438   0.05392   0.06667   0.06882
     Eigenvalues ---    0.07411   0.07944   0.09909   0.12022   0.12200
     Eigenvalues ---    0.13492   0.14095   0.15566   0.15874   0.16840
     Eigenvalues ---    0.17819   0.20273   0.21636   0.22781   0.29848
     Eigenvalues ---    0.31148   0.32321   0.32860   0.33201   0.33533
     Eigenvalues ---    0.33926   0.34030   0.34165   0.34273   0.34551
     Eigenvalues ---    0.34769   0.41409   0.45158   0.45554   0.53912
 Angle between quadratic step and forces=  71.95 degrees.
 Linear search not attempted -- first point.
 Iteration  1 RMS(Cart)=  0.00017175 RMS(Int)=  0.00000003
 Iteration  2 RMS(Cart)=  0.00000003 RMS(Int)=  0.00000000
 ITry= 1 IFail=0 DXMaxC= 5.68D-04 DCOld= 1.00D+10 DXMaxT= 3.00D-01 DXLimC= 3.00D+00 Rises=F
 Variable       Old X    -DE/DX   Delta X   Delta X   Delta X     New X
                                 (Linear)    (Quad)   (Total)
    R1        2.68819   0.00000   0.00000   0.00001   0.00001   2.68820
    R2        1.82270  -0.00000   0.00000   0.00000   0.00000   1.82270
    R3        2.72134   0.00001   0.00000   0.00001   0.00001   2.72136
    R4        2.87157  -0.00001   0.00000  -0.00004  -0.00004   2.87153
    R5        2.08886  -0.00000   0.00000  -0.00000  -0.00000   2.08886
    R6        1.92717  -0.00000   0.00000  -0.00000  -0.00000   1.92717
    R7        1.92985   0.00000   0.00000   0.00000   0.00000   1.92985
    R8        2.88175  -0.00000   0.00000  -0.00001  -0.00001   2.88173
    R9        2.08148  -0.00000   0.00000  -0.00000  -0.00000   2.08148
   R10        2.08945  -0.00000   0.00000  -0.00001  -0.00001   2.08944
   R11        2.87859  -0.00000   0.00000   0.00000   0.00000   2.87860
   R12        2.08163  -0.00000   0.00000  -0.00000  -0.00000   2.08163
   R13        2.08608  -0.00000   0.00000  -0.00001  -0.00001   2.08607
   R14        2.08246  -0.00000   0.00000  -0.00001  -0.00001   2.08246
   R15        2.08243  -0.00000   0.00000  -0.00001  -0.00001   2.08242
   R16        2.07990  -0.00000   0.00000  -0.00001  -0.00001   2.07989
    A1        1.87817  -0.00001   0.00000  -0.00005  -0.00005   1.87812
    A2        1.98544   0.00000   0.00000   0.00000   0.00000   1.98544
    A3        1.87189  -0.00000   0.00000  -0.00000  -0.00000   1.87189
    A4        1.89584  -0.00000   0.00000   0.00001   0.00001   1.89585
    A5        1.93161  -0.00001   0.00000  -0.00006  -0.00006   1.93155
    A6        1.87271   0.00000   0.00000   0.00004   0.00004   1.87275
    A7        1.90520   0.00000   0.00000   0.00001   0.00001   1.90522
    A8        1.90810  -0.00000   0.00000   0.00000   0.00000   1.90810
    A9        1.89720   0.00000   0.00000  -0.00001  -0.00001   1.89719
   A10        1.85251   0.00000   0.00000  -0.00000  -0.00000   1.85251
   A11        1.99713   0.00000   0.00000   0.00002   0.00002   1.99715
   A12        1.88184  -0.00000   0.00000  -0.00006  -0.00006   1.88178
   A13        1.88659   0.00000   0.00000   0.00002   0.00002   1.88661
   A14        1.91622   0.00000   0.00000   0.00002   0.00002   1.91623
   A15        1.91584  -0.00000   0.00000   0.00000   0.00000   1.91585
   A16        1.86103  -0.00000   0.00000  -0.00001  -0.00001   1.86102
   A17        1.96872  -0.00000   0.00000  -0.00003  -0.00003   1.96869
   A18        1.90616   0.00000   0.00000  -0.00001  -0.00001   1.90616
   A19        1.90311   0.00000   0.00000   0.00002   0.00002   1.90313
   A20        1.91535   0.00000   0.00000  -0.00001  -0.00001   1.91535
   A21        1.91361   0.00000   0.00000   0.00002   0.00002   1.91362
   A22        1.85327  -0.00000   0.00000   0.00000   0.00000   1.85328
   A23        1.93955  -0.00000   0.00000  -0.00000  -0.00000   1.93954
   A24        1.94124  -0.00000   0.00000  -0.00001  -0.00001   1.94123
   A25        1.94573   0.00000   0.00000   0.00000   0.00000   1.94573
   A26        1.87553   0.00000   0.00000   0.00000   0.00000   1.87553
   A27        1.87906   0.00000   0.00000   0.00001   0.00001   1.87907
   A28        1.87960   0.00000   0.00000   0.00000   0.00000   1.87960
    D1       -1.15335  -0.00000   0.00000   0.00047   0.00047  -1.15289
    D2        2.98791   0.00001   0.00000   0.00054   0.00054   2.98845
    D3        0.93087   0.00000   0.00000   0.00052   0.00052   0.93139
    D4        1.03135   0.00000   0.00000  -0.00027  -0.00027   1.03108
    D5       -0.98365   0.00000   0.00000  -0.00027  -0.00027  -0.98392
    D6        3.14014  -0.00000   0.00000  -0.00032  -0.00032   3.13982
    D7        1.12513  -0.00000   0.00000  -0.00031  -0.00031   1.12482
    D8       -1.06597  -0.00000   0.00000  -0.00031  -0.00031  -1.06628
    D9       -3.08097  -0.00000   0.00000  -0.00031  -0.00031  -3.08128
   D10       -1.04119   0.00000   0.00000   0.00015   0.00015  -1.04104
   D11        3.10475  -0.00000   0.00000   0.00016   0.00016   3.10492
   D12        1.09911   0.00000   0.00000   0.00019   0.00019   1.09930
   D13        3.06707   0.00000   0.00000   0.00019   0.00019   3.06725
   D14        0.92983   0.00000   0.00000   0.00020   0.00020   0.93002
   D15       -1.07582   0.00000   0.00000   0.00023   0.00023  -1.07559
   D16        1.00974   0.00000   0.00000   0.00017   0.00017   1.00991
   D17       -1.12750  -0.00000   0.00000   0.00018   0.00018  -1.12732
   D18       -3.13314   0.00000   0.00000   0.00021   0.00021  -3.13294
   D19       -3.11990   0.00000   0.00000   0.00002   0.00002  -3.11988
   D20        1.02854   0.00000   0.00000   0.00005   0.00005   1.02859
   D21       -0.98957   0.00000   0.00000   0.00004   0.00004  -0.98953
   D22       -1.00146  -0.00000   0.00000  -0.00003  -0.00003  -1.00149
   D23       -3.13620  -0.00000   0.00000  -0.00000  -0.00000  -3.13620
   D24        1.12887  -0.00000   0.00000  -0.00001  -0.00001   1.12886
   D25        1.03894  -0.00000   0.00000  -0.00003  -0.00003   1.03891
   D26       -1.09581  -0.00000   0.00000  -0.00000  -0.00000  -1.09581
   D27       -3.11392  -0.00000   0.00000  -0.00001  -0.00001  -3.11393
   D28       -1.04296  -0.00000   0.00000  -0.00026  -0.00026  -1.04323
   D29        1.04584  -0.00000   0.00000  -0.00027  -0.00027   1.04557
   D30       -3.13924  -0.00000   0.00000  -0.00027  -0.00027  -3.13951
   D31        1.08662  -0.00000   0.00000  -0.00029  -0.00029   1.08632
   D32       -3.10777  -0.00000   0.00000  -0.00030  -0.00030  -3.10807
   D33       -1.00966  -0.00000   0.00000  -0.00030  -0.00030  -1.00996
   D34        3.11582  -0.00000   0.00000  -0.00028  -0.00028   3.11553
   D35       -1.07857  -0.00000   0.00000  -0.00029  -0.00029  -1.07886
   D36        1.01954  -0.00000   0.00000  -0.00029  -0.00029   1.01925
         Item               Value     Threshold  Converged?
 Maximum Force            0.000013     0.000450     YES
 RMS     Force            0.000003     0.000300     YES
 Maximum Displacement     0.000568     0.001800     YES
 RMS     Displacement     0.000172     0.001200     YES
 Predicted change in Energy=-5.784064D-09
 Optimization completed.
    -- Stationary point found.
                           ----------------------------
                           !   Optimized Parameters   !
                           ! (Angstroms and Degrees)  !
 --------------------------                            --------------------------
 ! Name  Definition              Value          Derivative Info.                !
 --------------------------------------------------------------------------------
 ! R1    R(1,2)                  1.4225         -DE/DX =    0.0                 !
 ! R2    R(1,7)                  0.9645         -DE/DX =    0.0                 !
 ! R3    R(2,3)                  1.4401         -DE/DX =    0.0                 !
 ! R4    R(2,4)                  1.5196         -DE/DX =    0.0                 !
 ! R5    R(2,8)                  1.1054         -DE/DX =    0.0                 !
 ! R6    R(3,9)                  1.0198         -DE/DX =    0.0                 !
 ! R7    R(3,10)                 1.0212         -DE/DX =    0.0                 !
 ! R8    R(4,5)                  1.525          -DE/DX =    0.0                 !
 ! R9    R(4,11)                 1.1015         -DE/DX =    0.0                 !
 ! R10   R(4,12)                 1.1057         -DE/DX =    0.0                 !
 ! R11   R(5,6)                  1.5233         -DE/DX =    0.0                 !
 ! R12   R(5,13)                 1.1016         -DE/DX =    0.0                 !
 ! R13   R(5,14)                 1.1039         -DE/DX =    0.0                 !
 ! R14   R(6,15)                 1.102          -DE/DX =    0.0                 !
 ! R15   R(6,16)                 1.102          -DE/DX =    0.0                 !
 ! R16   R(6,17)                 1.1006         -DE/DX =    0.0                 !
 ! A1    A(2,1,7)              107.6112         -DE/DX =    0.0                 !
 ! A2    A(1,2,3)              113.7573         -DE/DX =    0.0                 !
 ! A3    A(1,2,4)              107.2513         -DE/DX =    0.0                 !
 ! A4    A(1,2,8)              108.6235         -DE/DX =    0.0                 !
 ! A5    A(3,2,4)              110.6732         -DE/DX =    0.0                 !
 ! A6    A(3,2,8)              107.2985         -DE/DX =    0.0                 !
 ! A7    A(4,2,8)              109.1601         -DE/DX =    0.0                 !
 ! A8    A(2,3,9)              109.326          -DE/DX =    0.0                 !
 ! A9    A(2,3,10)             108.7014         -DE/DX =    0.0                 !
 ! A10   A(9,3,10)             106.1413         -DE/DX =    0.0                 !
 ! A11   A(2,4,5)              114.4269         -DE/DX =    0.0                 !
 ! A12   A(2,4,11)             107.8214         -DE/DX =    0.0                 !
 ! A13   A(2,4,12)             108.0936         -DE/DX =    0.0                 !
 ! A14   A(5,4,11)             109.7912         -DE/DX =    0.0                 !
 ! A15   A(5,4,12)             109.7698         -DE/DX =    0.0                 !
 ! A16   A(11,4,12)            106.6291         -DE/DX =    0.0                 !
 ! A17   A(4,5,6)              112.7993         -DE/DX =    0.0                 !
 ! A18   A(4,5,13)             109.2152         -DE/DX =    0.0                 !
 ! A19   A(4,5,14)             109.0399         -DE/DX =    0.0                 !
 ! A20   A(6,5,13)             109.7415         -DE/DX =    0.0                 !
 ! A21   A(6,5,14)             109.6415         -DE/DX =    0.0                 !
 ! A22   A(13,5,14)            106.1848         -DE/DX =    0.0                 !
 ! A23   A(5,6,15)             111.1279         -DE/DX =    0.0                 !
 ! A24   A(5,6,16)             111.2246         -DE/DX =    0.0                 !
 ! A25   A(5,6,17)             111.482          -DE/DX =    0.0                 !
 ! A26   A(15,6,16)            107.4601         -DE/DX =    0.0                 !
 ! A27   A(15,6,17)            107.6621         -DE/DX =    0.0                 !
 ! A28   A(16,6,17)            107.6929         -DE/DX =    0.0                 !
 ! D1    D(7,1,2,3)            -66.0822         -DE/DX =    0.0                 !
 ! D2    D(7,1,2,4)            171.1947         -DE/DX =    0.0                 !
 ! D3    D(7,1,2,8)             53.335          -DE/DX =    0.0                 !
 ! D4    D(1,2,3,9)             59.0921         -DE/DX =    0.0                 !
 ! D5    D(1,2,3,10)           -56.3592         -DE/DX =    0.0                 !
 ! D6    D(4,2,3,9)            179.9166         -DE/DX =    0.0                 !
 ! D7    D(4,2,3,10)            64.4653         -DE/DX =    0.0                 !
 ! D8    D(8,2,3,9)            -61.0753         -DE/DX =    0.0                 !
 ! D9    D(8,2,3,10)          -176.5267         -DE/DX =    0.0                 !
 ! D10   D(1,2,4,5)            -59.6558         -DE/DX =    0.0                 !
 ! D11   D(1,2,4,11)           177.8893         -DE/DX =    0.0                 !
 ! D12   D(1,2,4,12)            62.9744         -DE/DX =    0.0                 !
 ! D13   D(3,2,4,5)            175.7299         -DE/DX =    0.0                 !
 ! D14   D(3,2,4,11)            53.2751         -DE/DX =    0.0                 !
 ! D15   D(3,2,4,12)           -61.6399         -DE/DX =    0.0                 !
 ! D16   D(8,2,4,5)             57.8539         -DE/DX =    0.0                 !
 ! D17   D(8,2,4,11)           -64.601          -DE/DX =    0.0                 !
 ! D18   D(8,2,4,12)          -179.5159         -DE/DX =    0.0                 !
 ! D19   D(2,4,5,6)           -178.757          -DE/DX =    0.0                 !
 ! D20   D(2,4,5,13)            58.9311         -DE/DX =    0.0                 !
 ! D21   D(2,4,5,14)           -56.6981         -DE/DX =    0.0                 !
 ! D22   D(11,4,5,6)           -57.3792         -DE/DX =    0.0                 !
 ! D23   D(11,4,5,13)         -179.6911         -DE/DX =    0.0                 !
 ! D24   D(11,4,5,14)           64.6796         -DE/DX =    0.0                 !
 ! D25   D(12,4,5,6)            59.5268         -DE/DX =    0.0                 !
 ! D26   D(12,4,5,13)          -62.7851         -DE/DX =    0.0                 !
 ! D27   D(12,4,5,14)         -178.4144         -DE/DX =    0.0                 !
 ! D28   D(4,5,6,15)           -59.7573         -DE/DX =    0.0                 !
 ! D29   D(4,5,6,16)            59.9222         -DE/DX =    0.0                 !
 ! D30   D(4,5,6,17)          -179.8651         -DE/DX =    0.0                 !
 ! D31   D(13,5,6,15)           62.2585         -DE/DX =    0.0                 !
 ! D32   D(13,5,6,16)         -178.0619         -DE/DX =    0.0                 !
 ! D33   D(13,5,6,17)          -57.8492         -DE/DX =    0.0                 !
 ! D34   D(14,5,6,15)          178.5232         -DE/DX =    0.0                 !
 ! D35   D(14,5,6,16)          -61.7972         -DE/DX =    0.0                 !
 ! D36   D(14,5,6,17)           58.4154         -DE/DX =    0.0                 !
 --------------------------------------------------------------------------------
 GradGradGradGradGradGradGradGradGradGradGradGradGradGradGradGradGradGrad

 Leave Link  103 at Wed Oct 22 13:15:46 2025, MaxMem=  4294967296 cpu:               0.4 elap:               0.1
 (Enter /lrz/sys/applications/gaussian/g16.C.01/x86_64_legacy/exe/l9999.exe)

 ----------------------------------------------------------------------

 Electric dipole moment (input orientation):
 (Debye = 10**-18 statcoulomb cm , SI units = C m)
                  (au)            (Debye)         (10**-30 SI)
   Tot        0.837032D+00      0.212752D+01      0.709665D+01
   x         -0.775709D+00     -0.197166D+01     -0.657674D+01
   y          0.456970D-01      0.116150D+00      0.387435D+00
   z          0.311141D+00      0.790841D+00      0.263796D+01

 Dipole polarizability, Alpha (input orientation).
 (esu units = cm**3 , SI units = C**2 m**2 J**-1)
 Alpha(0;0):
               (au)            (10**-24 esu)      (10**-40 SI)
   iso        0.727785D+02      0.107847D+02      0.119996D+02
   aniso      0.694743D+01      0.102950D+01      0.114548D+01
   xx         0.761941D+02      0.112908D+02      0.125627D+02
   yx        -0.146461D+01     -0.217032D+00     -0.241481D+00
   yy         0.691835D+02      0.102519D+02      0.114068D+02
   zx        -0.101773D+01     -0.150813D+00     -0.167802D+00
   zy        -0.772358D+00     -0.114452D+00     -0.127345D+00
   zz         0.729580D+02      0.108113D+02      0.120292D+02

 ----------------------------------------------------------------------

 Dipole orientation:
     8         -0.62102782         -2.00200762          2.60033758
     6         -0.21241742          0.57825381          1.96659140
     7         -2.02828712          2.27887232          3.06941934
     6         -0.25488713          0.76853426         -0.89835195
     6          1.74396340         -0.82530201         -2.22829206
     6          1.67559947         -0.53852367         -5.09174946
     1         -0.33491195         -2.18193802          4.39142358
     1          1.67320248          1.14579537          2.66350419
     1         -1.96906415          2.11791000          4.98894317
     1         -3.79851047          1.72296948          2.53877386
     1         -0.01202029          2.77214061         -1.40738971
     1         -2.15744096          0.21046496         -1.55763566
     1          1.47826998         -2.82518315         -1.71539589
     1          3.62888858         -0.28743069         -1.51451614
     1         -0.17331074         -1.11174267         -5.85961046
     1          2.00226136          1.43821795         -5.65945270
     1          3.13011112         -1.70831709         -6.00933477

 Electric dipole moment (dipole orientation):
 (Debye = 10**-18 statcoulomb cm , SI units = C m)
                  (au)            (Debye)         (10**-30 SI)
   Tot        0.837032D+00      0.212752D+01      0.709665D+01
   x          0.000000D+00      0.000000D+00      0.000000D+00
   y          0.000000D+00      0.000000D+00      0.000000D+00
   z          0.837032D+00      0.212752D+01      0.709665D+01

 Dipole polarizability, Alpha (dipole orientation).
 (esu units = cm**3 , SI units = C**2 m**2 J**-1)
 Alpha(0;0):
               (au)            (10**-24 esu)      (10**-40 SI)
   iso        0.727785D+02      0.107847D+02      0.119996D+02
   aniso      0.694743D+01      0.102950D+01      0.114548D+01
   xx         0.726068D+02      0.107592D+02      0.119712D+02
   yx        -0.136938D+01     -0.202921D+00     -0.225780D+00
   yy         0.691847D+02      0.102521D+02      0.114070D+02
   zx        -0.425780D+00     -0.630940D-01     -0.702016D-01
   zy         0.685552D+00      0.101588D+00      0.113032D+00
   zz         0.765441D+02      0.113427D+02      0.126204D+02

 ----------------------------------------------------------------------
 Unable to Open any file for archive entry.
 1\1\GINC-CM4R13C02S05\Freq\RwB97XD\def2SVP\C4H11N1O1\GO29TIZ2\22-Oct-2
 025\0\\#P Geom=AllCheck Guess=TCheck SCRF=Check GenChk RwB97XD/def2SVP
  Freq\\g16_C17-a_9\\0,1\O,-1.4371777232,-0.9941125991,0.2647807904\C,-
 0.9951753494,0.3580025634,0.2659620669\N,-1.8620983555,1.2523939574,-0
 .4567551044\C,0.4051293906,0.3748788923,-0.3239125123\C,1.4217181271,-
 0.4661183606,0.4407809583\C,2.8180542916,-0.3987509835,-0.1642879004\H
 ,-2.2624445939,-1.0317919674,0.7626090435\H,-0.9527904634,0.7146176276
 ,1.311377091\H,-2.7948740027,1.2240122872,-0.0454807154\H,-1.962963226
 4,0.908980236,-1.4132091985\H,0.7419251787,1.4228721828,-0.3628229968\
 H,0.3411252853,0.0240220232,-1.3705038949\H,1.0785864885,-1.5124787035
 ,0.4691484354\H,1.4551166182,-0.1246963827,1.4900295299\H,2.8176154302
 ,-0.7596970728,-1.2054920418\H,3.1996750929,0.6349976757,-0.1728682492
 \H,3.5329968115,-1.0145535758,0.4023187981\\Version=EM64L-G16RevC.01\S
 tate=1-A\HF=-288.7441184\RMSD=1.021e-09\RMSF=4.405e-06\ZeroPoint=0.155
 3744\Thermal=0.1631426\ETot=-288.5809758\HTot=-288.5800316\GTot=-288.6
 202977\Dipole=-0.7757095,0.045697,0.3111409\DipoleDeriv=-0.8359777,-0.
 325807,-0.0691804,-0.157109,-1.373313,0.2315885,-0.0879569,0.109941,-0
 .6977126,1.001386,0.082031,0.1742514,0.0868745,1.4810395,-0.1987951,0.
 1443228,-0.1863027,0.7510745,-0.7242482,0.1839536,-0.1413913,0.089871,
 -1.0119378,0.2026702,-0.1131594,0.2218753,-0.5076631,-0.1190876,-0.011
 0016,0.0374249,0.0620668,0.1394378,0.0558898,0.0915948,0.0311605,0.145
 8559,0.1141931,0.0188404,0.0274131,0.003191,0.1540736,0.0286953,0.0242
 973,0.0278418,0.1787238,0.0145665,0.0312734,-0.0081939,0.042912,0.1005
 372,0.0122176,-0.0177437,0.0175996,0.0947707,0.3105087,0.0219056,0.060
 7422,0.0506619,0.3453318,-0.0579838,0.0511556,-0.046168,0.3963485,-0.0
 129404,-0.0126179,0.0115886,-0.019089,-0.0592244,-0.0511955,-0.0203828
 ,-0.0914166,-0.2509354,0.0602672,0.0234195,0.0201051,-0.0943614,0.3431
 496,0.0511448,-0.0011726,0.0568911,0.1625954,0.1898915,0.0632006,-0.05
 97194,0.0252338,0.2699949,-0.1732612,-0.037256,-0.057497,0.1364121,0.0
 318453,-0.041885,0.0040477,-0.0591181,-0.1839692,0.0370313,-0.0099275,
 0.0124022,0.0645537,0.0208003,0.0100538,-0.0481992,0.0186542,0.0416121
 ,-0.0967441,-0.0258383,-0.0530296,-0.2071077,0.0163525,-0.0822291,0.01
 17815,-0.0592758,-0.1874741,0.0433455,0.0022703,0.0196484,0.0545502,0.
 0049487,0.0213027,0.0097524,0.020774,0.0397558,-0.0877401,-0.0026819,-
 0.0559104,-0.232938,0.0333091,-0.0107046,0.0015987,-0.0030618,0.058143
 8,-0.0849855,0.0501251,-0.0844189,-0.1756836,0.000028,-0.0692592,0.027
 0572,-0.1197613,-0.1615632,0.0120447,0.0307311,-0.0039257,0.0750415,-0
 .1058428,0.0975237,-0.0590785,0.1115374,0.0044055,0.0760777,-0.0783782
 ,0.0813091,0.0121144\Polar=76.1941186,-1.4646066,69.1834513,-1.0177337
 ,-0.7723584,72.9580277\Quadrupole=5.3935943,-5.7794011,0.3858067,0.601
 7427,-1.4591481,0.1439554\PG=C01 [X(C4H11N1O1)]\NImag=0\\0.50160548,0.
 07070750,0.32738289,-0.24820566,0.00846941,0.21441855,-0.10599120,-0.0
 2370506,0.01405661,0.56681089,-0.05000658,-0.18249736,-0.01050591,-0.0
 1756269,0.45525212,0.00522507,-0.03495091,-0.08313228,-0.00856462,0.04
 253062,0.65075599,0.01139358,0.00401100,0.00207825,-0.15571599,0.08209
 288,-0.04526847,0.60975791,0.02297784,-0.06870361,0.03175660,0.0407228
 9,-0.10649170,0.02701622,-0.08287472,0.25696260,-0.00033741,0.02018282
 ,0.00609009,-0.03918409,0.05114347,-0.15133097,-0.04461444,0.05057158,
 0.65158473,-0.01800325,-0.00995826,0.00933102,-0.18811434,0.00002417,0
 .04704070,-0.03224651,0.00881221,0.00851337,0.51808639,-0.04255306,-0.
 01435475,0.01916354,0.00399527,-0.07505777,-0.00440130,0.02619296,-0.0
 0312368,-0.00820264,0.02870150,0.59738341,-0.00076167,0.00157460,0.002
 68988,0.06091350,-0.00043956,-0.11456528,-0.02276704,0.00265556,0.0089
 3960,0.00268633,0.02109499,0.56474468,-0.00069874,0.00176417,-0.000266
 44,-0.02196557,0.01601855,-0.01680045,-0.00506871,0.00040109,0.0019616
 9,-0.13276482,0.04618110,-0.04354412,0.49684793,-0.00004077,-0.0011042
 3,0.00068192,0.00345434,0.00062233,-0.00428102,-0.00126506,0.00073572,
 0.00043760,0.04458105,-0.12327049,0.04058971,0.03151881,0.57993922,0.0
 0105878,0.00053789,0.00038250,0.00339527,-0.01021006,0.00862612,0.0052
 3764,-0.00100951,-0.00136739,-0.04298101,0.04065894,-0.12028365,-0.003
 55703,0.02526445,0.56644662,-0.00000140,-0.00001458,0.00009381,-0.0005
 4010,0.00190701,-0.00218564,-0.00087805,0.00019608,0.00040358,-0.02696
 007,0.00082700,0.00849707,-0.19673192,-0.00699052,0.05243252,0.5142279
 8,-0.00070707,0.00072282,-0.00023466,0.00095982,-0.00293688,0.00321570
 ,0.00161220,-0.00013421,-0.00046962,0.01987947,0.00000948,-0.00961503,
 -0.00858983,-0.08058293,0.00393477,-0.00824990,0.58112187,-0.00047503,
 -0.00020027,0.00022749,-0.00057904,0.00244248,-0.00270327,-0.00168765,
 0.00041492,0.00070550,-0.01707646,-0.00252398,0.00829447,0.05421140,0.
 00338172,-0.10462932,0.03454345,-0.00185066,0.56669187,-0.38592959,-0.
 02828095,0.22960938,-0.01202254,0.00053645,0.00620635,0.00209369,0.001
 49874,-0.00076349,0.00014143,-0.00271934,-0.00074089,0.00028096,-0.000
 16382,0.00015059,-0.00002040,-0.00007875,-0.00000889,0.39502257,0.0132
 5809,-0.04077038,-0.01600488,-0.03946400,-0.00808261,0.02263992,-0.000
 12972,0.00228590,-0.00036047,-0.00143985,-0.00599030,-0.00042533,0.000
 55043,-0.00011114,-0.00002724,-0.00001435,0.00016692,-0.00000093,0.027
 32229,0.05229902,0.23988662,0.00902474,-0.14991841,-0.00225538,-0.0009
 0518,-0.00064054,-0.00005877,-0.00247273,0.00064887,-0.00041617,-0.000
 45994,0.00121303,-0.00014039,-0.00004870,0.00020563,-0.00002267,-0.000
 08244,-0.00009610,-0.23536892,-0.00616617,0.14705373,0.00105944,-0.013
 30700,-0.01116077,-0.05544611,0.00133443,0.00178814,-0.00157562,-0.001
 24669,-0.02643192,0.00016156,0.00936223,0.02781179,0.00146760,-0.00025
 000,0.00105830,0.00003245,-0.00009547,-0.00002763,0.00097223,0.0002057
 1,-0.00102802,0.05903048,-0.01032590,-0.03283327,-0.03142537,-0.001862
 67,-0.06840659,-0.07386904,0.00387093,0.00487039,0.02491706,0.00016878
 ,0.00137162,0.00048760,0.00008581,0.00002207,-0.00038051,-0.00004664,-
 0.00002621,0.00007741,0.00234381,0.00111657,0.00022256,0.00231007,0.09
 338669,-0.00142071,-0.00321232,0.00551237,-0.00450900,-0.07218815,-0.2
 7873318,-0.00278794,-0.00073294,-0.02074174,-0.00002869,-0.00342242,-0
 .01117135,-0.00071901,0.00061308,0.00075926,-0.00001955,0.00004867,0.0
 0035407,0.00004971,-0.00030905,0.00101262,0.00947309,0.07768299,0.3023
 6255,0.00307063,-0.00170591,0.00036203,-0.02248115,-0.00580468,0.01116
 502,-0.37027878,0.00810232,0.14499060,-0.00132650,0.00347631,-0.004194
 58,-0.00066999,-0.00041802,0.00132839,-0.00019809,0.00037423,-0.000385
 57,-0.00013251,0.00114388,-0.00020928,0.00089012,-0.00035206,-0.000040
 86,0.38718081,-0.00040304,0.00457957,-0.00175676,0.02698045,-0.0092086
 0,-0.00742090,-0.03621703,-0.01491875,0.02140959,0.00080875,-0.0007963
 2,0.00223262,0.00049876,0.00065915,-0.00009336,0.00006686,-0.00010333,
 0.00010676,-0.00015514,-0.00102278,0.00091189,-0.00088779,-0.00021674,
 -0.00019669,-0.00194676,0.02423407,-0.00007629,0.00009284,-0.00012409,
 -0.02144801,-0.00159881,0.00974206,0.13901026,0.00542608,-0.12299765,-
 0.00194135,0.00307499,-0.00150049,-0.00096499,0.00004851,0.00097878,-0
 .00021420,0.00026494,-0.00031204,0.00049571,-0.00002992,-0.00002412,0.
 00001897,-0.00074279,0.00075140,-0.14852029,-0.00924324,0.12632250,0.0
 0096202,0.00088410,0.00171977,-0.00189703,-0.01357818,-0.02460501,-0.0
 5899152,0.00232361,-0.04514543,0.00105567,-0.00131668,-0.00125016,-0.0
 0010317,0.00022811,0.00018277,0.00000079,-0.00000748,0.00008239,-0.000
 13619,-0.00003519,0.00017682,-0.00209970,0.00374273,-0.00285668,0.0035
 3860,0.01122523,0.03379888,0.05802772,-0.00079845,0.00456162,-0.001342
 17,0.00619332,0.00024611,0.02877405,0.00016735,-0.07223139,-0.15907672
 ,-0.00094691,0.00006509,0.00025781,-0.00001193,-0.00004860,0.00013857,
 -0.00000061,0.00002105,-0.00003631,-0.00040086,-0.00025794,0.00026445,
 0.00252635,-0.00050312,0.00167675,-0.00280192,-0.00356490,0.00252701,-
 0.00386746,0.07175077,0.00212943,-0.00248334,0.00324847,-0.00460949,-0
 .00748061,-0.02307900,-0.02768752,-0.11428295,-0.37370042,0.00089744,-
 0.00004577,0.00148531,0.00023043,0.00022011,0.00015479,-0.00000050,-0.
 00000754,0.00004669,0.00009805,0.00023104,-0.00033239,-0.00292581,0.00
 255618,-0.00016559,-0.00446734,-0.00599798,-0.01294882,0.03693686,0.12
 737206,0.40499546,-0.00758882,-0.00148893,0.00392179,-0.00529581,-0.02
 746135,-0.00287656,0.00041122,-0.00008554,-0.00031663,-0.07296018,-0.0
 7718837,0.00338033,0.00550304,0.02200461,-0.00031831,0.00147939,0.0008
 3352,0.00007770,-0.00048096,-0.00141723,-0.00019677,0.00076035,0.00033
 895,0.00025553,0.00037898,0.00028781,0.00017026,-0.00009073,-0.0001587
 3,0.00000424,0.08091436,-0.00095924,0.00061151,0.00080332,0.00323327,-
 0.00173344,-0.00111680,0.00195492,0.00063835,-0.00030856,-0.08233933,-
 0.29082624,0.00560144,-0.00512884,-0.01624723,0.00024212,-0.00076344,0
 .00092693,-0.00017003,0.00012385,-0.00005375,-0.00008159,-0.00029990,0
 .00036586,0.00015341,-0.00005006,0.00042938,0.00004018,0.00001984,-0.0
 0000214,0.00011638,0.08344039,0.31329120,0.00332112,0.00083480,-0.0006
 8763,0.00303142,0.01305481,-0.00116011,-0.00123003,0.00007692,0.000351
 34,0.00243158,0.00304876,-0.04833913,0.00511800,0.01681272,-0.00081289
 ,0.00076982,-0.00052658,0.00034959,0.00039351,0.00059736,0.00052837,-0
 .00052598,0.00019194,0.00020744,-0.00008240,-0.00012843,-0.00023098,0.
 00007071,-0.00002099,0.00003452,-0.00220437,-0.00897169,0.04799673,0.0
 0211956,0.00086882,-0.00156142,-0.00010839,0.01135010,0.03107224,0.001
 99010,-0.00060055,0.00057247,-0.04902824,-0.00580943,-0.01482442,-0.00
 234003,-0.00758601,-0.02019762,0.00104482,-0.00058810,-0.00083420,0.00
 022488,0.00029056,-0.00037112,-0.00499012,-0.00028551,0.00214011,0.000
 25594,-0.00026551,-0.00023927,-0.00035023,0.00004121,-0.00071378,-0.00
 098569,-0.00259760,-0.00939877,0.05384440,0.00035562,0.00112613,0.0007
 6671,-0.00085534,-0.00141092,0.00067299,0.00034424,-0.00007747,-0.0001
 7649,-0.00539593,-0.07616070,-0.08185386,0.00198458,0.00579041,0.01858
 054,-0.00083218,0.00055964,0.00017932,0.00003852,-0.00002121,-0.000022
 66,0.00035659,0.00079447,0.00020671,-0.00005706,-0.00006413,0.00015860
 ,0.00043374,-0.00000975,-0.00009901,-0.00045687,-0.00757155,-0.0268299
 9,0.00210108,0.07726868,-0.00050667,0.00026142,0.00117100,-0.00204297,
 -0.00542505,-0.01519487,-0.00049627,0.00061744,0.00141049,-0.01357494,
 -0.08028254,-0.27558349,-0.00053871,-0.00539445,-0.01520041,0.00081383
 ,-0.00006336,0.00091435,-0.00011442,0.00002110,0.00043349,0.00278953,0
 .00024993,-0.00044258,0.00005950,0.00024599,0.00032763,0.00068324,-0.0
 0049437,0.00026341,0.00025015,0.00134781,0.00200295,0.01527946,0.08650
 226,0.30003974,-0.00119340,0.00030966,-0.00031516,0.00085792,0.0007876
 6,0.00054936,0.00014688,-0.00047067,0.00003859,0.00643562,0.02129468,-
 0.00002694,-0.07096013,-0.07993741,0.00074612,-0.01029476,-0.02855463,
 -0.00000022,0.00004201,-0.00031427,0.00010481,-0.00004952,-0.00016827,
 0.00001203,-0.00005445,-0.00004971,0.00002483,0.00002645,0.00003561,-0
 .00005250,-0.00284038,0.00268227,-0.00224552,0.00081092,-0.00067019,0.
 00026903,0.08086893,-0.00151321,0.00126247,-0.00029035,-0.00149586,-0.
 00141459,0.00051561,0.00048705,0.00023764,-0.00015877,-0.00482449,-0.0
 1687875,-0.00035511,-0.07867205,-0.29025503,0.00254797,0.00109353,0.00
 095602,-0.00028624,-0.00010327,0.00036795,-0.00017228,0.00011185,0.000
 12772,-0.00000048,0.00012114,0.00002527,0.00004877,-0.00002540,-0.0000
 0881,-0.00000096,0.00272235,-0.00103391,0.00229602,0.00001313,0.000931
 29,0.00009308,0.08486729,0.31145050,0.00030372,-0.00003942,0.00009289,
 0.00052104,-0.00013467,0.00008077,-0.00014474,-0.00004495,0.00005275,0
 .00518999,0.01690306,-0.00053829,0.00024194,0.00065431,-0.04980551,0.0
 0434399,0.01306312,-0.00070718,0.00000416,-0.00016210,-0.00006157,-0.0
 0008260,0.00001696,0.00004421,-0.00004611,-0.00004579,-0.00000910,0.00
 002040,-0.00000737,0.00000087,-0.00239602,0.00236908,-0.00079051,0.000
 84378,0.00000953,0.00054761,-0.00137977,-0.00546572,0.04905537,-0.0000
 9545,-0.00001147,0.00026604,0.00113152,-0.00066992,-0.00138613,-0.0000
 0299,0.00004762,0.00005921,-0.00257905,-0.00736590,-0.02079892,-0.0470
 6880,-0.00407901,-0.00967206,0.00011853,0.01060636,0.02985499,-0.00003
 235,-0.00001075,0.00000117,-0.00016052,0.00016202,0.00046252,0.0000174
 1,0.00002259,0.00005870,0.00003175,0.00002668,0.00013870,0.00067644,0.
 00002367,0.00074840,-0.00255083,0.00287340,-0.00232150,-0.00076478,-0.
 00232926,-0.00904677,0.05440496,-0.00018344,-0.00002136,-0.00001854,-0
 .00052493,0.00066545,0.00041888,-0.00013405,-0.00006435,0.00007519,0.0
 0150507,0.00563424,0.01860694,-0.00390249,-0.07725925,-0.08111720,-0.0
 0019694,0.00012963,0.00250799,-0.00000869,0.00006120,-0.00001836,-0.00
 009232,-0.00006352,-0.00032879,-0.00004679,-0.00002120,-0.00004926,-0.
 00003126,-0.00001202,-0.00009617,-0.00069286,0.00084659,-0.00005683,0.
 00286006,-0.00097177,0.00219695,-0.00019745,-0.00798436,-0.02762214,0.
 00111836,0.07732163,-0.00049412,-0.00011725,0.00009672,0.00141259,-0.0
 0016489,0.00038217,-0.00010464,0.00013417,0.00048595,-0.00092132,-0.00
 547589,-0.01567572,-0.00890741,-0.07938858,-0.28120033,-0.00097535,-0.
 00374984,-0.01066543,-0.00002294,0.00001430,-0.00006129,-0.00060528,0.
 00002833,0.00030937,-0.00006950,-0.00000083,-0.00003502,0.00019831,-0.
 00004931,0.00002790,0.00033753,0.00015498,0.00056780,-0.00238884,0.002
 33411,-0.00118409,0.00010738,0.00082017,0.00134782,0.00983386,0.084899
 21,0.30460656,-0.00002575,-0.00001025,-0.00002393,0.00010012,-0.000122
 39,0.00006967,-0.00000878,-0.00001926,-0.00007235,0.00168839,-0.000095
 44,0.00103452,0.00065371,0.01105700,0.02919625,-0.04656931,-0.00190260
 ,-0.00568977,0.00000108,0.00000187,-0.00000580,-0.00002741,-0.00000703
 ,-0.00012666,0.00000294,-0.00000795,0.00001195,-0.00001629,0.00001137,
 -0.00000697,-0.00000860,0.00000926,-0.00011232,-0.00011324,-0.00010969
 ,-0.00049970,0.00127099,-0.00013068,-0.00059956,-0.00550304,-0.0000881
 2,0.00265229,0.04979340,0.00002839,-0.00003001,0.00000635,-0.00003880,
 -0.00000952,0.00007033,0.00001439,0.00000698,-0.00000244,-0.00003393,0
 .00003204,-0.00031197,-0.00011810,0.00023467,0.00297940,-0.00137941,-0
 .07740950,-0.08528801,0.00000278,-0.00000661,0.00000032,-0.00000636,-0
 .00000227,0.00000780,0.00000071,0.00000182,0.00000412,0.00000178,-0.00
 000369,0.00000050,-0.00006086,0.00001507,0.00000841,0.00016846,-0.0000
 6383,-0.00007519,0.00046247,0.00041593,0.00047425,-0.00041419,0.001213
 27,0.00025308,0.00181967,0.07639055,0.00015344,0.00002988,-0.00004048,
 -0.00024762,0.00009840,0.00038844,0.00016540,-0.00002785,-0.00002841,-
 0.00072903,0.00050842,0.00087683,-0.00095790,-0.00360194,-0.01132766,-
 0.00437668,-0.08505087,-0.28820278,0.00000380,-0.00000078,0.00001699,-
 0.00011530,0.00000113,-0.00001878,0.00003138,-0.00000542,0.00001435,0.
 00000203,0.00000450,-0.00001325,0.00003695,-0.00000107,0.00001192,0.00
 039858,-0.00039562,0.00024819,-0.00013010,0.00029688,0.00045703,0.0029
 7658,0.00038011,-0.00010379,0.00139157,0.09216819,0.30830138,-0.000398
 83,0.00014564,-0.00002472,0.00031995,-0.00014641,0.00018661,-0.0000173
 9,0.00004147,-0.00001838,0.00150364,-0.00136628,0.00006477,-0.00994379
 ,-0.02874058,-0.00093795,-0.07629110,-0.08389885,-0.00046059,-0.000033
 59,0.00007176,-0.00006301,-0.00000791,0.00000347,0.00000882,-0.0000014
 5,0.00000153,-0.00000572,0.00000768,0.00000042,0.00000286,-0.00007926,
 0.00057441,-0.00015890,0.00001743,0.00008509,-0.00003294,-0.00529853,0
 .00003359,0.00270012,0.00125829,0.00047690,-0.00020112,-0.00105960,0.0
 0028505,0.00028239,0.08279245,0.00003020,0.00003663,-0.00002395,0.0001
 0429,0.00019696,-0.00009894,-0.00014307,0.00001655,0.00003507,0.000613
 65,0.00111378,0.00001163,0.00084287,-0.00001339,0.00021261,-0.08535318
 ,-0.28881999,-0.00038746,0.00003390,0.00000733,0.00000062,-0.00001441,
 0.00000060,0.00001368,-0.00003104,-0.00000431,-0.00002450,0.00000264,-
 0.00000461,0.00000180,-0.00048341,0.00004744,-0.00027896,-0.00001518,-
 0.00002380,0.00001082,-0.00023637,0.00122006,0.00046515,-0.00020999,0.
 00054807,0.00033404,-0.00231002,-0.00740435,0.00147304,0.09343879,0.30
 658625,0.00016671,-0.00004501,0.00000740,-0.00011804,0.00003442,-0.000
 09311,0.00004498,-0.00003072,-0.00000245,-0.00074805,-0.00009062,0.000
 10365,0.00455882,0.01368206,-0.00053866,-0.00075444,-0.00099870,-0.047
 26644,0.00000935,-0.00002563,0.00002159,0.00001068,-0.00000576,-0.0000
 2507,0.00000870,0.00000482,0.00000573,-0.00000264,0.00000251,-0.000004
 12,-0.00007252,-0.00024567,0.00012767,0.00006319,-0.00003886,0.0000091
 3,0.00294276,0.00007615,-0.00011132,-0.00060725,0.00047080,0.00038255,
 -0.00958040,-0.02757152,0.00198932,-0.00273183,-0.00031300,0.04524929,
 -0.00028430,-0.00020845,0.00011940,0.00035783,0.00130094,-0.00161629,-
 0.00100903,0.00017357,0.00034464,-0.00508974,-0.00161657,0.00452043,-0
 .01643758,0.01662730,-0.01712266,-0.15841877,0.09840708,-0.09154488,0.
 00000928,-0.00001924,-0.00003312,-0.00001731,0.00002151,0.00010729,-0.
 00019251,0.00004094,-0.00017943,0.00003419,-0.00001546,0.00002591,0.00
 020664,0.00007651,0.00007372,0.00015871,-0.00019562,-0.00001660,0.0009
 9623,-0.00035569,-0.00047357,0.00111891,0.00013895,0.00014855,-0.00017
 861,-0.00073207,0.00111451,0.00723200,-0.00626967,0.00680998,0.1715140
 9,0.00013312,0.00003134,-0.00004527,-0.00013430,0.00026700,0.00028462,
 0.00001572,-0.00000898,-0.00001668,-0.00015596,0.00084934,-0.00011206,
 -0.00342294,0.00088872,-0.00225940,0.09975126,-0.13460133,0.08163329,0
 .00001050,0.00001183,0.00000548,-0.00000726,-0.00000427,-0.00001225,-0
 .00000429,-0.00000818,0.00000249,-0.00000013,0.00000232,-0.00000374,-0
 .00013350,0.00029593,-0.00010827,0.00005447,-0.00009546,0.00018816,0.0
 0015932,0.00058062,-0.00043331,0.00020979,-0.00002225,-0.00002579,-0.0
 0809574,0.00661947,-0.00587700,0.01899400,-0.01350320,0.01509474,-0.10
 737404,0.13869712,0.00003267,0.00004013,-0.00003447,0.00022782,-0.0002
 5130,0.00065706,0.00031098,-0.00006783,-0.00010029,0.00232659,0.000452
 39,-0.00069004,0.01007418,-0.00967151,0.00761212,-0.09334905,0.0821221
 0,-0.12300146,-0.00000105,0.00000876,0.00000010,-0.00004719,-0.0000086
 3,-0.00001500,0.00007031,-0.00002227,0.00003986,-0.00001226,0.00000954
 ,-0.00001383,-0.00005331,0.00006671,-0.00015707,0.00015961,0.00000574,
 0.00023746,-0.00064469,0.00003526,0.00034416,-0.00056754,-0.00024878,0
 .00071883,-0.01763879,0.01727637,-0.01256931,0.00138959,-0.00143165,0.
 00014485,0.09772212,-0.08831503,0.12682704\\-0.00000504,0.00000833,-0.
 00000528,-0.00000665,-0.00000534,-0.00001538,0.00000232,-0.00000277,0.
 00000476,0.00000774,0.00000855,0.00000557,0.00000218,-0.00000299,-0.00
 000371,-0.00000226,0.00000011,0.00000599,-0.00000131,-0.00000595,-0.00
 000428,-0.00000529,-0.00000283,0.00000053,-0.00000031,0.00000392,-0.00
 000068,0.00000100,0.00000320,-0.00000030,0.00000610,0.00000031,0.00000
 270,0.00000046,0.00000080,-0.00000174,-0.00000080,-0.00000238,-0.00000
 098,-0.00000242,-0.00000141,0.00000347,0.00000188,0.00000203,-0.000000
 85,0.00000189,0.00000106,0.00000708,0.00000052,-0.00000465,0.00000310\
 \\@
 The archive entry for this job was punched.


 "THE TIME HAS COME", THE WALRUS SAID,
 "TO TALK OF MANY THINGS,
 OF SHOES AND SHIPS AND SEALING WAX,
 OF CABBAGES AND KINGS,
 AND WHY THE SEA IS BOILING HOT,
 AND WHETHER PIGS HAVE WINGS."
 Job cpu time:       0 days  0 hours 15 minutes 51.0 seconds.
 Elapsed time:       0 days  0 hours  1 minutes 59.2 seconds.
 File lengths (MBytes):  RWF=   1344 Int=      0 D2E=      0 Chk=     12 Scr=     32
 Normal termination of Gaussian 16 at Wed Oct 22 13:15:46 2025.
