 Entering Gaussian System, Link 0=g16
 Input=../../g16_C2-w_1.com
 Output=../../g16_C2-w_1.log
 Initial command:
 /lrz/sys/applications/gaussian/g16.C.01/x86_64_legacy/exe/l1.exe "/dss/lxclscratch/0D/go29tiz2/Gau-171043.inp" -scrdir="/dss/lxclscratch/0D/go29tiz2/"
 Entering Link 1 = /lrz/sys/applications/gaussian/g16.C.01/x86_64_legacy/exe/l1.exe PID=    171044.
  
 Copyright (c) 1988-2019, Gaussian, Inc.  All Rights Reserved.
  
 This is part of the Gaussian(R) 16 program.  It is based on
 the Gaussian(R) 09 system (copyright 2009, Gaussian, Inc.),
 the Gaussian(R) 03 system (copyright 2003, Gaussian, Inc.),
 the Gaussian(R) 98 system (copyright 1998, Gaussian, Inc.),
 the Gaussian(R) 94 system (copyright 1995, Gaussian, Inc.),
 the Gaussian 92(TM) system (copyright 1992, Gaussian, Inc.),
 the Gaussian 90(TM) system (copyright 1990, Gaussian, Inc.),
 the Gaussian 88(TM) system (copyright 1988, Gaussian, Inc.),
 the Gaussian 86(TM) system (copyright 1986, Carnegie Mellon
 University), and the Gaussian 82(TM) system (copyright 1983,
 Carnegie Mellon University). Gaussian is a federally registered
 trademark of Gaussian, Inc.
  
 This software contains proprietary and confidential information,
 including trade secrets, belonging to Gaussian, Inc.
  
 This software is provided under written license and may be
 used, copied, transmitted, or stored only in accord with that
 written license.
  
 The following legend is applicable only to US Government
 contracts under FAR:
  
                    RESTRICTED RIGHTS LEGEND
  
 Use, reproduction and disclosure by the US Government is
 subject to restrictions as set forth in subparagraphs (a)
 and (c) of the Commercial Computer Software - Restricted
 Rights clause in FAR 52.227-19.
  
 Gaussian, Inc.
 340 Quinnipiac St., Bldg. 40, Wallingford CT 06492
  
  
 ---------------------------------------------------------------
 Warning -- This program may not be used in any manner that
 competes with the business of Gaussian, Inc. or will provide
 assistance to any competitor of Gaussian, Inc.  The licensee
 of this program is prohibited from giving any competitor of
 Gaussian, Inc. access to this program.  By using this program,
 the user acknowledges that Gaussian, Inc. is engaged in the
 business of creating and licensing software in the field of
 computational chemistry and represents and warrants to the
 licensee that it is not a competitor of Gaussian, Inc. and that
 it will not use this program in any manner prohibited above.
 ---------------------------------------------------------------
  

 Cite this work as:
 Gaussian 16, Revision C.01,
 M. J. Frisch, G. W. Trucks, H. B. Schlegel, G. E. Scuseria, 
 M. A. Robb, J. R. Cheeseman, G. Scalmani, V. Barone, 
 G. A. Petersson, H. Nakatsuji, X. Li, M. Caricato, A. V. Marenich, 
 J. Bloino, B. G. Janesko, R. Gomperts, B. Mennucci, H. P. Hratchian, 
 J. V. Ortiz, A. F. Izmaylov, J. L. Sonnenberg, D. Williams-Young, 
 F. Ding, F. Lipparini, F. Egidi, J. Goings, B. Peng, A. Petrone, 
 T. Henderson, D. Ranasinghe, V. G. Zakrzewski, J. Gao, N. Rega, 
 G. Zheng, W. Liang, M. Hada, M. Ehara, K. Toyota, R. Fukuda, 
 J. Hasegawa, M. Ishida, T. Nakajima, Y. Honda, O. Kitao, H. Nakai, 
 T. Vreven, K. Throssell, J. A. Montgomery, Jr., J. E. Peralta, 
 F. Ogliaro, M. J. Bearpark, J. J. Heyd, E. N. Brothers, K. N. Kudin, 
 V. N. Staroverov, T. A. Keith, R. Kobayashi, J. Normand, 
 K. Raghavachari, A. P. Rendell, J. C. Burant, S. S. Iyengar, 
 J. Tomasi, M. Cossi, J. M. Millam, M. Klene, C. Adamo, R. Cammi, 
 J. W. Ochterski, R. L. Martin, K. Morokuma, O. Farkas, 
 J. B. Foresman, and D. J. Fox, Gaussian, Inc., Wallingford CT, 2019.
 
 ******************************************
 Gaussian 16:  EM64L-G16RevC.01  3-Jul-2019
                21-Oct-2025 
 ******************************************
 %chk=g16_C2-w_1.chk
 %nprocshared=8
 Will use up to    8 processors via shared memory.
 %mem=32GB
 ---------------------------------------------------
 #p opt freq wb97xd scrf=(smd,solvent=water) def2svp
 ---------------------------------------------------
 1/18=20,19=15,26=3,38=1/1,3;
 2/9=110,12=2,17=6,18=5,40=1/2;
 3/5=43,7=101,11=2,25=1,30=1,70=32201,71=1,72=1,74=-58/1,2,3;
 4//1;
 5/5=2,38=5,53=1/2;
 6/7=2,8=2,9=2,10=2,28=1/1;
 7//1,2,3,16;
 1/18=20,19=15,26=3/3(2);
 2/9=110/2;
 99//99;
 2/9=110/2;
 3/5=43,7=101,11=2,25=1,30=1,70=32205,71=1,72=1,74=-58/1,2,3;
 4/5=5,16=3,69=1/1;
 5/5=2,38=5,53=1/2;
 7//1,2,3,16;
 1/18=20,19=15,26=3/3(-5);
 2/9=110/2;
 6/7=2,8=2,9=2,10=2,19=2,28=1/1;
 99/9=1/99;
 Leave Link    1 at Tue Oct 21 19:33:00 2025, MaxMem=  4294967296 cpu:               6.1 elap:               0.9
 (Enter /lrz/sys/applications/gaussian/g16.C.01/x86_64_legacy/exe/l101.exe)
 ----------
 g16_C2-w_1
 ----------
 Symbolic Z-matrix:
 Charge =  0 Multiplicity = 1
 O                    -0.61365  -1.32093   0.09516 
 C                    -0.44019   0.00402  -0.31956 
 O                    -1.553     0.79012   0.02149 
 C                     0.79386   0.66503   0.2982 
 C                     2.08155  -0.02433  -0.131 
 H                    -0.63279  -1.34059   1.06147 
 H                    -0.3303   -0.05966  -1.41312 
 H                    -2.34977   0.38666  -0.34638 
 H                     0.79628   1.71105  -0.00748 
 H                     0.68809   0.63392   1.38513 
 H                     2.22565   0.07424  -1.2041 
 H                     2.04346  -1.08352   0.11237 
 H                     2.93301   0.42106   0.37607 
 
 ITRead=  0  0  0  0  0  0  0  0  0  0  0  0  0
 MicOpt= -1 -1 -1 -1 -1 -1 -1 -1 -1 -1 -1 -1 -1
 NAtoms=     13 NQM=       13 NQMF=       0 NMMI=      0 NMMIF=      0
                NMic=       0 NMicF=      0.
                    Isotopes and Nuclear Properties:
 (Nuclear quadrupole moments (NQMom) in fm**2, nuclear magnetic moments (NMagM)
  in nuclear magnetons)

  Atom         1           2           3           4           5           6           7           8           9          10
 IAtWgt=          16          12          16          12          12           1           1           1           1           1
 AtmWgt=  15.9949146  12.0000000  15.9949146  12.0000000  12.0000000   1.0078250   1.0078250   1.0078250   1.0078250   1.0078250
 NucSpn=           0           0           0           0           0           1           1           1           1           1
 AtZEff=  -0.0000000  -0.0000000  -0.0000000  -0.0000000  -0.0000000  -0.0000000  -0.0000000  -0.0000000  -0.0000000  -0.0000000
 NQMom=    0.0000000   0.0000000   0.0000000   0.0000000   0.0000000   0.0000000   0.0000000   0.0000000   0.0000000   0.0000000
 NMagM=    0.0000000   0.0000000   0.0000000   0.0000000   0.0000000   2.7928460   2.7928460   2.7928460   2.7928460   2.7928460
 AtZNuc=   8.0000000   6.0000000   8.0000000   6.0000000   6.0000000   1.0000000   1.0000000   1.0000000   1.0000000   1.0000000

  Atom        11          12          13
 IAtWgt=           1           1           1
 AtmWgt=   1.0078250   1.0078250   1.0078250
 NucSpn=           1           1           1
 AtZEff=  -0.0000000  -0.0000000  -0.0000000
 NQMom=    0.0000000   0.0000000   0.0000000
 NMagM=    2.7928460   2.7928460   2.7928460
 AtZNuc=   1.0000000   1.0000000   1.0000000
 Leave Link  101 at Tue Oct 21 19:33:00 2025, MaxMem=  4294967296 cpu:               3.7 elap:               0.5
 (Enter /lrz/sys/applications/gaussian/g16.C.01/x86_64_legacy/exe/l103.exe)

 GradGradGradGradGradGradGradGradGradGradGradGradGradGradGradGradGradGrad
 Berny optimization.
 Initialization pass.
                           ----------------------------
                           !    Initial Parameters    !
                           ! (Angstroms and Degrees)  !
 --------------------------                            --------------------------
 ! Name  Definition              Value          Derivative Info.                !
 --------------------------------------------------------------------------------
 ! R1    R(1,2)                  1.3991         estimate D2E/DX2                !
 ! R2    R(1,6)                  0.9667         estimate D2E/DX2                !
 ! R3    R(2,3)                  1.4045         estimate D2E/DX2                !
 ! R4    R(2,4)                  1.5302         estimate D2E/DX2                !
 ! R5    R(2,7)                  1.1009         estimate D2E/DX2                !
 ! R6    R(3,8)                  0.9659         estimate D2E/DX2                !
 ! R7    R(4,5)                  1.5224         estimate D2E/DX2                !
 ! R8    R(4,9)                  1.0898         estimate D2E/DX2                !
 ! R9    R(4,10)                 1.0925         estimate D2E/DX2                !
 ! R10   R(5,11)                 1.0872         estimate D2E/DX2                !
 ! R11   R(5,12)                 1.0875         estimate D2E/DX2                !
 ! R12   R(5,13)                 1.0865         estimate D2E/DX2                !
 ! A1    A(2,1,6)              108.5423         estimate D2E/DX2                !
 ! A2    A(1,2,3)              111.0898         estimate D2E/DX2                !
 ! A3    A(1,2,4)              112.9172         estimate D2E/DX2                !
 ! A4    A(1,2,7)              104.5977         estimate D2E/DX2                !
 ! A5    A(3,2,4)              107.4075         estimate D2E/DX2                !
 ! A6    A(3,2,7)              110.6502         estimate D2E/DX2                !
 ! A7    A(4,2,7)              110.2126         estimate D2E/DX2                !
 ! A8    A(2,3,8)              109.1057         estimate D2E/DX2                !
 ! A9    A(2,4,5)              111.8836         estimate D2E/DX2                !
 ! A10   A(2,4,9)              107.649          estimate D2E/DX2                !
 ! A11   A(2,4,10)             108.1357         estimate D2E/DX2                !
 ! A12   A(5,4,9)              110.713          estimate D2E/DX2                !
 ! A13   A(5,4,10)             110.4565         estimate D2E/DX2                !
 ! A14   A(9,4,10)             107.8556         estimate D2E/DX2                !
 ! A15   A(4,5,11)             110.4465         estimate D2E/DX2                !
 ! A16   A(4,5,12)             110.3852         estimate D2E/DX2                !
 ! A17   A(4,5,13)             110.2224         estimate D2E/DX2                !
 ! A18   A(11,5,12)            108.2908         estimate D2E/DX2                !
 ! A19   A(11,5,13)            108.6394         estimate D2E/DX2                !
 ! A20   A(12,5,13)            108.8007         estimate D2E/DX2                !
 ! D1    D(6,1,2,3)            -65.8822         estimate D2E/DX2                !
 ! D2    D(6,1,2,4)             54.8594         estimate D2E/DX2                !
 ! D3    D(6,1,2,7)            174.7095         estimate D2E/DX2                !
 ! D4    D(1,2,3,8)            -55.2349         estimate D2E/DX2                !
 ! D5    D(4,2,3,8)           -179.1734         estimate D2E/DX2                !
 ! D6    D(7,2,3,8)             60.488          estimate D2E/DX2                !
 ! D7    D(1,2,4,5)             63.1882         estimate D2E/DX2                !
 ! D8    D(1,2,4,9)           -174.9568         estimate D2E/DX2                !
 ! D9    D(1,2,4,10)           -58.6745         estimate D2E/DX2                !
 ! D10   D(3,2,4,5)           -173.9943         estimate D2E/DX2                !
 ! D11   D(3,2,4,9)            -52.1392         estimate D2E/DX2                !
 ! D12   D(3,2,4,10)            64.1431         estimate D2E/DX2                !
 ! D13   D(7,2,4,5)            -53.3787         estimate D2E/DX2                !
 ! D14   D(7,2,4,9)             68.4764         estimate D2E/DX2                !
 ! D15   D(7,2,4,10)          -175.2413         estimate D2E/DX2                !
 ! D16   D(2,4,5,11)            63.8922         estimate D2E/DX2                !
 ! D17   D(2,4,5,12)           -55.8344         estimate D2E/DX2                !
 ! D18   D(2,4,5,13)          -176.0519         estimate D2E/DX2                !
 ! D19   D(9,4,5,11)           -56.1864         estimate D2E/DX2                !
 ! D20   D(9,4,5,12)          -175.9129         estimate D2E/DX2                !
 ! D21   D(9,4,5,13)            63.8696         estimate D2E/DX2                !
 ! D22   D(10,4,5,11)         -175.5874         estimate D2E/DX2                !
 ! D23   D(10,4,5,12)           64.686          estimate D2E/DX2                !
 ! D24   D(10,4,5,13)          -55.5315         estimate D2E/DX2                !
 --------------------------------------------------------------------------------
 Trust Radius=3.00D-01 FncErr=1.00D-07 GrdErr=1.00D-06 EigMax=2.50D+02 EigMin=1.00D-04
 Number of steps in this run=     66 maximum allowed number of steps=    100.
 GradGradGradGradGradGradGradGradGradGradGradGradGradGradGradGradGradGrad

 Leave Link  103 at Tue Oct 21 19:33:00 2025, MaxMem=  4294967296 cpu:               0.1 elap:               0.0
 (Enter /lrz/sys/applications/gaussian/g16.C.01/x86_64_legacy/exe/l202.exe)
                          Input orientation:                          
 ---------------------------------------------------------------------
 Center     Atomic      Atomic             Coordinates (Angstroms)
 Number     Number       Type             X           Y           Z
 ---------------------------------------------------------------------
      1          8           0       -0.613652   -1.320931    0.095156
      2          6           0       -0.440194    0.004016   -0.319556
      3          8           0       -1.552996    0.790123    0.021488
      4          6           0        0.793864    0.665033    0.298204
      5          6           0        2.081549   -0.024329   -0.131003
      6          1           0       -0.632789   -1.340594    1.061467
      7          1           0       -0.330303   -0.059660   -1.413123
      8          1           0       -2.349769    0.386664   -0.346382
      9          1           0        0.796278    1.711049   -0.007479
     10          1           0        0.688086    0.633920    1.385131
     11          1           0        2.225649    0.074237   -1.204103
     12          1           0        2.043458   -1.083516    0.112369
     13          1           0        2.933011    0.421059    0.376067
 ---------------------------------------------------------------------
                    Distance matrix (angstroms):
                    1          2          3          4          5
     1  O    0.000000
     2  C    1.399127   0.000000
     3  O    2.311783   1.404494   0.000000
     4  C    2.442617   1.530186   2.366425   0.000000
     5  C    2.999405   2.528941   3.727801   1.522357   0.000000
     6  H    0.966701   1.937084   2.543284   2.576907   3.243789
     7  H    1.986452   1.100917   2.067660   2.171996   2.731687
     8  H    2.474861   1.947721   0.965896   3.221088   4.455546
     9  H    3.345346   2.130779   2.523496   1.089770   2.163035
    10  H    2.679552   2.139101   2.627997   1.092506   2.161873
    11  H    3.419970   2.809639   4.036424   2.157770   1.087209
    12  H    2.667751   2.745507   4.056262   2.157184   1.087454
    13  H    3.961344   3.469340   4.515106   2.154422   1.086497
                    6          7          8          9         10
     6  H    0.000000
     7  H    2.802835   0.000000
     8  H    2.813091   2.327098   0.000000
     9  H    3.535167   2.525952   3.430228   0.000000
    10  H    2.397536   3.057514   3.505401   1.763881   0.000000
    11  H    3.912189   2.567977   4.665592   2.480759   3.062920
    12  H    2.851171   3.001690   4.655355   3.062584   2.531116
    13  H    4.035854   3.752533   5.332061   2.525235   2.470467
                   11         12         13
    11  H    0.000000
    12  H    1.762578   0.000000
    13  H    1.765667   1.767650   0.000000
 Stoichiometry    C3H8O2
 Framework group  C1[X(C3H8O2)]
 Deg. of freedom    33
 Full point group                 C1      NOp   1
 Largest Abelian subgroup         C1      NOp   1
 Largest concise Abelian subgroup C1      NOp   1
                         Standard orientation:                         
 ---------------------------------------------------------------------
 Center     Atomic      Atomic             Coordinates (Angstroms)
 Number     Number       Type             X           Y           Z
 ---------------------------------------------------------------------
      1          8           0       -0.688449    1.324950   -0.074920
      2          6           0       -0.503814   -0.005004    0.318382
      3          8           0       -1.609085   -0.795273   -0.037222
      4          6           0        0.736967   -0.644869   -0.308120
      5          6           0        2.017847    0.048782    0.134334
      6          1           0       -0.706361    1.360229   -1.040811
      7          1           0       -0.396077    0.041768    1.413016
      8          1           0       -2.409948   -0.404961    0.335916
      9          1           0        0.748241   -1.695678   -0.019550
     10          1           0        0.632490   -0.596941   -1.394561
     11          1           0        2.161264   -0.066022    1.205910
     12          1           0        1.970690    1.111424   -0.091774
     13          1           0        2.873970   -0.380692   -0.378582
 ---------------------------------------------------------------------
 Rotational constants (GHZ):           8.5127636           3.5838341           2.7853171
 Leave Link  202 at Tue Oct 21 19:33:00 2025, MaxMem=  4294967296 cpu:               0.1 elap:               0.0
 (Enter /lrz/sys/applications/gaussian/g16.C.01/x86_64_legacy/exe/l301.exe)
 Standard basis: def2SVP (5D, 7F)
 Ernie: Thresh=  0.10000D-02 Tol=  0.10000D-05 Strict=F.
 There are   115 symmetry adapted cartesian basis functions of A   symmetry.
 There are   110 symmetry adapted basis functions of A   symmetry.
   110 basis functions,   181 primitive gaussians,   115 cartesian basis functions
    21 alpha electrons       21 beta electrons
       nuclear repulsion energy       195.3277719156 Hartrees.
 IExCor= 4639 DFT=T Ex+Corr=wB97XD ExCW=0 ScaHFX=  1.000000
 ScaDFX=  1.000000  1.000000  1.000000  1.000000 ScalE2=  1.000000  1.000000
 IRadAn=      5 IRanWt=     -1 IRanGd=            0 ICorTp=0 IEmpDi=121
 HFx  wShort=  0.000000 wLong=  0.200000 cFull=  0.222036 cShort=  0.000000 cLong=  0.777964
 DFx  wShort=  0.000000 wLong=  0.200000 cFull=  0.000000 cShort=  0.000000 cLong=  1.000000
 NAtoms=   13 NActive=   13 NUniq=   13 SFac= 1.00D+00 NAtFMM=   60 NAOKFM=F Big=F
 Integral buffers will be    131072 words long.
 Raffenetti 2 integral format.
 Two-electron integral symmetry is turned on.
 R6Disp:  Grimme-D2 Dispersion energy=       -0.0055656202 Hartrees.
 Nuclear repulsion after empirical dispersion term =      195.3222062954 Hartrees.
 ------------------------------------------------------------------------------
 Polarizable Continuum Model (PCM)
 =================================
 Model                : PCM.
 Atomic radii         : SMD-Coulomb.
 Polarization charges : Total charges.
 Charge compensation  : None.
 Solution method      : On-the-fly selection.
 Cavity type          : VdW (van der Waals Surface) (Alpha=1.000).
 Cavity algorithm     : GePol (No added spheres)
                        Default sphere list used, NSphG=   13.
                        Lebedev-Laikov grids with approx.  5.0 points / Ang**2.
                        Smoothing algorithm: York/Karplus (Gamma=1.0000).
                        Polarization charges: spherical gaussians, with
                                              point-specific exponents (IZeta= 3).
                        Self-potential: point-specific (ISelfS= 7).
                        Self-field    : sphere-specific E.n sum rule (ISelfD= 2).
 1st derivatives      : Analytical E(r).r(x)/FMM algorithm (CHGder, D1EAlg=3).
                        Cavity 1st derivative terms included.
 Solvent              : Water, Eps=  78.355300 Eps(inf)=   1.777849
 ------------------------------------------------------------------------------
 Spheres list:
 ISph  on   Nord     Re0    Alpha      Xe            Ye            Ze
    1   O      1    1.5200  1.000     -0.688449      1.324950     -0.074920
    2   C      2    1.8500  1.000     -0.503814     -0.005004      0.318382
    3   O      3    1.5200  1.000     -1.609085     -0.795273     -0.037222
    4   C      4    1.8500  1.000      0.736967     -0.644869     -0.308120
    5   C      5    1.8500  1.000      2.017847      0.048782      0.134334
    6   H      6    1.2000  1.000     -0.706361      1.360229     -1.040811
    7   H      7    1.2000  1.000     -0.396077      0.041768      1.413016
    8   H      8    1.2000  1.000     -2.409948     -0.404961      0.335916
    9   H      9    1.2000  1.000      0.748241     -1.695678     -0.019550
   10   H     10    1.2000  1.000      0.632490     -0.596941     -1.394561
   11   H     11    1.2000  1.000      2.161264     -0.066022      1.205910
   12   H     12    1.2000  1.000      1.970690      1.111424     -0.091774
   13   H     13    1.2000  1.000      2.873970     -0.380692     -0.378582
 ------------------------------------------------------------------------------
 GePol: Number of generator spheres                  =      13
 GePol: Total number of spheres                      =      13
 GePol: Number of exposed spheres                    =      13 (100.00%)
 GePol: Number of points                             =     916
 GePol: Average weight of points                     =       0.12
 GePol: Minimum weight of points                     =   0.43D-07
 GePol: Maximum weight of points                     =    0.21991
 GePol: Number of points with low weight             =      54
 GePol: Fraction of low-weight points (<1% of avg)   =       5.90%
 GePol: Cavity surface area                          =    110.864 Ang**2
 GePol: Cavity volume                                =     81.996 Ang**3
 ------------------------------------------------------------------------------
 Atomic radii for non-electrostatic terms: SMD-CDS.
 ------------------------------------------------------------------------------
 PCM non-electrostatic energy =         0.0047944617 Hartrees.
 Nuclear repulsion after PCM non-electrostatic terms =      195.3270007571 Hartrees.
 Leave Link  301 at Tue Oct 21 19:33:00 2025, MaxMem=  4294967296 cpu:               0.5 elap:               0.1
 (Enter /lrz/sys/applications/gaussian/g16.C.01/x86_64_legacy/exe/l302.exe)
 NPDir=0 NMtPBC=     1 NCelOv=     1 NCel=       1 NClECP=     1 NCelD=      1
         NCelK=      1 NCelE2=     1 NClLst=     1 CellRange=     0.0.
 One-electron integrals computed using PRISM.
 One-electron integral symmetry used in STVInt
   1 Symmetry operations used in ECPInt.
 ECPInt:  NShTT=    1485 NPrTT=    5139 LenC2=    1483 LenP2D=    4440.
 LDataN:  DoStor=T MaxTD1= 4 Len=   56
 NBasis=   110 RedAO= T EigKep=  2.28D-03  NBF=   110
 NBsUse=   110 1.00D-06 EigRej= -1.00D+00 NBFU=   110
 Precomputing XC quadrature grid using
 IXCGrd= 4 IRadAn=           5 IRanWt=          -1 IRanGd=           0 AccXCQ= 0.00D+00.
 Generated NRdTot=       0 NPtTot=           0 NUsed=           0 NTot=          32
 NSgBfM=   115   115   115   115   115 MxSgAt=    13 MxSgA2=    13.
 Leave Link  302 at Tue Oct 21 19:33:00 2025, MaxMem=  4294967296 cpu:               1.2 elap:               0.2
 (Enter /lrz/sys/applications/gaussian/g16.C.01/x86_64_legacy/exe/l303.exe)
 DipDrv:  MaxL=1.
 Leave Link  303 at Tue Oct 21 19:33:00 2025, MaxMem=  4294967296 cpu:               0.2 elap:               0.0
 (Enter /lrz/sys/applications/gaussian/g16.C.01/x86_64_legacy/exe/l401.exe)
 ExpMin= 1.22D-01 ExpMax= 2.27D+03 ExpMxC= 3.41D+02 IAcc=3 IRadAn=         5 AccDes= 0.00D+00
 Harris functional with IExCor= 4639 and IRadAn=       5 diagonalized for initial guess.
 HarFok:  IExCor= 4639 AccDes= 0.00D+00 IRadAn=         5 IDoV= 1 UseB2=F ITyADJ=14
 ICtDFT=  3500011 ScaDFX=  1.000000  1.000000  1.000000  1.000000
 FoFCou: FMM=F IPFlag=           0 FMFlag=      100000 FMFlg1=           0
         NFxFlg=           0 DoJE=T BraDBF=F KetDBF=T FulRan=T
         wScrn=  0.000000 ICntrl=       500 IOpCl=  0 I1Cent=   200000004 NGrid=           0
         NMat0=    1 NMatS0=      1 NMatT0=    0 NMatD0=    1 NMtDS0=    0 NMtDT0=    0
 Petite list used in FoFCou.
 Harris En= -258.102702777413    
 JPrj=0 DoOrth=F DoCkMO=F.
 Leave Link  401 at Tue Oct 21 19:33:01 2025, MaxMem=  4294967296 cpu:               4.9 elap:               0.6
 (Enter /lrz/sys/applications/gaussian/g16.C.01/x86_64_legacy/exe/l502.exe)
 Integral symmetry usage will be decided dynamically.
 Closed shell SCF:
 Using DIIS extrapolation, IDIIS=  1040.
 NGot=  4294967296 LenX=  4294938204 LenY=  4294924538
 Requested convergence on RMS density matrix=1.00D-08 within 128 cycles.
 Requested convergence on MAX density matrix=1.00D-06.
 Requested convergence on             energy=1.00D-06.
 No special actions if energy rises.
 Fock matrices will be formed incrementally for  20 cycles.

 Cycle   1  Pass 1  IDiag  1:
 FoFJK:  IHMeth= 1 ICntrl=       0 DoSepK=T KAlg= 0 I1Cent=           0 FoldK=F
 IRaf=         1 NMat=       1 IRICut=       1 DoRegI=T DoRafI=F ISym2E= 0 IDoP0=0 IntGTp=1.
 FoFCou: FMM=F IPFlag=           0 FMFlag=      100000 FMFlg1=           0
         NFxFlg=           0 DoJE=T BraDBF=F KetDBF=F FulRan=T
         wScrn=  0.000000 ICntrl=       500 IOpCl=  0 I1Cent=           0 NGrid=           0
         NMat0=    1 NMatS0=      1 NMatT0=    0 NMatD0=    1 NMtDS0=    0 NMtDT0=    0
 Symmetry not used in FoFCou.
 Inv3:  Mode=1 IEnd=     2517168.
 Iteration    1 A*A^-1 deviation from unit magnitude is 5.22D-15 for    312.
 Iteration    1 A*A^-1 deviation from orthogonality  is 2.72D-15 for    768    378.
 Iteration    1 A^-1*A deviation from unit magnitude is 4.66D-15 for    105.
 Iteration    1 A^-1*A deviation from orthogonality  is 2.16D-15 for    558    207.
 E= -269.265892655540    
 DIIS: error= 3.43D-02 at cycle   1 NSaved=   1.
 NSaved= 1 IEnMin= 1 EnMin= -269.265892655540     IErMin= 1 ErrMin= 3.43D-02
 ErrMax= 3.43D-02  0.00D+00 EMaxC= 1.00D-01 BMatC= 1.18D-01 BMatP= 1.18D-01
 IDIUse=3 WtCom= 6.57D-01 WtEn= 3.43D-01
 Coeff-Com:  0.100D+01
 Coeff-En:   0.100D+01
 Coeff:      0.100D+01
 Gap=     0.574 Goal=   None    Shift=    0.000
 GapD=    0.574 DampG=2.000 DampE=0.500 DampFc=1.0000 IDamp=-1.
 RMSDP=3.88D-03 MaxDP=8.07D-02              OVMax= 6.58D-02

 Cycle   2  Pass 1  IDiag  1:
 RMSU=  3.85D-03    CP:  9.84D-01
 E= -269.293878822681     Delta-E=       -0.027986167141 Rises=F Damp=F
 DIIS: error= 1.11D-02 at cycle   2 NSaved=   2.
 NSaved= 2 IEnMin= 2 EnMin= -269.293878822681     IErMin= 2 ErrMin= 1.11D-02
 ErrMax= 1.11D-02  0.00D+00 EMaxC= 1.00D-01 BMatC= 2.87D-02 BMatP= 1.18D-01
 IDIUse=3 WtCom= 8.89D-01 WtEn= 1.11D-01
 Coeff-Com:  0.285D+00 0.715D+00
 Coeff-En:   0.202D+00 0.798D+00
 Coeff:      0.276D+00 0.724D+00
 Gap=     0.546 Goal=   None    Shift=    0.000
 RMSDP=1.53D-03 MaxDP=3.43D-02 DE=-2.80D-02 OVMax= 3.19D-02

 Cycle   3  Pass 1  IDiag  1:
 RMSU=  1.10D-03    CP:  9.88D-01  7.27D-01
 E= -269.313146076689     Delta-E=       -0.019267254009 Rises=F Damp=F
 DIIS: error= 5.00D-03 at cycle   3 NSaved=   3.
 NSaved= 3 IEnMin= 3 EnMin= -269.313146076689     IErMin= 3 ErrMin= 5.00D-03
 ErrMax= 5.00D-03  0.00D+00 EMaxC= 1.00D-01 BMatC= 4.63D-03 BMatP= 2.87D-02
 IDIUse=3 WtCom= 9.50D-01 WtEn= 5.00D-02
 Coeff-Com:  0.238D-02 0.284D+00 0.714D+00
 Coeff-En:   0.000D+00 0.301D-01 0.970D+00
 Coeff:      0.226D-02 0.271D+00 0.727D+00
 Gap=     0.518 Goal=   None    Shift=    0.000
 RMSDP=5.83D-04 MaxDP=1.22D-02 DE=-1.93D-02 OVMax= 1.17D-02

 Cycle   4  Pass 1  IDiag  1:
 RMSU=  2.42D-04    CP:  9.85D-01  8.53D-01  8.19D-01
 E= -269.316587078505     Delta-E=       -0.003441001816 Rises=F Damp=F
 DIIS: error= 9.03D-04 at cycle   4 NSaved=   4.
 NSaved= 4 IEnMin= 4 EnMin= -269.316587078505     IErMin= 4 ErrMin= 9.03D-04
 ErrMax= 9.03D-04  0.00D+00 EMaxC= 1.00D-01 BMatC= 1.53D-04 BMatP= 4.63D-03
 IDIUse=3 WtCom= 9.91D-01 WtEn= 9.03D-03
 Coeff-Com: -0.323D-02 0.101D+00 0.316D+00 0.586D+00
 Coeff-En:   0.000D+00 0.000D+00 0.000D+00 0.100D+01
 Coeff:     -0.320D-02 0.100D+00 0.313D+00 0.590D+00
 Gap=     0.516 Goal=   None    Shift=    0.000
 RMSDP=8.41D-05 MaxDP=3.03D-03 DE=-3.44D-03 OVMax= 1.87D-03

 Cycle   5  Pass 1  IDiag  1:
 RMSU=  6.91D-05    CP:  9.85D-01  8.55D-01  8.38D-01  8.25D-01
 E= -269.316701514205     Delta-E=       -0.000114435700 Rises=F Damp=F
 DIIS: error= 8.98D-05 at cycle   5 NSaved=   5.
 NSaved= 5 IEnMin= 5 EnMin= -269.316701514205     IErMin= 5 ErrMin= 8.98D-05
 ErrMax= 8.98D-05  0.00D+00 EMaxC= 1.00D-01 BMatC= 2.42D-06 BMatP= 1.53D-04
 IDIUse=1 WtCom= 1.00D+00 WtEn= 0.00D+00
 Coeff-Com: -0.412D-03-0.194D-01-0.374D-01 0.412D-01 0.102D+01
 Coeff:     -0.412D-03-0.194D-01-0.374D-01 0.412D-01 0.102D+01
 Gap=     0.515 Goal=   None    Shift=    0.000
 RMSDP=4.08D-05 MaxDP=6.03D-04 DE=-1.14D-04 OVMax= 8.12D-04

 Cycle   6  Pass 1  IDiag  1:
 RMSU=  1.31D-05    CP:  9.85D-01  8.60D-01  8.54D-01  9.24D-01  1.19D+00
 E= -269.316705479294     Delta-E=       -0.000003965089 Rises=F Damp=F
 DIIS: error= 1.79D-05 at cycle   6 NSaved=   6.
 NSaved= 6 IEnMin= 6 EnMin= -269.316705479294     IErMin= 6 ErrMin= 1.79D-05
 ErrMax= 1.79D-05  0.00D+00 EMaxC= 1.00D-01 BMatC= 1.06D-07 BMatP= 2.42D-06
 IDIUse=1 WtCom= 1.00D+00 WtEn= 0.00D+00
 Coeff-Com:  0.992D-04-0.759D-02-0.189D-01-0.215D-01 0.140D+00 0.907D+00
 Coeff:      0.992D-04-0.759D-02-0.189D-01-0.215D-01 0.140D+00 0.907D+00
 Gap=     0.515 Goal=   None    Shift=    0.000
 RMSDP=8.51D-06 MaxDP=1.17D-04 DE=-3.97D-06 OVMax= 1.93D-04

 Cycle   7  Pass 1  IDiag  1:
 RMSU=  3.10D-06    CP:  9.85D-01  8.61D-01  8.56D-01  9.40D-01  1.26D+00
                    CP:  1.16D+00
 E= -269.316705627562     Delta-E=       -0.000000148268 Rises=F Damp=F
 DIIS: error= 1.01D-05 at cycle   7 NSaved=   7.
 NSaved= 7 IEnMin= 7 EnMin= -269.316705627562     IErMin= 7 ErrMin= 1.01D-05
 ErrMax= 1.01D-05  0.00D+00 EMaxC= 1.00D-01 BMatC= 1.95D-08 BMatP= 1.06D-07
 IDIUse=1 WtCom= 1.00D+00 WtEn= 0.00D+00
 Coeff-Com:  0.443D-04-0.232D-02-0.594D-02-0.989D-02 0.159D-01 0.358D+00
 Coeff-Com:  0.644D+00
 Coeff:      0.443D-04-0.232D-02-0.594D-02-0.989D-02 0.159D-01 0.358D+00
 Coeff:      0.644D+00
 Gap=     0.515 Goal=   None    Shift=    0.000
 RMSDP=1.74D-06 MaxDP=3.09D-05 DE=-1.48D-07 OVMax= 4.37D-05

 Cycle   8  Pass 1  IDiag  1:
 RMSU=  1.04D-06    CP:  9.85D-01  8.61D-01  8.57D-01  9.42D-01  1.26D+00
                    CP:  1.24D+00  9.22D-01
 E= -269.316705645166     Delta-E=       -0.000000017603 Rises=F Damp=F
 DIIS: error= 2.82D-06 at cycle   8 NSaved=   8.
 NSaved= 8 IEnMin= 8 EnMin= -269.316705645166     IErMin= 8 ErrMin= 2.82D-06
 ErrMax= 2.82D-06  0.00D+00 EMaxC= 1.00D-01 BMatC= 1.83D-09 BMatP= 1.95D-08
 IDIUse=1 WtCom= 1.00D+00 WtEn= 0.00D+00
 Coeff-Com: -0.108D-04 0.893D-03 0.230D-02 0.206D-02-0.236D-01-0.947D-01
 Coeff-Com:  0.163D+00 0.950D+00
 Coeff:     -0.108D-04 0.893D-03 0.230D-02 0.206D-02-0.236D-01-0.947D-01
 Coeff:      0.163D+00 0.950D+00
 Gap=     0.515 Goal=   None    Shift=    0.000
 RMSDP=1.05D-06 MaxDP=2.04D-05 DE=-1.76D-08 OVMax= 2.87D-05

 Cycle   9  Pass 1  IDiag  1:
 RMSU=  3.38D-07    CP:  9.85D-01  8.61D-01  8.57D-01  9.43D-01  1.27D+00
                    CP:  1.29D+00  1.10D+00  1.17D+00
 E= -269.316705647654     Delta-E=       -0.000000002488 Rises=F Damp=F
 DIIS: error= 6.97D-07 at cycle   9 NSaved=   9.
 NSaved= 9 IEnMin= 9 EnMin= -269.316705647654     IErMin= 9 ErrMin= 6.97D-07
 ErrMax= 6.97D-07  0.00D+00 EMaxC= 1.00D-01 BMatC= 1.09D-10 BMatP= 1.83D-09
 IDIUse=1 WtCom= 1.00D+00 WtEn= 0.00D+00
 Coeff-Com: -0.353D-05 0.424D-03 0.108D-02 0.119D-02-0.907D-02-0.501D-01
 Coeff-Com:  0.285D-01 0.329D+00 0.699D+00
 Coeff:     -0.353D-05 0.424D-03 0.108D-02 0.119D-02-0.907D-02-0.501D-01
 Coeff:      0.285D-01 0.329D+00 0.699D+00
 Gap=     0.515 Goal=   None    Shift=    0.000
 RMSDP=1.75D-07 MaxDP=3.25D-06 DE=-2.49D-09 OVMax= 3.65D-06

 Cycle  10  Pass 1  IDiag  1:
 RMSU=  1.01D-07    CP:  9.85D-01  8.61D-01  8.57D-01  9.43D-01  1.27D+00
                    CP:  1.29D+00  1.12D+00  1.24D+00  1.02D+00
 E= -269.316705647787     Delta-E=       -0.000000000134 Rises=F Damp=F
 DIIS: error= 1.33D-07 at cycle  10 NSaved=  10.
 NSaved=10 IEnMin=10 EnMin= -269.316705647787     IErMin=10 ErrMin= 1.33D-07
 ErrMax= 1.33D-07  0.00D+00 EMaxC= 1.00D-01 BMatC= 4.49D-12 BMatP= 1.09D-10
 IDIUse=1 WtCom= 1.00D+00 WtEn= 0.00D+00
 Coeff-Com:  0.176D-06-0.607D-04-0.155D-03-0.112D-03 0.188D-02 0.619D-02
 Coeff-Com: -0.151D-01-0.771D-01 0.484D-01 0.104D+01
 Coeff:      0.176D-06-0.607D-04-0.155D-03-0.112D-03 0.188D-02 0.619D-02
 Coeff:     -0.151D-01-0.771D-01 0.484D-01 0.104D+01
 Gap=     0.515 Goal=   None    Shift=    0.000
 RMSDP=8.39D-08 MaxDP=1.74D-06 DE=-1.34D-10 OVMax= 1.92D-06

 Cycle  11  Pass 1  IDiag  1:
 RMSU=  2.07D-08    CP:  9.85D-01  8.61D-01  8.57D-01  9.43D-01  1.27D+00
                    CP:  1.30D+00  1.13D+00  1.28D+00  1.18D+00  1.24D+00
 E= -269.316705647800     Delta-E=       -0.000000000012 Rises=F Damp=F
 DIIS: error= 2.39D-08 at cycle  11 NSaved=  11.
 NSaved=11 IEnMin=11 EnMin= -269.316705647800     IErMin=11 ErrMin= 2.39D-08
 ErrMax= 2.39D-08  0.00D+00 EMaxC= 1.00D-01 BMatC= 1.64D-13 BMatP= 4.49D-12
 IDIUse=1 WtCom= 1.00D+00 WtEn= 0.00D+00
 Coeff-Com:  0.167D-06-0.218D-04-0.557D-04-0.549D-04 0.491D-03 0.246D-02
 Coeff-Com: -0.212D-02-0.179D-01-0.288D-01 0.442D-01 0.100D+01
 Coeff:      0.167D-06-0.218D-04-0.557D-04-0.549D-04 0.491D-03 0.246D-02
 Coeff:     -0.212D-02-0.179D-01-0.288D-01 0.442D-01 0.100D+01
 Gap=     0.515 Goal=   None    Shift=    0.000
 RMSDP=1.82D-08 MaxDP=3.50D-07 DE=-1.24D-11 OVMax= 3.86D-07

 Cycle  12  Pass 1  IDiag  1:
 RMSU=  4.78D-09    CP:  9.85D-01  8.61D-01  8.57D-01  9.43D-01  1.27D+00
                    CP:  1.30D+00  1.13D+00  1.28D+00  1.21D+00  1.33D+00
                    CP:  1.29D+00
 E= -269.316705647802     Delta-E=       -0.000000000003 Rises=F Damp=F
 DIIS: error= 7.69D-09 at cycle  12 NSaved=  12.
 NSaved=12 IEnMin=12 EnMin= -269.316705647802     IErMin=12 ErrMin= 7.69D-09
 ErrMax= 7.69D-09  0.00D+00 EMaxC= 1.00D-01 BMatC= 2.15D-14 BMatP= 1.64D-13
 IDIUse=1 WtCom= 1.00D+00 WtEn= 0.00D+00
 Coeff-Com:  0.475D-07-0.126D-05-0.325D-05-0.458D-05-0.138D-05 0.155D-03
 Coeff-Com:  0.365D-03 0.585D-03-0.902D-02-0.507D-01 0.228D+00 0.830D+00
 Coeff:      0.475D-07-0.126D-05-0.325D-05-0.458D-05-0.138D-05 0.155D-03
 Coeff:      0.365D-03 0.585D-03-0.902D-02-0.507D-01 0.228D+00 0.830D+00
 Gap=     0.515 Goal=   None    Shift=    0.000
 RMSDP=3.69D-09 MaxDP=7.20D-08 DE=-2.79D-12 OVMax= 8.39D-08

 Error on total polarization charges =  0.03173
 SCF Done:  E(RwB97XD) =  -269.316705648     A.U. after   12 cycles
            NFock= 12  Conv=0.37D-08     -V/T= 2.0093
 KE= 2.668408087361D+02 PE=-1.020689090269D+03 EE= 2.892045751281D+02
 SMD-CDS (non-electrostatic) energy       (kcal/mol) =       3.01
 (included in total energy above)
 Leave Link  502 at Tue Oct 21 19:33:18 2025, MaxMem=  4294967296 cpu:             133.9 elap:              16.8
 (Enter /lrz/sys/applications/gaussian/g16.C.01/x86_64_legacy/exe/l601.exe)
 Copying SCF densities to generalized density rwf, IOpCl= 0 IROHF=0.

 **********************************************************************

            Population analysis using the SCF Density.

 **********************************************************************

 Orbital symmetries:
       Occupied  (A) (A) (A) (A) (A) (A) (A) (A) (A) (A) (A) (A)
                 (A) (A) (A) (A) (A) (A) (A) (A) (A)
       Virtual   (A) (A) (A) (A) (A) (A) (A) (A) (A) (A) (A) (A)
                 (A) (A) (A) (A) (A) (A) (A) (A) (A) (A) (A) (A)
                 (A) (A) (A) (A) (A) (A) (A) (A) (A) (A) (A) (A)
                 (A) (A) (A) (A) (A) (A) (A) (A) (A) (A) (A) (A)
                 (A) (A) (A) (A) (A) (A) (A) (A) (A) (A) (A) (A)
                 (A) (A) (A) (A) (A) (A) (A) (A) (A) (A) (A) (A)
                 (A) (A) (A) (A) (A) (A) (A) (A) (A) (A) (A) (A)
                 (A) (A) (A) (A) (A)
 The electronic state is 1-A.
 Alpha  occ. eigenvalues --  -19.25774 -19.25454 -10.38321 -10.28374 -10.27774
 Alpha  occ. eigenvalues --   -1.15058  -1.07708  -0.86344  -0.75512  -0.69036
 Alpha  occ. eigenvalues --   -0.62306  -0.57186  -0.54821  -0.50468  -0.50019
 Alpha  occ. eigenvalues --   -0.45956  -0.44095  -0.41857  -0.39761  -0.39357
 Alpha  occ. eigenvalues --   -0.36248
 Alpha virt. eigenvalues --    0.15298   0.17198   0.17782   0.20851   0.21603
 Alpha virt. eigenvalues --    0.23393   0.24057   0.25422   0.30241   0.32055
 Alpha virt. eigenvalues --    0.34612   0.36867   0.51640   0.52890   0.54507
 Alpha virt. eigenvalues --    0.58424   0.60700   0.63914   0.67930   0.70827
 Alpha virt. eigenvalues --    0.71479   0.73679   0.75321   0.75764   0.77189
 Alpha virt. eigenvalues --    0.78757   0.79696   0.80757   0.81211   0.84142
 Alpha virt. eigenvalues --    0.97226   1.05624   1.06879   1.10034   1.10629
 Alpha virt. eigenvalues --    1.12133   1.19275   1.32018   1.34491   1.37538
 Alpha virt. eigenvalues --    1.43800   1.44862   1.50156   1.53775   1.61090
 Alpha virt. eigenvalues --    1.63749   1.65463   1.70630   1.75359   1.81190
 Alpha virt. eigenvalues --    1.82683   1.87228   1.88600   1.90985   1.92189
 Alpha virt. eigenvalues --    1.93563   1.96298   1.99050   2.04689   2.05246
 Alpha virt. eigenvalues --    2.08036   2.12989   2.18615   2.22724   2.31100
 Alpha virt. eigenvalues --    2.32343   2.38693   2.42442   2.48095   2.51510
 Alpha virt. eigenvalues --    2.61925   2.65607   2.70341   2.85145   2.87347
 Alpha virt. eigenvalues --    2.91911   2.98912   3.04277   3.05093   3.06937
 Alpha virt. eigenvalues --    3.08568   3.12277   3.15893   3.24265   3.26058
 Alpha virt. eigenvalues --    3.46474   3.51101   3.84963   3.86625
          Condensed to atoms (all electrons):
               1          2          3          4          5          6
     1  O    7.864962   0.318071  -0.066074  -0.041379  -0.006379   0.328683
     2  C    0.318071   4.418837   0.340874   0.360369  -0.035385  -0.022976
     3  O   -0.066074   0.340874   7.855274  -0.076033   0.004616   0.005109
     4  C   -0.041379   0.360369  -0.076033   4.905374   0.355970  -0.012920
     5  C   -0.006379  -0.035385   0.004616   0.355970   4.604542  -0.000565
     6  H    0.328683  -0.022976   0.005109  -0.012920  -0.000565   0.472893
     7  H   -0.042787   0.412918  -0.030509  -0.061470   0.001200   0.009389
     8  H    0.006658  -0.014486   0.322260   0.010314  -0.000568  -0.000836
     9  H    0.005333  -0.014459   0.007561   0.355285  -0.014061  -0.000111
    10  H   -0.006008  -0.006311   0.003864   0.351237  -0.017158   0.006797
    11  H   -0.000923  -0.004534  -0.000077  -0.024365   0.399177   0.000085
    12  H    0.017715  -0.010729   0.000447  -0.024910   0.389751   0.000583
    13  H    0.000090   0.005770  -0.000112  -0.009896   0.387462  -0.000051
               7          8          9         10         11         12
     1  O   -0.042787   0.006658   0.005333  -0.006008  -0.000923   0.017715
     2  C    0.412918  -0.014486  -0.014459  -0.006311  -0.004534  -0.010729
     3  O   -0.030509   0.322260   0.007561   0.003864  -0.000077   0.000447
     4  C   -0.061470   0.010314   0.355285   0.351237  -0.024365  -0.024910
     5  C    0.001200  -0.000568  -0.014061  -0.017158   0.399177   0.389751
     6  H    0.009389  -0.000836  -0.000111   0.006797   0.000085   0.000583
     7  H    0.683733  -0.006804  -0.004690   0.008849   0.005501  -0.001959
     8  H   -0.006804   0.471905  -0.000575  -0.000589  -0.000003  -0.000044
     9  H   -0.004690  -0.000575   0.651905  -0.021833  -0.009057   0.008022
    10  H    0.008849  -0.000589  -0.021833   0.652463   0.007347  -0.007688
    11  H    0.005501  -0.000003  -0.009057   0.007347   0.630354  -0.023128
    12  H   -0.001959  -0.000044   0.008022  -0.007688  -0.023128   0.641362
    13  H   -0.000100   0.000015  -0.005638  -0.007416  -0.020831  -0.019891
              13
     1  O    0.000090
     2  C    0.005770
     3  O   -0.000112
     4  C   -0.009896
     5  C    0.387462
     6  H   -0.000051
     7  H   -0.000100
     8  H    0.000015
     9  H   -0.005638
    10  H   -0.007416
    11  H   -0.020831
    12  H   -0.019891
    13  H    0.624372
 Mulliken charges:
               1
     1  O   -0.377961
     2  C    0.252039
     3  O   -0.367201
     4  C   -0.087577
     5  C   -0.068604
     6  H    0.213918
     7  H    0.026728
     8  H    0.212750
     9  H    0.042318
    10  H    0.036446
    11  H    0.040452
    12  H    0.030467
    13  H    0.046224
 Sum of Mulliken charges =  -0.00000
 Mulliken charges with hydrogens summed into heavy atoms:
               1
     1  O   -0.164043
     2  C    0.278768
     3  O   -0.154451
     4  C   -0.008814
     5  C    0.048539
 Electronic spatial extent (au):  <R**2>=            476.3871
 Charge=             -0.0000 electrons
 Dipole moment (field-independent basis, Debye):
    X=             -0.0181    Y=              0.1448    Z=             -0.3492  Tot=              0.3785
 Quadrupole moment (field-independent basis, Debye-Ang):
   XX=            -27.9945   YY=            -35.5674   ZZ=            -28.2552
   XY=             -1.7509   XZ=             -1.2442   YZ=             -3.0502
 Traceless Quadrupole moment (field-independent basis, Debye-Ang):
   XX=              2.6112   YY=             -4.9617   ZZ=              2.3505
   XY=             -1.7509   XZ=             -1.2442   YZ=             -3.0502
 Octapole moment (field-independent basis, Debye-Ang**2):
  XXX=            -25.8226  YYY=              0.6776  ZZZ=             -2.1478  XYY=              1.4276
  XXY=              1.2326  XXZ=              3.2245  XZZ=             -5.1896  YZZ=              4.0256
  YYZ=             -3.8182  XYZ=              2.7211
 Hexadecapole moment (field-independent basis, Debye-Ang**3):
 XXXX=           -330.0555 YYYY=           -153.1354 ZZZZ=            -56.3196 XXXY=             -1.0358
 XXXZ=            -13.6788 YYYX=             -0.6045 YYYZ=             -8.8008 ZZZX=              1.6734
 ZZZY=             -5.5494 XXYY=            -93.7238 XXZZ=            -70.7697 YYZZ=            -31.5591
 XXYZ=             -3.6688 YYXZ=              2.2262 ZZXY=             -2.6211
 N-N= 1.953270007571D+02 E-N=-1.020689089418D+03  KE= 2.668408087361D+02
 No NMR shielding tensors so no spin-rotation constants.
 Leave Link  601 at Tue Oct 21 19:33:18 2025, MaxMem=  4294967296 cpu:               0.7 elap:               0.1
 (Enter /lrz/sys/applications/gaussian/g16.C.01/x86_64_legacy/exe/l701.exe)
 ... and contract with generalized density number  0.
 Compute integral first derivatives.
 R6Disp: Adding Grimme-D2 dispersion energy 1st derivatives to the gradient.
   1 Symmetry operations used in ECPInt.
 ECPInt:  NShTT=    1485 NPrTT=    5139 LenC2=    1483 LenP2D=    4440.
 LDataN:  DoStor=T MaxTD1= 5 Len=  102
 D1PCM: PCM CHGder 1st derivatives, ID1Alg=3 FixD1E=F DoIter=F DoCFld=F I1PDM=0.
 GePol: Maximum number of non-zero 1st derivatives   =     248
 Leave Link  701 at Tue Oct 21 19:33:19 2025, MaxMem=  4294967296 cpu:               4.4 elap:               0.6
 (Enter /lrz/sys/applications/gaussian/g16.C.01/x86_64_legacy/exe/l702.exe)
 L702 exits ... SP integral derivatives will be done elsewhere.
 Leave Link  702 at Tue Oct 21 19:33:19 2025, MaxMem=  4294967296 cpu:               0.2 elap:               0.0
 (Enter /lrz/sys/applications/gaussian/g16.C.01/x86_64_legacy/exe/l703.exe)
 Integral derivatives from FoFJK, PRISM(SPDF).
 Compute integral first derivatives, UseDBF=F ICtDFT=           0.
 Calling FoFJK, ICntrl=      2127 FMM=F ISym2X=0 I1Cent= 0 IOpClX= 0 NMat=1 NMatS=1 NMatT=0.
 FoFJK:  IHMeth= 1 ICntrl=    2127 DoSepK=T KAlg= 0 I1Cent=           0 FoldK=F
 IRaf=         1 NMat=       1 IRICut=       1 DoRegI=T DoRafI=F ISym2E= 0 IDoP0=0 IntGTp=1.
 FoFCou: FMM=F IPFlag=           0 FMFlag=      100000 FMFlg1=         800
         NFxFlg=           0 DoJE=F BraDBF=F KetDBF=F FulRan=T
         wScrn=  0.000000 ICntrl=      2527 IOpCl=  0 I1Cent=           0 NGrid=           0
         NMat0=    1 NMatS0=      1 NMatT0=    0 NMatD0=    1 NMtDS0=    0 NMtDT0=    0
 Symmetry not used in FoFCou.
 Leave Link  703 at Tue Oct 21 19:33:21 2025, MaxMem=  4294967296 cpu:              17.7 elap:               2.2
 (Enter /lrz/sys/applications/gaussian/g16.C.01/x86_64_legacy/exe/l716.exe)
 Dipole        =-7.13865738D-03 5.69716479D-02-1.37387017D-01
 ***** Axes restored to original set *****
 -------------------------------------------------------------------
 Center     Atomic                   Forces (Hartrees/Bohr)
 Number     Number              X              Y              Z
 -------------------------------------------------------------------
      1        8           0.000048725   -0.006100398   -0.000076803
      2        6           0.001263212    0.005961399    0.004990568
      3        8          -0.001318573    0.002921324    0.002351702
      4        6          -0.003396488   -0.011455673   -0.009834237
      5        6          -0.009440030    0.006035363    0.004286335
      6        1           0.000457599    0.001294741    0.000628251
      7        1           0.000231469    0.000450177   -0.002777804
      8        1           0.002117001   -0.001321794   -0.001522911
      9        1           0.000442791    0.007192230   -0.001175302
     10        1          -0.002027019    0.000556268    0.007085253
     11        1           0.002560516    0.000219018   -0.009121129
     12        1           0.000971686   -0.008258615    0.002010070
     13        1           0.008089111    0.002505960    0.003156008
 -------------------------------------------------------------------
 Cartesian Forces:  Max     0.011455673 RMS     0.004722688
 Leave Link  716 at Tue Oct 21 19:33:21 2025, MaxMem=  4294967296 cpu:               0.2 elap:               0.0
 (Enter /lrz/sys/applications/gaussian/g16.C.01/x86_64_legacy/exe/l103.exe)

 GradGradGradGradGradGradGradGradGradGradGradGradGradGradGradGradGradGrad
 Berny optimization.
 FormGI is forming the generalized inverse of G from B-inverse, IUseBI=4.
 Internal  Forces:  Max     0.009358660 RMS     0.002884443
 Search for a local minimum.
 Step number   1 out of a maximum of   66
 All quantities printed in internal units (Hartrees-Bohrs-Radians)
 RMS Force = .28844D-02 SwitMx=.10000D-02 MixMth= 1
 Mixed Optimization -- RFO/linear search
 Second derivative matrix not updated -- first step.
 ITU=  0
     Eigenvalues ---    0.00367   0.00470   0.01632   0.01703   0.03696
     Eigenvalues ---    0.04907   0.05628   0.05711   0.05712   0.05951
     Eigenvalues ---    0.08202   0.09591   0.12085   0.16000   0.16000
     Eigenvalues ---    0.16000   0.16000   0.16000   0.18879   0.20765
     Eigenvalues ---    0.21939   0.29406   0.30141   0.33581   0.34525
     Eigenvalues ---    0.34839   0.35108   0.35137   0.35221   0.44884
     Eigenvalues ---    0.45766   0.54057   0.54224
 RFO step:  Lambda=-1.71356521D-03 EMin= 3.66649998D-03
 Linear search not attempted -- first point.
 Iteration  1 RMS(Cart)=  0.02822669 RMS(Int)=  0.00047312
 Iteration  2 RMS(Cart)=  0.00053056 RMS(Int)=  0.00002669
 Iteration  3 RMS(Cart)=  0.00000029 RMS(Int)=  0.00002669
 ITry= 1 IFail=0 DXMaxC= 7.82D-02 DCOld= 1.00D+10 DXMaxT= 3.00D-01 DXLimC= 3.00D+00 Rises=F
 Variable       Old X    -DE/DX   Delta X   Delta X   Delta X     New X
                                 (Linear)    (Quad)   (Total)
    R1        2.64397   0.00464   0.00000   0.01011   0.01011   2.65407
    R2        1.82680   0.00059   0.00000   0.00109   0.00109   1.82789
    R3        2.65411   0.00047   0.00000   0.00104   0.00104   2.65515
    R4        2.89163  -0.00510   0.00000  -0.01724  -0.01724   2.87440
    R5        2.08043   0.00276   0.00000   0.00817   0.00817   2.08860
    R6        1.82528  -0.00062   0.00000  -0.00114  -0.00114   1.82414
    R7        2.87684   0.00153   0.00000   0.00506   0.00506   2.88190
    R8        2.05937   0.00723   0.00000   0.02066   0.02066   2.08002
    R9        2.06454   0.00723   0.00000   0.02084   0.02084   2.08537
   R10        2.05453   0.00936   0.00000   0.02651   0.02651   2.08103
   R11        2.05499   0.00847   0.00000   0.02400   0.02400   2.07899
   R12        2.05318   0.00884   0.00000   0.02497   0.02497   2.07815
    A1        1.89442  -0.00248   0.00000  -0.01535  -0.01535   1.87907
    A2        1.93888   0.00083   0.00000   0.00668   0.00668   1.94557
    A3        1.97078  -0.00105   0.00000  -0.00423  -0.00424   1.96654
    A4        1.82557   0.00041   0.00000   0.00250   0.00249   1.82807
    A5        1.87461   0.00031   0.00000   0.00194   0.00195   1.87656
    A6        1.93121  -0.00035   0.00000  -0.00289  -0.00289   1.92832
    A7        1.92357  -0.00018   0.00000  -0.00425  -0.00425   1.91932
    A8        1.90425  -0.00498   0.00000  -0.03081  -0.03081   1.87344
    A9        1.95274   0.00289   0.00000   0.01608   0.01604   1.96877
   A10        1.87883  -0.00038   0.00000   0.00258   0.00251   1.88134
   A11        1.88732  -0.00171   0.00000  -0.01167  -0.01170   1.87562
   A12        1.93231  -0.00093   0.00000  -0.00110  -0.00117   1.93114
   A13        1.92783   0.00002   0.00000   0.00333   0.00338   1.93121
   A14        1.88244  -0.00001   0.00000  -0.01042  -0.01043   1.87200
   A15        1.92766   0.00152   0.00000   0.01010   0.01005   1.93770
   A16        1.92658   0.00085   0.00000   0.00505   0.00502   1.93160
   A17        1.92374   0.00207   0.00000   0.01229   0.01225   1.93599
   A18        1.89003  -0.00111   0.00000  -0.00585  -0.00589   1.88414
   A19        1.89612  -0.00180   0.00000  -0.01069  -0.01075   1.88536
   A20        1.89893  -0.00168   0.00000  -0.01179  -0.01180   1.88713
    D1       -1.14986  -0.00017   0.00000  -0.01004  -0.01003  -1.15989
    D2        0.95748   0.00009   0.00000  -0.00567  -0.00567   0.95181
    D3        3.04926  -0.00043   0.00000  -0.01153  -0.01154   3.03772
    D4       -0.96403  -0.00094   0.00000  -0.02834  -0.02833  -0.99236
    D5       -3.12717  -0.00037   0.00000  -0.02864  -0.02865   3.12737
    D6        1.05571  -0.00014   0.00000  -0.02299  -0.02299   1.03272
    D7        1.10284  -0.00041   0.00000  -0.04814  -0.04818   1.05466
    D8       -3.05357  -0.00002   0.00000  -0.03774  -0.03773  -3.09130
    D9       -1.02406  -0.00112   0.00000  -0.05463  -0.05459  -1.07866
   D10       -3.03677   0.00018   0.00000  -0.04107  -0.04111  -3.07788
   D11       -0.91000   0.00057   0.00000  -0.03066  -0.03066  -0.94066
   D12        1.11951  -0.00053   0.00000  -0.04755  -0.04752   1.07199
   D13       -0.93163  -0.00016   0.00000  -0.04585  -0.04590  -0.97753
   D14        1.19514   0.00023   0.00000  -0.03545  -0.03544   1.15969
   D15       -3.05854  -0.00086   0.00000  -0.05234  -0.05231  -3.11085
   D16        1.11513   0.00025   0.00000  -0.01340  -0.01343   1.10170
   D17       -0.97449   0.00011   0.00000  -0.01583  -0.01584  -0.99034
   D18       -3.07268   0.00032   0.00000  -0.01232  -0.01232  -3.08500
   D19       -0.98064  -0.00057   0.00000  -0.02670  -0.02672  -1.00735
   D20       -3.07026  -0.00071   0.00000  -0.02912  -0.02914  -3.09940
   D21        1.11473  -0.00050   0.00000  -0.02561  -0.02561   1.08913
   D22       -3.06458   0.00003   0.00000  -0.01515  -0.01514  -3.07972
   D23        1.12898  -0.00011   0.00000  -0.01758  -0.01756   1.11142
   D24       -0.96921   0.00009   0.00000  -0.01407  -0.01403  -0.98324
         Item               Value     Threshold  Converged?
 Maximum Force            0.009359     0.000450     NO 
 RMS     Force            0.002884     0.000300     NO 
 Maximum Displacement     0.078181     0.001800     NO 
 RMS     Displacement     0.028314     0.001200     NO 
 Predicted change in Energy=-8.819306D-04
 Lowest energy point so far.  Saving SCF results.
 GradGradGradGradGradGradGradGradGradGradGradGradGradGradGradGradGradGrad

 Leave Link  103 at Tue Oct 21 19:33:21 2025, MaxMem=  4294967296 cpu:               1.0 elap:               0.2
 (Enter /lrz/sys/applications/gaussian/g16.C.01/x86_64_legacy/exe/l202.exe)
                          Input orientation:                          
 ---------------------------------------------------------------------
 Center     Atomic      Atomic             Coordinates (Angstroms)
 Number     Number       Type             X           Y           Z
 ---------------------------------------------------------------------
      1          8           0       -0.602932   -1.325260    0.071089
      2          6           0       -0.450837    0.015395   -0.318861
      3          8           0       -1.562244    0.789192    0.055530
      4          6           0        0.784268    0.665426    0.285800
      5          6           0        2.078200   -0.031683   -0.121035
      6          1           0       -0.593549   -1.352561    1.037935
      7          1           0       -0.357799   -0.020717   -1.419587
      8          1           0       -2.342832    0.381881   -0.340159
      9          1           0        0.796697    1.720470   -0.027681
     10          1           0        0.662735    0.651167    1.382527
     11          1           0        2.237154    0.033931   -1.208761
     12          1           0        2.048646   -1.096562    0.153740
     13          1           0        2.944685    0.426391    0.377699
 ---------------------------------------------------------------------
                    Distance matrix (angstroms):
                    1          2          3          4          5
     1  O    0.000000
     2  C    1.404476   0.000000
     3  O    2.321945   1.405046   0.000000
     4  C    2.435827   1.521065   2.361029   0.000000
     5  C    2.983073   2.537199   3.736019   1.525036   0.000000
     6  H    0.967277   1.931986   2.547665   2.556630   3.197839
     7  H    1.996005   1.105241   2.069447   2.164129   2.760516
     8  H    2.471985   1.927281   0.965294   3.201715   4.445737
     9  H    3.353385   2.132699   2.537480   1.100701   2.172787
    10  H    2.688503   2.130487   2.594322   1.103533   2.174977
    11  H    3.398750   2.831529   4.074834   2.177929   1.101235
    12  H    2.662705   2.776187   4.074830   2.172715   1.100155
    13  H    3.968360   3.490513   4.532971   2.175542   1.099711
                    6          7          8          9         10
     6  H    0.000000
     7  H    2.805138   0.000000
     8  H    2.822662   2.295126   0.000000
     9  H    3.537208   2.510378   3.427260   0.000000
    10  H    2.389963   3.056921   3.474709   1.774835   0.000000
    11  H    3.870773   2.604077   4.674592   2.512823   3.094277
    12  H    2.797951   3.069817   4.659915   3.088034   2.546610
    13  H    4.014933   3.786363   5.336210   2.540241   2.503497
                   11         12         13
    11  H    0.000000
    12  H    1.780437   0.000000
    13  H    1.780865   1.781132   0.000000
 Stoichiometry    C3H8O2
 Framework group  C1[X(C3H8O2)]
 Deg. of freedom    33
 Full point group                 C1      NOp   1
 RotChk:  IX=0 Diff= 2.83D-02
 Largest Abelian subgroup         C1      NOp   1
 Largest concise Abelian subgroup C1      NOp   1
                         Standard orientation:                         
 ---------------------------------------------------------------------
 Center     Atomic      Atomic             Coordinates (Angstroms)
 Number     Number       Type             X           Y           Z
 ---------------------------------------------------------------------
      1          8           0       -0.663680    1.333424   -0.071718
      2          6           0       -0.511248   -0.006625    0.320180
      3          8           0       -1.622764   -0.781101   -0.052479
      4          6           0        0.723618   -0.657440   -0.284123
      5          6           0        2.017683    0.040416    0.121003
      6          1           0       -0.654790    1.359265   -1.038609
      7          1           0       -0.417658    0.031161    1.420803
      8          1           0       -2.403195   -0.373273    0.342989
      9          1           0        0.736315   -1.712008    0.030945
     10          1           0        0.601529   -0.644852   -1.380809
     11          1           0        2.177194   -0.023538    1.208746
     12          1           0        1.987879    1.104875   -0.155365
     13          1           0        2.883963   -0.418322   -0.377476
 ---------------------------------------------------------------------
 Rotational constants (GHZ):           8.4967554           3.5865778           2.7797940
 Leave Link  202 at Tue Oct 21 19:33:21 2025, MaxMem=  4294967296 cpu:               0.2 elap:               0.0
 (Enter /lrz/sys/applications/gaussian/g16.C.01/x86_64_legacy/exe/l301.exe)
 Standard basis: def2SVP (5D, 7F)
 Ernie: Thresh=  0.10000D-02 Tol=  0.10000D-05 Strict=F.
 There are   115 symmetry adapted cartesian basis functions of A   symmetry.
 There are   110 symmetry adapted basis functions of A   symmetry.
   110 basis functions,   181 primitive gaussians,   115 cartesian basis functions
    21 alpha electrons       21 beta electrons
       nuclear repulsion energy       195.0583135592 Hartrees.
 IExCor= 4639 DFT=T Ex+Corr=wB97XD ExCW=0 ScaHFX=  1.000000
 ScaDFX=  1.000000  1.000000  1.000000  1.000000 ScalE2=  1.000000  1.000000
 IRadAn=      5 IRanWt=     -1 IRanGd=            0 ICorTp=0 IEmpDi=121
 HFx  wShort=  0.000000 wLong=  0.200000 cFull=  0.222036 cShort=  0.000000 cLong=  0.777964
 DFx  wShort=  0.000000 wLong=  0.200000 cFull=  0.000000 cShort=  0.000000 cLong=  1.000000
 NAtoms=   13 NActive=   13 NUniq=   13 SFac= 1.00D+00 NAtFMM=   60 NAOKFM=F Big=F
 Integral buffers will be    131072 words long.
 Raffenetti 2 integral format.
 Two-electron integral symmetry is turned on.
 R6Disp:  Grimme-D2 Dispersion energy=       -0.0055672004 Hartrees.
 Nuclear repulsion after empirical dispersion term =      195.0527463587 Hartrees.
 ------------------------------------------------------------------------------
 Polarizable Continuum Model (PCM)
 =================================
 Model                : PCM.
 Atomic radii         : SMD-Coulomb.
 Polarization charges : Total charges.
 Charge compensation  : None.
 Solution method      : On-the-fly selection.
 Cavity type          : VdW (van der Waals Surface) (Alpha=1.000).
 Cavity algorithm     : GePol (No added spheres)
                        Default sphere list used, NSphG=   13.
                        Lebedev-Laikov grids with approx.  5.0 points / Ang**2.
                        Smoothing algorithm: York/Karplus (Gamma=1.0000).
                        Polarization charges: spherical gaussians, with
                                              point-specific exponents (IZeta= 3).
                        Self-potential: point-specific (ISelfS= 7).
                        Self-field    : sphere-specific E.n sum rule (ISelfD= 2).
 1st derivatives      : Analytical E(r).r(x)/FMM algorithm (CHGder, D1EAlg=3).
                        Cavity 1st derivative terms included.
 Solvent              : Water, Eps=  78.355300 Eps(inf)=   1.777849
 ------------------------------------------------------------------------------
 Spheres list:
 ISph  on   Nord     Re0    Alpha      Xe            Ye            Ze
    1   O      1    1.5200  1.000     -0.663680      1.333424     -0.071718
    2   C      2    1.8500  1.000     -0.511248     -0.006625      0.320180
    3   O      3    1.5200  1.000     -1.622764     -0.781101     -0.052479
    4   C      4    1.8500  1.000      0.723618     -0.657440     -0.284123
    5   C      5    1.8500  1.000      2.017683      0.040416      0.121003
    6   H      6    1.2000  1.000     -0.654790      1.359265     -1.038609
    7   H      7    1.2000  1.000     -0.417658      0.031161      1.420803
    8   H      8    1.2000  1.000     -2.403195     -0.373273      0.342989
    9   H      9    1.2000  1.000      0.736315     -1.712008      0.030945
   10   H     10    1.2000  1.000      0.601529     -0.644852     -1.380809
   11   H     11    1.2000  1.000      2.177194     -0.023538      1.208746
   12   H     12    1.2000  1.000      1.987879      1.104875     -0.155365
   13   H     13    1.2000  1.000      2.883963     -0.418322     -0.377476
 ------------------------------------------------------------------------------
 GePol: Number of generator spheres                  =      13
 GePol: Total number of spheres                      =      13
 GePol: Number of exposed spheres                    =      13 (100.00%)
 GePol: Number of points                             =     919
 GePol: Average weight of points                     =       0.12
 GePol: Minimum weight of points                     =   0.33D-06
 GePol: Maximum weight of points                     =    0.21991
 GePol: Number of points with low weight             =      67
 GePol: Fraction of low-weight points (<1% of avg)   =       7.29%
 GePol: Cavity surface area                          =    110.946 Ang**2
 GePol: Cavity volume                                =     82.102 Ang**3
 ------------------------------------------------------------------------------
 Atomic radii for non-electrostatic terms: SMD-CDS.
 ------------------------------------------------------------------------------
 PCM non-electrostatic energy =         0.0047282646 Hartrees.
 Nuclear repulsion after PCM non-electrostatic terms =      195.0574746233 Hartrees.
 Leave Link  301 at Tue Oct 21 19:33:21 2025, MaxMem=  4294967296 cpu:               0.5 elap:               0.1
 (Enter /lrz/sys/applications/gaussian/g16.C.01/x86_64_legacy/exe/l302.exe)
 NPDir=0 NMtPBC=     1 NCelOv=     1 NCel=       1 NClECP=     1 NCelD=      1
         NCelK=      1 NCelE2=     1 NClLst=     1 CellRange=     0.0.
 One-electron integrals computed using PRISM.
 One-electron integral symmetry used in STVInt
   1 Symmetry operations used in ECPInt.
 ECPInt:  NShTT=    1485 NPrTT=    5139 LenC2=    1483 LenP2D=    4436.
 LDataN:  DoStor=T MaxTD1= 4 Len=   56
 NBasis=   110 RedAO= T EigKep=  2.29D-03  NBF=   110
 NBsUse=   110 1.00D-06 EigRej= -1.00D+00 NBFU=   110
 Precomputing XC quadrature grid using
 IXCGrd= 4 IRadAn=           5 IRanWt=          -1 IRanGd=           0 AccXCQ= 0.00D+00.
 Generated NRdTot=       0 NPtTot=           0 NUsed=           0 NTot=          32
 NSgBfM=   115   115   115   115   115 MxSgAt=    13 MxSgA2=    13.
 Leave Link  302 at Tue Oct 21 19:33:22 2025, MaxMem=  4294967296 cpu:               3.2 elap:               0.5
 (Enter /lrz/sys/applications/gaussian/g16.C.01/x86_64_legacy/exe/l303.exe)
 DipDrv:  MaxL=1.
 Leave Link  303 at Tue Oct 21 19:33:22 2025, MaxMem=  4294967296 cpu:               0.5 elap:               0.1
 (Enter /lrz/sys/applications/gaussian/g16.C.01/x86_64_legacy/exe/l401.exe)
 Initial guess from the checkpoint file:  "g16_C2-w_1.chk"
 B after Tr=     0.000000   -0.000000    0.000000
         Rot=    0.999981    0.003635    0.000302    0.004915 Ang=   0.70 deg.
 Guess basis will be translated and rotated to current coordinates.
 JPrj=2 DoOrth=T DoCkMO=T.
 Generating alternative initial guess.
 ExpMin= 1.22D-01 ExpMax= 2.27D+03 ExpMxC= 3.41D+02 IAcc=3 IRadAn=         5 AccDes= 0.00D+00
 Harris functional with IExCor= 4639 and IRadAn=       5 diagonalized for initial guess.
 HarFok:  IExCor= 4639 AccDes= 0.00D+00 IRadAn=         5 IDoV= 1 UseB2=F ITyADJ=14
 ICtDFT=  3500011 ScaDFX=  1.000000  1.000000  1.000000  1.000000
 FoFCou: FMM=F IPFlag=           0 FMFlag=      100000 FMFlg1=           0
         NFxFlg=           0 DoJE=T BraDBF=F KetDBF=T FulRan=T
         wScrn=  0.000000 ICntrl=       500 IOpCl=  0 I1Cent=   200000004 NGrid=           0
         NMat0=    1 NMatS0=      1 NMatT0=    0 NMatD0=    1 NMtDS0=    0 NMtDT0=    0
 Petite list used in FoFCou.
 Harris En= -258.106039377863    
 Leave Link  401 at Tue Oct 21 19:33:23 2025, MaxMem=  4294967296 cpu:               5.4 elap:               0.7
 (Enter /lrz/sys/applications/gaussian/g16.C.01/x86_64_legacy/exe/l502.exe)
 Integral symmetry usage will be decided dynamically.
 Closed shell SCF:
 Using DIIS extrapolation, IDIIS=  1040.
 NGot=  4294967296 LenX=  4294938204 LenY=  4294924538
 Requested convergence on RMS density matrix=1.00D-08 within 128 cycles.
 Requested convergence on MAX density matrix=1.00D-06.
 Requested convergence on             energy=1.00D-06.
 No special actions if energy rises.
 Fock matrices will be formed incrementally for  20 cycles.

 Cycle   1  Pass 1  IDiag  1:
 FoFJK:  IHMeth= 1 ICntrl=       0 DoSepK=T KAlg= 0 I1Cent=           0 FoldK=F
 IRaf=         1 NMat=       1 IRICut=       1 DoRegI=T DoRafI=F ISym2E= 0 IDoP0=0 IntGTp=1.
 FoFCou: FMM=F IPFlag=           0 FMFlag=      100000 FMFlg1=           0
         NFxFlg=           0 DoJE=T BraDBF=F KetDBF=F FulRan=T
         wScrn=  0.000000 ICntrl=       500 IOpCl=  0 I1Cent=           0 NGrid=           0
         NMat0=    1 NMatS0=      1 NMatT0=    0 NMatD0=    1 NMtDS0=    0 NMtDT0=    0
 Symmetry not used in FoFCou.
 Inv3:  Mode=1 IEnd=     2533683.
 Iteration    1 A*A^-1 deviation from unit magnitude is 4.88D-15 for     60.
 Iteration    1 A*A^-1 deviation from orthogonality  is 2.83D-15 for    588    159.
 Iteration    1 A^-1*A deviation from unit magnitude is 4.88D-15 for    474.
 Iteration    1 A^-1*A deviation from orthogonality  is 1.73D-15 for    479    449.
 E= -269.316500287856    
 DIIS: error= 1.41D-03 at cycle   1 NSaved=   1.
 NSaved= 1 IEnMin= 1 EnMin= -269.316500287856     IErMin= 1 ErrMin= 1.41D-03
 ErrMax= 1.41D-03  0.00D+00 EMaxC= 1.00D-01 BMatC= 7.23D-04 BMatP= 7.23D-04
 IDIUse=3 WtCom= 9.86D-01 WtEn= 1.41D-02
 Coeff-Com:  0.100D+01
 Coeff-En:   0.100D+01
 Coeff:      0.100D+01
 Gap=     0.784 Goal=   None    Shift=    0.000
 GapD=    0.784 DampG=2.000 DampE=1.000 DampFc=2.0000 IDamp=-1.
 RMSDP=4.12D-04 MaxDP=5.93D-03              OVMax= 7.14D-03

 Cycle   2  Pass 1  IDiag  1:
 RMSU=  4.12D-04    CP:  9.99D-01
 E= -269.317555531978     Delta-E=       -0.001055244122 Rises=F Damp=F
 DIIS: error= 3.10D-04 at cycle   2 NSaved=   2.
 NSaved= 2 IEnMin= 2 EnMin= -269.317555531978     IErMin= 2 ErrMin= 3.10D-04
 ErrMax= 3.10D-04  0.00D+00 EMaxC= 1.00D-01 BMatC= 3.03D-05 BMatP= 7.23D-04
 IDIUse=3 WtCom= 9.97D-01 WtEn= 3.10D-03
 Coeff-Com: -0.130D+00 0.113D+01
 Coeff-En:   0.000D+00 0.100D+01
 Coeff:     -0.129D+00 0.113D+01
 Gap=     0.515 Goal=   None    Shift=    0.000
 RMSDP=1.03D-04 MaxDP=2.04D-03 DE=-1.06D-03 OVMax= 2.35D-03

 Cycle   3  Pass 1  IDiag  1:
 RMSU=  6.84D-05    CP:  9.99D-01  1.19D+00
 E= -269.317607871254     Delta-E=       -0.000052339275 Rises=F Damp=F
 DIIS: error= 2.02D-04 at cycle   3 NSaved=   3.
 NSaved= 3 IEnMin= 3 EnMin= -269.317607871254     IErMin= 3 ErrMin= 2.02D-04
 ErrMax= 2.02D-04  0.00D+00 EMaxC= 1.00D-01 BMatC= 8.79D-06 BMatP= 3.03D-05
 IDIUse=3 WtCom= 9.98D-01 WtEn= 2.02D-03
 Coeff-Com: -0.729D-01 0.424D+00 0.649D+00
 Coeff-En:   0.000D+00 0.000D+00 0.100D+01
 Coeff:     -0.727D-01 0.424D+00 0.649D+00
 Gap=     0.515 Goal=   None    Shift=    0.000
 RMSDP=2.81D-05 MaxDP=8.99D-04 DE=-5.23D-05 OVMax= 7.08D-04

 Cycle   4  Pass 1  IDiag  1:
 RMSU=  2.39D-05    CP:  9.99D-01  1.21D+00  8.63D-01
 E= -269.317616463403     Delta-E=       -0.000008592149 Rises=F Damp=F
 DIIS: error= 4.26D-05 at cycle   4 NSaved=   4.
 NSaved= 4 IEnMin= 4 EnMin= -269.317616463403     IErMin= 4 ErrMin= 4.26D-05
 ErrMax= 4.26D-05  0.00D+00 EMaxC= 1.00D-01 BMatC= 4.78D-07 BMatP= 8.79D-06
 IDIUse=1 WtCom= 1.00D+00 WtEn= 0.00D+00
 Coeff-Com: -0.225D-02-0.294D-01 0.138D+00 0.894D+00
 Coeff:     -0.225D-02-0.294D-01 0.138D+00 0.894D+00
 Gap=     0.515 Goal=   None    Shift=    0.000
 RMSDP=1.02D-05 MaxDP=1.52D-04 DE=-8.59D-06 OVMax= 2.06D-04

 Cycle   5  Pass 1  IDiag  1:
 RMSU=  6.22D-06    CP:  9.99D-01  1.22D+00  9.65D-01  1.10D+00
 E= -269.317616978358     Delta-E=       -0.000000514955 Rises=F Damp=F
 DIIS: error= 2.20D-05 at cycle   5 NSaved=   5.
 NSaved= 5 IEnMin= 5 EnMin= -269.317616978358     IErMin= 5 ErrMin= 2.20D-05
 ErrMax= 2.20D-05  0.00D+00 EMaxC= 1.00D-01 BMatC= 1.08D-07 BMatP= 4.78D-07
 IDIUse=1 WtCom= 1.00D+00 WtEn= 0.00D+00
 Coeff-Com:  0.429D-02-0.458D-01 0.127D-01 0.403D+00 0.626D+00
 Coeff:      0.429D-02-0.458D-01 0.127D-01 0.403D+00 0.626D+00
 Gap=     0.515 Goal=   None    Shift=    0.000
 RMSDP=3.22D-06 MaxDP=5.72D-05 DE=-5.15D-07 OVMax= 6.10D-05

 Cycle   6  Pass 1  IDiag  1:
 RMSU=  1.83D-06    CP:  9.99D-01  1.22D+00  9.86D-01  1.17D+00  8.03D-01
 E= -269.317617071536     Delta-E=       -0.000000093178 Rises=F Damp=F
 DIIS: error= 2.97D-06 at cycle   6 NSaved=   6.
 NSaved= 6 IEnMin= 6 EnMin= -269.317617071536     IErMin= 6 ErrMin= 2.97D-06
 ErrMax= 2.97D-06  0.00D+00 EMaxC= 1.00D-01 BMatC= 2.48D-09 BMatP= 1.08D-07
 IDIUse=1 WtCom= 1.00D+00 WtEn= 0.00D+00
 Coeff-Com:  0.106D-02-0.663D-02-0.937D-02-0.646D-02 0.107D+00 0.915D+00
 Coeff:      0.106D-02-0.663D-02-0.937D-02-0.646D-02 0.107D+00 0.915D+00
 Gap=     0.515 Goal=   None    Shift=    0.000
 RMSDP=1.06D-06 MaxDP=1.69D-05 DE=-9.32D-08 OVMax= 2.21D-05

 Cycle   7  Pass 1  IDiag  1:
 RMSU=  3.75D-07    CP:  9.99D-01  1.22D+00  9.93D-01  1.19D+00  8.94D-01
                    CP:  1.14D+00
 E= -269.317617075483     Delta-E=       -0.000000003947 Rises=F Damp=F
 DIIS: error= 5.86D-07 at cycle   7 NSaved=   7.
 NSaved= 7 IEnMin= 7 EnMin= -269.317617075483     IErMin= 7 ErrMin= 5.86D-07
 ErrMax= 5.86D-07  0.00D+00 EMaxC= 1.00D-01 BMatC= 9.29D-11 BMatP= 2.48D-09
 IDIUse=1 WtCom= 1.00D+00 WtEn= 0.00D+00
 Coeff-Com: -0.122D-03 0.177D-02-0.105D-02-0.204D-01-0.250D-01 0.582D-01
 Coeff-Com:  0.987D+00
 Coeff:     -0.122D-03 0.177D-02-0.105D-02-0.204D-01-0.250D-01 0.582D-01
 Coeff:      0.987D+00
 Gap=     0.515 Goal=   None    Shift=    0.000
 RMSDP=2.75D-07 MaxDP=6.25D-06 DE=-3.95D-09 OVMax= 7.25D-06

 Cycle   8  Pass 1  IDiag  1:
 RMSU=  1.13D-07    CP:  9.99D-01  1.22D+00  9.94D-01  1.20D+00  9.12D-01
                    CP:  1.23D+00  1.19D+00
 E= -269.317617075693     Delta-E=       -0.000000000210 Rises=F Damp=F
 DIIS: error= 2.37D-07 at cycle   8 NSaved=   8.
 NSaved= 8 IEnMin= 8 EnMin= -269.317617075693     IErMin= 8 ErrMin= 2.37D-07
 ErrMax= 2.37D-07  0.00D+00 EMaxC= 1.00D-01 BMatC= 1.69D-11 BMatP= 9.29D-11
 IDIUse=1 WtCom= 1.00D+00 WtEn= 0.00D+00
 Coeff-Com: -0.969D-04 0.919D-03 0.243D-03-0.570D-02-0.141D-01-0.394D-01
 Coeff-Com:  0.314D+00 0.745D+00
 Coeff:     -0.969D-04 0.919D-03 0.243D-03-0.570D-02-0.141D-01-0.394D-01
 Coeff:      0.314D+00 0.745D+00
 Gap=     0.515 Goal=   None    Shift=    0.000
 RMSDP=6.00D-08 MaxDP=1.57D-06 DE=-2.10D-10 OVMax= 1.87D-06

 Cycle   9  Pass 1  IDiag  1:
 RMSU=  3.42D-08    CP:  9.99D-01  1.22D+00  9.94D-01  1.20D+00  9.15D-01
                    CP:  1.25D+00  1.28D+00  9.83D-01
 E= -269.317617075714     Delta-E=       -0.000000000021 Rises=F Damp=F
 DIIS: error= 7.13D-08 at cycle   9 NSaved=   9.
 NSaved= 9 IEnMin= 9 EnMin= -269.317617075714     IErMin= 9 ErrMin= 7.13D-08
 ErrMax= 7.13D-08  0.00D+00 EMaxC= 1.00D-01 BMatC= 1.03D-12 BMatP= 1.69D-11
 IDIUse=1 WtCom= 1.00D+00 WtEn= 0.00D+00
 Coeff-Com: -0.102D-05-0.570D-04 0.136D-03 0.143D-02 0.634D-03-0.129D-01
 Coeff-Com: -0.595D-01 0.111D+00 0.959D+00
 Coeff:     -0.102D-05-0.570D-04 0.136D-03 0.143D-02 0.634D-03-0.129D-01
 Coeff:     -0.595D-01 0.111D+00 0.959D+00
 Gap=     0.515 Goal=   None    Shift=    0.000
 RMSDP=2.46D-08 MaxDP=7.40D-07 DE=-2.11D-11 OVMax= 7.59D-07

 Cycle  10  Pass 1  IDiag  1:
 RMSU=  8.41D-09    CP:  9.99D-01  1.22D+00  9.94D-01  1.20D+00  9.15D-01
                    CP:  1.25D+00  1.32D+00  1.12D+00  1.16D+00
 E= -269.317617075715     Delta-E=       -0.000000000001 Rises=F Damp=F
 DIIS: error= 3.03D-08 at cycle  10 NSaved=  10.
 NSaved=10 IEnMin=10 EnMin= -269.317617075715     IErMin=10 ErrMin= 3.03D-08
 ErrMax= 3.03D-08  0.00D+00 EMaxC= 1.00D-01 BMatC= 1.89D-13 BMatP= 1.03D-12
 IDIUse=1 WtCom= 1.00D+00 WtEn= 0.00D+00
 Coeff-Com:  0.759D-05-0.951D-04 0.315D-04 0.992D-03 0.132D-02-0.205D-02
 Coeff-Com: -0.456D-01-0.122D-01 0.376D+00 0.682D+00
 Coeff:      0.759D-05-0.951D-04 0.315D-04 0.992D-03 0.132D-02-0.205D-02
 Coeff:     -0.456D-01-0.122D-01 0.376D+00 0.682D+00
 Gap=     0.515 Goal=   None    Shift=    0.000
 RMSDP=5.60D-09 MaxDP=1.41D-07 DE=-1.02D-12 OVMax= 1.60D-07

 Error on total polarization charges =  0.03209
 SCF Done:  E(RwB97XD) =  -269.317617076     A.U. after   10 cycles
            NFock= 10  Conv=0.56D-08     -V/T= 2.0096
 KE= 2.667591617542D+02 PE=-1.020069131366D+03 EE= 2.889348779129D+02
 SMD-CDS (non-electrostatic) energy       (kcal/mol) =       2.97
 (included in total energy above)
 Leave Link  502 at Tue Oct 21 19:33:37 2025, MaxMem=  4294967296 cpu:             115.0 elap:              14.5
 (Enter /lrz/sys/applications/gaussian/g16.C.01/x86_64_legacy/exe/l701.exe)
 ... and contract with generalized density number  0.
 Compute integral first derivatives.
 R6Disp: Adding Grimme-D2 dispersion energy 1st derivatives to the gradient.
   1 Symmetry operations used in ECPInt.
 ECPInt:  NShTT=    1485 NPrTT=    5139 LenC2=    1483 LenP2D=    4436.
 LDataN:  DoStor=T MaxTD1= 5 Len=  102
 D1PCM: PCM CHGder 1st derivatives, ID1Alg=3 FixD1E=F DoIter=F DoCFld=F I1PDM=0.
 GePol: Maximum number of non-zero 1st derivatives   =     248
 Leave Link  701 at Tue Oct 21 19:33:38 2025, MaxMem=  4294967296 cpu:               4.2 elap:               0.5
 (Enter /lrz/sys/applications/gaussian/g16.C.01/x86_64_legacy/exe/l702.exe)
 L702 exits ... SP integral derivatives will be done elsewhere.
 Leave Link  702 at Tue Oct 21 19:33:38 2025, MaxMem=  4294967296 cpu:               0.2 elap:               0.0
 (Enter /lrz/sys/applications/gaussian/g16.C.01/x86_64_legacy/exe/l703.exe)
 Integral derivatives from FoFJK, PRISM(SPDF).
 Compute integral first derivatives, UseDBF=F ICtDFT=           0.
 Calling FoFJK, ICntrl=      2127 FMM=F ISym2X=0 I1Cent= 0 IOpClX= 0 NMat=1 NMatS=1 NMatT=0.
 FoFJK:  IHMeth= 1 ICntrl=    2127 DoSepK=T KAlg= 0 I1Cent=           0 FoldK=F
 IRaf=         1 NMat=       1 IRICut=       1 DoRegI=T DoRafI=F ISym2E= 0 IDoP0=0 IntGTp=1.
 FoFCou: FMM=F IPFlag=           0 FMFlag=      100000 FMFlg1=         800
         NFxFlg=           0 DoJE=F BraDBF=F KetDBF=F FulRan=T
         wScrn=  0.000000 ICntrl=      2527 IOpCl=  0 I1Cent=           0 NGrid=           0
         NMat0=    1 NMatS0=      1 NMatT0=    0 NMatD0=    1 NMtDS0=    0 NMtDT0=    0
 Symmetry not used in FoFCou.
 Leave Link  703 at Tue Oct 21 19:33:40 2025, MaxMem=  4294967296 cpu:              17.3 elap:               2.2
 (Enter /lrz/sys/applications/gaussian/g16.C.01/x86_64_legacy/exe/l716.exe)
 Dipole        = 1.43959158D-02 4.11100541D-02-1.11586827D-01
 ***** Axes restored to original set *****
 -------------------------------------------------------------------
 Center     Atomic                   Forces (Hartrees/Bohr)
 Number     Number              X              Y              Z
 -------------------------------------------------------------------
      1        8          -0.000830174   -0.000347172    0.000022821
      2        6           0.001999059    0.002020092   -0.000373989
      3        8          -0.000263245   -0.001237319    0.000761563
      4        6           0.000816270   -0.002404177   -0.001749017
      5        6          -0.002151684    0.001396422    0.001235809
      6        1           0.000218545   -0.000027984    0.000256487
      7        1          -0.000588952   -0.000224911   -0.000065577
      8        1          -0.000442373    0.000391239   -0.000526061
      9        1           0.000337658    0.000165838    0.000442990
     10        1           0.000028154    0.000558784    0.000359901
     11        1           0.000227267   -0.000246293   -0.000028473
     12        1           0.000543119    0.000049102   -0.000024252
     13        1           0.000106359   -0.000093621   -0.000312201
 -------------------------------------------------------------------
 Cartesian Forces:  Max     0.002404177 RMS     0.000895434
 Leave Link  716 at Tue Oct 21 19:33:40 2025, MaxMem=  4294967296 cpu:               0.2 elap:               0.0
 (Enter /lrz/sys/applications/gaussian/g16.C.01/x86_64_legacy/exe/l103.exe)

 GradGradGradGradGradGradGradGradGradGradGradGradGradGradGradGradGradGrad
 Berny optimization.
 Using GEDIIS/GDIIS optimizer.
 FormGI is forming the generalized inverse of G from B-inverse, IUseBI=4.
 Internal  Forces:  Max     0.001816183 RMS     0.000420001
 Search for a local minimum.
 Step number   2 out of a maximum of   66
 All quantities printed in internal units (Hartrees-Bohrs-Radians)
 RMS Force = .42000D-03 SwitMx=.10000D-02 MixMth= 2
 Mixed Optimization -- En-DIIS/RFO-DIIS
 Update second derivatives using D2CorX and points    1    2
 DE= -9.11D-04 DEPred=-8.82D-04 R= 1.03D+00
 TightC=F SS=  1.41D+00  RLast= 1.71D-01 DXNew= 5.0454D-01 5.1349D-01
 Trust test= 1.03D+00 RLast= 1.71D-01 DXMaxT set to 5.05D-01
 ITU=  1  0
 Use linear search instead of GDIIS.
     Eigenvalues ---    0.00359   0.00463   0.01582   0.01700   0.03599
     Eigenvalues ---    0.04756   0.05601   0.05631   0.05666   0.05971
     Eigenvalues ---    0.08399   0.09605   0.12214   0.15566   0.16000
     Eigenvalues ---    0.16000   0.16000   0.16458   0.19027   0.20774
     Eigenvalues ---    0.21552   0.29020   0.30230   0.33601   0.34488
     Eigenvalues ---    0.34882   0.35120   0.35182   0.37189   0.44877
     Eigenvalues ---    0.45593   0.54048   0.54289
 RFO step:  Lambda=-1.45742261D-04 EMin= 3.58891900D-03
 Quartic linear search produced a step of  0.07706.
 Iteration  1 RMS(Cart)=  0.02358996 RMS(Int)=  0.00030003
 Iteration  2 RMS(Cart)=  0.00032020 RMS(Int)=  0.00000725
 Iteration  3 RMS(Cart)=  0.00000008 RMS(Int)=  0.00000725
 ITry= 1 IFail=0 DXMaxC= 7.98D-02 DCOld= 1.00D+10 DXMaxT= 5.05D-01 DXLimC= 3.00D+00 Rises=F
 Variable       Old X    -DE/DX   Delta X   Delta X   Delta X     New X
                                 (Linear)    (Quad)   (Total)
    R1        2.65407   0.00050   0.00078   0.00107   0.00185   2.65592
    R2        1.82789   0.00027   0.00008   0.00052   0.00060   1.82849
    R3        2.65515   0.00015   0.00008   0.00036   0.00044   2.65559
    R4        2.87440  -0.00035  -0.00133  -0.00112  -0.00245   2.87195
    R5        2.08860   0.00002   0.00063  -0.00000   0.00063   2.08923
    R6        1.82414   0.00041  -0.00009   0.00082   0.00073   1.82487
    R7        2.88190  -0.00182   0.00039  -0.00653  -0.00614   2.87576
    R8        2.08002   0.00004   0.00159  -0.00008   0.00151   2.08153
    R9        2.08537   0.00034   0.00161   0.00087   0.00247   2.08785
   R10        2.08103   0.00004   0.00204  -0.00013   0.00191   2.08295
   R11        2.07899  -0.00006   0.00185  -0.00043   0.00142   2.08041
   R12        2.07815  -0.00010   0.00192  -0.00054   0.00138   2.07953
    A1        1.87907  -0.00002  -0.00118  -0.00000  -0.00118   1.87789
    A2        1.94557  -0.00084   0.00051  -0.00712  -0.00660   1.93896
    A3        1.96654   0.00028  -0.00033   0.00112   0.00080   1.96734
    A4        1.82807  -0.00009   0.00019  -0.00095  -0.00077   1.82730
    A5        1.87656   0.00049   0.00015   0.00211   0.00226   1.87882
    A6        1.92832  -0.00014  -0.00022  -0.00084  -0.00108   1.92723
    A7        1.91932   0.00027  -0.00033   0.00571   0.00538   1.92470
    A8        1.87344   0.00058  -0.00237   0.00419   0.00181   1.87525
    A9        1.96877   0.00099   0.00124   0.00654   0.00776   1.97653
   A10        1.88134  -0.00015   0.00019   0.00068   0.00087   1.88221
   A11        1.87562  -0.00009  -0.00090   0.00263   0.00172   1.87734
   A12        1.93114  -0.00037  -0.00009  -0.00278  -0.00289   1.92824
   A13        1.93121  -0.00031   0.00026  -0.00107  -0.00083   1.93037
   A14        1.87200  -0.00011  -0.00080  -0.00646  -0.00727   1.86473
   A15        1.93770   0.00029   0.00077   0.00185   0.00261   1.94032
   A16        1.93160   0.00061   0.00039   0.00441   0.00479   1.93639
   A17        1.93599   0.00018   0.00094   0.00071   0.00165   1.93764
   A18        1.88414  -0.00040  -0.00045  -0.00196  -0.00243   1.88171
   A19        1.88536  -0.00032  -0.00083  -0.00280  -0.00363   1.88173
   A20        1.88713  -0.00041  -0.00091  -0.00255  -0.00346   1.88366
    D1       -1.15989  -0.00042  -0.00077  -0.00883  -0.00960  -1.16949
    D2        0.95181  -0.00019  -0.00044  -0.01045  -0.01088   0.94093
    D3        3.03772   0.00024  -0.00089  -0.00352  -0.00442   3.03330
    D4       -0.99236  -0.00007  -0.00218  -0.02116  -0.02335  -1.01571
    D5        3.12737  -0.00022  -0.00221  -0.01943  -0.02164   3.10573
    D6        1.03272  -0.00077  -0.00177  -0.02718  -0.02894   1.00378
    D7        1.05466   0.00018  -0.00371  -0.02670  -0.03041   1.02425
    D8       -3.09130   0.00025  -0.00291  -0.02551  -0.02840  -3.11970
    D9       -1.07866   0.00000  -0.00421  -0.03135  -0.03556  -1.11422
   D10       -3.07788  -0.00035  -0.00317  -0.03348  -0.03665  -3.11453
   D11       -0.94066  -0.00028  -0.00236  -0.03228  -0.03464  -0.97530
   D12        1.07199  -0.00053  -0.00366  -0.03812  -0.04179   1.03019
   D13       -0.97753  -0.00006  -0.00354  -0.02991  -0.03345  -1.01098
   D14        1.15969   0.00001  -0.00273  -0.02872  -0.03144   1.12826
   D15       -3.11085  -0.00024  -0.00403  -0.03456  -0.03859   3.13374
   D16        1.10170  -0.00009  -0.00103  -0.02413  -0.02516   1.07654
   D17       -0.99034  -0.00018  -0.00122  -0.02578  -0.02701  -1.01735
   D18       -3.08500  -0.00018  -0.00095  -0.02595  -0.02690  -3.11191
   D19       -1.00735  -0.00032  -0.00206  -0.02752  -0.02958  -1.03693
   D20       -3.09940  -0.00040  -0.00225  -0.02918  -0.03142  -3.13081
   D21        1.08913  -0.00041  -0.00197  -0.02935  -0.03132   1.05781
   D22       -3.07972   0.00026  -0.00117  -0.01704  -0.01821  -3.09793
   D23        1.11142   0.00017  -0.00135  -0.01870  -0.02005   1.09137
   D24       -0.98324   0.00016  -0.00108  -0.01887  -0.01995  -1.00319
         Item               Value     Threshold  Converged?
 Maximum Force            0.001816     0.000450     NO 
 RMS     Force            0.000420     0.000300     NO 
 Maximum Displacement     0.079804     0.001800     NO 
 RMS     Displacement     0.023609     0.001200     NO 
 Predicted change in Energy=-7.689148D-05
 Lowest energy point so far.  Saving SCF results.
 GradGradGradGradGradGradGradGradGradGradGradGradGradGradGradGradGradGrad

 Leave Link  103 at Tue Oct 21 19:33:40 2025, MaxMem=  4294967296 cpu:               0.1 elap:               0.0
 (Enter /lrz/sys/applications/gaussian/g16.C.01/x86_64_legacy/exe/l202.exe)
                          Input orientation:                          
 ---------------------------------------------------------------------
 Center     Atomic      Atomic             Coordinates (Angstroms)
 Number     Number       Type             X           Y           Z
 ---------------------------------------------------------------------
      1          8           0       -0.599080   -1.326046    0.045346
      2          6           0       -0.454134    0.022484   -0.323101
      3          8           0       -1.567162    0.779505    0.080499
      4          6           0        0.783775    0.665872    0.279669
      5          6           0        2.076189   -0.036482   -0.110465
      6          1           0       -0.570133   -1.370019    1.011509
      7          1           0       -0.378619    0.005365   -1.425958
      8          1           0       -2.348223    0.387641   -0.330509
      9          1           0        0.806139    1.719690   -0.040124
     10          1           0        0.657994    0.667056    1.377326
     11          1           0        2.233302   -0.004188   -1.200980
     12          1           0        2.057573   -1.093716    0.195971
     13          1           0        2.944571    0.439907    0.369053
 ---------------------------------------------------------------------
                    Distance matrix (angstroms):
                    1          2          3          4          5
     1  O    0.000000
     2  C    1.405453   0.000000
     3  O    2.317707   1.405278   0.000000
     4  C    2.436173   1.519770   2.362094   0.000000
     5  C    2.973940   2.539926   3.738490   1.521789   0.000000
     6  H    0.967596   1.932280   2.545840   2.552158   3.168623
     7  H    1.996496   1.105572   2.069140   2.167163   2.785382
     8  H    2.477396   1.928981   0.965682   3.202990   4.450137
     9  H    3.355363   2.132809   2.555593   1.101499   2.168437
    10  H    2.706818   2.131608   2.577930   1.104841   2.172503
    11  H    3.364970   2.827312   4.086550   2.177712   1.102248
    12  H    2.671044   2.797143   4.081788   2.173872   1.100905
    13  H    3.972511   3.493496   4.533688   2.174417   1.100442
                    6          7          8          9         10
     6  H    0.000000
     7  H    2.805282   0.000000
     8  H    2.837602   2.285932   0.000000
     9  H    3.542085   2.502618   3.436376   0.000000
    10  H    2.406615   3.061177   3.468734   1.771764   0.000000
    11  H    3.823591   2.621609   4.679917   2.521138   3.095130
    12  H    2.765192   3.126286   4.677889   3.088217   2.540618
    13  H    4.005213   3.801905   5.339082   2.525503   2.509312
                   11         12         13
    11  H    0.000000
    12  H    1.780287   0.000000
    13  H    1.779924   1.780090   0.000000
 Stoichiometry    C3H8O2
 Framework group  C1[X(C3H8O2)]
 Deg. of freedom    33
 Full point group                 C1      NOp   1
 RotChk:  IX=0 Diff= 2.56D-02
 Largest Abelian subgroup         C1      NOp   1
 Largest concise Abelian subgroup C1      NOp   1
                         Standard orientation:                         
 ---------------------------------------------------------------------
 Center     Atomic      Atomic             Coordinates (Angstroms)
 Number     Number       Type             X           Y           Z
 ---------------------------------------------------------------------
      1          8           0       -0.656373    1.333032   -0.070506
      2          6           0       -0.513917   -0.008318    0.324190
      3          8           0       -1.628247   -0.771058   -0.064786
      4          6           0        0.722922   -0.665564   -0.265688
      5          6           0        2.016541    0.041935    0.110925
      6          1           0       -0.627198    1.358107   -1.037337
      7          1           0       -0.438541    0.030164    1.426518
      8          1           0       -2.408663   -0.369849    0.338356
      9          1           0        0.743335   -1.712985    0.074595
     10          1           0        0.597309   -0.687922   -1.363136
     11          1           0        2.173427    0.030625    1.201892
     12          1           0        1.999880    1.093024   -0.216069
     13          1           0        2.884136   -0.445276   -0.359050
 ---------------------------------------------------------------------
 Rotational constants (GHZ):           8.5286611           3.5865539           2.7788754
 Leave Link  202 at Tue Oct 21 19:33:40 2025, MaxMem=  4294967296 cpu:               0.1 elap:               0.0
 (Enter /lrz/sys/applications/gaussian/g16.C.01/x86_64_legacy/exe/l301.exe)
 Standard basis: def2SVP (5D, 7F)
 Ernie: Thresh=  0.10000D-02 Tol=  0.10000D-05 Strict=F.
 There are   115 symmetry adapted cartesian basis functions of A   symmetry.
 There are   110 symmetry adapted basis functions of A   symmetry.
   110 basis functions,   181 primitive gaussians,   115 cartesian basis functions
    21 alpha electrons       21 beta electrons
       nuclear repulsion energy       195.0746238542 Hartrees.
 IExCor= 4639 DFT=T Ex+Corr=wB97XD ExCW=0 ScaHFX=  1.000000
 ScaDFX=  1.000000  1.000000  1.000000  1.000000 ScalE2=  1.000000  1.000000
 IRadAn=      5 IRanWt=     -1 IRanGd=            0 ICorTp=0 IEmpDi=121
 HFx  wShort=  0.000000 wLong=  0.200000 cFull=  0.222036 cShort=  0.000000 cLong=  0.777964
 DFx  wShort=  0.000000 wLong=  0.200000 cFull=  0.000000 cShort=  0.000000 cLong=  1.000000
 NAtoms=   13 NActive=   13 NUniq=   13 SFac= 1.00D+00 NAtFMM=   60 NAOKFM=F Big=F
 Integral buffers will be    131072 words long.
 Raffenetti 2 integral format.
 Two-electron integral symmetry is turned on.
 R6Disp:  Grimme-D2 Dispersion energy=       -0.0055688847 Hartrees.
 Nuclear repulsion after empirical dispersion term =      195.0690549695 Hartrees.
 ------------------------------------------------------------------------------
 Polarizable Continuum Model (PCM)
 =================================
 Model                : PCM.
 Atomic radii         : SMD-Coulomb.
 Polarization charges : Total charges.
 Charge compensation  : None.
 Solution method      : On-the-fly selection.
 Cavity type          : VdW (van der Waals Surface) (Alpha=1.000).
 Cavity algorithm     : GePol (No added spheres)
                        Default sphere list used, NSphG=   13.
                        Lebedev-Laikov grids with approx.  5.0 points / Ang**2.
                        Smoothing algorithm: York/Karplus (Gamma=1.0000).
                        Polarization charges: spherical gaussians, with
                                              point-specific exponents (IZeta= 3).
                        Self-potential: point-specific (ISelfS= 7).
                        Self-field    : sphere-specific E.n sum rule (ISelfD= 2).
 1st derivatives      : Analytical E(r).r(x)/FMM algorithm (CHGder, D1EAlg=3).
                        Cavity 1st derivative terms included.
 Solvent              : Water, Eps=  78.355300 Eps(inf)=   1.777849
 ------------------------------------------------------------------------------
 Spheres list:
 ISph  on   Nord     Re0    Alpha      Xe            Ye            Ze
    1   O      1    1.5200  1.000     -0.656373      1.333032     -0.070506
    2   C      2    1.8500  1.000     -0.513917     -0.008318      0.324190
    3   O      3    1.5200  1.000     -1.628247     -0.771058     -0.064786
    4   C      4    1.8500  1.000      0.722922     -0.665564     -0.265688
    5   C      5    1.8500  1.000      2.016541      0.041935      0.110925
    6   H      6    1.2000  1.000     -0.627198      1.358107     -1.037337
    7   H      7    1.2000  1.000     -0.438541      0.030164      1.426518
    8   H      8    1.2000  1.000     -2.408663     -0.369849      0.338356
    9   H      9    1.2000  1.000      0.743335     -1.712985      0.074595
   10   H     10    1.2000  1.000      0.597309     -0.687922     -1.363136
   11   H     11    1.2000  1.000      2.173427      0.030625      1.201892
   12   H     12    1.2000  1.000      1.999880      1.093024     -0.216069
   13   H     13    1.2000  1.000      2.884136     -0.445276     -0.359050
 ------------------------------------------------------------------------------
 GePol: Number of generator spheres                  =      13
 GePol: Total number of spheres                      =      13
 GePol: Number of exposed spheres                    =      13 (100.00%)
 GePol: Number of points                             =     921
 GePol: Average weight of points                     =       0.12
 GePol: Minimum weight of points                     =   0.11D-06
 GePol: Maximum weight of points                     =    0.21991
 GePol: Number of points with low weight             =      60
 GePol: Fraction of low-weight points (<1% of avg)   =       6.51%
 GePol: Cavity surface area                          =    110.863 Ang**2
 GePol: Cavity volume                                =     82.038 Ang**3
 ------------------------------------------------------------------------------
 Atomic radii for non-electrostatic terms: SMD-CDS.
 ------------------------------------------------------------------------------
 PCM non-electrostatic energy =         0.0047085158 Hartrees.
 Nuclear repulsion after PCM non-electrostatic terms =      195.0737634853 Hartrees.
 Leave Link  301 at Tue Oct 21 19:33:40 2025, MaxMem=  4294967296 cpu:               1.5 elap:               0.2
 (Enter /lrz/sys/applications/gaussian/g16.C.01/x86_64_legacy/exe/l302.exe)
 NPDir=0 NMtPBC=     1 NCelOv=     1 NCel=       1 NClECP=     1 NCelD=      1
         NCelK=      1 NCelE2=     1 NClLst=     1 CellRange=     0.0.
 One-electron integrals computed using PRISM.
 One-electron integral symmetry used in STVInt
   1 Symmetry operations used in ECPInt.
 ECPInt:  NShTT=    1485 NPrTT=    5139 LenC2=    1483 LenP2D=    4434.
 LDataN:  DoStor=T MaxTD1= 4 Len=   56
 NBasis=   110 RedAO= T EigKep=  2.28D-03  NBF=   110
 NBsUse=   110 1.00D-06 EigRej= -1.00D+00 NBFU=   110
 Precomputing XC quadrature grid using
 IXCGrd= 4 IRadAn=           5 IRanWt=          -1 IRanGd=           0 AccXCQ= 0.00D+00.
 Generated NRdTot=       0 NPtTot=           0 NUsed=           0 NTot=          32
 NSgBfM=   115   115   115   115   115 MxSgAt=    13 MxSgA2=    13.
 Leave Link  302 at Tue Oct 21 19:33:40 2025, MaxMem=  4294967296 cpu:               1.2 elap:               0.2
 (Enter /lrz/sys/applications/gaussian/g16.C.01/x86_64_legacy/exe/l303.exe)
 DipDrv:  MaxL=1.
 Leave Link  303 at Tue Oct 21 19:33:40 2025, MaxMem=  4294967296 cpu:               0.2 elap:               0.0
 (Enter /lrz/sys/applications/gaussian/g16.C.01/x86_64_legacy/exe/l401.exe)
 Initial guess from the checkpoint file:  "g16_C2-w_1.chk"
 B after Tr=    -0.000000   -0.000000   -0.000000
         Rot=    0.999991    0.003961    0.000782    0.001478 Ang=   0.49 deg.
 Guess basis will be translated and rotated to current coordinates.
 JPrj=2 DoOrth=T DoCkMO=T.
 Generating alternative initial guess.
 ExpMin= 1.22D-01 ExpMax= 2.27D+03 ExpMxC= 3.41D+02 IAcc=3 IRadAn=         5 AccDes= 0.00D+00
 Harris functional with IExCor= 4639 and IRadAn=       5 diagonalized for initial guess.
 HarFok:  IExCor= 4639 AccDes= 0.00D+00 IRadAn=         5 IDoV= 1 UseB2=F ITyADJ=14
 ICtDFT=  3500011 ScaDFX=  1.000000  1.000000  1.000000  1.000000
 FoFCou: FMM=F IPFlag=           0 FMFlag=      100000 FMFlg1=           0
         NFxFlg=           0 DoJE=T BraDBF=F KetDBF=T FulRan=T
         wScrn=  0.000000 ICntrl=       500 IOpCl=  0 I1Cent=   200000004 NGrid=           0
         NMat0=    1 NMatS0=      1 NMatT0=    0 NMatD0=    1 NMtDS0=    0 NMtDT0=    0
 Petite list used in FoFCou.
 Harris En= -258.106170953132    
 Leave Link  401 at Tue Oct 21 19:33:41 2025, MaxMem=  4294967296 cpu:               5.3 elap:               0.7
 (Enter /lrz/sys/applications/gaussian/g16.C.01/x86_64_legacy/exe/l502.exe)
 Integral symmetry usage will be decided dynamically.
 Closed shell SCF:
 Using DIIS extrapolation, IDIIS=  1040.
 NGot=  4294967296 LenX=  4294938204 LenY=  4294924538
 Requested convergence on RMS density matrix=1.00D-08 within 128 cycles.
 Requested convergence on MAX density matrix=1.00D-06.
 Requested convergence on             energy=1.00D-06.
 No special actions if energy rises.
 Fock matrices will be formed incrementally for  20 cycles.

 Cycle   1  Pass 1  IDiag  1:
 FoFJK:  IHMeth= 1 ICntrl=       0 DoSepK=T KAlg= 0 I1Cent=           0 FoldK=F
 IRaf=         1 NMat=       1 IRICut=       1 DoRegI=T DoRafI=F ISym2E= 0 IDoP0=0 IntGTp=1.
 FoFCou: FMM=F IPFlag=           0 FMFlag=      100000 FMFlg1=           0
         NFxFlg=           0 DoJE=T BraDBF=F KetDBF=F FulRan=T
         wScrn=  0.000000 ICntrl=       500 IOpCl=  0 I1Cent=           0 NGrid=           0
         NMat0=    1 NMatS0=      1 NMatT0=    0 NMatD0=    1 NMtDS0=    0 NMtDT0=    0
 Symmetry not used in FoFCou.
 Inv3:  Mode=1 IEnd=     2544723.
 Iteration    1 A*A^-1 deviation from unit magnitude is 4.44D-15 for    372.
 Iteration    1 A*A^-1 deviation from orthogonality  is 2.72D-15 for    915    323.
 Iteration    1 A^-1*A deviation from unit magnitude is 4.44D-15 for    372.
 Iteration    1 A^-1*A deviation from orthogonality  is 2.93D-15 for    847    423.
 E= -269.317014797588    
 DIIS: error= 1.32D-03 at cycle   1 NSaved=   1.
 NSaved= 1 IEnMin= 1 EnMin= -269.317014797588     IErMin= 1 ErrMin= 1.32D-03
 ErrMax= 1.32D-03  0.00D+00 EMaxC= 1.00D-01 BMatC= 4.24D-04 BMatP= 4.24D-04
 IDIUse=3 WtCom= 9.87D-01 WtEn= 1.32D-02
 Coeff-Com:  0.100D+01
 Coeff-En:   0.100D+01
 Coeff:      0.100D+01
 Gap=     0.781 Goal=   None    Shift=    0.000
 GapD=    0.781 DampG=2.000 DampE=1.000 DampFc=2.0000 IDamp=-1.
 RMSDP=2.96D-04 MaxDP=5.48D-03              OVMax= 5.43D-03

 Cycle   2  Pass 1  IDiag  1:
 RMSU=  2.96D-04    CP:  1.00D+00
 E= -269.317673037535     Delta-E=       -0.000658239947 Rises=F Damp=F
 DIIS: error= 2.73D-04 at cycle   2 NSaved=   2.
 NSaved= 2 IEnMin= 2 EnMin= -269.317673037535     IErMin= 2 ErrMin= 2.73D-04
 ErrMax= 2.73D-04  0.00D+00 EMaxC= 1.00D-01 BMatC= 1.63D-05 BMatP= 4.24D-04
 IDIUse=3 WtCom= 9.97D-01 WtEn= 2.73D-03
 Coeff-Com: -0.184D+00 0.118D+01
 Coeff-En:   0.000D+00 0.100D+01
 Coeff:     -0.183D+00 0.118D+01
 Gap=     0.515 Goal=   None    Shift=    0.000
 RMSDP=7.91D-05 MaxDP=1.37D-03 DE=-6.58D-04 OVMax= 1.83D-03

 Cycle   3  Pass 1  IDiag  1:
 RMSU=  4.04D-05    CP:  1.00D+00  1.23D+00
 E= -269.317709462250     Delta-E=       -0.000036424715 Rises=F Damp=F
 DIIS: error= 8.14D-05 at cycle   3 NSaved=   3.
 NSaved= 3 IEnMin= 3 EnMin= -269.317709462250     IErMin= 3 ErrMin= 8.14D-05
 ErrMax= 8.14D-05  0.00D+00 EMaxC= 1.00D-01 BMatC= 2.09D-06 BMatP= 1.63D-05
 IDIUse=1 WtCom= 1.00D+00 WtEn= 0.00D+00
 Coeff-Com: -0.670D-01 0.357D+00 0.710D+00
 Coeff:     -0.670D-01 0.357D+00 0.710D+00
 Gap=     0.515 Goal=   None    Shift=    0.000
 RMSDP=1.55D-05 MaxDP=3.99D-04 DE=-3.64D-05 OVMax= 3.36D-04

 Cycle   4  Pass 1  IDiag  1:
 RMSU=  1.43D-05    CP:  1.00D+00  1.25D+00  1.07D+00
 E= -269.317711154991     Delta-E=       -0.000001692741 Rises=F Damp=F
 DIIS: error= 3.86D-05 at cycle   4 NSaved=   4.
 NSaved= 4 IEnMin= 4 EnMin= -269.317711154991     IErMin= 4 ErrMin= 3.86D-05
 ErrMax= 3.86D-05  0.00D+00 EMaxC= 1.00D-01 BMatC= 4.67D-07 BMatP= 2.09D-06
 IDIUse=1 WtCom= 1.00D+00 WtEn= 0.00D+00
 Coeff-Com:  0.125D-01-0.113D+00 0.290D+00 0.810D+00
 Coeff:      0.125D-01-0.113D+00 0.290D+00 0.810D+00
 Gap=     0.515 Goal=   None    Shift=    0.000
 RMSDP=8.14D-06 MaxDP=1.39D-04 DE=-1.69D-06 OVMax= 1.57D-04

 Cycle   5  Pass 1  IDiag  1:
 RMSU=  3.10D-06    CP:  1.00D+00  1.26D+00  1.24D+00  9.57D-01
 E= -269.317711607406     Delta-E=       -0.000000452415 Rises=F Damp=F
 DIIS: error= 3.94D-06 at cycle   5 NSaved=   5.
 NSaved= 5 IEnMin= 5 EnMin= -269.317711607406     IErMin= 5 ErrMin= 3.94D-06
 ErrMax= 3.94D-06  0.00D+00 EMaxC= 1.00D-01 BMatC= 5.68D-09 BMatP= 4.67D-07
 IDIUse=1 WtCom= 1.00D+00 WtEn= 0.00D+00
 Coeff-Com:  0.410D-02-0.317D-01 0.299D-01 0.142D+00 0.856D+00
 Coeff:      0.410D-02-0.317D-01 0.299D-01 0.142D+00 0.856D+00
 Gap=     0.515 Goal=   None    Shift=    0.000
 RMSDP=1.58D-06 MaxDP=2.44D-05 DE=-4.52D-07 OVMax= 3.01D-05

 Cycle   6  Pass 1  IDiag  1:
 RMSU=  8.66D-07    CP:  1.00D+00  1.26D+00  1.27D+00  1.00D+00  1.14D+00
 E= -269.317711615243     Delta-E=       -0.000000007837 Rises=F Damp=F
 DIIS: error= 1.63D-06 at cycle   6 NSaved=   6.
 NSaved= 6 IEnMin= 6 EnMin= -269.317711615243     IErMin= 6 ErrMin= 1.63D-06
 ErrMax= 1.63D-06  0.00D+00 EMaxC= 1.00D-01 BMatC= 1.25D-09 BMatP= 5.68D-09
 IDIUse=1 WtCom= 1.00D+00 WtEn= 0.00D+00
 Coeff-Com:  0.348D-03-0.116D-02-0.164D-01-0.242D-01 0.307D+00 0.735D+00
 Coeff:      0.348D-03-0.116D-02-0.164D-01-0.242D-01 0.307D+00 0.735D+00
 Gap=     0.515 Goal=   None    Shift=    0.000
 RMSDP=5.25D-07 MaxDP=7.93D-06 DE=-7.84D-09 OVMax= 1.04D-05

 Cycle   7  Pass 1  IDiag  1:
 RMSU=  2.37D-07    CP:  1.00D+00  1.26D+00  1.27D+00  1.01D+00  1.25D+00
                    CP:  8.92D-01
 E= -269.317711616604     Delta-E=       -0.000000001362 Rises=F Damp=F
 DIIS: error= 5.76D-07 at cycle   7 NSaved=   7.
 NSaved= 7 IEnMin= 7 EnMin= -269.317711616604     IErMin= 7 ErrMin= 5.76D-07
 ErrMax= 5.76D-07  0.00D+00 EMaxC= 1.00D-01 BMatC= 9.62D-11 BMatP= 1.25D-09
 IDIUse=1 WtCom= 1.00D+00 WtEn= 0.00D+00
 Coeff-Com: -0.278D-03 0.273D-02-0.705D-02-0.200D-01-0.446D-02 0.212D+00
 Coeff-Com:  0.817D+00
 Coeff:     -0.278D-03 0.273D-02-0.705D-02-0.200D-01-0.446D-02 0.212D+00
 Coeff:      0.817D+00
 Gap=     0.515 Goal=   None    Shift=    0.000
 RMSDP=1.64D-07 MaxDP=3.37D-06 DE=-1.36D-09 OVMax= 3.91D-06

 Cycle   8  Pass 1  IDiag  1:
 RMSU=  8.51D-08    CP:  1.00D+00  1.26D+00  1.27D+00  1.02D+00  1.27D+00
                    CP:  9.84D-01  1.03D+00
 E= -269.317711616710     Delta-E=       -0.000000000106 Rises=F Damp=F
 DIIS: error= 1.94D-07 at cycle   8 NSaved=   8.
 NSaved= 8 IEnMin= 8 EnMin= -269.317711616710     IErMin= 8 ErrMin= 1.94D-07
 ErrMax= 1.94D-07  0.00D+00 EMaxC= 1.00D-01 BMatC= 1.10D-11 BMatP= 9.62D-11
 IDIUse=1 WtCom= 1.00D+00 WtEn= 0.00D+00
 Coeff-Com: -0.115D-03 0.979D-03-0.101D-02-0.478D-02-0.264D-01 0.186D-01
 Coeff-Com:  0.294D+00 0.719D+00
 Coeff:     -0.115D-03 0.979D-03-0.101D-02-0.478D-02-0.264D-01 0.186D-01
 Coeff:      0.294D+00 0.719D+00
 Gap=     0.515 Goal=   None    Shift=    0.000
 RMSDP=4.57D-08 MaxDP=1.03D-06 DE=-1.06D-10 OVMax= 1.33D-06

 Cycle   9  Pass 1  IDiag  1:
 RMSU=  2.46D-08    CP:  1.00D+00  1.26D+00  1.27D+00  1.02D+00  1.28D+00
                    CP:  1.01D+00  1.14D+00  9.35D-01
 E= -269.317711616728     Delta-E=       -0.000000000018 Rises=F Damp=F
 DIIS: error= 4.89D-08 at cycle   9 NSaved=   9.
 NSaved= 9 IEnMin= 9 EnMin= -269.317711616728     IErMin= 9 ErrMin= 4.89D-08
 ErrMax= 4.89D-08  0.00D+00 EMaxC= 1.00D-01 BMatC= 4.68D-13 BMatP= 1.10D-11
 IDIUse=1 WtCom= 1.00D+00 WtEn= 0.00D+00
 Coeff-Com:  0.296D-04-0.306D-03 0.881D-03 0.237D-02-0.218D-02-0.271D-01
 Coeff-Com: -0.816D-01 0.345D-01 0.107D+01
 Coeff:      0.296D-04-0.306D-03 0.881D-03 0.237D-02-0.218D-02-0.271D-01
 Coeff:     -0.816D-01 0.345D-01 0.107D+01
 Gap=     0.515 Goal=   None    Shift=    0.000
 RMSDP=2.14D-08 MaxDP=5.93D-07 DE=-1.78D-11 OVMax= 6.72D-07

 Cycle  10  Pass 1  IDiag  1:
 RMSU=  4.83D-09    CP:  1.00D+00  1.26D+00  1.27D+00  1.02D+00  1.28D+00
                    CP:  1.01D+00  1.19D+00  1.08D+00  1.26D+00
 E= -269.317711616724     Delta-E=        0.000000000004 Rises=F Damp=F
 DIIS: error= 9.80D-09 at cycle  10 NSaved=  10.
 NSaved=10 IEnMin= 9 EnMin= -269.317711616728     IErMin=10 ErrMin= 9.80D-09
 ErrMax= 9.80D-09  0.00D+00 EMaxC= 1.00D-01 BMatC= 1.43D-14 BMatP= 4.68D-13
 IDIUse=1 WtCom= 1.00D+00 WtEn= 0.00D+00
 Coeff-Com:  0.629D-05-0.569D-04 0.108D-03 0.352D-03 0.554D-03-0.246D-02
 Coeff-Com: -0.138D-01-0.203D-01 0.582D-01 0.977D+00
 Coeff:      0.629D-05-0.569D-04 0.108D-03 0.352D-03 0.554D-03-0.246D-02
 Coeff:     -0.138D-01-0.203D-01 0.582D-01 0.977D+00
 Gap=     0.515 Goal=   None    Shift=    0.000
 RMSDP=3.35D-09 MaxDP=7.32D-08 DE= 4.26D-12 OVMax= 9.51D-08

 Error on total polarization charges =  0.03209
 SCF Done:  E(RwB97XD) =  -269.317711617     A.U. after   10 cycles
            NFock= 10  Conv=0.34D-08     -V/T= 2.0096
 KE= 2.667562242187D+02 PE=-1.020106060691D+03 EE= 2.889583613701D+02
 SMD-CDS (non-electrostatic) energy       (kcal/mol) =       2.95
 (included in total energy above)
 Leave Link  502 at Tue Oct 21 19:33:56 2025, MaxMem=  4294967296 cpu:             116.0 elap:              14.6
 (Enter /lrz/sys/applications/gaussian/g16.C.01/x86_64_legacy/exe/l701.exe)
 ... and contract with generalized density number  0.
 Compute integral first derivatives.
 R6Disp: Adding Grimme-D2 dispersion energy 1st derivatives to the gradient.
   1 Symmetry operations used in ECPInt.
 ECPInt:  NShTT=    1485 NPrTT=    5139 LenC2=    1483 LenP2D=    4434.
 LDataN:  DoStor=T MaxTD1= 5 Len=  102
 D1PCM: PCM CHGder 1st derivatives, ID1Alg=3 FixD1E=F DoIter=F DoCFld=F I1PDM=0.
 GePol: Maximum number of non-zero 1st derivatives   =     250
 Leave Link  701 at Tue Oct 21 19:33:56 2025, MaxMem=  4294967296 cpu:               4.3 elap:               0.6
 (Enter /lrz/sys/applications/gaussian/g16.C.01/x86_64_legacy/exe/l702.exe)
 L702 exits ... SP integral derivatives will be done elsewhere.
 Leave Link  702 at Tue Oct 21 19:33:56 2025, MaxMem=  4294967296 cpu:               0.1 elap:               0.0
 (Enter /lrz/sys/applications/gaussian/g16.C.01/x86_64_legacy/exe/l703.exe)
 Integral derivatives from FoFJK, PRISM(SPDF).
 Compute integral first derivatives, UseDBF=F ICtDFT=           0.
 Calling FoFJK, ICntrl=      2127 FMM=F ISym2X=0 I1Cent= 0 IOpClX= 0 NMat=1 NMatS=1 NMatT=0.
 FoFJK:  IHMeth= 1 ICntrl=    2127 DoSepK=T KAlg= 0 I1Cent=           0 FoldK=F
 IRaf=         1 NMat=       1 IRICut=       1 DoRegI=T DoRafI=F ISym2E= 0 IDoP0=0 IntGTp=1.
 FoFCou: FMM=F IPFlag=           0 FMFlag=      100000 FMFlg1=         800
         NFxFlg=           0 DoJE=F BraDBF=F KetDBF=F FulRan=T
         wScrn=  0.000000 ICntrl=      2527 IOpCl=  0 I1Cent=           0 NGrid=           0
         NMat0=    1 NMatS0=      1 NMatT0=    0 NMatD0=    1 NMtDS0=    0 NMtDT0=    0
 Symmetry not used in FoFCou.
 Leave Link  703 at Tue Oct 21 19:33:58 2025, MaxMem=  4294967296 cpu:              17.2 elap:               2.2
 (Enter /lrz/sys/applications/gaussian/g16.C.01/x86_64_legacy/exe/l716.exe)
 Dipole        = 3.15523335D-02 2.49610729D-02-9.39452118D-02
 ***** Axes restored to original set *****
 -------------------------------------------------------------------
 Center     Atomic                   Forces (Hartrees/Bohr)
 Number     Number              X              Y              Z
 -------------------------------------------------------------------
      1        8           0.000114607   -0.000244180    0.000135585
      2        6           0.000019394    0.000179681   -0.000214111
      3        8           0.000028660   -0.000171938    0.000264520
      4        6           0.000180537    0.000090421   -0.000013765
      5        6          -0.000114155   -0.000149757    0.000064470
      6        1           0.000138911   -0.000076795   -0.000099520
      7        1          -0.000085991   -0.000046843    0.000290296
      8        1           0.000115125    0.000392380   -0.000266599
      9        1           0.000000668   -0.000257332    0.000247909
     10        1          -0.000070977    0.000051028   -0.000423294
     11        1          -0.000059535   -0.000150045    0.000476316
     12        1           0.000199293    0.000473463   -0.000174818
     13        1          -0.000466537   -0.000090085   -0.000286989
 -------------------------------------------------------------------
 Cartesian Forces:  Max     0.000476316 RMS     0.000220014
 Leave Link  716 at Tue Oct 21 19:33:58 2025, MaxMem=  4294967296 cpu:               0.2 elap:               0.0
 (Enter /lrz/sys/applications/gaussian/g16.C.01/x86_64_legacy/exe/l103.exe)

 GradGradGradGradGradGradGradGradGradGradGradGradGradGradGradGradGradGrad
 Berny optimization.
 Using GEDIIS/GDIIS optimizer.
 FormGI is forming the generalized inverse of G from B-inverse, IUseBI=4.
 Internal  Forces:  Max     0.000532176 RMS     0.000213066
 Search for a local minimum.
 Step number   3 out of a maximum of   66
 All quantities printed in internal units (Hartrees-Bohrs-Radians)
 RMS Force = .21307D-03 SwitMx=.10000D-02 MixMth= 2
 Mixed Optimization -- En-DIIS/RFO-DIIS
 Swapping is turned off.
 Update second derivatives using D2CorX and points    1    2    3
 DE= -9.45D-05 DEPred=-7.69D-05 R= 1.23D+00
 TightC=F SS=  1.41D+00  RLast= 1.39D-01 DXNew= 8.4853D-01 4.1746D-01
 Trust test= 1.23D+00 RLast= 1.39D-01 DXMaxT set to 5.05D-01
 ITU=  1  1  0
     Eigenvalues ---    0.00281   0.00429   0.01310   0.01697   0.03544
     Eigenvalues ---    0.04748   0.05567   0.05595   0.05634   0.06153
     Eigenvalues ---    0.08523   0.09970   0.12276   0.15469   0.16000
     Eigenvalues ---    0.16000   0.16114   0.16439   0.19954   0.21000
     Eigenvalues ---    0.22317   0.28678   0.30748   0.33640   0.34668
     Eigenvalues ---    0.34883   0.35119   0.35186   0.39837   0.44879
     Eigenvalues ---    0.45460   0.54085   0.54454
 En-DIIS/RFO-DIIS/Sim-DIIS IScMMF=       -3 using points:     3    2
 RFO step:  Lambda=-5.43002166D-05.
 NNeg= 0 NGDIIS= 2 SimSw=  2.50D-03 Rises=F DC= -9.45D-05 SmlDif=  1.00D-05
 NRisDI= 0 DoIntr=F SqrtH=F CThrHd= 10.0 CDAdj=  3.0
 RMS Error=  0.1440296993D-01 NUsed= 2 OKEnD=T EnDIS=F
 InvSVX:  RCond= 4.59D-03 Info=           0 Equed=N FErr=  3.50D-15 BErr=  3.19D-17
 DidBck=F Rises=F RFO-DIIS coefs:    1.73959   -0.73959
 Iteration  1 RMS(Cart)=  0.01753870 RMS(Int)=  0.00021880
 Iteration  2 RMS(Cart)=  0.00022478 RMS(Int)=  0.00000589
 Iteration  3 RMS(Cart)=  0.00000006 RMS(Int)=  0.00000589
 ITry= 1 IFail=0 DXMaxC= 5.90D-02 DCOld= 1.00D+10 DXMaxT= 5.05D-01 DXLimC= 3.00D+00 Rises=F
 Variable       Old X    -DE/DX   Delta X   Delta X   Delta X     New X
                                 (Linear)    (Quad)   (Total)
    R1        2.65592   0.00029   0.00137   0.00034   0.00171   2.65763
    R2        1.82849  -0.00008   0.00045  -0.00046  -0.00002   1.82848
    R3        2.65559   0.00000   0.00032  -0.00017   0.00016   2.65575
    R4        2.87195  -0.00033  -0.00181  -0.00100  -0.00281   2.86914
    R5        2.08923  -0.00029   0.00046  -0.00116  -0.00070   2.08853
    R6        1.82487  -0.00014   0.00054  -0.00075  -0.00021   1.82467
    R7        2.87576  -0.00043  -0.00454   0.00129  -0.00325   2.87251
    R8        2.08153  -0.00032   0.00112  -0.00114  -0.00002   2.08151
    R9        2.08785  -0.00042   0.00183  -0.00201  -0.00018   2.08767
   R10        2.08295  -0.00049   0.00141  -0.00175  -0.00033   2.08261
   R11        2.08041  -0.00050   0.00105  -0.00167  -0.00062   2.07979
   R12        2.07953  -0.00053   0.00102  -0.00172  -0.00070   2.07884
    A1        1.87789   0.00010  -0.00088   0.00082  -0.00005   1.87783
    A2        1.93896   0.00043  -0.00488   0.00749   0.00260   1.94156
    A3        1.96734  -0.00004   0.00059  -0.00047   0.00011   1.96745
    A4        1.82730  -0.00008  -0.00057   0.00013  -0.00044   1.82686
    A5        1.87882  -0.00040   0.00167  -0.00347  -0.00180   1.87702
    A6        1.92723   0.00001  -0.00080  -0.00037  -0.00119   1.92605
    A7        1.92470   0.00010   0.00398  -0.00322   0.00076   1.92546
    A8        1.87525   0.00016   0.00134  -0.00079   0.00055   1.87581
    A9        1.97653   0.00006   0.00574  -0.00246   0.00326   1.97980
   A10        1.88221  -0.00003   0.00064  -0.00067  -0.00002   1.88219
   A11        1.87734  -0.00004   0.00127  -0.00154  -0.00028   1.87706
   A12        1.92824   0.00002  -0.00214   0.00177  -0.00038   1.92786
   A13        1.93037   0.00004  -0.00062   0.00141   0.00077   1.93114
   A14        1.86473  -0.00005  -0.00538   0.00160  -0.00378   1.86095
   A15        1.94032   0.00009   0.00193  -0.00019   0.00174   1.94206
   A16        1.93639   0.00028   0.00354   0.00052   0.00405   1.94044
   A17        1.93764  -0.00021   0.00122  -0.00226  -0.00105   1.93659
   A18        1.88171  -0.00017  -0.00180  -0.00006  -0.00187   1.87985
   A19        1.88173   0.00001  -0.00268   0.00089  -0.00179   1.87994
   A20        1.88366  -0.00002  -0.00256   0.00120  -0.00136   1.88230
    D1       -1.16949   0.00006  -0.00710  -0.00200  -0.00910  -1.17859
    D2        0.94093  -0.00018  -0.00805  -0.00143  -0.00947   0.93145
    D3        3.03330  -0.00013  -0.00327  -0.00550  -0.00877   3.02453
    D4       -1.01571  -0.00034  -0.01727  -0.01211  -0.02938  -1.04510
    D5        3.10573  -0.00030  -0.01600  -0.01397  -0.02997   3.07576
    D6        1.00378  -0.00017  -0.02141  -0.00769  -0.02909   0.97469
    D7        1.02425  -0.00012  -0.02249   0.00322  -0.01927   1.00498
    D8       -3.11970  -0.00008  -0.02101   0.00338  -0.01763  -3.13733
    D9       -1.11422  -0.00018  -0.02630   0.00413  -0.02217  -1.13639
   D10       -3.11453   0.00012  -0.02711   0.00993  -0.01718  -3.13171
   D11       -0.97530   0.00016  -0.02562   0.01009  -0.01553  -0.99083
   D12        1.03019   0.00006  -0.03091   0.01084  -0.02008   1.01011
   D13       -1.01098  -0.00005  -0.02474   0.00545  -0.01928  -1.03026
   D14        1.12826  -0.00002  -0.02325   0.00561  -0.01764   1.11061
   D15        3.13374  -0.00011  -0.02854   0.00636  -0.02219   3.11156
   D16        1.07654  -0.00003  -0.01861  -0.00567  -0.02428   1.05225
   D17       -1.01735  -0.00007  -0.01997  -0.00583  -0.02581  -1.04315
   D18       -3.11191  -0.00009  -0.01990  -0.00619  -0.02609  -3.13800
   D19       -1.03693  -0.00004  -0.02187  -0.00438  -0.02625  -1.06318
   D20       -3.13081  -0.00008  -0.02324  -0.00454  -0.02777   3.12460
   D21        1.05781  -0.00010  -0.02316  -0.00490  -0.02806   1.02975
   D22       -3.09793  -0.00002  -0.01347  -0.00835  -0.02181  -3.11974
   D23        1.09137  -0.00006  -0.01483  -0.00850  -0.02334   1.06803
   D24       -1.00319  -0.00007  -0.01475  -0.00887  -0.02362  -1.02681
         Item               Value     Threshold  Converged?
 Maximum Force            0.000532     0.000450     NO 
 RMS     Force            0.000213     0.000300     YES
 Maximum Displacement     0.058985     0.001800     NO 
 RMS     Displacement     0.017564     0.001200     NO 
 Predicted change in Energy=-2.747136D-05
 Lowest energy point so far.  Saving SCF results.
 GradGradGradGradGradGradGradGradGradGradGradGradGradGradGradGradGradGrad

 Leave Link  103 at Tue Oct 21 19:33:58 2025, MaxMem=  4294967296 cpu:               0.1 elap:               0.0
 (Enter /lrz/sys/applications/gaussian/g16.C.01/x86_64_legacy/exe/l202.exe)
                          Input orientation:                          
 ---------------------------------------------------------------------
 Center     Atomic      Atomic             Coordinates (Angstroms)
 Number     Number       Type             X           Y           Z
 ---------------------------------------------------------------------
      1          8           0       -0.594067   -1.329624    0.029917
      2          6           0       -0.456567    0.024729   -0.323157
      3          8           0       -1.567926    0.775681    0.096354
      4          6           0        0.781821    0.664892    0.278319
      5          6           0        2.073169   -0.039658   -0.104617
      6          1           0       -0.549627   -1.386258    0.994823
      7          1           0       -0.389398    0.020986   -1.426310
      8          1           0       -2.348164    0.404347   -0.334542
      9          1           0        0.807659    1.717926   -0.043749
     10          1           0        0.653085    0.673007    1.375509
     11          1           0        2.223020   -0.034192   -1.196438
     12          1           0        2.067093   -1.089011    0.227184
     13          1           0        2.942093    0.454245    0.354943
 ---------------------------------------------------------------------
                    Distance matrix (angstroms):
                    1          2          3          4          5
     1  O    0.000000
     2  C    1.406357   0.000000
     3  O    2.320587   1.405360   0.000000
     4  C    2.435747   1.518284   2.359385   0.000000
     5  C    2.965849   2.539974   3.736674   1.520068   0.000000
     6  H    0.967588   1.933033   2.553068   2.548205   3.146611
     7  H    1.996656   1.105203   2.068090   2.166133   2.795494
     8  H    2.493259   1.929347   0.965573   3.200045   4.449515
     9  H    3.355268   2.131491   2.559464   1.101488   2.166638
    10  H    2.715979   2.130037   2.565087   1.104747   2.171475
    11  H    3.334377   2.818914   4.086377   2.177311   1.102071
    12  H    2.679288   2.812855   4.087488   2.175020   1.100577
    13  H    3.973947   3.492161   4.528847   2.171869   1.100074
                    6          7          8          9         10
     6  H    0.000000
     7  H    2.804977   0.000000
     8  H    2.864997   2.275013   0.000000
     9  H    3.543560   2.494800   3.430637   0.000000
    10  H    2.414957   3.059754   3.464671   1.769192   0.000000
    11  H    3.783818   2.623093   4.672355   2.530189   3.095116
    12  H    2.743147   3.162355   4.694694   3.088442   2.534320
    13  H    3.998626   3.802553   5.335231   2.512300   2.515744
                   11         12         13
    11  H    0.000000
    12  H    1.778667   0.000000
    13  H    1.778319   1.778647   0.000000
 Stoichiometry    C3H8O2
 Framework group  C1[X(C3H8O2)]
 Deg. of freedom    33
 Full point group                 C1      NOp   1
 RotChk:  IX=0 Diff= 1.59D-02
 Largest Abelian subgroup         C1      NOp   1
 Largest concise Abelian subgroup C1      NOp   1
                         Standard orientation:                         
 ---------------------------------------------------------------------
 Center     Atomic      Atomic             Coordinates (Angstroms)
 Number     Number       Type             X           Y           Z
 ---------------------------------------------------------------------
      1          8           0       -0.647494    1.336554   -0.069431
      2          6           0       -0.516382   -0.007051    0.324746
      3          8           0       -1.630890   -0.765361   -0.072588
      4          6           0        0.719449   -0.670809   -0.256058
      5          6           0        2.013755    0.039193    0.106264
      6          1           0       -0.602200    1.363630   -1.035579
      7          1           0       -0.449880    0.029917    1.427326
      8          1           0       -2.409695   -0.377567    0.346232
      9          1           0        0.740291   -1.713673    0.097885
     10          1           0        0.591356   -0.711688   -1.352592
     11          1           0        2.162904    0.066238    1.197861
     12          1           0        2.012665    1.077992   -0.257281
     13          1           0        2.880704   -0.472385   -0.337414
 ---------------------------------------------------------------------
 Rotational constants (GHZ):           8.5194670           3.5950844           2.7805429
 Leave Link  202 at Tue Oct 21 19:33:58 2025, MaxMem=  4294967296 cpu:               0.1 elap:               0.0
 (Enter /lrz/sys/applications/gaussian/g16.C.01/x86_64_legacy/exe/l301.exe)
 Standard basis: def2SVP (5D, 7F)
 Ernie: Thresh=  0.10000D-02 Tol=  0.10000D-05 Strict=F.
 There are   115 symmetry adapted cartesian basis functions of A   symmetry.
 There are   110 symmetry adapted basis functions of A   symmetry.
   110 basis functions,   181 primitive gaussians,   115 cartesian basis functions
    21 alpha electrons       21 beta electrons
       nuclear repulsion energy       195.1168605812 Hartrees.
 IExCor= 4639 DFT=T Ex+Corr=wB97XD ExCW=0 ScaHFX=  1.000000
 ScaDFX=  1.000000  1.000000  1.000000  1.000000 ScalE2=  1.000000  1.000000
 IRadAn=      5 IRanWt=     -1 IRanGd=            0 ICorTp=0 IEmpDi=121
 HFx  wShort=  0.000000 wLong=  0.200000 cFull=  0.222036 cShort=  0.000000 cLong=  0.777964
 DFx  wShort=  0.000000 wLong=  0.200000 cFull=  0.000000 cShort=  0.000000 cLong=  1.000000
 NAtoms=   13 NActive=   13 NUniq=   13 SFac= 1.00D+00 NAtFMM=   60 NAOKFM=F Big=F
 Integral buffers will be    131072 words long.
 Raffenetti 2 integral format.
 Two-electron integral symmetry is turned on.
 R6Disp:  Grimme-D2 Dispersion energy=       -0.0055733296 Hartrees.
 Nuclear repulsion after empirical dispersion term =      195.1112872516 Hartrees.
 ------------------------------------------------------------------------------
 Polarizable Continuum Model (PCM)
 =================================
 Model                : PCM.
 Atomic radii         : SMD-Coulomb.
 Polarization charges : Total charges.
 Charge compensation  : None.
 Solution method      : On-the-fly selection.
 Cavity type          : VdW (van der Waals Surface) (Alpha=1.000).
 Cavity algorithm     : GePol (No added spheres)
                        Default sphere list used, NSphG=   13.
                        Lebedev-Laikov grids with approx.  5.0 points / Ang**2.
                        Smoothing algorithm: York/Karplus (Gamma=1.0000).
                        Polarization charges: spherical gaussians, with
                                              point-specific exponents (IZeta= 3).
                        Self-potential: point-specific (ISelfS= 7).
                        Self-field    : sphere-specific E.n sum rule (ISelfD= 2).
 1st derivatives      : Analytical E(r).r(x)/FMM algorithm (CHGder, D1EAlg=3).
                        Cavity 1st derivative terms included.
 Solvent              : Water, Eps=  78.355300 Eps(inf)=   1.777849
 ------------------------------------------------------------------------------
 Spheres list:
 ISph  on   Nord     Re0    Alpha      Xe            Ye            Ze
    1   O      1    1.5200  1.000     -0.647494      1.336554     -0.069431
    2   C      2    1.8500  1.000     -0.516382     -0.007051      0.324746
    3   O      3    1.5200  1.000     -1.630890     -0.765361     -0.072588
    4   C      4    1.8500  1.000      0.719449     -0.670809     -0.256058
    5   C      5    1.8500  1.000      2.013755      0.039193      0.106264
    6   H      6    1.2000  1.000     -0.602200      1.363630     -1.035579
    7   H      7    1.2000  1.000     -0.449880      0.029917      1.427326
    8   H      8    1.2000  1.000     -2.409695     -0.377567      0.346232
    9   H      9    1.2000  1.000      0.740291     -1.713673      0.097885
   10   H     10    1.2000  1.000      0.591356     -0.711688     -1.352592
   11   H     11    1.2000  1.000      2.162904      0.066238      1.197861
   12   H     12    1.2000  1.000      2.012665      1.077992     -0.257281
   13   H     13    1.2000  1.000      2.880704     -0.472385     -0.337414
 ------------------------------------------------------------------------------
 GePol: Number of generator spheres                  =      13
 GePol: Total number of spheres                      =      13
 GePol: Number of exposed spheres                    =      13 (100.00%)
 GePol: Number of points                             =     914
 GePol: Average weight of points                     =       0.12
 GePol: Minimum weight of points                     =   0.35D-08
 GePol: Maximum weight of points                     =    0.21991
 GePol: Number of points with low weight             =      61
 GePol: Fraction of low-weight points (<1% of avg)   =       6.67%
 GePol: Cavity surface area                          =    110.922 Ang**2
 GePol: Cavity volume                                =     82.076 Ang**3
 ------------------------------------------------------------------------------
 Atomic radii for non-electrostatic terms: SMD-CDS.
 ------------------------------------------------------------------------------
 PCM non-electrostatic energy =         0.0046919393 Hartrees.
 Nuclear repulsion after PCM non-electrostatic terms =      195.1159791910 Hartrees.
 Leave Link  301 at Tue Oct 21 19:33:59 2025, MaxMem=  4294967296 cpu:               0.5 elap:               0.1
 (Enter /lrz/sys/applications/gaussian/g16.C.01/x86_64_legacy/exe/l302.exe)
 NPDir=0 NMtPBC=     1 NCelOv=     1 NCel=       1 NClECP=     1 NCelD=      1
         NCelK=      1 NCelE2=     1 NClLst=     1 CellRange=     0.0.
 One-electron integrals computed using PRISM.
 One-electron integral symmetry used in STVInt
   1 Symmetry operations used in ECPInt.
 ECPInt:  NShTT=    1485 NPrTT=    5139 LenC2=    1483 LenP2D=    4436.
 LDataN:  DoStor=T MaxTD1= 4 Len=   56
 NBasis=   110 RedAO= T EigKep=  2.28D-03  NBF=   110
 NBsUse=   110 1.00D-06 EigRej= -1.00D+00 NBFU=   110
 Precomputing XC quadrature grid using
 IXCGrd= 4 IRadAn=           5 IRanWt=          -1 IRanGd=           0 AccXCQ= 0.00D+00.
 Generated NRdTot=       0 NPtTot=           0 NUsed=           0 NTot=          32
 NSgBfM=   115   115   115   115   115 MxSgAt=    13 MxSgA2=    13.
 Leave Link  302 at Tue Oct 21 19:33:59 2025, MaxMem=  4294967296 cpu:               1.2 elap:               0.2
 (Enter /lrz/sys/applications/gaussian/g16.C.01/x86_64_legacy/exe/l303.exe)
 DipDrv:  MaxL=1.
 Leave Link  303 at Tue Oct 21 19:33:59 2025, MaxMem=  4294967296 cpu:               0.2 elap:               0.0
 (Enter /lrz/sys/applications/gaussian/g16.C.01/x86_64_legacy/exe/l401.exe)
 Initial guess from the checkpoint file:  "g16_C2-w_1.chk"
 B after Tr=    -0.000000    0.000000    0.000000
         Rot=    0.999996    0.002283    0.000626    0.001716 Ang=   0.34 deg.
 Guess basis will be translated and rotated to current coordinates.
 JPrj=2 DoOrth=T DoCkMO=T.
 Generating alternative initial guess.
 ExpMin= 1.22D-01 ExpMax= 2.27D+03 ExpMxC= 3.41D+02 IAcc=3 IRadAn=         5 AccDes= 0.00D+00
 Harris functional with IExCor= 4639 and IRadAn=       5 diagonalized for initial guess.
 HarFok:  IExCor= 4639 AccDes= 0.00D+00 IRadAn=         5 IDoV= 1 UseB2=F ITyADJ=14
 ICtDFT=  3500011 ScaDFX=  1.000000  1.000000  1.000000  1.000000
 FoFCou: FMM=F IPFlag=           0 FMFlag=      100000 FMFlg1=           0
         NFxFlg=           0 DoJE=T BraDBF=F KetDBF=T FulRan=T
         wScrn=  0.000000 ICntrl=       500 IOpCl=  0 I1Cent=   200000004 NGrid=           0
         NMat0=    1 NMatS0=      1 NMatT0=    0 NMatD0=    1 NMtDS0=    0 NMtDT0=    0
 Petite list used in FoFCou.
 Harris En= -258.106057503861    
 Leave Link  401 at Tue Oct 21 19:34:00 2025, MaxMem=  4294967296 cpu:               5.7 elap:               0.7
 (Enter /lrz/sys/applications/gaussian/g16.C.01/x86_64_legacy/exe/l502.exe)
 Integral symmetry usage will be decided dynamically.
 Closed shell SCF:
 Using DIIS extrapolation, IDIIS=  1040.
 NGot=  4294967296 LenX=  4294938204 LenY=  4294924538
 Requested convergence on RMS density matrix=1.00D-08 within 128 cycles.
 Requested convergence on MAX density matrix=1.00D-06.
 Requested convergence on             energy=1.00D-06.
 No special actions if energy rises.
 Fock matrices will be formed incrementally for  20 cycles.

 Cycle   1  Pass 1  IDiag  1:
 FoFJK:  IHMeth= 1 ICntrl=       0 DoSepK=T KAlg= 0 I1Cent=           0 FoldK=F
 IRaf=         1 NMat=       1 IRICut=       1 DoRegI=T DoRafI=F ISym2E= 0 IDoP0=0 IntGTp=1.
 FoFCou: FMM=F IPFlag=           0 FMFlag=      100000 FMFlg1=           0
         NFxFlg=           0 DoJE=T BraDBF=F KetDBF=F FulRan=T
         wScrn=  0.000000 ICntrl=       500 IOpCl=  0 I1Cent=           0 NGrid=           0
         NMat0=    1 NMatS0=      1 NMatT0=    0 NMatD0=    1 NMtDS0=    0 NMtDT0=    0
 Symmetry not used in FoFCou.
 Inv3:  Mode=1 IEnd=     2506188.
 Iteration    1 A*A^-1 deviation from unit magnitude is 4.22D-15 for     80.
 Iteration    1 A*A^-1 deviation from orthogonality  is 3.82D-15 for    864    235.
 Iteration    1 A^-1*A deviation from unit magnitude is 4.00D-15 for    360.
 Iteration    1 A^-1*A deviation from orthogonality  is 1.92D-15 for    756    695.
 E= -269.317322215415    
 DIIS: error= 1.02D-03 at cycle   1 NSaved=   1.
 NSaved= 1 IEnMin= 1 EnMin= -269.317322215415     IErMin= 1 ErrMin= 1.02D-03
 ErrMax= 1.02D-03  0.00D+00 EMaxC= 1.00D-01 BMatC= 2.65D-04 BMatP= 2.65D-04
 IDIUse=3 WtCom= 9.90D-01 WtEn= 1.02D-02
 Coeff-Com:  0.100D+01
 Coeff-En:   0.100D+01
 Coeff:      0.100D+01
 Gap=     0.781 Goal=   None    Shift=    0.000
 GapD=    0.781 DampG=2.000 DampE=1.000 DampFc=2.0000 IDamp=-1.
 RMSDP=2.27D-04 MaxDP=4.25D-03              OVMax= 4.13D-03

 Cycle   2  Pass 1  IDiag  1:
 RMSU=  2.27D-04    CP:  1.00D+00
 E= -269.317718574844     Delta-E=       -0.000396359429 Rises=F Damp=F
 DIIS: error= 2.13D-04 at cycle   2 NSaved=   2.
 NSaved= 2 IEnMin= 2 EnMin= -269.317718574844     IErMin= 2 ErrMin= 2.13D-04
 ErrMax= 2.13D-04  0.00D+00 EMaxC= 1.00D-01 BMatC= 9.53D-06 BMatP= 2.65D-04
 IDIUse=3 WtCom= 9.98D-01 WtEn= 2.13D-03
 Coeff-Com: -0.181D+00 0.118D+01
 Coeff-En:   0.000D+00 0.100D+01
 Coeff:     -0.180D+00 0.118D+01
 Gap=     0.516 Goal=   None    Shift=    0.000
 RMSDP=6.05D-05 MaxDP=1.05D-03 DE=-3.96D-04 OVMax= 1.45D-03

 Cycle   3  Pass 1  IDiag  1:
 RMSU=  3.07D-05    CP:  1.00D+00  1.23D+00
 E= -269.317740142234     Delta-E=       -0.000021567391 Rises=F Damp=F
 DIIS: error= 5.05D-05 at cycle   3 NSaved=   3.
 NSaved= 3 IEnMin= 3 EnMin= -269.317740142234     IErMin= 3 ErrMin= 5.05D-05
 ErrMax= 5.05D-05  0.00D+00 EMaxC= 1.00D-01 BMatC= 8.15D-07 BMatP= 9.53D-06
 IDIUse=1 WtCom= 1.00D+00 WtEn= 0.00D+00
 Coeff-Com: -0.488D-01 0.254D+00 0.795D+00
 Coeff:     -0.488D-01 0.254D+00 0.795D+00
 Gap=     0.516 Goal=   None    Shift=    0.000
 RMSDP=1.18D-05 MaxDP=2.60D-04 DE=-2.16D-05 OVMax= 2.51D-04

 Cycle   4  Pass 1  IDiag  1:
 RMSU=  1.02D-05    CP:  1.00D+00  1.25D+00  1.13D+00
 E= -269.317740876842     Delta-E=       -0.000000734607 Rises=F Damp=F
 DIIS: error= 3.60D-05 at cycle   4 NSaved=   4.
 NSaved= 4 IEnMin= 4 EnMin= -269.317740876842     IErMin= 4 ErrMin= 3.60D-05
 ErrMax= 3.60D-05  0.00D+00 EMaxC= 1.00D-01 BMatC= 3.07D-07 BMatP= 8.15D-07
 IDIUse=1 WtCom= 1.00D+00 WtEn= 0.00D+00
 Coeff-Com:  0.137D-01-0.121D+00 0.370D+00 0.737D+00
 Coeff:      0.137D-01-0.121D+00 0.370D+00 0.737D+00
 Gap=     0.516 Goal=   None    Shift=    0.000
 RMSDP=5.96D-06 MaxDP=1.14D-04 DE=-7.35D-07 OVMax= 1.31D-04

 Cycle   5  Pass 1  IDiag  1:
 RMSU=  2.49D-06    CP:  1.00D+00  1.26D+00  1.29D+00  8.82D-01
 E= -269.317741160076     Delta-E=       -0.000000283235 Rises=F Damp=F
 DIIS: error= 3.42D-06 at cycle   5 NSaved=   5.
 NSaved= 5 IEnMin= 5 EnMin= -269.317741160076     IErMin= 5 ErrMin= 3.42D-06
 ErrMax= 3.42D-06  0.00D+00 EMaxC= 1.00D-01 BMatC= 4.15D-09 BMatP= 3.07D-07
 IDIUse=1 WtCom= 1.00D+00 WtEn= 0.00D+00
 Coeff-Com:  0.444D-02-0.344D-01 0.413D-01 0.140D+00 0.848D+00
 Coeff:      0.444D-02-0.344D-01 0.413D-01 0.140D+00 0.848D+00
 Gap=     0.516 Goal=   None    Shift=    0.000
 RMSDP=1.28D-06 MaxDP=1.93D-05 DE=-2.83D-07 OVMax= 2.67D-05

 Cycle   6  Pass 1  IDiag  1:
 RMSU=  7.32D-07    CP:  1.00D+00  1.26D+00  1.31D+00  9.29D-01  1.14D+00
 E= -269.317741166135     Delta-E=       -0.000000006059 Rises=F Damp=F
 DIIS: error= 1.45D-06 at cycle   6 NSaved=   6.
 NSaved= 6 IEnMin= 6 EnMin= -269.317741166135     IErMin= 6 ErrMin= 1.45D-06
 ErrMax= 1.45D-06  0.00D+00 EMaxC= 1.00D-01 BMatC= 7.12D-10 BMatP= 4.15D-09
 IDIUse=1 WtCom= 1.00D+00 WtEn= 0.00D+00
 Coeff-Com:  0.185D-03 0.122D-03-0.225D-01-0.256D-01 0.271D+00 0.777D+00
 Coeff:      0.185D-03 0.122D-03-0.225D-01-0.256D-01 0.271D+00 0.777D+00
 Gap=     0.516 Goal=   None    Shift=    0.000
 RMSDP=4.43D-07 MaxDP=8.47D-06 DE=-6.06D-09 OVMax= 1.01D-05

 Cycle   7  Pass 1  IDiag  1:
 RMSU=  1.82D-07    CP:  1.00D+00  1.26D+00  1.32D+00  9.44D-01  1.26D+00
                    CP:  9.20D-01
 E= -269.317741167089     Delta-E=       -0.000000000953 Rises=F Damp=F
 DIIS: error= 4.23D-07 at cycle   7 NSaved=   7.
 NSaved= 7 IEnMin= 7 EnMin= -269.317741167089     IErMin= 7 ErrMin= 4.23D-07
 ErrMax= 4.23D-07  0.00D+00 EMaxC= 1.00D-01 BMatC= 5.41D-11 BMatP= 7.12D-10
 IDIUse=1 WtCom= 1.00D+00 WtEn= 0.00D+00
 Coeff-Com: -0.307D-03 0.292D-02-0.844D-02-0.178D-01-0.146D-01 0.194D+00
 Coeff-Com:  0.844D+00
 Coeff:     -0.307D-03 0.292D-02-0.844D-02-0.178D-01-0.146D-01 0.194D+00
 Coeff:      0.844D+00
 Gap=     0.516 Goal=   None    Shift=    0.000
 RMSDP=1.32D-07 MaxDP=3.08D-06 DE=-9.53D-10 OVMax= 3.86D-06

 Cycle   8  Pass 1  IDiag  1:
 RMSU=  7.05D-08    CP:  1.00D+00  1.26D+00  1.32D+00  9.47D-01  1.29D+00
                    CP:  1.01D+00  1.08D+00
 E= -269.317741167161     Delta-E=       -0.000000000073 Rises=F Damp=F
 DIIS: error= 2.16D-07 at cycle   8 NSaved=   8.
 NSaved= 8 IEnMin= 8 EnMin= -269.317741167161     IErMin= 8 ErrMin= 2.16D-07
 ErrMax= 2.16D-07  0.00D+00 EMaxC= 1.00D-01 BMatC= 1.01D-11 BMatP= 5.41D-11
 IDIUse=1 WtCom= 1.00D+00 WtEn= 0.00D+00
 Coeff-Com: -0.123D-03 0.104D-02-0.101D-02-0.425D-02-0.318D-01 0.594D-02
 Coeff-Com:  0.343D+00 0.688D+00
 Coeff:     -0.123D-03 0.104D-02-0.101D-02-0.425D-02-0.318D-01 0.594D-02
 Coeff:      0.343D+00 0.688D+00
 Gap=     0.516 Goal=   None    Shift=    0.000
 RMSDP=3.92D-08 MaxDP=9.25D-07 DE=-7.28D-11 OVMax= 1.26D-06

 Cycle   9  Pass 1  IDiag  1:
 RMSU=  1.98D-08    CP:  1.00D+00  1.26D+00  1.32D+00  9.47D-01  1.30D+00
                    CP:  1.03D+00  1.21D+00  9.16D-01
 E= -269.317741167169     Delta-E=       -0.000000000007 Rises=F Damp=F
 DIIS: error= 4.05D-08 at cycle   9 NSaved=   9.
 NSaved= 9 IEnMin= 9 EnMin= -269.317741167169     IErMin= 9 ErrMin= 4.05D-08
 ErrMax= 4.05D-08  0.00D+00 EMaxC= 1.00D-01 BMatC= 3.77D-13 BMatP= 1.01D-11
 IDIUse=1 WtCom= 1.00D+00 WtEn= 0.00D+00
 Coeff-Com:  0.370D-04-0.366D-03 0.123D-02 0.232D-02-0.225D-02-0.279D-01
 Coeff-Com: -0.782D-01 0.489D-01 0.106D+01
 Coeff:      0.370D-04-0.366D-03 0.123D-02 0.232D-02-0.225D-02-0.279D-01
 Coeff:     -0.782D-01 0.489D-01 0.106D+01
 Gap=     0.516 Goal=   None    Shift=    0.000
 RMSDP=1.83D-08 MaxDP=4.67D-07 DE=-7.39D-12 OVMax= 5.98D-07

 Cycle  10  Pass 1  IDiag  1:
 RMSU=  4.18D-09    CP:  1.00D+00  1.26D+00  1.32D+00  9.47D-01  1.30D+00
                    CP:  1.04D+00  1.27D+00  1.06D+00  1.24D+00
 E= -269.317741167166     Delta-E=        0.000000000003 Rises=F Damp=F
 DIIS: error= 8.73D-09 at cycle  10 NSaved=  10.
 NSaved=10 IEnMin= 9 EnMin= -269.317741167169     IErMin=10 ErrMin= 8.73D-09
 ErrMax= 8.73D-09  0.00D+00 EMaxC= 1.00D-01 BMatC= 1.50D-14 BMatP= 3.77D-13
 IDIUse=1 WtCom= 1.00D+00 WtEn= 0.00D+00
 Coeff-Com:  0.113D-04-0.104D-03 0.279D-03 0.583D-03 0.397D-03-0.528D-02
 Coeff-Com: -0.234D-01-0.119D-01 0.171D+00 0.868D+00
 Coeff:      0.113D-04-0.104D-03 0.279D-03 0.583D-03 0.397D-03-0.528D-02
 Coeff:     -0.234D-01-0.119D-01 0.171D+00 0.868D+00
 Gap=     0.516 Goal=   None    Shift=    0.000
 RMSDP=2.70D-09 MaxDP=4.43D-08 DE= 2.50D-12 OVMax= 7.53D-08

 Error on total polarization charges =  0.03207
 SCF Done:  E(RwB97XD) =  -269.317741167     A.U. after   10 cycles
            NFock= 10  Conv=0.27D-08     -V/T= 2.0096
 KE= 2.667610213959D+02 PE=-1.020198387779D+03 EE= 2.890036460253D+02
 SMD-CDS (non-electrostatic) energy       (kcal/mol) =       2.94
 (included in total energy above)
 Leave Link  502 at Tue Oct 21 19:34:14 2025, MaxMem=  4294967296 cpu:             118.0 elap:              14.9
 (Enter /lrz/sys/applications/gaussian/g16.C.01/x86_64_legacy/exe/l701.exe)
 ... and contract with generalized density number  0.
 Compute integral first derivatives.
 R6Disp: Adding Grimme-D2 dispersion energy 1st derivatives to the gradient.
   1 Symmetry operations used in ECPInt.
 ECPInt:  NShTT=    1485 NPrTT=    5139 LenC2=    1483 LenP2D=    4436.
 LDataN:  DoStor=T MaxTD1= 5 Len=  102
 D1PCM: PCM CHGder 1st derivatives, ID1Alg=3 FixD1E=F DoIter=F DoCFld=F I1PDM=0.
 GePol: Maximum number of non-zero 1st derivatives   =     248
 Leave Link  701 at Tue Oct 21 19:34:15 2025, MaxMem=  4294967296 cpu:               4.2 elap:               0.5
 (Enter /lrz/sys/applications/gaussian/g16.C.01/x86_64_legacy/exe/l702.exe)
 L702 exits ... SP integral derivatives will be done elsewhere.
 Leave Link  702 at Tue Oct 21 19:34:15 2025, MaxMem=  4294967296 cpu:               0.2 elap:               0.0
 (Enter /lrz/sys/applications/gaussian/g16.C.01/x86_64_legacy/exe/l703.exe)
 Integral derivatives from FoFJK, PRISM(SPDF).
 Compute integral first derivatives, UseDBF=F ICtDFT=           0.
 Calling FoFJK, ICntrl=      2127 FMM=F ISym2X=0 I1Cent= 0 IOpClX= 0 NMat=1 NMatS=1 NMatT=0.
 FoFJK:  IHMeth= 1 ICntrl=    2127 DoSepK=T KAlg= 0 I1Cent=           0 FoldK=F
 IRaf=         1 NMat=       1 IRICut=       1 DoRegI=T DoRafI=F ISym2E= 0 IDoP0=0 IntGTp=1.
 FoFCou: FMM=F IPFlag=           0 FMFlag=      100000 FMFlg1=         800
         NFxFlg=           0 DoJE=F BraDBF=F KetDBF=F FulRan=T
         wScrn=  0.000000 ICntrl=      2527 IOpCl=  0 I1Cent=           0 NGrid=           0
         NMat0=    1 NMatS0=      1 NMatT0=    0 NMatD0=    1 NMtDS0=    0 NMtDT0=    0
 Symmetry not used in FoFCou.
 Leave Link  703 at Tue Oct 21 19:34:17 2025, MaxMem=  4294967296 cpu:              16.9 elap:               2.1
 (Enter /lrz/sys/applications/gaussian/g16.C.01/x86_64_legacy/exe/l716.exe)
 Dipole        = 4.00547646D-02 1.02111079D-02-7.58434836D-02
 ***** Axes restored to original set *****
 -------------------------------------------------------------------
 Center     Atomic                   Forces (Hartrees/Bohr)
 Number     Number              X              Y              Z
 -------------------------------------------------------------------
      1        8           0.000010963    0.000573438    0.000125048
      2        6          -0.000385689   -0.000380604   -0.000331841
      3        8          -0.000023694   -0.000482113    0.000034009
      4        6           0.000119935    0.000869401    0.000610639
      5        6           0.000767932   -0.000507987   -0.000216147
      6        1           0.000068412   -0.000108339   -0.000098474
      7        1          -0.000018961   -0.000094722    0.000136253
      8        1          -0.000003140    0.000293715   -0.000095575
      9        1          -0.000070925   -0.000278465    0.000020447
     10        1           0.000039206   -0.000168549   -0.000286469
     11        1          -0.000168506    0.000031256    0.000274926
     12        1          -0.000087765    0.000273304   -0.000090358
     13        1          -0.000247767   -0.000020334   -0.000082457
 -------------------------------------------------------------------
 Cartesian Forces:  Max     0.000869401 RMS     0.000305027
 Leave Link  716 at Tue Oct 21 19:34:17 2025, MaxMem=  4294967296 cpu:               0.2 elap:               0.0
 (Enter /lrz/sys/applications/gaussian/g16.C.01/x86_64_legacy/exe/l103.exe)

 GradGradGradGradGradGradGradGradGradGradGradGradGradGradGradGradGradGrad
 Berny optimization.
 Using GEDIIS/GDIIS optimizer.
 FormGI is forming the generalized inverse of G from B-inverse, IUseBI=4.
 Internal  Forces:  Max     0.000458342 RMS     0.000152352
 Search for a local minimum.
 Step number   4 out of a maximum of   66
 All quantities printed in internal units (Hartrees-Bohrs-Radians)
 RMS Force = .15235D-03 SwitMx=.10000D-02 MixMth= 2
 Mixed Optimization -- En-DIIS/RFO-DIIS
 Swapping is turned off.
 Update second derivatives using D2CorX and points    1    2    3    4
 DE= -2.96D-05 DEPred=-2.75D-05 R= 1.08D+00
 TightC=F SS=  1.41D+00  RLast= 1.10D-01 DXNew= 8.4853D-01 3.2862D-01
 Trust test= 1.08D+00 RLast= 1.10D-01 DXMaxT set to 5.05D-01
 ITU=  1  1  1  0
     Eigenvalues ---    0.00263   0.00415   0.01091   0.01697   0.03522
     Eigenvalues ---    0.04954   0.05566   0.05581   0.05644   0.06184
     Eigenvalues ---    0.08571   0.10038   0.12322   0.15911   0.16000
     Eigenvalues ---    0.16015   0.16089   0.16441   0.20115   0.21462
     Eigenvalues ---    0.22219   0.30440   0.31876   0.33622   0.34649
     Eigenvalues ---    0.34907   0.35118   0.35202   0.36071   0.44912
     Eigenvalues ---    0.46707   0.54083   0.54514
 En-DIIS/RFO-DIIS/Sim-DIIS IScMMF=       -3 using points:     4    3    2
 RFO step:  Lambda=-1.20009381D-05.
 NNeg= 0 NGDIIS= 3 SimSw=  2.50D-01 Rises=F DC= -2.96D-05 SmlDif=  1.00D-05
 NRisDI= 0 DoIntr=F SqrtH=F CThrHd= 10.0 CDAdj=  3.0
 RMS Error=  0.5261881753D-02 NUsed= 3 OKEnD=T EnDIS=F
 InvSVX:  RCond= 3.46D-05 Info=           0 Equed=N FErr=  1.38D-13 BErr=  2.39D-17
 DidBck=F Rises=F RFO-DIIS coefs:    1.70154   -1.01028    0.30875
 Iteration  1 RMS(Cart)=  0.00580774 RMS(Int)=  0.00004836
 Iteration  2 RMS(Cart)=  0.00004597 RMS(Int)=  0.00000270
 Iteration  3 RMS(Cart)=  0.00000000 RMS(Int)=  0.00000270
 ITry= 1 IFail=0 DXMaxC= 1.94D-02 DCOld= 1.00D+10 DXMaxT= 5.05D-01 DXLimC= 3.00D+00 Rises=F
 Variable       Old X    -DE/DX   Delta X   Delta X   Delta X     New X
                                 (Linear)    (Quad)   (Total)
    R1        2.65763  -0.00045   0.00063  -0.00158  -0.00095   2.65667
    R2        1.82848  -0.00008  -0.00020   0.00005  -0.00015   1.82833
    R3        2.65575  -0.00010  -0.00003  -0.00024  -0.00026   2.65548
    R4        2.86914   0.00046  -0.00121   0.00271   0.00149   2.87063
    R5        2.08853  -0.00014  -0.00068   0.00019  -0.00049   2.08804
    R6        1.82467  -0.00007  -0.00037   0.00020  -0.00017   1.82450
    R7        2.87251   0.00036  -0.00039   0.00141   0.00103   2.87354
    R8        2.08151  -0.00027  -0.00048  -0.00019  -0.00067   2.08085
    R9        2.08767  -0.00030  -0.00089   0.00016  -0.00072   2.08694
   R10        2.08261  -0.00030  -0.00082   0.00016  -0.00067   2.08194
   R11        2.07979  -0.00028  -0.00087   0.00014  -0.00073   2.07906
   R12        2.07884  -0.00024  -0.00091   0.00038  -0.00053   2.07831
    A1        1.87783   0.00017   0.00033   0.00089   0.00122   1.87905
    A2        1.94156  -0.00002   0.00386  -0.00420  -0.00033   1.94123
    A3        1.96745  -0.00008  -0.00016  -0.00059  -0.00076   1.96670
    A4        1.82686   0.00002  -0.00007  -0.00005  -0.00012   1.82674
    A5        1.87702   0.00008  -0.00196   0.00252   0.00056   1.87758
    A6        1.92605  -0.00001  -0.00050   0.00049  -0.00001   1.92603
    A7        1.92546   0.00001  -0.00113   0.00179   0.00066   1.92612
    A8        1.87581   0.00029  -0.00017   0.00247   0.00229   1.87810
    A9        1.97980  -0.00014  -0.00011  -0.00004  -0.00014   1.97966
   A10        1.88219  -0.00002  -0.00028  -0.00029  -0.00058   1.88161
   A11        1.87706   0.00004  -0.00073   0.00043  -0.00029   1.87676
   A12        1.92786   0.00008   0.00062  -0.00016   0.00048   1.92833
   A13        1.93114   0.00001   0.00080  -0.00096  -0.00015   1.93099
   A14        1.86095   0.00004  -0.00041   0.00112   0.00072   1.86167
   A15        1.94206  -0.00014   0.00041  -0.00136  -0.00094   1.94112
   A16        1.94044  -0.00007   0.00137  -0.00112   0.00025   1.94070
   A17        1.93659  -0.00009  -0.00124   0.00087  -0.00037   1.93622
   A18        1.87985   0.00009  -0.00056   0.00047  -0.00008   1.87976
   A19        1.87994   0.00012  -0.00014   0.00055   0.00041   1.88035
   A20        1.88230   0.00011   0.00012   0.00067   0.00079   1.88309
    D1       -1.17859  -0.00006  -0.00342  -0.00267  -0.00609  -1.18468
    D2        0.93145  -0.00003  -0.00329  -0.00286  -0.00615   0.92531
    D3        3.02453  -0.00005  -0.00479  -0.00105  -0.00583   3.01870
    D4       -1.04510  -0.00017  -0.01340  -0.00663  -0.02003  -1.06513
    D5        3.07576  -0.00011  -0.01435  -0.00490  -0.01925   3.05651
    D6        0.97469  -0.00017  -0.01147  -0.00891  -0.02038   0.95430
    D7        1.00498   0.00000  -0.00413   0.00374  -0.00039   1.00458
    D8       -3.13733  -0.00000  -0.00360   0.00330  -0.00030  -3.13763
    D9       -1.13639   0.00005  -0.00457   0.00467   0.00010  -1.13628
   D10       -3.13171  -0.00002  -0.00073  -0.00018  -0.00091  -3.13262
   D11       -0.99083  -0.00002  -0.00020  -0.00062  -0.00082  -0.99165
   D12        1.01011   0.00003  -0.00118   0.00076  -0.00042   1.00970
   D13       -1.03026   0.00002  -0.00320   0.00300  -0.00020  -1.03047
   D14        1.11061   0.00001  -0.00267   0.00256  -0.00011   1.11051
   D15        3.11156   0.00007  -0.00365   0.00394   0.00029   3.11185
   D16        1.05225  -0.00003  -0.00927   0.00021  -0.00905   1.04320
   D17       -1.04315   0.00000  -0.00977   0.00128  -0.00848  -1.05164
   D18       -3.13800  -0.00003  -0.01000   0.00059  -0.00941   3.13578
   D19       -1.06318   0.00003  -0.00928   0.00073  -0.00855  -1.07173
   D20        3.12460   0.00007  -0.00978   0.00180  -0.00798   3.11661
   D21        1.02975   0.00003  -0.01001   0.00111  -0.00891   1.02085
   D22       -3.11974  -0.00007  -0.00968   0.00004  -0.00964  -3.12939
   D23        1.06803  -0.00003  -0.01018   0.00111  -0.00907   1.05896
   D24       -1.02681  -0.00007  -0.01041   0.00042  -0.00999  -1.03680
         Item               Value     Threshold  Converged?
 Maximum Force            0.000458     0.000450     NO 
 RMS     Force            0.000152     0.000300     YES
 Maximum Displacement     0.019428     0.001800     NO 
 RMS     Displacement     0.005808     0.001200     NO 
 Predicted change in Energy=-5.531023D-06
 Lowest energy point so far.  Saving SCF results.
 GradGradGradGradGradGradGradGradGradGradGradGradGradGradGradGradGradGrad

 Leave Link  103 at Tue Oct 21 19:34:17 2025, MaxMem=  4294967296 cpu:               0.3 elap:               0.1
 (Enter /lrz/sys/applications/gaussian/g16.C.01/x86_64_legacy/exe/l202.exe)
                          Input orientation:                          
 ---------------------------------------------------------------------
 Center     Atomic      Atomic             Coordinates (Angstroms)
 Number     Number       Type             X           Y           Z
 ---------------------------------------------------------------------
      1          8           0       -0.593504   -1.330176    0.029362
      2          6           0       -0.457557    0.024241   -0.322053
      3          8           0       -1.569415    0.773187    0.099249
      4          6           0        0.781515    0.664196    0.280227
      5          6           0        2.073242   -0.040022   -0.104193
      6          1           0       -0.542929   -1.389732    0.993711
      7          1           0       -0.391433    0.021777   -1.425013
      8          1           0       -2.348238    0.414628   -0.344627
      9          1           0        0.806474    1.717247   -0.040652
     10          1           0        0.653047    0.670281    1.377075
     11          1           0        2.217192   -0.040693   -1.196466
     12          1           0        2.071170   -1.087070    0.233610
     13          1           0        2.942628    0.459205    0.348006
 ---------------------------------------------------------------------
                    Distance matrix (angstroms):
                    1          2          3          4          5
     1  O    0.000000
     2  C    1.405851   0.000000
     3  O    2.319789   1.405220   0.000000
     4  C    2.435391   1.519073   2.360404   0.000000
     5  C    2.965446   2.540972   3.737867   1.520612   0.000000
     6  H    0.967508   1.933350   2.555769   2.545945   3.141888
     7  H    1.995950   1.104943   2.067760   2.167107   2.796963
     8  H    2.502658   1.930696   0.965481   3.201262   4.451292
     9  H    3.354344   2.131485   2.560404   1.101136   2.167195
    10  H    2.715151   2.130222   2.565690   1.104363   2.171553
    11  H    3.326475   2.814799   4.084075   2.176846   1.101717
    12  H    2.683525   2.817486   4.090534   2.175388   1.100193
    13  H    3.975883   3.492768   4.529790   2.171871   1.099792
                    6          7          8          9         10
     6  H    0.000000
     7  H    2.804556   0.000000
     8  H    2.882014   2.269505   0.000000
     9  H    3.541767   2.495206   3.426576   0.000000
    10  H    2.412670   3.059933   3.469484   1.769075   0.000000
    11  H    3.772936   2.619362   4.666486   2.533059   3.094373
    12  H    2.739136   3.169382   4.703256   3.088506   2.531179
    13  H    3.998075   3.801434   5.336196   2.509358   2.519071
                   11         12         13
    11  H    0.000000
    12  H    1.778016   0.000000
    13  H    1.778074   1.778621   0.000000
 Stoichiometry    C3H8O2
 Framework group  C1[X(C3H8O2)]
 Deg. of freedom    33
 Full point group                 C1      NOp   1
 RotChk:  IX=0 Diff= 1.66D-03
 Largest Abelian subgroup         C1      NOp   1
 Largest concise Abelian subgroup C1      NOp   1
                         Standard orientation:                         
 ---------------------------------------------------------------------
 Center     Atomic      Atomic             Coordinates (Angstroms)
 Number     Number       Type             X           Y           Z
 ---------------------------------------------------------------------
      1          8           0       -0.646001    1.336676   -0.069616
      2          6           0       -0.517142   -0.006680    0.324349
      3          8           0       -1.632408   -0.762943   -0.074264
      4          6           0        0.719186   -0.671442   -0.256311
      5          6           0        2.014123    0.038058    0.107019
      6          1           0       -0.594348    1.365619   -1.035311
      7          1           0       -0.451897    0.030143    1.426749
      8          1           0       -2.409778   -0.386715    0.357364
      9          1           0        0.738596   -1.713991    0.097548
     10          1           0        0.591574   -0.711380   -1.352550
     11          1           0        2.157192    0.072364    1.198868
     12          1           0        2.017582    1.073960   -0.263546
     13          1           0        2.881355   -0.479481   -0.328418
 ---------------------------------------------------------------------
 Rotational constants (GHZ):           8.5227492           3.5933209           2.7801221
 Leave Link  202 at Tue Oct 21 19:34:17 2025, MaxMem=  4294967296 cpu:               0.0 elap:               0.0
 (Enter /lrz/sys/applications/gaussian/g16.C.01/x86_64_legacy/exe/l301.exe)
 Standard basis: def2SVP (5D, 7F)
 Ernie: Thresh=  0.10000D-02 Tol=  0.10000D-05 Strict=F.
 There are   115 symmetry adapted cartesian basis functions of A   symmetry.
 There are   110 symmetry adapted basis functions of A   symmetry.
   110 basis functions,   181 primitive gaussians,   115 cartesian basis functions
    21 alpha electrons       21 beta electrons
       nuclear repulsion energy       195.1094561156 Hartrees.
 IExCor= 4639 DFT=T Ex+Corr=wB97XD ExCW=0 ScaHFX=  1.000000
 ScaDFX=  1.000000  1.000000  1.000000  1.000000 ScalE2=  1.000000  1.000000
 IRadAn=      5 IRanWt=     -1 IRanGd=            0 ICorTp=0 IEmpDi=121
 HFx  wShort=  0.000000 wLong=  0.200000 cFull=  0.222036 cShort=  0.000000 cLong=  0.777964
 DFx  wShort=  0.000000 wLong=  0.200000 cFull=  0.000000 cShort=  0.000000 cLong=  1.000000
 NAtoms=   13 NActive=   13 NUniq=   13 SFac= 1.00D+00 NAtFMM=   60 NAOKFM=F Big=F
 Integral buffers will be    131072 words long.
 Raffenetti 2 integral format.
 Two-electron integral symmetry is turned on.
 R6Disp:  Grimme-D2 Dispersion energy=       -0.0055747262 Hartrees.
 Nuclear repulsion after empirical dispersion term =      195.1038813894 Hartrees.
 ------------------------------------------------------------------------------
 Polarizable Continuum Model (PCM)
 =================================
 Model                : PCM.
 Atomic radii         : SMD-Coulomb.
 Polarization charges : Total charges.
 Charge compensation  : None.
 Solution method      : On-the-fly selection.
 Cavity type          : VdW (van der Waals Surface) (Alpha=1.000).
 Cavity algorithm     : GePol (No added spheres)
                        Default sphere list used, NSphG=   13.
                        Lebedev-Laikov grids with approx.  5.0 points / Ang**2.
                        Smoothing algorithm: York/Karplus (Gamma=1.0000).
                        Polarization charges: spherical gaussians, with
                                              point-specific exponents (IZeta= 3).
                        Self-potential: point-specific (ISelfS= 7).
                        Self-field    : sphere-specific E.n sum rule (ISelfD= 2).
 1st derivatives      : Analytical E(r).r(x)/FMM algorithm (CHGder, D1EAlg=3).
                        Cavity 1st derivative terms included.
 Solvent              : Water, Eps=  78.355300 Eps(inf)=   1.777849
 ------------------------------------------------------------------------------
 Spheres list:
 ISph  on   Nord     Re0    Alpha      Xe            Ye            Ze
    1   O      1    1.5200  1.000     -0.646001      1.336676     -0.069616
    2   C      2    1.8500  1.000     -0.517142     -0.006680      0.324349
    3   O      3    1.5200  1.000     -1.632408     -0.762943     -0.074264
    4   C      4    1.8500  1.000      0.719186     -0.671442     -0.256311
    5   C      5    1.8500  1.000      2.014123      0.038058      0.107019
    6   H      6    1.2000  1.000     -0.594348      1.365619     -1.035311
    7   H      7    1.2000  1.000     -0.451897      0.030143      1.426749
    8   H      8    1.2000  1.000     -2.409778     -0.386715      0.357364
    9   H      9    1.2000  1.000      0.738596     -1.713991      0.097548
   10   H     10    1.2000  1.000      0.591574     -0.711380     -1.352550
   11   H     11    1.2000  1.000      2.157192      0.072364      1.198868
   12   H     12    1.2000  1.000      2.017582      1.073960     -0.263546
   13   H     13    1.2000  1.000      2.881355     -0.479481     -0.328418
 ------------------------------------------------------------------------------
 GePol: Number of generator spheres                  =      13
 GePol: Total number of spheres                      =      13
 GePol: Number of exposed spheres                    =      13 (100.00%)
 GePol: Number of points                             =     912
 GePol: Average weight of points                     =       0.12
 GePol: Minimum weight of points                     =   0.34D-09
 GePol: Maximum weight of points                     =    0.21991
 GePol: Number of points with low weight             =      54
 GePol: Fraction of low-weight points (<1% of avg)   =       5.92%
 GePol: Cavity surface area                          =    111.024 Ang**2
 GePol: Cavity volume                                =     82.140 Ang**3
 ------------------------------------------------------------------------------
 Atomic radii for non-electrostatic terms: SMD-CDS.
 ------------------------------------------------------------------------------
 PCM non-electrostatic energy =         0.0046964570 Hartrees.
 Nuclear repulsion after PCM non-electrostatic terms =      195.1085778464 Hartrees.
 Leave Link  301 at Tue Oct 21 19:34:17 2025, MaxMem=  4294967296 cpu:               0.5 elap:               0.1
 (Enter /lrz/sys/applications/gaussian/g16.C.01/x86_64_legacy/exe/l302.exe)
 NPDir=0 NMtPBC=     1 NCelOv=     1 NCel=       1 NClECP=     1 NCelD=      1
         NCelK=      1 NCelE2=     1 NClLst=     1 CellRange=     0.0.
 One-electron integrals computed using PRISM.
 One-electron integral symmetry used in STVInt
   1 Symmetry operations used in ECPInt.
 ECPInt:  NShTT=    1485 NPrTT=    5139 LenC2=    1483 LenP2D=    4436.
 LDataN:  DoStor=T MaxTD1= 4 Len=   56
 NBasis=   110 RedAO= T EigKep=  2.28D-03  NBF=   110
 NBsUse=   110 1.00D-06 EigRej= -1.00D+00 NBFU=   110
 Precomputing XC quadrature grid using
 IXCGrd= 4 IRadAn=           5 IRanWt=          -1 IRanGd=           0 AccXCQ= 0.00D+00.
 Generated NRdTot=       0 NPtTot=           0 NUsed=           0 NTot=          32
 NSgBfM=   115   115   115   115   115 MxSgAt=    13 MxSgA2=    13.
 Leave Link  302 at Tue Oct 21 19:34:18 2025, MaxMem=  4294967296 cpu:               1.2 elap:               0.2
 (Enter /lrz/sys/applications/gaussian/g16.C.01/x86_64_legacy/exe/l303.exe)
 DipDrv:  MaxL=1.
 Leave Link  303 at Tue Oct 21 19:34:18 2025, MaxMem=  4294967296 cpu:               0.3 elap:               0.1
 (Enter /lrz/sys/applications/gaussian/g16.C.01/x86_64_legacy/exe/l401.exe)
 Initial guess from the checkpoint file:  "g16_C2-w_1.chk"
 B after Tr=     0.000000   -0.000000    0.000000
         Rot=    1.000000    0.000133    0.000240    0.000417 Ang=   0.06 deg.
 Guess basis will be translated and rotated to current coordinates.
 JPrj=2 DoOrth=T DoCkMO=T.
 Leave Link  401 at Tue Oct 21 19:34:18 2025, MaxMem=  4294967296 cpu:               0.7 elap:               0.1
 (Enter /lrz/sys/applications/gaussian/g16.C.01/x86_64_legacy/exe/l502.exe)
 Integral symmetry usage will be decided dynamically.
 Closed shell SCF:
 Using DIIS extrapolation, IDIIS=  1040.
 NGot=  4294967296 LenX=  4294938204 LenY=  4294924538
 Requested convergence on RMS density matrix=1.00D-08 within 128 cycles.
 Requested convergence on MAX density matrix=1.00D-06.
 Requested convergence on             energy=1.00D-06.
 No special actions if energy rises.
 Fock matrices will be formed incrementally for  20 cycles.

 Cycle   1  Pass 1  IDiag  1:
 FoFJK:  IHMeth= 1 ICntrl=       0 DoSepK=T KAlg= 0 I1Cent=           0 FoldK=F
 IRaf=         1 NMat=       1 IRICut=       1 DoRegI=T DoRafI=F ISym2E= 0 IDoP0=0 IntGTp=1.
 FoFCou: FMM=F IPFlag=           0 FMFlag=      100000 FMFlg1=           0
         NFxFlg=           0 DoJE=T BraDBF=F KetDBF=F FulRan=T
         wScrn=  0.000000 ICntrl=       500 IOpCl=  0 I1Cent=           0 NGrid=           0
         NMat0=    1 NMatS0=      1 NMatT0=    0 NMatD0=    1 NMtDS0=    0 NMtDT0=    0
 Symmetry not used in FoFCou.
 Inv3:  Mode=1 IEnd=     2495232.
 Iteration    1 A*A^-1 deviation from unit magnitude is 4.33D-15 for    704.
 Iteration    1 A*A^-1 deviation from orthogonality  is 3.57D-15 for    581    156.
 Iteration    1 A^-1*A deviation from unit magnitude is 4.22D-15 for    196.
 Iteration    1 A^-1*A deviation from orthogonality  is 2.86D-15 for    838    418.
 E= -269.317682752153    
 DIIS: error= 6.86D-04 at cycle   1 NSaved=   1.
 NSaved= 1 IEnMin= 1 EnMin= -269.317682752153     IErMin= 1 ErrMin= 6.86D-04
 ErrMax= 6.86D-04  0.00D+00 EMaxC= 1.00D-01 BMatC= 4.90D-05 BMatP= 4.90D-05
 IDIUse=3 WtCom= 9.93D-01 WtEn= 6.86D-03
 Coeff-Com:  0.100D+01
 Coeff-En:   0.100D+01
 Coeff:      0.100D+01
 Gap=     0.781 Goal=   None    Shift=    0.000
 RMSDP=9.68D-05 MaxDP=3.08D-03              OVMax= 2.01D-03

 Cycle   2  Pass 1  IDiag  1:
 RMSU=  9.68D-05    CP:  1.00D+00
 E= -269.317746848965     Delta-E=       -0.000064096812 Rises=F Damp=F
 DIIS: error= 1.08D-04 at cycle   2 NSaved=   2.
 NSaved= 2 IEnMin= 2 EnMin= -269.317746848965     IErMin= 2 ErrMin= 1.08D-04
 ErrMax= 1.08D-04  0.00D+00 EMaxC= 1.00D-01 BMatC= 1.49D-06 BMatP= 4.90D-05
 IDIUse=3 WtCom= 9.99D-01 WtEn= 1.08D-03
 Coeff-Com: -0.160D+00 0.116D+01
 Coeff-En:   0.000D+00 0.100D+01
 Coeff:     -0.160D+00 0.116D+01
 Gap=     0.516 Goal=   None    Shift=    0.000
 RMSDP=2.28D-05 MaxDP=6.36D-04 DE=-6.41D-05 OVMax= 6.89D-04

 Cycle   3  Pass 1  IDiag  1:
 RMSU=  1.20D-05    CP:  1.00D+00  1.20D+00
 E= -269.317749927728     Delta-E=       -0.000003078763 Rises=F Damp=F
 DIIS: error= 1.29D-05 at cycle   3 NSaved=   3.
 NSaved= 3 IEnMin= 3 EnMin= -269.317749927728     IErMin= 3 ErrMin= 1.29D-05
 ErrMax= 1.29D-05  0.00D+00 EMaxC= 1.00D-01 BMatC= 5.47D-08 BMatP= 1.49D-06
 IDIUse=1 WtCom= 1.00D+00 WtEn= 0.00D+00
 Coeff-Com: -0.945D-02 0.134D-01 0.996D+00
 Coeff:     -0.945D-02 0.134D-01 0.996D+00
 Gap=     0.516 Goal=   None    Shift=    0.000
 RMSDP=4.72D-06 MaxDP=7.34D-05 DE=-3.08D-06 OVMax= 1.41D-04

 Cycle   4  Pass 1  IDiag  1:
 RMSU=  3.10D-06    CP:  1.00D+00  1.22D+00  1.23D+00
 E= -269.317750018362     Delta-E=       -0.000000090634 Rises=F Damp=F
 DIIS: error= 1.37D-05 at cycle   4 NSaved=   4.
 NSaved= 4 IEnMin= 4 EnMin= -269.317750018362     IErMin= 3 ErrMin= 1.29D-05
 ErrMax= 1.37D-05  0.00D+00 EMaxC= 1.00D-01 BMatC= 3.30D-08 BMatP= 5.47D-08
 IDIUse=1 WtCom= 1.00D+00 WtEn= 0.00D+00
 Coeff-Com:  0.109D-01-0.107D+00 0.462D+00 0.634D+00
 Coeff:      0.109D-01-0.107D+00 0.462D+00 0.634D+00
 Gap=     0.516 Goal=   None    Shift=    0.000
 RMSDP=1.77D-06 MaxDP=3.47D-05 DE=-9.06D-08 OVMax= 5.18D-05

 Cycle   5  Pass 1  IDiag  1:
 RMSU=  1.08D-06    CP:  1.00D+00  1.23D+00  1.33D+00  8.17D-01
 E= -269.317750047795     Delta-E=       -0.000000029433 Rises=F Damp=F
 DIIS: error= 2.06D-06 at cycle   5 NSaved=   5.
 NSaved= 5 IEnMin= 5 EnMin= -269.317750047795     IErMin= 5 ErrMin= 2.06D-06
 ErrMax= 2.06D-06  0.00D+00 EMaxC= 1.00D-01 BMatC= 1.31D-09 BMatP= 3.30D-08
 IDIUse=1 WtCom= 1.00D+00 WtEn= 0.00D+00
 Coeff-Com:  0.403D-02-0.329D-01 0.148D-01 0.156D+00 0.858D+00
 Coeff:      0.403D-02-0.329D-01 0.148D-01 0.156D+00 0.858D+00
 Gap=     0.516 Goal=   None    Shift=    0.000
 RMSDP=6.66D-07 MaxDP=1.64D-05 DE=-2.94D-08 OVMax= 2.09D-05

 Cycle   6  Pass 1  IDiag  1:
 RMSU=  3.04D-07    CP:  1.00D+00  1.23D+00  1.36D+00  9.31D-01  1.18D+00
 E= -269.317750049813     Delta-E=       -0.000000002019 Rises=F Damp=F
 DIIS: error= 5.79D-07 at cycle   6 NSaved=   6.
 NSaved= 6 IEnMin= 6 EnMin= -269.317750049813     IErMin= 6 ErrMin= 5.79D-07
 ErrMax= 5.79D-07  0.00D+00 EMaxC= 1.00D-01 BMatC= 1.09D-10 BMatP= 1.31D-09
 IDIUse=1 WtCom= 1.00D+00 WtEn= 0.00D+00
 Coeff-Com:  0.173D-03 0.357D-03-0.326D-01-0.159D-01 0.193D+00 0.855D+00
 Coeff:      0.173D-03 0.357D-03-0.326D-01-0.159D-01 0.193D+00 0.855D+00
 Gap=     0.516 Goal=   None    Shift=    0.000
 RMSDP=2.10D-07 MaxDP=6.01D-06 DE=-2.02D-09 OVMax= 6.89D-06

 Cycle   7  Pass 1  IDiag  1:
 RMSU=  9.37D-08    CP:  1.00D+00  1.23D+00  1.36D+00  9.58D-01  1.30D+00
                    CP:  1.01D+00
 E= -269.317750050005     Delta-E=       -0.000000000192 Rises=F Damp=F
 DIIS: error= 1.74D-07 at cycle   7 NSaved=   7.
 NSaved= 7 IEnMin= 7 EnMin= -269.317750050005     IErMin= 7 ErrMin= 1.74D-07
 ErrMax= 1.74D-07  0.00D+00 EMaxC= 1.00D-01 BMatC= 1.19D-11 BMatP= 1.09D-10
 IDIUse=1 WtCom= 1.00D+00 WtEn= 0.00D+00
 Coeff-Com: -0.391D-03 0.382D-02-0.754D-02-0.219D-01-0.652D-01 0.211D+00
 Coeff-Com:  0.880D+00
 Coeff:     -0.391D-03 0.382D-02-0.754D-02-0.219D-01-0.652D-01 0.211D+00
 Coeff:      0.880D+00
 Gap=     0.516 Goal=   None    Shift=    0.000
 RMSDP=6.97D-08 MaxDP=2.09D-06 DE=-1.92D-10 OVMax= 2.44D-06

 Cycle   8  Pass 1  IDiag  1:
 RMSU=  2.24D-08    CP:  1.00D+00  1.23D+00  1.36D+00  9.65D-01  1.34D+00
                    CP:  1.15D+00  1.06D+00
 E= -269.317750050029     Delta-E=       -0.000000000024 Rises=F Damp=F
 DIIS: error= 3.41D-08 at cycle   8 NSaved=   8.
 NSaved= 8 IEnMin= 8 EnMin= -269.317750050029     IErMin= 8 ErrMin= 3.41D-08
 ErrMax= 3.41D-08  0.00D+00 EMaxC= 1.00D-01 BMatC= 2.05D-13 BMatP= 1.19D-11
 IDIUse=1 WtCom= 1.00D+00 WtEn= 0.00D+00
 Coeff-Com:  0.274D-04-0.343D-03 0.208D-02 0.199D-02-0.540D-02-0.480D-01
 Coeff-Com: -0.459D-01 0.110D+01
 Coeff:      0.274D-04-0.343D-03 0.208D-02 0.199D-02-0.540D-02-0.480D-01
 Coeff:     -0.459D-01 0.110D+01
 Gap=     0.516 Goal=   None    Shift=    0.000
 RMSDP=1.58D-08 MaxDP=4.01D-07 DE=-2.39D-11 OVMax= 5.37D-07

 Cycle   9  Pass 1  IDiag  1:
 RMSU=  4.34D-09    CP:  1.00D+00  1.23D+00  1.36D+00  9.66D-01  1.35D+00
                    CP:  1.17D+00  1.16D+00  1.31D+00
 E= -269.317750050025     Delta-E=        0.000000000004 Rises=F Damp=F
 DIIS: error= 1.28D-08 at cycle   9 NSaved=   9.
 NSaved= 9 IEnMin= 8 EnMin= -269.317750050029     IErMin= 9 ErrMin= 1.28D-08
 ErrMax= 1.28D-08  0.00D+00 EMaxC= 1.00D-01 BMatC= 4.06D-14 BMatP= 2.05D-13
 IDIUse=1 WtCom= 1.00D+00 WtEn= 0.00D+00
 Coeff-Com:  0.299D-04-0.320D-03 0.119D-02 0.180D-02 0.827D-03-0.281D-01
 Coeff-Com: -0.580D-01 0.400D+00 0.682D+00
 Coeff:      0.299D-04-0.320D-03 0.119D-02 0.180D-02 0.827D-03-0.281D-01
 Coeff:     -0.580D-01 0.400D+00 0.682D+00
 Gap=     0.516 Goal=   None    Shift=    0.000
 RMSDP=2.72D-09 MaxDP=3.90D-08 DE= 4.43D-12 OVMax= 6.81D-08

 Error on total polarization charges =  0.03205
 SCF Done:  E(RwB97XD) =  -269.317750050     A.U. after    9 cycles
            NFock=  9  Conv=0.27D-08     -V/T= 2.0096
 KE= 2.667623520653D+02 PE=-1.020188632572D+03 EE= 2.889999526101D+02
 SMD-CDS (non-electrostatic) energy       (kcal/mol) =       2.95
 (included in total energy above)
 Leave Link  502 at Tue Oct 21 19:34:31 2025, MaxMem=  4294967296 cpu:             102.4 elap:              12.9
 (Enter /lrz/sys/applications/gaussian/g16.C.01/x86_64_legacy/exe/l701.exe)
 ... and contract with generalized density number  0.
 Compute integral first derivatives.
 R6Disp: Adding Grimme-D2 dispersion energy 1st derivatives to the gradient.
   1 Symmetry operations used in ECPInt.
 ECPInt:  NShTT=    1485 NPrTT=    5139 LenC2=    1483 LenP2D=    4436.
 LDataN:  DoStor=T MaxTD1= 5 Len=  102
 D1PCM: PCM CHGder 1st derivatives, ID1Alg=3 FixD1E=F DoIter=F DoCFld=F I1PDM=0.
 GePol: Maximum number of non-zero 1st derivatives   =     247
 Leave Link  701 at Tue Oct 21 19:34:31 2025, MaxMem=  4294967296 cpu:               4.1 elap:               0.5
 (Enter /lrz/sys/applications/gaussian/g16.C.01/x86_64_legacy/exe/l702.exe)
 L702 exits ... SP integral derivatives will be done elsewhere.
 Leave Link  702 at Tue Oct 21 19:34:31 2025, MaxMem=  4294967296 cpu:               0.2 elap:               0.0
 (Enter /lrz/sys/applications/gaussian/g16.C.01/x86_64_legacy/exe/l703.exe)
 Integral derivatives from FoFJK, PRISM(SPDF).
 Compute integral first derivatives, UseDBF=F ICtDFT=           0.
 Calling FoFJK, ICntrl=      2127 FMM=F ISym2X=0 I1Cent= 0 IOpClX= 0 NMat=1 NMatS=1 NMatT=0.
 FoFJK:  IHMeth= 1 ICntrl=    2127 DoSepK=T KAlg= 0 I1Cent=           0 FoldK=F
 IRaf=         1 NMat=       1 IRICut=       1 DoRegI=T DoRafI=F ISym2E= 0 IDoP0=0 IntGTp=1.
 FoFCou: FMM=F IPFlag=           0 FMFlag=      100000 FMFlg1=         800
         NFxFlg=           0 DoJE=F BraDBF=F KetDBF=F FulRan=T
         wScrn=  0.000000 ICntrl=      2527 IOpCl=  0 I1Cent=           0 NGrid=           0
         NMat0=    1 NMatS0=      1 NMatT0=    0 NMatD0=    1 NMtDS0=    0 NMtDT0=    0
 Symmetry not used in FoFCou.
 Leave Link  703 at Tue Oct 21 19:34:33 2025, MaxMem=  4294967296 cpu:              17.1 elap:               2.2
 (Enter /lrz/sys/applications/gaussian/g16.C.01/x86_64_legacy/exe/l716.exe)
 Dipole        = 4.50891655D-02 2.06160481D-03-6.39424734D-02
 ***** Axes restored to original set *****
 -------------------------------------------------------------------
 Center     Atomic                   Forces (Hartrees/Bohr)
 Number     Number              X              Y              Z
 -------------------------------------------------------------------
      1        8           0.000079584   -0.000097744    0.000081617
      2        6          -0.000167916   -0.000144385   -0.000057969
      3        8           0.000046023    0.000018818    0.000060213
      4        6          -0.000109313    0.000401652    0.000185468
      5        6           0.000251958   -0.000186641   -0.000149098
      6        1           0.000026062   -0.000030613   -0.000059131
      7        1           0.000037712    0.000022330    0.000021543
      8        1           0.000056941    0.000071724   -0.000066170
      9        1          -0.000000342   -0.000074145   -0.000027511
     10        1           0.000024566   -0.000088559   -0.000045915
     11        1          -0.000059409    0.000057249    0.000050881
     12        1          -0.000093887    0.000049783   -0.000007558
     13        1          -0.000091980    0.000000532    0.000013630
 -------------------------------------------------------------------
 Cartesian Forces:  Max     0.000401652 RMS     0.000110446
 Leave Link  716 at Tue Oct 21 19:34:33 2025, MaxMem=  4294967296 cpu:               0.1 elap:               0.0
 (Enter /lrz/sys/applications/gaussian/g16.C.01/x86_64_legacy/exe/l103.exe)

 GradGradGradGradGradGradGradGradGradGradGradGradGradGradGradGradGradGrad
 Berny optimization.
 Using GEDIIS/GDIIS optimizer.
 FormGI is forming the generalized inverse of G from B-inverse, IUseBI=4.
 Internal  Forces:  Max     0.000232650 RMS     0.000065809
 Search for a local minimum.
 Step number   5 out of a maximum of   66
 All quantities printed in internal units (Hartrees-Bohrs-Radians)
 RMS Force = .65809D-04 SwitMx=.10000D-02 MixMth= 2
 Mixed Optimization -- En-DIIS/RFO-DIIS
 Swapping is turned off.
 Update second derivatives using D2CorX and points    1    2    3    4    5
 DE= -8.88D-06 DEPred=-5.53D-06 R= 1.61D+00
 TightC=F SS=  1.41D+00  RLast= 4.53D-02 DXNew= 8.4853D-01 1.3583D-01
 Trust test= 1.61D+00 RLast= 4.53D-02 DXMaxT set to 5.05D-01
 ITU=  1  1  1  1  0
     Eigenvalues ---    0.00278   0.00410   0.00763   0.01698   0.03529
     Eigenvalues ---    0.04767   0.05557   0.05589   0.05640   0.06236
     Eigenvalues ---    0.08610   0.10087   0.12313   0.15376   0.15998
     Eigenvalues ---    0.16003   0.16104   0.16508   0.20156   0.21335
     Eigenvalues ---    0.22779   0.29812   0.31057   0.33621   0.34596
     Eigenvalues ---    0.34890   0.35120   0.35198   0.38543   0.44879
     Eigenvalues ---    0.46980   0.54067   0.54520
 En-DIIS/RFO-DIIS/Sim-DIIS IScMMF=       -3 using points:     5    4    3    2
 RFO step:  Lambda=-3.49825560D-06.
 NNeg= 0 NGDIIS= 4 SimSw=  2.50D-01 Rises=F DC= -8.88D-06 SmlDif=  1.00D-05
 NRisDI= 0 DoIntr=F SqrtH=F CThrHd= 10.0 CDAdj=  3.0
 RMS Error=  0.2550108970D-02 NUsed= 4 OKEnD=F EnDIS=F
 InvSVX:  RCond= 6.45D-06 Info=           0 Equed=N FErr=  1.97D-13 BErr=  4.37D-17
 DidBck=F Rises=F RFO-DIIS coefs:    1.53937   -0.68694    0.20655   -0.05898
 Iteration  1 RMS(Cart)=  0.00278943 RMS(Int)=  0.00001271
 Iteration  2 RMS(Cart)=  0.00001179 RMS(Int)=  0.00000066
 Iteration  3 RMS(Cart)=  0.00000000 RMS(Int)=  0.00000066
 ITry= 1 IFail=0 DXMaxC= 1.14D-02 DCOld= 1.00D+10 DXMaxT= 5.05D-01 DXLimC= 3.00D+00 Rises=F
 Variable       Old X    -DE/DX   Delta X   Delta X   Delta X     New X
                                 (Linear)    (Quad)   (Total)
    R1        2.65667   0.00011  -0.00066   0.00087   0.00021   2.65688
    R2        1.82833  -0.00004  -0.00004  -0.00007  -0.00011   1.82822
    R3        2.65548  -0.00004  -0.00014  -0.00001  -0.00014   2.65534
    R4        2.87063   0.00001   0.00107  -0.00082   0.00026   2.87089
    R5        2.08804  -0.00002  -0.00012  -0.00004  -0.00016   2.08788
    R6        1.82450  -0.00004  -0.00002  -0.00007  -0.00009   1.82440
    R7        2.87354   0.00007   0.00067  -0.00052   0.00015   2.87369
    R8        2.08085  -0.00006  -0.00027  -0.00007  -0.00034   2.08051
    R9        2.08694  -0.00005  -0.00022  -0.00005  -0.00027   2.08668
   R10        2.08194  -0.00006  -0.00020  -0.00013  -0.00032   2.08162
   R11        2.07906  -0.00005  -0.00022  -0.00009  -0.00030   2.07876
   R12        2.07831  -0.00007  -0.00010  -0.00025  -0.00035   2.07796
    A1        1.87905   0.00004   0.00060  -0.00005   0.00054   1.87960
    A2        1.94123   0.00016  -0.00095   0.00197   0.00102   1.94225
    A3        1.96670  -0.00005  -0.00038   0.00008  -0.00030   1.96640
    A4        1.82674   0.00001  -0.00004   0.00027   0.00023   1.82697
    A5        1.87758  -0.00011   0.00070  -0.00114  -0.00044   1.87714
    A6        1.92603   0.00001   0.00010  -0.00026  -0.00015   1.92588
    A7        1.92612  -0.00002   0.00056  -0.00091  -0.00035   1.92577
    A8        1.87810  -0.00003   0.00126  -0.00082   0.00045   1.87855
    A9        1.97966  -0.00023  -0.00010  -0.00129  -0.00139   1.97827
   A10        1.88161   0.00008  -0.00026   0.00070   0.00045   1.88206
   A11        1.87676   0.00006  -0.00002   0.00008   0.00006   1.87682
   A12        1.92833   0.00006   0.00014   0.00013   0.00027   1.92861
   A13        1.93099   0.00005  -0.00024   0.00001  -0.00023   1.93076
   A14        1.86167   0.00000   0.00052   0.00048   0.00099   1.86266
   A15        1.94112  -0.00006  -0.00061   0.00004  -0.00058   1.94054
   A16        1.94070  -0.00011  -0.00018  -0.00049  -0.00067   1.94003
   A17        1.93622  -0.00005   0.00005  -0.00040  -0.00034   1.93588
   A18        1.87976   0.00008   0.00009   0.00035   0.00044   1.88020
   A19        1.88035   0.00007   0.00027   0.00029   0.00057   1.88092
   A20        1.88309   0.00008   0.00042   0.00025   0.00067   1.88377
    D1       -1.18468   0.00004  -0.00251  -0.00039  -0.00290  -1.18758
    D2        0.92531  -0.00002  -0.00256  -0.00038  -0.00294   0.92237
    D3        3.01870  -0.00006  -0.00211  -0.00126  -0.00338   3.01532
    D4       -1.06513  -0.00011  -0.00784  -0.00340  -0.01124  -1.07637
    D5        3.05651  -0.00008  -0.00724  -0.00399  -0.01123   3.04528
    D6        0.95430   0.00000  -0.00841  -0.00204  -0.01044   0.94386
    D7        1.00458  -0.00004   0.00084  -0.00153  -0.00069   1.00389
    D8       -3.13763  -0.00007   0.00076  -0.00170  -0.00093  -3.13856
    D9       -1.13628   0.00001   0.00123  -0.00076   0.00047  -1.13582
   D10       -3.13262   0.00005  -0.00012   0.00022   0.00010  -3.13252
   D11       -0.99165   0.00002  -0.00019   0.00005  -0.00015  -0.99179
   D12        1.00970   0.00010   0.00027   0.00099   0.00126   1.01095
   D13       -1.03047  -0.00001   0.00076  -0.00133  -0.00056  -1.03103
   D14        1.11051  -0.00004   0.00069  -0.00150  -0.00081   1.10970
   D15        3.11185   0.00003   0.00115  -0.00056   0.00060   3.11244
   D16        1.04320   0.00001  -0.00278   0.00270  -0.00008   1.04312
   D17       -1.05164   0.00002  -0.00236   0.00256   0.00020  -1.05144
   D18        3.13578   0.00003  -0.00281   0.00283   0.00002   3.13580
   D19       -1.07173   0.00003  -0.00248   0.00259   0.00011  -1.07163
   D20        3.11661   0.00004  -0.00206   0.00245   0.00039   3.11700
   D21        1.02085   0.00004  -0.00251   0.00272   0.00021   1.02106
   D22       -3.12939  -0.00003  -0.00306   0.00191  -0.00114  -3.13053
   D23        1.05896  -0.00002  -0.00263   0.00177  -0.00086   1.05810
   D24       -1.03680  -0.00002  -0.00308   0.00204  -0.00104  -1.03784
         Item               Value     Threshold  Converged?
 Maximum Force            0.000233     0.000450     YES
 RMS     Force            0.000066     0.000300     YES
 Maximum Displacement     0.011429     0.001800     NO 
 RMS     Displacement     0.002789     0.001200     NO 
 Predicted change in Energy=-1.740693D-06
 Lowest energy point so far.  Saving SCF results.
 GradGradGradGradGradGradGradGradGradGradGradGradGradGradGradGradGradGrad

 Leave Link  103 at Tue Oct 21 19:34:33 2025, MaxMem=  4294967296 cpu:               0.1 elap:               0.0
 (Enter /lrz/sys/applications/gaussian/g16.C.01/x86_64_legacy/exe/l202.exe)
                          Input orientation:                          
 ---------------------------------------------------------------------
 Center     Atomic      Atomic             Coordinates (Angstroms)
 Number     Number       Type             X           Y           Z
 ---------------------------------------------------------------------
      1          8           0       -0.591729   -1.331278    0.030522
      2          6           0       -0.457700    0.023434   -0.320936
      3          8           0       -1.569657    0.772073    0.100395
      4          6           0        0.781043    0.664646    0.281027
      5          6           0        2.072254   -0.040126   -0.104435
      6          1           0       -0.537995   -1.391629    0.994592
      7          1           0       -0.391616    0.021308   -1.423812
      8          1           0       -2.347212    0.419929   -0.350675
      9          1           0        0.805685    1.717428   -0.040147
     10          1           0        0.653297    0.669968    1.377822
     11          1           0        2.214578   -0.040879   -1.196747
     12          1           0        2.069402   -1.086896    0.233698
     13          1           0        2.941844    0.459089    0.346932
 ---------------------------------------------------------------------
                    Distance matrix (angstroms):
                    1          2          3          4          5
     1  O    0.000000
     2  C    1.405962   0.000000
     3  O    2.320627   1.405144   0.000000
     4  C    2.435358   1.519210   2.360076   0.000000
     5  C    2.963460   2.539996   3.736996   1.520693   0.000000
     6  H    0.967450   1.933768   2.558421   2.545055   3.138124
     7  H    1.996151   1.104857   2.067520   2.166909   2.795565
     8  H    2.508736   1.930893   0.965433   3.200768   4.450164
     9  H    3.354455   2.131807   2.560410   1.100959   2.167331
    10  H    2.714828   2.130281   2.565885   1.104222   2.171349
    11  H    3.323654   2.812872   4.082144   2.176374   1.101545
    12  H    2.680041   2.815438   4.088555   2.174857   1.100032
    13  H    3.973874   3.491811   4.529060   2.171556   1.099607
                    6          7          8          9         10
     6  H    0.000000
     7  H    2.804727   0.000000
     8  H    2.892188   2.266027   0.000000
     9  H    3.541525   2.494972   3.423550   0.000000
    10  H    2.411685   3.059699   3.471782   1.769472   0.000000
    11  H    3.768706   2.616806   4.662415   2.532656   3.093753
    12  H    2.733192   3.167343   4.703030   3.088074   2.530008
    13  H    3.994234   3.799887   5.335007   2.509267   2.518859
                   11         12         13
    11  H    0.000000
    12  H    1.778033   0.000000
    13  H    1.778153   1.778777   0.000000
 Stoichiometry    C3H8O2
 Framework group  C1[X(C3H8O2)]
 Deg. of freedom    33
 Full point group                 C1      NOp   1
 RotChk:  IX=0 Diff= 7.11D-04
 Largest Abelian subgroup         C1      NOp   1
 Largest concise Abelian subgroup C1      NOp   1
                         Standard orientation:                         
 ---------------------------------------------------------------------
 Center     Atomic      Atomic             Coordinates (Angstroms)
 Number     Number       Type             X           Y           Z
 ---------------------------------------------------------------------
      1          8           0       -0.643830    1.337574   -0.069689
      2          6           0       -0.517329   -0.006250    0.323835
      3          8           0       -1.632978   -0.761680   -0.075017
      4          6           0        0.718397   -0.672476   -0.256789
      5          6           0        2.013087    0.037035    0.107736
      6          1           0       -0.589067    1.367633   -1.035120
      7          1           0       -0.452042    0.029813    1.426171
      8          1           0       -2.408963   -0.391533    0.364189
      9          1           0        0.737154   -1.714879    0.096982
     10          1           0        0.591426   -0.711216   -1.353002
     11          1           0        2.154614    0.070991    1.199624
     12          1           0        2.016099    1.072786   -0.262779
     13          1           0        2.880317   -0.480610   -0.327111
 ---------------------------------------------------------------------
 Rotational constants (GHZ):           8.5168700           3.5960055           2.7813148
 Leave Link  202 at Tue Oct 21 19:34:34 2025, MaxMem=  4294967296 cpu:               0.0 elap:               0.0
 (Enter /lrz/sys/applications/gaussian/g16.C.01/x86_64_legacy/exe/l301.exe)
 Standard basis: def2SVP (5D, 7F)
 Ernie: Thresh=  0.10000D-02 Tol=  0.10000D-05 Strict=F.
 There are   115 symmetry adapted cartesian basis functions of A   symmetry.
 There are   110 symmetry adapted basis functions of A   symmetry.
   110 basis functions,   181 primitive gaussians,   115 cartesian basis functions
    21 alpha electrons       21 beta electrons
       nuclear repulsion energy       195.1215543508 Hartrees.
 IExCor= 4639 DFT=T Ex+Corr=wB97XD ExCW=0 ScaHFX=  1.000000
 ScaDFX=  1.000000  1.000000  1.000000  1.000000 ScalE2=  1.000000  1.000000
 IRadAn=      5 IRanWt=     -1 IRanGd=            0 ICorTp=0 IEmpDi=121
 HFx  wShort=  0.000000 wLong=  0.200000 cFull=  0.222036 cShort=  0.000000 cLong=  0.777964
 DFx  wShort=  0.000000 wLong=  0.200000 cFull=  0.000000 cShort=  0.000000 cLong=  1.000000
 NAtoms=   13 NActive=   13 NUniq=   13 SFac= 1.00D+00 NAtFMM=   60 NAOKFM=F Big=F
 Integral buffers will be    131072 words long.
 Raffenetti 2 integral format.
 Two-electron integral symmetry is turned on.
 R6Disp:  Grimme-D2 Dispersion energy=       -0.0055773957 Hartrees.
 Nuclear repulsion after empirical dispersion term =      195.1159769551 Hartrees.
 ------------------------------------------------------------------------------
 Polarizable Continuum Model (PCM)
 =================================
 Model                : PCM.
 Atomic radii         : SMD-Coulomb.
 Polarization charges : Total charges.
 Charge compensation  : None.
 Solution method      : On-the-fly selection.
 Cavity type          : VdW (van der Waals Surface) (Alpha=1.000).
 Cavity algorithm     : GePol (No added spheres)
                        Default sphere list used, NSphG=   13.
                        Lebedev-Laikov grids with approx.  5.0 points / Ang**2.
                        Smoothing algorithm: York/Karplus (Gamma=1.0000).
                        Polarization charges: spherical gaussians, with
                                              point-specific exponents (IZeta= 3).
                        Self-potential: point-specific (ISelfS= 7).
                        Self-field    : sphere-specific E.n sum rule (ISelfD= 2).
 1st derivatives      : Analytical E(r).r(x)/FMM algorithm (CHGder, D1EAlg=3).
                        Cavity 1st derivative terms included.
 Solvent              : Water, Eps=  78.355300 Eps(inf)=   1.777849
 ------------------------------------------------------------------------------
 Spheres list:
 ISph  on   Nord     Re0    Alpha      Xe            Ye            Ze
    1   O      1    1.5200  1.000     -0.643830      1.337574     -0.069689
    2   C      2    1.8500  1.000     -0.517329     -0.006250      0.323835
    3   O      3    1.5200  1.000     -1.632978     -0.761680     -0.075017
    4   C      4    1.8500  1.000      0.718397     -0.672476     -0.256789
    5   C      5    1.8500  1.000      2.013087      0.037035      0.107736
    6   H      6    1.2000  1.000     -0.589067      1.367633     -1.035120
    7   H      7    1.2000  1.000     -0.452042      0.029813      1.426171
    8   H      8    1.2000  1.000     -2.408963     -0.391533      0.364189
    9   H      9    1.2000  1.000      0.737154     -1.714879      0.096982
   10   H     10    1.2000  1.000      0.591426     -0.711216     -1.353002
   11   H     11    1.2000  1.000      2.154614      0.070991      1.199624
   12   H     12    1.2000  1.000      2.016099      1.072786     -0.262779
   13   H     13    1.2000  1.000      2.880317     -0.480610     -0.327111
 ------------------------------------------------------------------------------
 GePol: Number of generator spheres                  =      13
 GePol: Total number of spheres                      =      13
 GePol: Number of exposed spheres                    =      13 (100.00%)
 GePol: Number of points                             =     909
 GePol: Average weight of points                     =       0.12
 GePol: Minimum weight of points                     =   0.44D-08
 GePol: Maximum weight of points                     =    0.21991
 GePol: Number of points with low weight             =      51
 GePol: Fraction of low-weight points (<1% of avg)   =       5.61%
 GePol: Cavity surface area                          =    111.058 Ang**2
 GePol: Cavity volume                                =     82.167 Ang**3
 ------------------------------------------------------------------------------
 Atomic radii for non-electrostatic terms: SMD-CDS.
 ------------------------------------------------------------------------------
 PCM non-electrostatic energy =         0.0046964309 Hartrees.
 Nuclear repulsion after PCM non-electrostatic terms =      195.1206733860 Hartrees.
 Leave Link  301 at Tue Oct 21 19:34:34 2025, MaxMem=  4294967296 cpu:               0.5 elap:               0.1
 (Enter /lrz/sys/applications/gaussian/g16.C.01/x86_64_legacy/exe/l302.exe)
 NPDir=0 NMtPBC=     1 NCelOv=     1 NCel=       1 NClECP=     1 NCelD=      1
         NCelK=      1 NCelE2=     1 NClLst=     1 CellRange=     0.0.
 One-electron integrals computed using PRISM.
 One-electron integral symmetry used in STVInt
   1 Symmetry operations used in ECPInt.
 ECPInt:  NShTT=    1485 NPrTT=    5139 LenC2=    1483 LenP2D=    4436.
 LDataN:  DoStor=T MaxTD1= 4 Len=   56
 NBasis=   110 RedAO= T EigKep=  2.28D-03  NBF=   110
 NBsUse=   110 1.00D-06 EigRej= -1.00D+00 NBFU=   110
 Precomputing XC quadrature grid using
 IXCGrd= 4 IRadAn=           5 IRanWt=          -1 IRanGd=           0 AccXCQ= 0.00D+00.
 Generated NRdTot=       0 NPtTot=           0 NUsed=           0 NTot=          32
 NSgBfM=   115   115   115   115   115 MxSgAt=    13 MxSgA2=    13.
 Leave Link  302 at Tue Oct 21 19:34:34 2025, MaxMem=  4294967296 cpu:               1.2 elap:               0.2
 (Enter /lrz/sys/applications/gaussian/g16.C.01/x86_64_legacy/exe/l303.exe)
 DipDrv:  MaxL=1.
 Leave Link  303 at Tue Oct 21 19:34:34 2025, MaxMem=  4294967296 cpu:               0.2 elap:               0.0
 (Enter /lrz/sys/applications/gaussian/g16.C.01/x86_64_legacy/exe/l401.exe)
 Initial guess from the checkpoint file:  "g16_C2-w_1.chk"
 B after Tr=     0.000000    0.000000    0.000000
         Rot=    1.000000   -0.000139    0.000097    0.000356 Ang=  -0.05 deg.
 Guess basis will be translated and rotated to current coordinates.
 JPrj=2 DoOrth=T DoCkMO=T.
 Leave Link  401 at Tue Oct 21 19:34:34 2025, MaxMem=  4294967296 cpu:               0.6 elap:               0.1
 (Enter /lrz/sys/applications/gaussian/g16.C.01/x86_64_legacy/exe/l502.exe)
 Integral symmetry usage will be decided dynamically.
 Closed shell SCF:
 Using DIIS extrapolation, IDIIS=  1040.
 NGot=  4294967296 LenX=  4294938204 LenY=  4294924538
 Requested convergence on RMS density matrix=1.00D-08 within 128 cycles.
 Requested convergence on MAX density matrix=1.00D-06.
 Requested convergence on             energy=1.00D-06.
 No special actions if energy rises.
 Fock matrices will be formed incrementally for  20 cycles.

 Cycle   1  Pass 1  IDiag  1:
 FoFJK:  IHMeth= 1 ICntrl=       0 DoSepK=T KAlg= 0 I1Cent=           0 FoldK=F
 IRaf=         1 NMat=       1 IRICut=       1 DoRegI=T DoRafI=F ISym2E= 0 IDoP0=0 IntGTp=1.
 FoFCou: FMM=F IPFlag=           0 FMFlag=      100000 FMFlg1=           0
         NFxFlg=           0 DoJE=T BraDBF=F KetDBF=F FulRan=T
         wScrn=  0.000000 ICntrl=       500 IOpCl=  0 I1Cent=           0 NGrid=           0
         NMat0=    1 NMatS0=      1 NMatT0=    0 NMatD0=    1 NMtDS0=    0 NMtDT0=    0
 Symmetry not used in FoFCou.
 Inv3:  Mode=1 IEnd=     2478843.
 Iteration    1 A*A^-1 deviation from unit magnitude is 5.44D-15 for    666.
 Iteration    1 A*A^-1 deviation from orthogonality  is 2.11D-15 for    875    765.
 Iteration    1 A^-1*A deviation from unit magnitude is 5.00D-15 for    666.
 Iteration    1 A^-1*A deviation from orthogonality  is 1.81D-15 for    614     27.
 E= -269.317735295737    
 DIIS: error= 3.82D-04 at cycle   1 NSaved=   1.
 NSaved= 1 IEnMin= 1 EnMin= -269.317735295737     IErMin= 1 ErrMin= 3.82D-04
 ErrMax= 3.82D-04  0.00D+00 EMaxC= 1.00D-01 BMatC= 1.28D-05 BMatP= 1.28D-05
 IDIUse=3 WtCom= 9.96D-01 WtEn= 3.82D-03
 Coeff-Com:  0.100D+01
 Coeff-En:   0.100D+01
 Coeff:      0.100D+01
 Gap=     0.782 Goal=   None    Shift=    0.000
 RMSDP=5.05D-05 MaxDP=1.75D-03              OVMax= 1.15D-03

 Cycle   2  Pass 1  IDiag  1:
 RMSU=  5.05D-05    CP:  1.00D+00
 E= -269.317751448665     Delta-E=       -0.000016152928 Rises=F Damp=F
 DIIS: error= 6.02D-05 at cycle   2 NSaved=   2.
 NSaved= 2 IEnMin= 2 EnMin= -269.317751448665     IErMin= 2 ErrMin= 6.02D-05
 ErrMax= 6.02D-05  0.00D+00 EMaxC= 1.00D-01 BMatC= 3.64D-07 BMatP= 1.28D-05
 IDIUse=1 WtCom= 1.00D+00 WtEn= 0.00D+00
 Coeff-Com: -0.154D+00 0.115D+01
 Coeff:     -0.154D+00 0.115D+01
 Gap=     0.516 Goal=   None    Shift=    0.000
 RMSDP=1.16D-05 MaxDP=3.62D-04 DE=-1.62D-05 OVMax= 3.94D-04

 Cycle   3  Pass 1  IDiag  1:
 RMSU=  5.96D-06    CP:  1.00D+00  1.20D+00
 E= -269.317752184676     Delta-E=       -0.000000736011 Rises=F Damp=F
 DIIS: error= 9.62D-06 at cycle   3 NSaved=   3.
 NSaved= 3 IEnMin= 3 EnMin= -269.317752184676     IErMin= 3 ErrMin= 9.62D-06
 ErrMax= 9.62D-06  0.00D+00 EMaxC= 1.00D-01 BMatC= 1.25D-08 BMatP= 3.64D-07
 IDIUse=1 WtCom= 1.00D+00 WtEn= 0.00D+00
 Coeff-Com: -0.489D-02-0.166D-01 0.102D+01
 Coeff:     -0.489D-02-0.166D-01 0.102D+01
 Gap=     0.516 Goal=   None    Shift=    0.000
 RMSDP=2.39D-06 MaxDP=4.30D-05 DE=-7.36D-07 OVMax= 8.46D-05

 Cycle   4  Pass 1  IDiag  1:
 RMSU=  1.43D-06    CP:  1.00D+00  1.22D+00  1.25D+00
 E= -269.317752207090     Delta-E=       -0.000000022414 Rises=F Damp=F
 DIIS: error= 6.31D-06 at cycle   4 NSaved=   4.
 NSaved= 4 IEnMin= 4 EnMin= -269.317752207090     IErMin= 4 ErrMin= 6.31D-06
 ErrMax= 6.31D-06  0.00D+00 EMaxC= 1.00D-01 BMatC= 7.30D-09 BMatP= 1.25D-08
 IDIUse=1 WtCom= 1.00D+00 WtEn= 0.00D+00
 Coeff-Com:  0.114D-01-0.112D+00 0.466D+00 0.635D+00
 Coeff:      0.114D-01-0.112D+00 0.466D+00 0.635D+00
 Gap=     0.516 Goal=   None    Shift=    0.000
 RMSDP=8.05D-07 MaxDP=1.56D-05 DE=-2.24D-08 OVMax= 2.42D-05

 Cycle   5  Pass 1  IDiag  1:
 RMSU=  5.18D-07    CP:  1.00D+00  1.23D+00  1.33D+00  8.35D-01
 E= -269.317752213849     Delta-E=       -0.000000006759 Rises=F Damp=F
 DIIS: error= 1.03D-06 at cycle   5 NSaved=   5.
 NSaved= 5 IEnMin= 5 EnMin= -269.317752213849     IErMin= 5 ErrMin= 1.03D-06
 ErrMax= 1.03D-06  0.00D+00 EMaxC= 1.00D-01 BMatC= 2.38D-10 BMatP= 7.30D-09
 IDIUse=1 WtCom= 1.00D+00 WtEn= 0.00D+00
 Coeff-Com:  0.293D-02-0.233D-01-0.182D-01 0.111D+00 0.928D+00
 Coeff:      0.293D-02-0.233D-01-0.182D-01 0.111D+00 0.928D+00
 Gap=     0.516 Goal=   None    Shift=    0.000
 RMSDP=3.36D-07 MaxDP=9.58D-06 DE=-6.76D-09 OVMax= 1.20D-05

 Cycle   6  Pass 1  IDiag  1:
 RMSU=  1.19D-07    CP:  1.00D+00  1.23D+00  1.36D+00  9.58D-01  1.25D+00
 E= -269.317752214308     Delta-E=       -0.000000000459 Rises=F Damp=F
 DIIS: error= 2.68D-07 at cycle   6 NSaved=   6.
 NSaved= 6 IEnMin= 6 EnMin= -269.317752214308     IErMin= 6 ErrMin= 2.68D-07
 ErrMax= 2.68D-07  0.00D+00 EMaxC= 1.00D-01 BMatC= 1.88D-11 BMatP= 2.38D-10
 IDIUse=1 WtCom= 1.00D+00 WtEn= 0.00D+00
 Coeff-Com: -0.158D-03 0.321D-02-0.347D-01-0.254D-01 0.153D+00 0.904D+00
 Coeff:     -0.158D-03 0.321D-02-0.347D-01-0.254D-01 0.153D+00 0.904D+00
 Gap=     0.516 Goal=   None    Shift=    0.000
 RMSDP=9.87D-08 MaxDP=3.00D-06 DE=-4.59D-10 OVMax= 3.53D-06

 Cycle   7  Pass 1  IDiag  1:
 RMSU=  4.22D-08    CP:  1.00D+00  1.23D+00  1.37D+00  9.90D-01  1.37D+00
                    CP:  1.03D+00
 E= -269.317752214348     Delta-E=       -0.000000000040 Rises=F Damp=F
 DIIS: error= 1.10D-07 at cycle   7 NSaved=   7.
 NSaved= 7 IEnMin= 7 EnMin= -269.317752214348     IErMin= 7 ErrMin= 1.10D-07
 ErrMax= 1.10D-07  0.00D+00 EMaxC= 1.00D-01 BMatC= 3.96D-12 BMatP= 1.88D-11
 IDIUse=1 WtCom= 1.00D+00 WtEn= 0.00D+00
 Coeff-Com: -0.365D-03 0.369D-02-0.795D-02-0.211D-01-0.663D-01 0.323D+00
 Coeff-Com:  0.769D+00
 Coeff:     -0.365D-03 0.369D-02-0.795D-02-0.211D-01-0.663D-01 0.323D+00
 Coeff:      0.769D+00
 Gap=     0.516 Goal=   None    Shift=    0.000
 RMSDP=2.95D-08 MaxDP=8.64D-07 DE=-4.02D-11 OVMax= 9.84D-07

 Cycle   8  Pass 1  IDiag  1:
 RMSU=  1.10D-08    CP:  1.00D+00  1.23D+00  1.37D+00  9.96D-01  1.41D+00
                    CP:  1.17D+00  9.39D-01
 E= -269.317752214356     Delta-E=       -0.000000000008 Rises=F Damp=F
 DIIS: error= 3.07D-08 at cycle   8 NSaved=   8.
 NSaved= 8 IEnMin= 8 EnMin= -269.317752214356     IErMin= 8 ErrMin= 3.07D-08
 ErrMax= 3.07D-08  0.00D+00 EMaxC= 1.00D-01 BMatC= 1.87D-13 BMatP= 3.96D-12
 IDIUse=1 WtCom= 1.00D+00 WtEn= 0.00D+00
 Coeff-Com: -0.844D-04 0.778D-03-0.187D-03-0.444D-02-0.283D-01 0.466D-01
 Coeff-Com:  0.218D+00 0.768D+00
 Coeff:     -0.844D-04 0.778D-03-0.187D-03-0.444D-02-0.283D-01 0.466D-01
 Coeff:      0.218D+00 0.768D+00
 Gap=     0.516 Goal=   None    Shift=    0.000
 RMSDP=6.65D-09 MaxDP=1.34D-07 DE=-8.41D-12 OVMax= 2.18D-07

 Error on total polarization charges =  0.03204
 SCF Done:  E(RwB97XD) =  -269.317752214     A.U. after    8 cycles
            NFock=  8  Conv=0.67D-08     -V/T= 2.0096
 KE= 2.667632587403D+02 PE=-1.020214961181D+03 EE= 2.890132768404D+02
 SMD-CDS (non-electrostatic) energy       (kcal/mol) =       2.95
 (included in total energy above)
 Leave Link  502 at Tue Oct 21 19:34:46 2025, MaxMem=  4294967296 cpu:              94.3 elap:              11.9
 (Enter /lrz/sys/applications/gaussian/g16.C.01/x86_64_legacy/exe/l701.exe)
 ... and contract with generalized density number  0.
 Compute integral first derivatives.
 R6Disp: Adding Grimme-D2 dispersion energy 1st derivatives to the gradient.
   1 Symmetry operations used in ECPInt.
 ECPInt:  NShTT=    1485 NPrTT=    5139 LenC2=    1483 LenP2D=    4436.
 LDataN:  DoStor=T MaxTD1= 5 Len=  102
 D1PCM: PCM CHGder 1st derivatives, ID1Alg=3 FixD1E=F DoIter=F DoCFld=F I1PDM=0.
 GePol: Maximum number of non-zero 1st derivatives   =     247
 Leave Link  701 at Tue Oct 21 19:34:46 2025, MaxMem=  4294967296 cpu:               4.2 elap:               0.5
 (Enter /lrz/sys/applications/gaussian/g16.C.01/x86_64_legacy/exe/l702.exe)
 L702 exits ... SP integral derivatives will be done elsewhere.
 Leave Link  702 at Tue Oct 21 19:34:46 2025, MaxMem=  4294967296 cpu:               0.2 elap:               0.2
 (Enter /lrz/sys/applications/gaussian/g16.C.01/x86_64_legacy/exe/l703.exe)
 Integral derivatives from FoFJK, PRISM(SPDF).
 Compute integral first derivatives, UseDBF=F ICtDFT=           0.
 Calling FoFJK, ICntrl=      2127 FMM=F ISym2X=0 I1Cent= 0 IOpClX= 0 NMat=1 NMatS=1 NMatT=0.
 FoFJK:  IHMeth= 1 ICntrl=    2127 DoSepK=T KAlg= 0 I1Cent=           0 FoldK=F
 IRaf=         1 NMat=       1 IRICut=       1 DoRegI=T DoRafI=F ISym2E= 0 IDoP0=0 IntGTp=1.
 FoFCou: FMM=F IPFlag=           0 FMFlag=      100000 FMFlg1=         800
         NFxFlg=           0 DoJE=F BraDBF=F KetDBF=F FulRan=T
         wScrn=  0.000000 ICntrl=      2527 IOpCl=  0 I1Cent=           0 NGrid=           0
         NMat0=    1 NMatS0=      1 NMatT0=    0 NMatD0=    1 NMtDS0=    0 NMtDT0=    0
 Symmetry not used in FoFCou.
 Leave Link  703 at Tue Oct 21 19:34:49 2025, MaxMem=  4294967296 cpu:              17.2 elap:               2.2
 (Enter /lrz/sys/applications/gaussian/g16.C.01/x86_64_legacy/exe/l716.exe)
 Dipole        = 4.65563996D-02-2.65358384D-03-5.75193643D-02
 ***** Axes restored to original set *****
 -------------------------------------------------------------------
 Center     Atomic                   Forces (Hartrees/Bohr)
 Number     Number              X              Y              Z
 -------------------------------------------------------------------
      1        8          -0.000012115    0.000007524   -0.000023027
      2        6          -0.000011045    0.000013211    0.000040563
      3        8          -0.000038910   -0.000033506    0.000023214
      4        6          -0.000080049    0.000012577    0.000033332
      5        6           0.000093556   -0.000017292   -0.000045980
      6        1           0.000007826    0.000007658   -0.000011839
      7        1           0.000006363   -0.000007789   -0.000005902
      8        1           0.000006890    0.000013355   -0.000016435
      9        1          -0.000019725    0.000014825   -0.000024984
     10        1           0.000005033   -0.000013969    0.000038738
     11        1           0.000012153    0.000034510   -0.000044696
     12        1          -0.000017175   -0.000034339    0.000002611
     13        1           0.000047199    0.000003234    0.000034403
 -------------------------------------------------------------------
 Cartesian Forces:  Max     0.000093556 RMS     0.000030709
 Leave Link  716 at Tue Oct 21 19:34:49 2025, MaxMem=  4294967296 cpu:               0.2 elap:               0.0
 (Enter /lrz/sys/applications/gaussian/g16.C.01/x86_64_legacy/exe/l103.exe)

 GradGradGradGradGradGradGradGradGradGradGradGradGradGradGradGradGradGrad
 Berny optimization.
 Using GEDIIS/GDIIS optimizer.
 FormGI is forming the generalized inverse of G from B-inverse, IUseBI=4.
 Internal  Forces:  Max     0.000140270 RMS     0.000026651
 Search for a local minimum.
 Step number   6 out of a maximum of   66
 All quantities printed in internal units (Hartrees-Bohrs-Radians)
 RMS Force = .26651D-04 SwitMx=.10000D-02 MixMth= 2
 Mixed Optimization -- En-DIIS/RFO-DIIS
 Swapping is turned off.
 Update second derivatives using D2CorX and points    1    2    3    4    5
                                                      6
 DE= -2.16D-06 DEPred=-1.74D-06 R= 1.24D+00
 TightC=F SS=  1.41D+00  RLast= 2.01D-02 DXNew= 8.4853D-01 6.0431D-02
 Trust test= 1.24D+00 RLast= 2.01D-02 DXMaxT set to 5.05D-01
 ITU=  1  1  1  1  1  0
     Eigenvalues ---    0.00290   0.00415   0.00539   0.01698   0.03556
     Eigenvalues ---    0.04643   0.05561   0.05594   0.05652   0.06210
     Eigenvalues ---    0.08613   0.10036   0.12307   0.15278   0.16003
     Eigenvalues ---    0.16021   0.16164   0.16527   0.20176   0.21269
     Eigenvalues ---    0.23430   0.30363   0.30874   0.33626   0.34671
     Eigenvalues ---    0.34892   0.35121   0.35207   0.40198   0.44907
     Eigenvalues ---    0.47479   0.54068   0.54489
 En-DIIS/RFO-DIIS/Sim-DIIS IScMMF=       -3 using points:     6    5    4    3    2
 RFO step:  Lambda=-5.79529380D-07.
 NNeg= 0 NGDIIS= 5 SimSw=  2.50D-01 Rises=F DC= -2.16D-06 SmlDif=  1.00D-05
 NRisDI= 0 DoIntr=F SqrtH=F CThrHd= 10.0 CDAdj=  3.0
 RMS Error=  0.1358449610D-02 NUsed= 5 OKEnD=F EnDIS=F
 InvSVX:  RCond= 2.64D-06 Info=           0 Equed=N FErr=  1.36D-13 BErr=  6.12D-17
 DidBck=F Rises=F RFO-DIIS coefs:    1.52555   -0.51278   -0.15121    0.15604   -0.01760
 Iteration  1 RMS(Cart)=  0.00200160 RMS(Int)=  0.00000215
 Iteration  2 RMS(Cart)=  0.00000251 RMS(Int)=  0.00000024
 Iteration  3 RMS(Cart)=  0.00000000 RMS(Int)=  0.00000024
 ITry= 1 IFail=0 DXMaxC= 6.94D-03 DCOld= 1.00D+10 DXMaxT= 5.05D-01 DXLimC= 3.00D+00 Rises=F
 Variable       Old X    -DE/DX   Delta X   Delta X   Delta X     New X
                                 (Linear)    (Quad)   (Total)
    R1        2.65688  -0.00003  -0.00011   0.00006  -0.00005   2.65684
    R2        1.82822  -0.00000  -0.00005   0.00003  -0.00002   1.82820
    R3        2.65534   0.00002  -0.00009   0.00012   0.00003   2.65536
    R4        2.87089   0.00003   0.00050  -0.00035   0.00015   2.87104
    R5        2.08788   0.00001   0.00002  -0.00002  -0.00001   2.08787
    R6        1.82440  -0.00000  -0.00001  -0.00000  -0.00001   1.82439
    R7        2.87369   0.00014   0.00044   0.00015   0.00058   2.87428
    R8        2.08051   0.00002  -0.00016   0.00017   0.00001   2.08052
    R9        2.08668   0.00003  -0.00008   0.00014   0.00006   2.08674
   R10        2.08162   0.00004  -0.00010   0.00017   0.00007   2.08169
   R11        2.07876   0.00004  -0.00006   0.00012   0.00006   2.07882
   R12        2.07796   0.00005  -0.00007   0.00017   0.00010   2.07805
    A1        1.87960  -0.00003   0.00029  -0.00047  -0.00018   1.87942
    A2        1.94225  -0.00003   0.00006  -0.00006  -0.00000   1.94225
    A3        1.96640   0.00000  -0.00017   0.00018   0.00002   1.96642
    A4        1.82697   0.00000   0.00017  -0.00025  -0.00008   1.82688
    A5        1.87714   0.00004   0.00006   0.00019   0.00025   1.87739
    A6        1.92588  -0.00001   0.00006  -0.00009  -0.00002   1.92586
    A7        1.92577  -0.00002  -0.00019   0.00001  -0.00017   1.92560
    A8        1.87855  -0.00001   0.00022  -0.00017   0.00005   1.87860
    A9        1.97827   0.00003  -0.00105   0.00097  -0.00008   1.97819
   A10        1.88206  -0.00002   0.00025  -0.00045  -0.00021   1.88185
   A11        1.87682  -0.00001   0.00010  -0.00004   0.00006   1.87688
   A12        1.92861  -0.00001   0.00015  -0.00025  -0.00010   1.92850
   A13        1.93076  -0.00001  -0.00025   0.00027   0.00002   1.93078
   A14        1.86266   0.00001   0.00093  -0.00059   0.00034   1.86300
   A15        1.94054  -0.00000  -0.00051   0.00043  -0.00008   1.94046
   A16        1.94003  -0.00003  -0.00083   0.00045  -0.00038   1.93965
   A17        1.93588   0.00003  -0.00001   0.00015   0.00014   1.93602
   A18        1.88020   0.00002   0.00045  -0.00024   0.00020   1.88040
   A19        1.88092  -0.00001   0.00049  -0.00038   0.00011   1.88102
   A20        1.88377  -0.00000   0.00049  -0.00046   0.00003   1.88380
    D1       -1.18758  -0.00002  -0.00051  -0.00013  -0.00064  -1.18822
    D2        0.92237   0.00002  -0.00050   0.00020  -0.00030   0.92207
    D3        3.01532  -0.00000  -0.00071   0.00015  -0.00056   3.01476
    D4       -1.07637  -0.00001  -0.00251  -0.00006  -0.00257  -1.07894
    D5        3.04528  -0.00002  -0.00238  -0.00038  -0.00276   3.04252
    D6        0.94386  -0.00002  -0.00223  -0.00046  -0.00269   0.94117
    D7        1.00389   0.00001   0.00177   0.00023   0.00199   1.00589
    D8       -3.13856   0.00000   0.00145   0.00021   0.00166  -3.13690
    D9       -1.13582   0.00000   0.00269  -0.00071   0.00198  -1.13384
   D10       -3.13252   0.00000   0.00177   0.00040   0.00218  -3.13035
   D11       -0.99179  -0.00000   0.00145   0.00039   0.00184  -0.98995
   D12        1.01095   0.00000   0.00270  -0.00054   0.00216   1.01311
   D13       -1.03103   0.00001   0.00178   0.00042   0.00220  -1.02883
   D14        1.10970   0.00001   0.00146   0.00040   0.00187   1.11157
   D15        3.11244   0.00001   0.00271  -0.00052   0.00218   3.11463
   D16        1.04312   0.00000   0.00276   0.00007   0.00283   1.04595
   D17       -1.05144   0.00000   0.00309  -0.00021   0.00289  -1.04856
   D18        3.13580   0.00001   0.00303  -0.00003   0.00300   3.13880
   D19       -1.07163   0.00001   0.00306   0.00017   0.00323  -1.06839
   D20        3.11700   0.00002   0.00339  -0.00011   0.00329   3.12029
   D21        1.02106   0.00002   0.00333   0.00007   0.00340   1.02446
   D22       -3.13053   0.00001   0.00197   0.00089   0.00286  -3.12767
   D23        1.05810   0.00001   0.00231   0.00061   0.00292   1.06102
   D24       -1.03784   0.00001   0.00225   0.00079   0.00304  -1.03481
         Item               Value     Threshold  Converged?
 Maximum Force            0.000140     0.000450     YES
 RMS     Force            0.000027     0.000300     YES
 Maximum Displacement     0.006942     0.001800     NO 
 RMS     Displacement     0.002002     0.001200     NO 
 Predicted change in Energy=-2.749391D-07
 Lowest energy point so far.  Saving SCF results.
 GradGradGradGradGradGradGradGradGradGradGradGradGradGradGradGradGradGrad

 Leave Link  103 at Tue Oct 21 19:34:49 2025, MaxMem=  4294967296 cpu:               0.1 elap:               0.0
 (Enter /lrz/sys/applications/gaussian/g16.C.01/x86_64_legacy/exe/l202.exe)
                          Input orientation:                          
 ---------------------------------------------------------------------
 Center     Atomic      Atomic             Coordinates (Angstroms)
 Number     Number       Type             X           Y           Z
 ---------------------------------------------------------------------
      1          8           0       -0.592277   -1.331508    0.032801
      2          6           0       -0.457806    0.022732   -0.320200
      3          8           0       -1.569909    0.772068    0.099552
      4          6           0        0.780984    0.664395    0.281393
      5          6           0        2.072566   -0.039718   -0.105241
      6          1           0       -0.538541   -1.390599    0.996939
      7          1           0       -0.391137    0.019182   -1.423034
      8          1           0       -2.346919    0.421061   -0.353326
      9          1           0        0.804857    1.717216   -0.039730
     10          1           0        0.653886    0.669204    1.378297
     11          1           0        2.215590   -0.037342   -1.197500
     12          1           0        2.068826   -1.087440    0.230024
     13          1           0        2.942073    0.457818    0.348260
 ---------------------------------------------------------------------
                    Distance matrix (angstroms):
                    1          2          3          4          5
     1  O    0.000000
     2  C    1.405937   0.000000
     3  O    2.320614   1.405158   0.000000
     4  C    2.435420   1.519291   2.360372   0.000000
     5  C    2.964652   2.540254   3.737453   1.521001   0.000000
     6  H    0.967441   1.933619   2.558545   2.544829   3.139675
     7  H    1.996065   1.104853   2.067512   2.166850   2.794616
     8  H    2.509853   1.930936   0.965427   3.200915   4.450361
     9  H    3.354394   2.131726   2.559730   1.100964   2.167532
    10  H    2.714062   2.130418   2.567301   1.104253   2.171660
    11  H    3.327554   2.814304   4.082583   2.176615   1.101585
    12  H    2.679539   2.814089   4.088420   2.174880   1.100063
    13  H    3.974019   3.492179   4.529745   2.171970   1.099658
                    6          7          8          9         10
     6  H    0.000000
     7  H    2.804547   0.000000
     8  H    2.894056   2.265141   0.000000
     9  H    3.540892   2.495446   3.422288   0.000000
    10  H    2.410416   3.059748   3.473461   1.769724   0.000000
    11  H    3.772546   2.617076   4.662537   2.531614   3.094003
    12  H    2.734671   3.163642   4.702624   3.088119   2.531083
    13  H    3.994009   3.800023   5.335449   2.510839   2.518225
                   11         12         13
    11  H    0.000000
    12  H    1.778221   0.000000
    13  H    1.778296   1.778865   0.000000
 Stoichiometry    C3H8O2
 Framework group  C1[X(C3H8O2)]
 Deg. of freedom    33
 Full point group                 C1      NOp   1
 RotChk:  IX=0 Diff= 1.95D-03
 Largest Abelian subgroup         C1      NOp   1
 Largest concise Abelian subgroup C1      NOp   1
                         Standard orientation:                         
 ---------------------------------------------------------------------
 Center     Atomic      Atomic             Coordinates (Angstroms)
 Number     Number       Type             X           Y           Z
 ---------------------------------------------------------------------
      1          8           0       -0.644581    1.337588   -0.069767
      2          6           0       -0.517251   -0.006223    0.323448
      3          8           0       -1.632955   -0.762018   -0.074606
      4          6           0        0.718558   -0.671819   -0.257932
      5          6           0        2.013524    0.036872    0.108490
      6          1           0       -0.590019    1.367699   -1.035199
      7          1           0       -0.451165    0.029789    1.425735
      8          1           0       -2.408401   -0.393729    0.367091
      9          1           0        0.736856   -1.714731    0.094379
     10          1           0        0.592035   -0.708604   -1.354296
     11          1           0        2.155940    0.066255    1.200435
     12          1           0        2.015341    1.074163   -0.257791
     13          1           0        2.880715   -0.478371   -0.329408
 ---------------------------------------------------------------------
 Rotational constants (GHZ):           8.5159953           3.5947297           2.7807673
 Leave Link  202 at Tue Oct 21 19:34:49 2025, MaxMem=  4294967296 cpu:               0.1 elap:               0.0
 (Enter /lrz/sys/applications/gaussian/g16.C.01/x86_64_legacy/exe/l301.exe)
 Standard basis: def2SVP (5D, 7F)
 Ernie: Thresh=  0.10000D-02 Tol=  0.10000D-05 Strict=F.
 There are   115 symmetry adapted cartesian basis functions of A   symmetry.
 There are   110 symmetry adapted basis functions of A   symmetry.
   110 basis functions,   181 primitive gaussians,   115 cartesian basis functions
    21 alpha electrons       21 beta electrons
       nuclear repulsion energy       195.1082474562 Hartrees.
 IExCor= 4639 DFT=T Ex+Corr=wB97XD ExCW=0 ScaHFX=  1.000000
 ScaDFX=  1.000000  1.000000  1.000000  1.000000 ScalE2=  1.000000  1.000000
 IRadAn=      5 IRanWt=     -1 IRanGd=            0 ICorTp=0 IEmpDi=121
 HFx  wShort=  0.000000 wLong=  0.200000 cFull=  0.222036 cShort=  0.000000 cLong=  0.777964
 DFx  wShort=  0.000000 wLong=  0.200000 cFull=  0.000000 cShort=  0.000000 cLong=  1.000000
 NAtoms=   13 NActive=   13 NUniq=   13 SFac= 1.00D+00 NAtFMM=   60 NAOKFM=F Big=F
 Integral buffers will be    131072 words long.
 Raffenetti 2 integral format.
 Two-electron integral symmetry is turned on.
 R6Disp:  Grimme-D2 Dispersion energy=       -0.0055767320 Hartrees.
 Nuclear repulsion after empirical dispersion term =      195.1026707242 Hartrees.
 ------------------------------------------------------------------------------
 Polarizable Continuum Model (PCM)
 =================================
 Model                : PCM.
 Atomic radii         : SMD-Coulomb.
 Polarization charges : Total charges.
 Charge compensation  : None.
 Solution method      : On-the-fly selection.
 Cavity type          : VdW (van der Waals Surface) (Alpha=1.000).
 Cavity algorithm     : GePol (No added spheres)
                        Default sphere list used, NSphG=   13.
                        Lebedev-Laikov grids with approx.  5.0 points / Ang**2.
                        Smoothing algorithm: York/Karplus (Gamma=1.0000).
                        Polarization charges: spherical gaussians, with
                                              point-specific exponents (IZeta= 3).
                        Self-potential: point-specific (ISelfS= 7).
                        Self-field    : sphere-specific E.n sum rule (ISelfD= 2).
 1st derivatives      : Analytical E(r).r(x)/FMM algorithm (CHGder, D1EAlg=3).
                        Cavity 1st derivative terms included.
 Solvent              : Water, Eps=  78.355300 Eps(inf)=   1.777849
 ------------------------------------------------------------------------------
 Spheres list:
 ISph  on   Nord     Re0    Alpha      Xe            Ye            Ze
    1   O      1    1.5200  1.000     -0.644581      1.337588     -0.069767
    2   C      2    1.8500  1.000     -0.517251     -0.006223      0.323448
    3   O      3    1.5200  1.000     -1.632955     -0.762018     -0.074606
    4   C      4    1.8500  1.000      0.718558     -0.671819     -0.257932
    5   C      5    1.8500  1.000      2.013524      0.036872      0.108490
    6   H      6    1.2000  1.000     -0.590019      1.367699     -1.035199
    7   H      7    1.2000  1.000     -0.451165      0.029789      1.425735
    8   H      8    1.2000  1.000     -2.408401     -0.393729      0.367091
    9   H      9    1.2000  1.000      0.736856     -1.714731      0.094379
   10   H     10    1.2000  1.000      0.592035     -0.708604     -1.354296
   11   H     11    1.2000  1.000      2.155940      0.066255      1.200435
   12   H     12    1.2000  1.000      2.015341      1.074163     -0.257791
   13   H     13    1.2000  1.000      2.880715     -0.478371     -0.329408
 ------------------------------------------------------------------------------
 GePol: Number of generator spheres                  =      13
 GePol: Total number of spheres                      =      13
 GePol: Number of exposed spheres                    =      13 (100.00%)
 GePol: Number of points                             =     909
 GePol: Average weight of points                     =       0.12
 GePol: Minimum weight of points                     =   0.56D-08
 GePol: Maximum weight of points                     =    0.21991
 GePol: Number of points with low weight             =      53
 GePol: Fraction of low-weight points (<1% of avg)   =       5.83%
 GePol: Cavity surface area                          =    111.067 Ang**2
 GePol: Cavity volume                                =     82.173 Ang**3
 ------------------------------------------------------------------------------
 Atomic radii for non-electrostatic terms: SMD-CDS.
 ------------------------------------------------------------------------------
 PCM non-electrostatic energy =         0.0046976105 Hartrees.
 Nuclear repulsion after PCM non-electrostatic terms =      195.1073683347 Hartrees.
 Leave Link  301 at Tue Oct 21 19:34:49 2025, MaxMem=  4294967296 cpu:               0.6 elap:               0.1
 (Enter /lrz/sys/applications/gaussian/g16.C.01/x86_64_legacy/exe/l302.exe)
 NPDir=0 NMtPBC=     1 NCelOv=     1 NCel=       1 NClECP=     1 NCelD=      1
         NCelK=      1 NCelE2=     1 NClLst=     1 CellRange=     0.0.
 One-electron integrals computed using PRISM.
 One-electron integral symmetry used in STVInt
   1 Symmetry operations used in ECPInt.
 ECPInt:  NShTT=    1485 NPrTT=    5139 LenC2=    1483 LenP2D=    4436.
 LDataN:  DoStor=T MaxTD1= 4 Len=   56
 NBasis=   110 RedAO= T EigKep=  2.29D-03  NBF=   110
 NBsUse=   110 1.00D-06 EigRej= -1.00D+00 NBFU=   110
 Precomputing XC quadrature grid using
 IXCGrd= 4 IRadAn=           5 IRanWt=          -1 IRanGd=           0 AccXCQ= 0.00D+00.
 Generated NRdTot=       0 NPtTot=           0 NUsed=           0 NTot=          32
 NSgBfM=   115   115   115   115   115 MxSgAt=    13 MxSgA2=    13.
 Leave Link  302 at Tue Oct 21 19:34:49 2025, MaxMem=  4294967296 cpu:               1.2 elap:               0.2
 (Enter /lrz/sys/applications/gaussian/g16.C.01/x86_64_legacy/exe/l303.exe)
 DipDrv:  MaxL=1.
 Leave Link  303 at Tue Oct 21 19:34:49 2025, MaxMem=  4294967296 cpu:               0.2 elap:               0.0
 (Enter /lrz/sys/applications/gaussian/g16.C.01/x86_64_legacy/exe/l401.exe)
 Initial guess from the checkpoint file:  "g16_C2-w_1.chk"
 B after Tr=    -0.000000   -0.000000   -0.000000
         Rot=    1.000000   -0.000332   -0.000045   -0.000104 Ang=  -0.04 deg.
 Guess basis will be translated and rotated to current coordinates.
 JPrj=2 DoOrth=T DoCkMO=T.
 Leave Link  401 at Tue Oct 21 19:34:49 2025, MaxMem=  4294967296 cpu:               0.7 elap:               0.1
 (Enter /lrz/sys/applications/gaussian/g16.C.01/x86_64_legacy/exe/l502.exe)
 Integral symmetry usage will be decided dynamically.
 Closed shell SCF:
 Using DIIS extrapolation, IDIIS=  1040.
 NGot=  4294967296 LenX=  4294938204 LenY=  4294924538
 Requested convergence on RMS density matrix=1.00D-08 within 128 cycles.
 Requested convergence on MAX density matrix=1.00D-06.
 Requested convergence on             energy=1.00D-06.
 No special actions if energy rises.
 Fock matrices will be formed incrementally for  20 cycles.

 Cycle   1  Pass 1  IDiag  1:
 FoFJK:  IHMeth= 1 ICntrl=       0 DoSepK=T KAlg= 0 I1Cent=           0 FoldK=F
 IRaf=         1 NMat=       1 IRICut=       1 DoRegI=T DoRafI=F ISym2E= 0 IDoP0=0 IntGTp=1.
 FoFCou: FMM=F IPFlag=           0 FMFlag=      100000 FMFlg1=           0
         NFxFlg=           0 DoJE=T BraDBF=F KetDBF=F FulRan=T
         wScrn=  0.000000 ICntrl=       500 IOpCl=  0 I1Cent=           0 NGrid=           0
         NMat0=    1 NMatS0=      1 NMatT0=    0 NMatD0=    1 NMtDS0=    0 NMtDT0=    0
 Symmetry not used in FoFCou.
 Inv3:  Mode=1 IEnd=     2478843.
 Iteration    1 A*A^-1 deviation from unit magnitude is 4.88D-15 for    501.
 Iteration    1 A*A^-1 deviation from orthogonality  is 3.24D-15 for    505    254.
 Iteration    1 A^-1*A deviation from unit magnitude is 4.66D-15 for    501.
 Iteration    1 A^-1*A deviation from orthogonality  is 2.31D-15 for    752    691.
 E= -269.317748319403    
 DIIS: error= 1.21D-04 at cycle   1 NSaved=   1.
 NSaved= 1 IEnMin= 1 EnMin= -269.317748319403     IErMin= 1 ErrMin= 1.21D-04
 ErrMax= 1.21D-04  0.00D+00 EMaxC= 1.00D-01 BMatC= 2.76D-06 BMatP= 2.76D-06
 IDIUse=3 WtCom= 9.99D-01 WtEn= 1.21D-03
 Coeff-Com:  0.100D+01
 Coeff-En:   0.100D+01
 Coeff:      0.100D+01
 Gap=     0.782 Goal=   None    Shift=    0.000
 RMSDP=2.32D-05 MaxDP=4.97D-04              OVMax= 4.50D-04

 Cycle   2  Pass 1  IDiag  1:
 RMSU=  2.32D-05    CP:  1.00D+00
 E= -269.317752652413     Delta-E=       -0.000004333010 Rises=F Damp=F
 DIIS: error= 2.42D-05 at cycle   2 NSaved=   2.
 NSaved= 2 IEnMin= 2 EnMin= -269.317752652413     IErMin= 2 ErrMin= 2.42D-05
 ErrMax= 2.42D-05  0.00D+00 EMaxC= 1.00D-01 BMatC= 1.01D-07 BMatP= 2.76D-06
 IDIUse=1 WtCom= 1.00D+00 WtEn= 0.00D+00
 Coeff-Com: -0.189D+00 0.119D+01
 Coeff:     -0.189D+00 0.119D+01
 Gap=     0.516 Goal=   None    Shift=    0.000
 RMSDP=6.39D-06 MaxDP=1.21D-04 DE=-4.33D-06 OVMax= 1.63D-04

 Cycle   3  Pass 1  IDiag  1:
 RMSU=  3.28D-06    CP:  1.00D+00  1.24D+00
 E= -269.317752901535     Delta-E=       -0.000000249122 Rises=F Damp=F
 DIIS: error= 4.83D-06 at cycle   3 NSaved=   3.
 NSaved= 3 IEnMin= 3 EnMin= -269.317752901535     IErMin= 3 ErrMin= 4.83D-06
 ErrMax= 4.83D-06  0.00D+00 EMaxC= 1.00D-01 BMatC= 4.62D-09 BMatP= 1.01D-07
 IDIUse=1 WtCom= 1.00D+00 WtEn= 0.00D+00
 Coeff-Com: -0.244D-01 0.889D-01 0.936D+00
 Coeff:     -0.244D-01 0.889D-01 0.936D+00
 Gap=     0.516 Goal=   None    Shift=    0.000
 RMSDP=1.26D-06 MaxDP=1.90D-05 DE=-2.49D-07 OVMax= 2.73D-05

 Cycle   4  Pass 1  IDiag  1:
 RMSU=  8.96D-07    CP:  1.00D+00  1.26D+00  1.22D+00
 E= -269.317752907648     Delta-E=       -0.000000006113 Rises=F Damp=F
 DIIS: error= 2.67D-06 at cycle   4 NSaved=   4.
 NSaved= 4 IEnMin= 4 EnMin= -269.317752907648     IErMin= 4 ErrMin= 2.67D-06
 ErrMax= 2.67D-06  0.00D+00 EMaxC= 1.00D-01 BMatC= 2.39D-09 BMatP= 4.62D-09
 IDIUse=1 WtCom= 1.00D+00 WtEn= 0.00D+00
 Coeff-Com:  0.151D-01-0.128D+00 0.439D+00 0.673D+00
 Coeff:      0.151D-01-0.128D+00 0.439D+00 0.673D+00
 Gap=     0.516 Goal=   None    Shift=    0.000
 RMSDP=5.03D-07 MaxDP=9.88D-06 DE=-6.11D-09 OVMax= 1.06D-05

 Cycle   5  Pass 1  IDiag  1:
 RMSU=  2.33D-07    CP:  1.00D+00  1.26D+00  1.34D+00  8.24D-01
 E= -269.317752909873     Delta-E=       -0.000000002226 Rises=F Damp=F
 DIIS: error= 4.78D-07 at cycle   5 NSaved=   5.
 NSaved= 5 IEnMin= 5 EnMin= -269.317752909873     IErMin= 5 ErrMin= 4.78D-07
 ErrMax= 4.78D-07  0.00D+00 EMaxC= 1.00D-01 BMatC= 5.67D-11 BMatP= 2.39D-09
 IDIUse=1 WtCom= 1.00D+00 WtEn= 0.00D+00
 Coeff-Com:  0.545D-02-0.413D-01 0.864D-01 0.192D+00 0.757D+00
 Coeff:      0.545D-02-0.413D-01 0.864D-01 0.192D+00 0.757D+00
 Gap=     0.516 Goal=   None    Shift=    0.000
 RMSDP=1.14D-07 MaxDP=1.87D-06 DE=-2.23D-09 OVMax= 2.48D-06

 Cycle   6  Pass 1  IDiag  1:
 RMSU=  7.52D-08    CP:  1.00D+00  1.27D+00  1.36D+00  8.59D-01  1.08D+00
 E= -269.317752909938     Delta-E=       -0.000000000064 Rises=F Damp=F
 DIIS: error= 1.44D-07 at cycle   6 NSaved=   6.
 NSaved= 6 IEnMin= 6 EnMin= -269.317752909938     IErMin= 6 ErrMin= 1.44D-07
 ErrMax= 1.44D-07  0.00D+00 EMaxC= 1.00D-01 BMatC= 7.23D-12 BMatP= 5.67D-11
 IDIUse=1 WtCom= 1.00D+00 WtEn= 0.00D+00
 Coeff-Com: -0.493D-03 0.580D-02-0.385D-01-0.405D-01 0.221D+00 0.853D+00
 Coeff:     -0.493D-03 0.580D-02-0.385D-01-0.405D-01 0.221D+00 0.853D+00
 Gap=     0.516 Goal=   None    Shift=    0.000
 RMSDP=5.23D-08 MaxDP=1.12D-06 DE=-6.45D-11 OVMax= 1.40D-06

 Cycle   7  Pass 1  IDiag  1:
 RMSU=  1.61D-08    CP:  1.00D+00  1.27D+00  1.37D+00  8.82D-01  1.23D+00
                    CP:  9.94D-01
 E= -269.317752909946     Delta-E=       -0.000000000008 Rises=F Damp=F
 DIIS: error= 3.25D-08 at cycle   7 NSaved=   7.
 NSaved= 7 IEnMin= 7 EnMin= -269.317752909946     IErMin= 7 ErrMin= 3.25D-08
 ErrMax= 3.25D-08  0.00D+00 EMaxC= 1.00D-01 BMatC= 3.20D-13 BMatP= 7.23D-12
 IDIUse=1 WtCom= 1.00D+00 WtEn= 0.00D+00
 Coeff-Com: -0.321D-03 0.289D-02-0.109D-01-0.161D-01 0.211D-02 0.162D+00
 Coeff-Com:  0.860D+00
 Coeff:     -0.321D-03 0.289D-02-0.109D-01-0.161D-01 0.211D-02 0.162D+00
 Coeff:      0.860D+00
 Gap=     0.516 Goal=   None    Shift=    0.000
 RMSDP=1.13D-08 MaxDP=3.11D-07 DE=-8.30D-12 OVMax= 3.84D-07

 Cycle   8  Pass 1  IDiag  1:
 RMSU=  6.76D-09    CP:  1.00D+00  1.27D+00  1.37D+00  8.85D-01  1.25D+00
                    CP:  1.06D+00  1.18D+00
 E= -269.317752909948     Delta-E=       -0.000000000001 Rises=F Damp=F
 DIIS: error= 2.06D-08 at cycle   8 NSaved=   8.
 NSaved= 8 IEnMin= 8 EnMin= -269.317752909948     IErMin= 8 ErrMin= 2.06D-08
 ErrMax= 2.06D-08  0.00D+00 EMaxC= 1.00D-01 BMatC= 1.02D-13 BMatP= 3.20D-13
 IDIUse=1 WtCom= 1.00D+00 WtEn= 0.00D+00
 Coeff-Com: -0.510D-04 0.321D-03 0.828D-03-0.928D-03-0.287D-01-0.439D-01
 Coeff-Com:  0.371D+00 0.702D+00
 Coeff:     -0.510D-04 0.321D-03 0.828D-03-0.928D-03-0.287D-01-0.439D-01
 Coeff:      0.371D+00 0.702D+00
 Gap=     0.516 Goal=   None    Shift=    0.000
 RMSDP=4.19D-09 MaxDP=1.04D-07 DE=-1.48D-12 OVMax= 1.39D-07

 Error on total polarization charges =  0.03204
 SCF Done:  E(RwB97XD) =  -269.317752910     A.U. after    8 cycles
            NFock=  8  Conv=0.42D-08     -V/T= 2.0096
 KE= 2.667624541041D+02 PE=-1.020187913408D+03 EE= 2.890003380594D+02
 SMD-CDS (non-electrostatic) energy       (kcal/mol) =       2.95
 (included in total energy above)
 Leave Link  502 at Tue Oct 21 19:35:01 2025, MaxMem=  4294967296 cpu:              94.1 elap:              11.8
 (Enter /lrz/sys/applications/gaussian/g16.C.01/x86_64_legacy/exe/l701.exe)
 ... and contract with generalized density number  0.
 Compute integral first derivatives.
 R6Disp: Adding Grimme-D2 dispersion energy 1st derivatives to the gradient.
   1 Symmetry operations used in ECPInt.
 ECPInt:  NShTT=    1485 NPrTT=    5139 LenC2=    1483 LenP2D=    4436.
 LDataN:  DoStor=T MaxTD1= 5 Len=  102
 D1PCM: PCM CHGder 1st derivatives, ID1Alg=3 FixD1E=F DoIter=F DoCFld=F I1PDM=0.
 GePol: Maximum number of non-zero 1st derivatives   =     248
 Leave Link  701 at Tue Oct 21 19:35:02 2025, MaxMem=  4294967296 cpu:               4.3 elap:               0.6
 (Enter /lrz/sys/applications/gaussian/g16.C.01/x86_64_legacy/exe/l702.exe)
 L702 exits ... SP integral derivatives will be done elsewhere.
 Leave Link  702 at Tue Oct 21 19:35:02 2025, MaxMem=  4294967296 cpu:               0.2 elap:               0.0
 (Enter /lrz/sys/applications/gaussian/g16.C.01/x86_64_legacy/exe/l703.exe)
 Integral derivatives from FoFJK, PRISM(SPDF).
 Compute integral first derivatives, UseDBF=F ICtDFT=           0.
 Calling FoFJK, ICntrl=      2127 FMM=F ISym2X=0 I1Cent= 0 IOpClX= 0 NMat=1 NMatS=1 NMatT=0.
 FoFJK:  IHMeth= 1 ICntrl=    2127 DoSepK=T KAlg= 0 I1Cent=           0 FoldK=F
 IRaf=         1 NMat=       1 IRICut=       1 DoRegI=T DoRafI=F ISym2E= 0 IDoP0=0 IntGTp=1.
 FoFCou: FMM=F IPFlag=           0 FMFlag=      100000 FMFlg1=         800
         NFxFlg=           0 DoJE=F BraDBF=F KetDBF=F FulRan=T
         wScrn=  0.000000 ICntrl=      2527 IOpCl=  0 I1Cent=           0 NGrid=           0
         NMat0=    1 NMatS0=      1 NMatT0=    0 NMatD0=    1 NMtDS0=    0 NMtDT0=    0
 Symmetry not used in FoFCou.
 Leave Link  703 at Tue Oct 21 19:35:04 2025, MaxMem=  4294967296 cpu:              17.5 elap:               2.2
 (Enter /lrz/sys/applications/gaussian/g16.C.01/x86_64_legacy/exe/l716.exe)
 Dipole        = 4.71533606D-02-3.86857705D-03-5.59690587D-02
 ***** Axes restored to original set *****
 -------------------------------------------------------------------
 Center     Atomic                   Forces (Hartrees/Bohr)
 Number     Number              X              Y              Z
 -------------------------------------------------------------------
      1        8           0.000005607   -0.000007143    0.000000501
      2        6           0.000015734    0.000033696   -0.000019183
      3        8           0.000007342   -0.000015901    0.000022916
      4        6          -0.000004633   -0.000051519   -0.000018533
      5        6          -0.000044482    0.000028497    0.000003233
      6        1          -0.000000198   -0.000013352   -0.000003773
      7        1          -0.000003368    0.000010619   -0.000007541
      8        1           0.000003572   -0.000002669   -0.000000643
      9        1          -0.000007538    0.000015299    0.000008107
     10        1           0.000010253    0.000000511    0.000017136
     11        1           0.000005647    0.000018965   -0.000009356
     12        1           0.000003208   -0.000018705   -0.000008251
     13        1           0.000008855    0.000001702    0.000015386
 -------------------------------------------------------------------
 Cartesian Forces:  Max     0.000051519 RMS     0.000016688
 Leave Link  716 at Tue Oct 21 19:35:04 2025, MaxMem=  4294967296 cpu:               0.2 elap:               0.0
 (Enter /lrz/sys/applications/gaussian/g16.C.01/x86_64_legacy/exe/l103.exe)

 GradGradGradGradGradGradGradGradGradGradGradGradGradGradGradGradGradGrad
 Berny optimization.
 Using GEDIIS/GDIIS optimizer.
 FormGI is forming the generalized inverse of G from B-inverse, IUseBI=4.
 Internal  Forces:  Max     0.000032148 RMS     0.000008822
 Search for a local minimum.
 Step number   7 out of a maximum of   66
 All quantities printed in internal units (Hartrees-Bohrs-Radians)
 RMS Force = .88216D-05 SwitMx=.10000D-02 MixMth= 2
 Mixed Optimization -- En-DIIS/RFO-DIIS
 Swapping is turned off.
 Update second derivatives using D2CorX and points    1    2    3    4    5
                                                      6    7
 DE= -6.96D-07 DEPred=-2.75D-07 R= 2.53D+00
 Trust test= 2.53D+00 RLast= 1.20D-02 DXMaxT set to 5.05D-01
 ITU=  0  1  1  1  1  1  0
     Eigenvalues ---    0.00245   0.00380   0.00473   0.01696   0.03565
     Eigenvalues ---    0.04820   0.05576   0.05580   0.05681   0.06398
     Eigenvalues ---    0.08641   0.10134   0.12304   0.15692   0.16002
     Eigenvalues ---    0.16031   0.16158   0.16317   0.20202   0.21373
     Eigenvalues ---    0.24070   0.30806   0.32744   0.33655   0.34643
     Eigenvalues ---    0.34895   0.35160   0.35216   0.37136   0.44980
     Eigenvalues ---    0.47893   0.54092   0.54532
 En-DIIS/RFO-DIIS/Sim-DIIS IScMMF=       -3 using points:     7    6    5    4    3    2
 RFO step:  Lambda=-8.06726835D-08.
 NNeg= 0 NGDIIS= 6 SimSw=  2.50D-01 Rises=F DC= -6.96D-07 SmlDif=  1.00D-05
 NRisDI= 0 DoIntr=F SqrtH=F CThrHd= 10.0 CDAdj=  3.0
 RMS Error=  0.6122049438D-03 NUsed= 6 OKEnD=F EnDIS=F
 InvSVX:  RCond= 1.95D-07 Info=           0 Equed=N FErr=  3.28D-13 BErr=  4.11D-17
 DidBck=F Rises=F RFO-DIIS coefs:    1.29295   -0.13865   -0.24416    0.05455    0.07210
                  RFO-DIIS coefs:   -0.03680
 Iteration  1 RMS(Cart)=  0.00068388 RMS(Int)=  0.00000052
 Iteration  2 RMS(Cart)=  0.00000043 RMS(Int)=  0.00000031
 ITry= 1 IFail=0 DXMaxC= 2.34D-03 DCOld= 1.00D+10 DXMaxT= 5.05D-01 DXLimC= 3.00D+00 Rises=F
 Variable       Old X    -DE/DX   Delta X   Delta X   Delta X     New X
                                 (Linear)    (Quad)   (Total)
    R1        2.65684   0.00001   0.00011  -0.00007   0.00004   2.65688
    R2        1.82820   0.00001   0.00001   0.00000   0.00002   1.82822
    R3        2.65536  -0.00001   0.00002  -0.00004  -0.00002   2.65534
    R4        2.87104  -0.00003  -0.00004  -0.00008  -0.00012   2.87093
    R5        2.08787   0.00001   0.00006  -0.00005   0.00002   2.08789
    R6        1.82439  -0.00000   0.00003  -0.00003  -0.00000   1.82439
    R7        2.87428  -0.00003  -0.00001  -0.00006  -0.00007   2.87421
    R8        2.08052   0.00002   0.00007  -0.00002   0.00005   2.08057
    R9        2.08674   0.00001   0.00014  -0.00010   0.00004   2.08678
   R10        2.08169   0.00001   0.00011  -0.00009   0.00003   2.08172
   R11        2.07882   0.00002   0.00011  -0.00005   0.00006   2.07888
   R12        2.07805   0.00001   0.00010  -0.00005   0.00004   2.07810
    A1        1.87942   0.00001  -0.00012   0.00012   0.00000   1.87942
    A2        1.94225  -0.00000  -0.00015   0.00005  -0.00010   1.94214
    A3        1.96642  -0.00001   0.00005  -0.00013  -0.00008   1.96634
    A4        1.82688   0.00001   0.00001   0.00006   0.00007   1.82695
    A5        1.87739  -0.00000   0.00010  -0.00013  -0.00003   1.87736
    A6        1.92586   0.00000  -0.00003   0.00010   0.00007   1.92593
    A7        1.92560   0.00001   0.00001   0.00007   0.00007   1.92567
    A8        1.87860  -0.00001  -0.00007   0.00002  -0.00006   1.87854
    A9        1.97819  -0.00000  -0.00005   0.00009   0.00003   1.97822
   A10        1.88185  -0.00000   0.00009  -0.00012  -0.00003   1.88182
   A11        1.87688   0.00001   0.00013  -0.00002   0.00010   1.87698
   A12        1.92850   0.00000  -0.00012   0.00014   0.00002   1.92852
   A13        1.93078  -0.00001  -0.00007   0.00000  -0.00007   1.93071
   A14        1.86300  -0.00000   0.00005  -0.00010  -0.00005   1.86295
   A15        1.94046   0.00000   0.00001   0.00004   0.00004   1.94050
   A16        1.93965   0.00000  -0.00020   0.00019  -0.00001   1.93963
   A17        1.93602  -0.00000   0.00012  -0.00013  -0.00001   1.93601
   A18        1.88040  -0.00000   0.00011  -0.00007   0.00004   1.88044
   A19        1.88102   0.00000   0.00001  -0.00001   0.00001   1.88103
   A20        1.88380  -0.00000  -0.00004  -0.00003  -0.00006   1.88374
    D1       -1.18822   0.00001  -0.00012   0.00027   0.00015  -1.18807
    D2        0.92207  -0.00000  -0.00006   0.00004  -0.00001   0.92205
    D3        3.01476   0.00000  -0.00001   0.00009   0.00008   3.01484
    D4       -1.07894  -0.00001  -0.00051  -0.00017  -0.00068  -1.07962
    D5        3.04252   0.00000  -0.00055   0.00005  -0.00050   3.04202
    D6        0.94117  -0.00000  -0.00061  -0.00001  -0.00061   0.94056
    D7        1.00589   0.00000   0.00007   0.00001   0.00008   1.00597
    D8       -3.13690   0.00001  -0.00005   0.00016   0.00010  -3.13680
    D9       -1.13384   0.00001   0.00012  -0.00004   0.00008  -1.13376
   D10       -3.13035  -0.00001  -0.00001  -0.00011  -0.00012  -3.13046
   D11       -0.98995  -0.00001  -0.00014   0.00004  -0.00010  -0.99005
   D12        1.01311  -0.00001   0.00004  -0.00015  -0.00012   1.01299
   D13       -1.02883  -0.00000   0.00003  -0.00003  -0.00001  -1.02883
   D14        1.11157   0.00000  -0.00010   0.00012   0.00002   1.11158
   D15        3.11463   0.00000   0.00007  -0.00008  -0.00001   3.11462
   D16        1.04595   0.00000   0.00156   0.00005   0.00162   1.04756
   D17       -1.04856   0.00000   0.00156  -0.00001   0.00155  -1.04701
   D18        3.13880   0.00000   0.00166  -0.00001   0.00164   3.14045
   D19       -1.06839   0.00000   0.00157   0.00005   0.00162  -1.06677
   D20        3.12029   0.00000   0.00156  -0.00001   0.00155   3.12184
   D21        1.02446   0.00000   0.00167  -0.00002   0.00165   1.02611
   D22       -3.12767   0.00001   0.00163   0.00009   0.00172  -3.12595
   D23        1.06102   0.00001   0.00162   0.00003   0.00165   1.06267
   D24       -1.03481   0.00001   0.00173   0.00002   0.00174  -1.03306
         Item               Value     Threshold  Converged?
 Maximum Force            0.000032     0.000450     YES
 RMS     Force            0.000009     0.000300     YES
 Maximum Displacement     0.002338     0.001800     NO 
 RMS     Displacement     0.000684     0.001200     YES
 Predicted change in Energy=-3.712800D-08
 Lowest energy point so far.  Saving SCF results.
 GradGradGradGradGradGradGradGradGradGradGradGradGradGradGradGradGradGrad

 Leave Link  103 at Tue Oct 21 19:35:04 2025, MaxMem=  4294967296 cpu:               0.1 elap:               0.0
 (Enter /lrz/sys/applications/gaussian/g16.C.01/x86_64_legacy/exe/l202.exe)
                          Input orientation:                          
 ---------------------------------------------------------------------
 Center     Atomic      Atomic             Coordinates (Angstroms)
 Number     Number       Type             X           Y           Z
 ---------------------------------------------------------------------
      1          8           0       -0.592183   -1.331543    0.033300
      2          6           0       -0.457817    0.022611   -0.320159
      3          8           0       -1.569896    0.771928    0.099645
      4          6           0        0.780941    0.664419    0.281187
      5          6           0        2.072515   -0.039689   -0.105344
      6          1           0       -0.538380   -1.390317    0.997462
      7          1           0       -0.391295    0.018790   -1.423011
      8          1           0       -2.346845    0.421079   -0.353457
      9          1           0        0.804720    1.717196   -0.040174
     10          1           0        0.654011    0.669516    1.378131
     11          1           0        2.216346   -0.036131   -1.197508
     12          1           0        2.068186   -1.087806    0.228787
     13          1           0        2.941889    0.457017    0.349376
 ---------------------------------------------------------------------
                    Distance matrix (angstroms):
                    1          2          3          4          5
     1  O    0.000000
     2  C    1.405959   0.000000
     3  O    2.320542   1.405145   0.000000
     4  C    2.435320   1.519229   2.360285   0.000000
     5  C    2.964577   2.540198   3.737365   1.520966   0.000000
     6  H    0.967450   1.933645   2.558398   2.544720   3.139610
     7  H    1.996145   1.104862   2.067558   2.166856   2.794642
     8  H    2.510001   1.930884   0.965426   3.200786   4.450237
     9  H    3.354332   2.131668   2.559664   1.100989   2.167532
    10  H    2.714002   2.130455   2.567250   1.104275   2.171595
    11  H    3.328786   2.815020   4.083037   2.176626   1.101599
    12  H    2.678654   2.813371   4.087900   2.174865   1.100096
    13  H    3.973476   3.492132   4.529651   2.171949   1.099682
                    6          7          8          9         10
     6  H    0.000000
     7  H    2.804622   0.000000
     8  H    2.894251   2.264941   0.000000
     9  H    3.540797   2.495450   3.422050   0.000000
    10  H    2.410314   3.059821   3.473508   1.769728   0.000000
    11  H    3.773623   2.617950   4.663065   2.531060   3.093985
    12  H    2.734330   3.162600   4.701940   3.088158   2.531613
    13  H    3.993111   3.800462   5.335352   2.511432   2.517515
                   11         12         13
    11  H    0.000000
    12  H    1.778283   0.000000
    13  H    1.778329   1.778870   0.000000
 Stoichiometry    C3H8O2
 Framework group  C1[X(C3H8O2)]
 Deg. of freedom    33
 Full point group                 C1      NOp   1
 RotChk:  IX=0 Diff= 4.15D-04
 Largest Abelian subgroup         C1      NOp   1
 Largest concise Abelian subgroup C1      NOp   1
                         Standard orientation:                         
 ---------------------------------------------------------------------
 Center     Atomic      Atomic             Coordinates (Angstroms)
 Number     Number       Type             X           Y           Z
 ---------------------------------------------------------------------
      1          8           0       -0.644539    1.337572   -0.069770
      2          6           0       -0.517237   -0.006243    0.323517
      3          8           0       -1.632930   -0.761945   -0.074698
      4          6           0        0.718506   -0.671779   -0.257909
      5          6           0        2.013476    0.036842    0.108488
      6          1           0       -0.590000    1.367634   -1.035213
      7          1           0       -0.451198    0.029737    1.425817
      8          1           0       -2.408287   -0.393954    0.367401
      9          1           0        0.736773   -1.714736    0.094348
     10          1           0        0.592049   -0.708554   -1.354303
     11          1           0        2.156792    0.064738    1.200369
     12          1           0        2.014641    1.074665   -0.256384
     13          1           0        2.880514   -0.477460   -0.330874
 ---------------------------------------------------------------------
 Rotational constants (GHZ):           8.5162775           3.5948653           2.7809148
 Leave Link  202 at Tue Oct 21 19:35:04 2025, MaxMem=  4294967296 cpu:               0.1 elap:               0.0
 (Enter /lrz/sys/applications/gaussian/g16.C.01/x86_64_legacy/exe/l301.exe)
 Standard basis: def2SVP (5D, 7F)
 Ernie: Thresh=  0.10000D-02 Tol=  0.10000D-05 Strict=F.
 There are   115 symmetry adapted cartesian basis functions of A   symmetry.
 There are   110 symmetry adapted basis functions of A   symmetry.
   110 basis functions,   181 primitive gaussians,   115 cartesian basis functions
    21 alpha electrons       21 beta electrons
       nuclear repulsion energy       195.1108619251 Hartrees.
 IExCor= 4639 DFT=T Ex+Corr=wB97XD ExCW=0 ScaHFX=  1.000000
 ScaDFX=  1.000000  1.000000  1.000000  1.000000 ScalE2=  1.000000  1.000000
 IRadAn=      5 IRanWt=     -1 IRanGd=            0 ICorTp=0 IEmpDi=121
 HFx  wShort=  0.000000 wLong=  0.200000 cFull=  0.222036 cShort=  0.000000 cLong=  0.777964
 DFx  wShort=  0.000000 wLong=  0.200000 cFull=  0.000000 cShort=  0.000000 cLong=  1.000000
 NAtoms=   13 NActive=   13 NUniq=   13 SFac= 1.00D+00 NAtFMM=   60 NAOKFM=F Big=F
 Integral buffers will be    131072 words long.
 Raffenetti 2 integral format.
 Two-electron integral symmetry is turned on.
 R6Disp:  Grimme-D2 Dispersion energy=       -0.0055765293 Hartrees.
 Nuclear repulsion after empirical dispersion term =      195.1052853957 Hartrees.
 ------------------------------------------------------------------------------
 Polarizable Continuum Model (PCM)
 =================================
 Model                : PCM.
 Atomic radii         : SMD-Coulomb.
 Polarization charges : Total charges.
 Charge compensation  : None.
 Solution method      : On-the-fly selection.
 Cavity type          : VdW (van der Waals Surface) (Alpha=1.000).
 Cavity algorithm     : GePol (No added spheres)
                        Default sphere list used, NSphG=   13.
                        Lebedev-Laikov grids with approx.  5.0 points / Ang**2.
                        Smoothing algorithm: York/Karplus (Gamma=1.0000).
                        Polarization charges: spherical gaussians, with
                                              point-specific exponents (IZeta= 3).
                        Self-potential: point-specific (ISelfS= 7).
                        Self-field    : sphere-specific E.n sum rule (ISelfD= 2).
 1st derivatives      : Analytical E(r).r(x)/FMM algorithm (CHGder, D1EAlg=3).
                        Cavity 1st derivative terms included.
 Solvent              : Water, Eps=  78.355300 Eps(inf)=   1.777849
 ------------------------------------------------------------------------------
 Spheres list:
 ISph  on   Nord     Re0    Alpha      Xe            Ye            Ze
    1   O      1    1.5200  1.000     -0.644539      1.337572     -0.069770
    2   C      2    1.8500  1.000     -0.517237     -0.006243      0.323517
    3   O      3    1.5200  1.000     -1.632930     -0.761945     -0.074698
    4   C      4    1.8500  1.000      0.718506     -0.671779     -0.257909
    5   C      5    1.8500  1.000      2.013476      0.036842      0.108488
    6   H      6    1.2000  1.000     -0.590000      1.367634     -1.035213
    7   H      7    1.2000  1.000     -0.451198      0.029737      1.425817
    8   H      8    1.2000  1.000     -2.408287     -0.393954      0.367401
    9   H      9    1.2000  1.000      0.736773     -1.714736      0.094348
   10   H     10    1.2000  1.000      0.592049     -0.708554     -1.354303
   11   H     11    1.2000  1.000      2.156792      0.064738      1.200369
   12   H     12    1.2000  1.000      2.014641      1.074665     -0.256384
   13   H     13    1.2000  1.000      2.880514     -0.477460     -0.330874
 ------------------------------------------------------------------------------
 GePol: Number of generator spheres                  =      13
 GePol: Total number of spheres                      =      13
 GePol: Number of exposed spheres                    =      13 (100.00%)
 GePol: Number of points                             =     908
 GePol: Average weight of points                     =       0.12
 GePol: Minimum weight of points                     =   0.11D-07
 GePol: Maximum weight of points                     =    0.21991
 GePol: Number of points with low weight             =      52
 GePol: Fraction of low-weight points (<1% of avg)   =       5.73%
 GePol: Cavity surface area                          =    111.062 Ang**2
 GePol: Cavity volume                                =     82.170 Ang**3
 ------------------------------------------------------------------------------
 Atomic radii for non-electrostatic terms: SMD-CDS.
 ------------------------------------------------------------------------------
 PCM non-electrostatic energy =         0.0046976138 Hartrees.
 Nuclear repulsion after PCM non-electrostatic terms =      195.1099830095 Hartrees.
 Leave Link  301 at Tue Oct 21 19:35:04 2025, MaxMem=  4294967296 cpu:               0.5 elap:               0.1
 (Enter /lrz/sys/applications/gaussian/g16.C.01/x86_64_legacy/exe/l302.exe)
 NPDir=0 NMtPBC=     1 NCelOv=     1 NCel=       1 NClECP=     1 NCelD=      1
         NCelK=      1 NCelE2=     1 NClLst=     1 CellRange=     0.0.
 One-electron integrals computed using PRISM.
 One-electron integral symmetry used in STVInt
   1 Symmetry operations used in ECPInt.
 ECPInt:  NShTT=    1485 NPrTT=    5139 LenC2=    1483 LenP2D=    4436.
 LDataN:  DoStor=T MaxTD1= 4 Len=   56
 NBasis=   110 RedAO= T EigKep=  2.28D-03  NBF=   110
 NBsUse=   110 1.00D-06 EigRej= -1.00D+00 NBFU=   110
 Precomputing XC quadrature grid using
 IXCGrd= 4 IRadAn=           5 IRanWt=          -1 IRanGd=           0 AccXCQ= 0.00D+00.
 Generated NRdTot=       0 NPtTot=           0 NUsed=           0 NTot=          32
 NSgBfM=   115   115   115   115   115 MxSgAt=    13 MxSgA2=    13.
 Leave Link  302 at Tue Oct 21 19:35:04 2025, MaxMem=  4294967296 cpu:               1.2 elap:               0.2
 (Enter /lrz/sys/applications/gaussian/g16.C.01/x86_64_legacy/exe/l303.exe)
 DipDrv:  MaxL=1.
 Leave Link  303 at Tue Oct 21 19:35:04 2025, MaxMem=  4294967296 cpu:               0.2 elap:               0.0
 (Enter /lrz/sys/applications/gaussian/g16.C.01/x86_64_legacy/exe/l401.exe)
 Initial guess from the checkpoint file:  "g16_C2-w_1.chk"
 B after Tr=     0.000000    0.000000    0.000000
         Rot=    1.000000   -0.000070   -0.000015    0.000000 Ang=  -0.01 deg.
 Guess basis will be translated and rotated to current coordinates.
 JPrj=2 DoOrth=T DoCkMO=T.
 Leave Link  401 at Tue Oct 21 19:35:04 2025, MaxMem=  4294967296 cpu:               0.7 elap:               0.1
 (Enter /lrz/sys/applications/gaussian/g16.C.01/x86_64_legacy/exe/l502.exe)
 Integral symmetry usage will be decided dynamically.
 Closed shell SCF:
 Using DIIS extrapolation, IDIIS=  1040.
 NGot=  4294967296 LenX=  4294938204 LenY=  4294924538
 Requested convergence on RMS density matrix=1.00D-08 within 128 cycles.
 Requested convergence on MAX density matrix=1.00D-06.
 Requested convergence on             energy=1.00D-06.
 No special actions if energy rises.
 Fock matrices will be formed incrementally for  20 cycles.

 Cycle   1  Pass 1  IDiag  1:
 FoFJK:  IHMeth= 1 ICntrl=       0 DoSepK=T KAlg= 0 I1Cent=           0 FoldK=F
 IRaf=         1 NMat=       1 IRICut=       1 DoRegI=T DoRafI=F ISym2E= 0 IDoP0=0 IntGTp=1.
 FoFCou: FMM=F IPFlag=           0 FMFlag=      100000 FMFlg1=           0
         NFxFlg=           0 DoJE=T BraDBF=F KetDBF=F FulRan=T
         wScrn=  0.000000 ICntrl=       500 IOpCl=  0 I1Cent=           0 NGrid=           0
         NMat0=    1 NMatS0=      1 NMatT0=    0 NMatD0=    1 NMtDS0=    0 NMtDT0=    0
 Symmetry not used in FoFCou.
 Inv3:  Mode=1 IEnd=     2473392.
 Iteration    1 A*A^-1 deviation from unit magnitude is 4.77D-15 for    224.
 Iteration    1 A*A^-1 deviation from orthogonality  is 2.29D-15 for    794     77.
 Iteration    1 A^-1*A deviation from unit magnitude is 4.44D-15 for    283.
 Iteration    1 A^-1*A deviation from orthogonality  is 2.62D-15 for    736     97.
 E= -269.317752529079    
 DIIS: error= 4.51D-05 at cycle   1 NSaved=   1.
 NSaved= 1 IEnMin= 1 EnMin= -269.317752529079     IErMin= 1 ErrMin= 4.51D-05
 ErrMax= 4.51D-05  0.00D+00 EMaxC= 1.00D-01 BMatC= 2.77D-07 BMatP= 2.77D-07
 IDIUse=1 WtCom= 1.00D+00 WtEn= 0.00D+00
 Coeff-Com:  0.100D+01
 Coeff:      0.100D+01
 Gap=     0.782 Goal=   None    Shift=    0.000
 RMSDP=6.54D-06 MaxDP=1.66D-04              OVMax= 1.89D-04

 Cycle   2  Pass 1  IDiag  1:
 RMSU=  6.54D-06    CP:  1.00D+00
 E= -269.317752990312     Delta-E=       -0.000000461233 Rises=F Damp=F
 DIIS: error= 8.90D-06 at cycle   2 NSaved=   2.
 NSaved= 2 IEnMin= 2 EnMin= -269.317752990312     IErMin= 2 ErrMin= 8.90D-06
 ErrMax= 8.90D-06  0.00D+00 EMaxC= 1.00D-01 BMatC= 1.10D-08 BMatP= 2.77D-07
 IDIUse=1 WtCom= 1.00D+00 WtEn= 0.00D+00
 Coeff-Com: -0.206D+00 0.121D+01
 Coeff:     -0.206D+00 0.121D+01
 Gap=     0.516 Goal=   None    Shift=    0.000
 RMSDP=2.07D-06 MaxDP=4.28D-05 DE=-4.61D-07 OVMax= 7.00D-05

 Cycle   3  Pass 1  IDiag  1:
 RMSU=  1.03D-06    CP:  1.00D+00  1.27D+00
 E= -269.317753018932     Delta-E=       -0.000000028619 Rises=F Damp=F
 DIIS: error= 1.54D-06 at cycle   3 NSaved=   3.
 NSaved= 3 IEnMin= 3 EnMin= -269.317753018932     IErMin= 3 ErrMin= 1.54D-06
 ErrMax= 1.54D-06  0.00D+00 EMaxC= 1.00D-01 BMatC= 3.30D-10 BMatP= 1.10D-08
 IDIUse=1 WtCom= 1.00D+00 WtEn= 0.00D+00
 Coeff-Com: -0.684D-02-0.220D-01 0.103D+01
 Coeff:     -0.684D-02-0.220D-01 0.103D+01
 Gap=     0.516 Goal=   None    Shift=    0.000
 RMSDP=4.32D-07 MaxDP=7.39D-06 DE=-2.86D-08 OVMax= 1.11D-05

 Cycle   4  Pass 1  IDiag  1:
 RMSU=  2.31D-07    CP:  1.00D+00  1.30D+00  1.30D+00
 E= -269.317753019492     Delta-E=       -0.000000000561 Rises=F Damp=F
 DIIS: error= 1.03D-06 at cycle   4 NSaved=   4.
 NSaved= 4 IEnMin= 4 EnMin= -269.317753019492     IErMin= 4 ErrMin= 1.03D-06
 ErrMax= 1.03D-06  0.00D+00 EMaxC= 1.00D-01 BMatC= 2.19D-10 BMatP= 3.30D-10
 IDIUse=1 WtCom= 1.00D+00 WtEn= 0.00D+00
 Coeff-Com:  0.179D-01-0.138D+00 0.515D+00 0.606D+00
 Coeff:      0.179D-01-0.138D+00 0.515D+00 0.606D+00
 Gap=     0.516 Goal=   None    Shift=    0.000
 RMSDP=1.38D-07 MaxDP=3.10D-06 DE=-5.61D-10 OVMax= 2.77D-06

 Cycle   5  Pass 1  IDiag  1:
 RMSU=  5.90D-08    CP:  1.00D+00  1.31D+00  1.40D+00  7.37D-01
 E= -269.317753019673     Delta-E=       -0.000000000181 Rises=F Damp=F
 DIIS: error= 1.14D-07 at cycle   5 NSaved=   5.
 NSaved= 5 IEnMin= 5 EnMin= -269.317753019673     IErMin= 5 ErrMin= 1.14D-07
 ErrMax= 1.14D-07  0.00D+00 EMaxC= 1.00D-01 BMatC= 2.96D-12 BMatP= 2.19D-10
 IDIUse=1 WtCom= 1.00D+00 WtEn= 0.00D+00
 Coeff-Com:  0.375D-02-0.256D-01 0.435D-01 0.114D+00 0.864D+00
 Coeff:      0.375D-02-0.256D-01 0.435D-01 0.114D+00 0.864D+00
 Gap=     0.516 Goal=   None    Shift=    0.000
 RMSDP=3.54D-08 MaxDP=5.60D-07 DE=-1.81D-10 OVMax= 7.29D-07

 Cycle   6  Pass 1  IDiag  1:
 RMSU=  1.80D-08    CP:  1.00D+00  1.31D+00  1.42D+00  7.85D-01  1.09D+00
 E= -269.317753019677     Delta-E=       -0.000000000004 Rises=F Damp=F
 DIIS: error= 5.01D-08 at cycle   6 NSaved=   6.
 NSaved= 6 IEnMin= 6 EnMin= -269.317753019677     IErMin= 6 ErrMin= 5.01D-08
 ErrMax= 5.01D-08  0.00D+00 EMaxC= 1.00D-01 BMatC= 5.27D-13 BMatP= 2.96D-12
 IDIUse=1 WtCom= 1.00D+00 WtEn= 0.00D+00
 Coeff-Com: -0.306D-03 0.362D-02-0.332D-01-0.162D-01 0.311D+00 0.736D+00
 Coeff:     -0.306D-03 0.362D-02-0.332D-01-0.162D-01 0.311D+00 0.736D+00
 Gap=     0.516 Goal=   None    Shift=    0.000
 RMSDP=1.10D-08 MaxDP=1.91D-07 DE=-3.87D-12 OVMax= 2.03D-07

 Cycle   7  Pass 1  IDiag  1:
 RMSU=  3.96D-09    CP:  1.00D+00  1.31D+00  1.43D+00  7.98D-01  1.19D+00
                    CP:  8.45D-01
 E= -269.317753019676     Delta-E=        0.000000000001 Rises=F Damp=F
 DIIS: error= 6.36D-09 at cycle   7 NSaved=   7.
 NSaved= 7 IEnMin= 6 EnMin= -269.317753019677     IErMin= 7 ErrMin= 6.36D-09
 ErrMax= 6.36D-09  0.00D+00 EMaxC= 1.00D-01 BMatC= 1.40D-14 BMatP= 5.27D-13
 IDIUse=1 WtCom= 1.00D+00 WtEn= 0.00D+00
 Coeff-Com: -0.249D-03 0.201D-02-0.783D-02-0.869D-02-0.424D-03 0.129D+00
 Coeff-Com:  0.886D+00
 Coeff:     -0.249D-03 0.201D-02-0.783D-02-0.869D-02-0.424D-03 0.129D+00
 Coeff:      0.886D+00
 Gap=     0.516 Goal=   None    Shift=    0.000
 RMSDP=2.45D-09 MaxDP=4.89D-08 DE= 1.25D-12 OVMax= 6.22D-08

 Error on total polarization charges =  0.03204
 SCF Done:  E(RwB97XD) =  -269.317753020     A.U. after    7 cycles
            NFock=  7  Conv=0.25D-08     -V/T= 2.0096
 KE= 2.667624634933D+02 PE=-1.020193234853D+03 EE= 2.890030353303D+02
 SMD-CDS (non-electrostatic) energy       (kcal/mol) =       2.95
 (included in total energy above)
 Leave Link  502 at Tue Oct 21 19:35:15 2025, MaxMem=  4294967296 cpu:              83.2 elap:              10.5
 (Enter /lrz/sys/applications/gaussian/g16.C.01/x86_64_legacy/exe/l701.exe)
 ... and contract with generalized density number  0.
 Compute integral first derivatives.
 R6Disp: Adding Grimme-D2 dispersion energy 1st derivatives to the gradient.
   1 Symmetry operations used in ECPInt.
 ECPInt:  NShTT=    1485 NPrTT=    5139 LenC2=    1483 LenP2D=    4436.
 LDataN:  DoStor=T MaxTD1= 5 Len=  102
 D1PCM: PCM CHGder 1st derivatives, ID1Alg=3 FixD1E=F DoIter=F DoCFld=F I1PDM=0.
 GePol: Maximum number of non-zero 1st derivatives   =     248
 Leave Link  701 at Tue Oct 21 19:35:15 2025, MaxMem=  4294967296 cpu:               4.2 elap:               0.5
 (Enter /lrz/sys/applications/gaussian/g16.C.01/x86_64_legacy/exe/l702.exe)
 L702 exits ... SP integral derivatives will be done elsewhere.
 Leave Link  702 at Tue Oct 21 19:35:15 2025, MaxMem=  4294967296 cpu:               0.2 elap:               0.0
 (Enter /lrz/sys/applications/gaussian/g16.C.01/x86_64_legacy/exe/l703.exe)
 Integral derivatives from FoFJK, PRISM(SPDF).
 Compute integral first derivatives, UseDBF=F ICtDFT=           0.
 Calling FoFJK, ICntrl=      2127 FMM=F ISym2X=0 I1Cent= 0 IOpClX= 0 NMat=1 NMatS=1 NMatT=0.
 FoFJK:  IHMeth= 1 ICntrl=    2127 DoSepK=T KAlg= 0 I1Cent=           0 FoldK=F
 IRaf=         1 NMat=       1 IRICut=       1 DoRegI=T DoRafI=F ISym2E= 0 IDoP0=0 IntGTp=1.
 FoFCou: FMM=F IPFlag=           0 FMFlag=      100000 FMFlg1=         800
         NFxFlg=           0 DoJE=F BraDBF=F KetDBF=F FulRan=T
         wScrn=  0.000000 ICntrl=      2527 IOpCl=  0 I1Cent=           0 NGrid=           0
         NMat0=    1 NMatS0=      1 NMatT0=    0 NMatD0=    1 NMtDS0=    0 NMtDT0=    0
 Symmetry not used in FoFCou.
 Leave Link  703 at Tue Oct 21 19:35:18 2025, MaxMem=  4294967296 cpu:              16.8 elap:               2.1
 (Enter /lrz/sys/applications/gaussian/g16.C.01/x86_64_legacy/exe/l716.exe)
 Dipole        = 4.71005974D-02-4.29618431D-03-5.55250904D-02
 ***** Axes restored to original set *****
 -------------------------------------------------------------------
 Center     Atomic                   Forces (Hartrees/Bohr)
 Number     Number              X              Y              Z
 -------------------------------------------------------------------
      1        8           0.000003868   -0.000011108   -0.000014874
      2        6          -0.000001778    0.000000293    0.000013452
      3        8          -0.000004176   -0.000003067   -0.000000270
      4        6           0.000019581   -0.000007938   -0.000001296
      5        6          -0.000008568    0.000013652    0.000000251
      6        1           0.000000186   -0.000008734   -0.000014387
      7        1          -0.000005489    0.000007842    0.000002305
      8        1          -0.000003215   -0.000000371    0.000005998
      9        1          -0.000001021    0.000002605    0.000016146
     10        1          -0.000002397   -0.000008227    0.000001638
     11        1           0.000001327    0.000011568    0.000001053
     12        1           0.000003108    0.000003068   -0.000012441
     13        1          -0.000001426    0.000000419    0.000002425
 -------------------------------------------------------------------
 Cartesian Forces:  Max     0.000019581 RMS     0.000007793
 Leave Link  716 at Tue Oct 21 19:35:18 2025, MaxMem=  4294967296 cpu:               0.3 elap:               0.1
 (Enter /lrz/sys/applications/gaussian/g16.C.01/x86_64_legacy/exe/l103.exe)

 GradGradGradGradGradGradGradGradGradGradGradGradGradGradGradGradGradGrad
 Berny optimization.
 Using GEDIIS/GDIIS optimizer.
 FormGI is forming the generalized inverse of G from B-inverse, IUseBI=4.
 Internal  Forces:  Max     0.000012751 RMS     0.000003758
 Search for a local minimum.
 Step number   8 out of a maximum of   66
 All quantities printed in internal units (Hartrees-Bohrs-Radians)
 RMS Force = .37583D-05 SwitMx=.10000D-02 MixMth= 2
 Mixed Optimization -- En-DIIS/RFO-DIIS
 Swapping is turned off.
 Update second derivatives using D2CorX and points    1    2    3    4    5
                                                      6    7    8
 DE= -1.10D-07 DEPred=-3.71D-08 R= 2.96D+00
 Trust test= 2.96D+00 RLast= 5.04D-03 DXMaxT set to 5.05D-01
 ITU=  0  0  1  1  1  1  1  0
     Eigenvalues ---    0.00215   0.00358   0.00456   0.01681   0.03570
     Eigenvalues ---    0.04673   0.05551   0.05578   0.05686   0.06820
     Eigenvalues ---    0.08658   0.10091   0.12497   0.15350   0.16001
     Eigenvalues ---    0.16075   0.16227   0.16484   0.20296   0.21596
     Eigenvalues ---    0.23231   0.31358   0.32259   0.33672   0.34636
     Eigenvalues ---    0.34893   0.35162   0.35260   0.38923   0.45289
     Eigenvalues ---    0.47694   0.54126   0.54540
 En-DIIS/RFO-DIIS/Sim-DIIS IScMMF=       -3 using points:     8    7    6    5    4    3    2
 RFO step:  Lambda=-3.29859479D-09.
 NNeg= 0 NGDIIS= 7 SimSw=  2.50D-01 Rises=F DC= -1.10D-07 SmlDif=  1.00D-05
 NRisDI= 0 DoIntr=F SqrtH=F CThrHd= 10.0 CDAdj=  3.0
 RMS Error=  0.1214987777D-03 NUsed= 7 OKEnD=F EnDIS=F
 InvSVX:  RCond= 1.61D-08 Info=           0 Equed=N FErr=  5.16D-13 BErr=  4.13D-17
 DIIS inversion failure, remove point   7.
 InvSVX:  RCond= 4.95D-08 Info=           0 Equed=N FErr=  1.52D-13 BErr=  8.57D-17
 DIIS inversion failure, remove point   6.
 InvSVX:  RCond= 1.35D-07 Info=           0 Equed=N FErr=  2.30D-14 BErr=  3.99D-17
 RFO-DIIS uses    5 points instead of    7
 DidBck=F Rises=F RFO-DIIS coefs:    1.02780    0.00916   -0.03515   -0.01300    0.01119
                  RFO-DIIS coefs:    0.00000    0.00000
 Iteration  1 RMS(Cart)=  0.00013177 RMS(Int)=  0.00000001
 Iteration  2 RMS(Cart)=  0.00000001 RMS(Int)=  0.00000000
 ITry= 1 IFail=0 DXMaxC= 4.48D-04 DCOld= 1.00D+10 DXMaxT= 5.05D-01 DXLimC= 3.00D+00 Rises=F
 Variable       Old X    -DE/DX   Delta X   Delta X   Delta X     New X
                                 (Linear)    (Quad)   (Total)
    R1        2.65688   0.00001   0.00001   0.00000   0.00001   2.65689
    R2        1.82822  -0.00000   0.00000  -0.00001  -0.00000   1.82821
    R3        2.65534   0.00000   0.00000   0.00000   0.00001   2.65535
    R4        2.87093   0.00001  -0.00001   0.00005   0.00003   2.87096
    R5        2.08789  -0.00000   0.00001  -0.00001  -0.00000   2.08788
    R6        1.82439   0.00000   0.00000  -0.00000   0.00000   1.82439
    R7        2.87421  -0.00001   0.00001  -0.00004  -0.00003   2.87418
    R8        2.08057   0.00000   0.00001  -0.00000   0.00001   2.08058
    R9        2.08678  -0.00000   0.00001  -0.00001  -0.00000   2.08677
   R10        2.08172  -0.00000   0.00001  -0.00001  -0.00000   2.08172
   R11        2.07888  -0.00000   0.00001  -0.00001   0.00000   2.07888
   R12        2.07810  -0.00000   0.00001  -0.00001   0.00000   2.07810
    A1        1.87942  -0.00000  -0.00002   0.00001  -0.00001   1.87941
    A2        1.94214   0.00000   0.00000   0.00002   0.00002   1.94217
    A3        1.96634   0.00001   0.00001   0.00004   0.00005   1.96638
    A4        1.82695  -0.00001   0.00000  -0.00005  -0.00005   1.82691
    A5        1.87736  -0.00000   0.00000   0.00001   0.00001   1.87737
    A6        1.92593  -0.00000   0.00000  -0.00004  -0.00004   1.92589
    A7        1.92567   0.00000  -0.00001   0.00001   0.00000   1.92567
    A8        1.87854   0.00001  -0.00002   0.00005   0.00002   1.87857
    A9        1.97822   0.00001  -0.00000   0.00005   0.00004   1.97827
   A10        1.88182   0.00000  -0.00000   0.00002   0.00002   1.88184
   A11        1.87698  -0.00001   0.00001  -0.00003  -0.00002   1.87696
   A12        1.92852  -0.00000  -0.00001  -0.00000  -0.00001   1.92851
   A13        1.93071   0.00000   0.00000   0.00000   0.00000   1.93071
   A14        1.86295  -0.00000   0.00000  -0.00004  -0.00003   1.86292
   A15        1.94050   0.00000   0.00001   0.00002   0.00002   1.94052
   A16        1.93963   0.00000  -0.00002   0.00002  -0.00000   1.93963
   A17        1.93601  -0.00000   0.00001  -0.00001  -0.00000   1.93601
   A18        1.88044  -0.00000   0.00001  -0.00002  -0.00001   1.88043
   A19        1.88103  -0.00000   0.00000   0.00000   0.00000   1.88103
   A20        1.88374  -0.00000  -0.00001  -0.00000  -0.00001   1.88373
    D1       -1.18807  -0.00000   0.00004   0.00004   0.00008  -1.18798
    D2        0.92205   0.00000   0.00005   0.00010   0.00015   0.92220
    D3        3.01484   0.00000   0.00004   0.00011   0.00015   3.01499
    D4       -1.07962   0.00001   0.00009   0.00002   0.00011  -1.07951
    D5        3.04202  -0.00000   0.00008  -0.00005   0.00003   3.04205
    D6        0.94056  -0.00000   0.00009  -0.00005   0.00005   0.94060
    D7        1.00597  -0.00000   0.00008  -0.00004   0.00004   1.00601
    D8       -3.13680  -0.00000   0.00007  -0.00000   0.00006  -3.13674
    D9       -1.13376  -0.00000   0.00007  -0.00005   0.00002  -1.13374
   D10       -3.13046   0.00000   0.00009   0.00002   0.00011  -3.13036
   D11       -0.99005   0.00000   0.00007   0.00006   0.00013  -0.98991
   D12        1.01299   0.00000   0.00008   0.00001   0.00009   1.01308
   D13       -1.02883   0.00000   0.00008  -0.00002   0.00006  -1.02877
   D14        1.11158   0.00000   0.00007   0.00002   0.00009   1.11167
   D15        3.11462  -0.00000   0.00008  -0.00003   0.00005   3.11467
   D16        1.04756   0.00000   0.00025   0.00002   0.00027   1.04783
   D17       -1.04701   0.00000   0.00025   0.00002   0.00027  -1.04674
   D18        3.14045   0.00000   0.00026   0.00002   0.00028   3.14073
   D19       -1.06677  -0.00000   0.00026  -0.00004   0.00022  -1.06655
   D20        3.12184  -0.00000   0.00025  -0.00004   0.00022   3.12206
   D21        1.02611  -0.00000   0.00027  -0.00003   0.00024   1.02635
   D22       -3.12595   0.00000   0.00026   0.00001   0.00027  -3.12568
   D23        1.06267   0.00000   0.00025   0.00001   0.00027   1.06293
   D24       -1.03306   0.00000   0.00027   0.00001   0.00029  -1.03278
         Item               Value     Threshold  Converged?
 Maximum Force            0.000013     0.000450     YES
 RMS     Force            0.000004     0.000300     YES
 Maximum Displacement     0.000448     0.001800     YES
 RMS     Displacement     0.000132     0.001200     YES
 Predicted change in Energy=-3.196195D-09
 Optimization completed.
    -- Stationary point found.
                           ----------------------------
                           !   Optimized Parameters   !
                           ! (Angstroms and Degrees)  !
 --------------------------                            --------------------------
 ! Name  Definition              Value          Derivative Info.                !
 --------------------------------------------------------------------------------
 ! R1    R(1,2)                  1.406          -DE/DX =    0.0                 !
 ! R2    R(1,6)                  0.9674         -DE/DX =    0.0                 !
 ! R3    R(2,3)                  1.4051         -DE/DX =    0.0                 !
 ! R4    R(2,4)                  1.5192         -DE/DX =    0.0                 !
 ! R5    R(2,7)                  1.1049         -DE/DX =    0.0                 !
 ! R6    R(3,8)                  0.9654         -DE/DX =    0.0                 !
 ! R7    R(4,5)                  1.521          -DE/DX =    0.0                 !
 ! R8    R(4,9)                  1.101          -DE/DX =    0.0                 !
 ! R9    R(4,10)                 1.1043         -DE/DX =    0.0                 !
 ! R10   R(5,11)                 1.1016         -DE/DX =    0.0                 !
 ! R11   R(5,12)                 1.1001         -DE/DX =    0.0                 !
 ! R12   R(5,13)                 1.0997         -DE/DX =    0.0                 !
 ! A1    A(2,1,6)              107.6827         -DE/DX =    0.0                 !
 ! A2    A(1,2,3)              111.2767         -DE/DX =    0.0                 !
 ! A3    A(1,2,4)              112.6627         -DE/DX =    0.0                 !
 ! A4    A(1,2,7)              104.6768         -DE/DX =    0.0                 !
 ! A5    A(3,2,4)              107.5648         -DE/DX =    0.0                 !
 ! A6    A(3,2,7)              110.3475         -DE/DX =    0.0                 !
 ! A7    A(4,2,7)              110.3327         -DE/DX =    0.0                 !
 ! A8    A(2,3,8)              107.6325         -DE/DX =    0.0                 !
 ! A9    A(2,4,5)              113.3437         -DE/DX =    0.0                 !
 ! A10   A(2,4,9)              107.8203         -DE/DX =    0.0                 !
 ! A11   A(2,4,10)             107.543          -DE/DX =    0.0                 !
 ! A12   A(5,4,9)              110.4961         -DE/DX =    0.0                 !
 ! A13   A(5,4,10)             110.6215         -DE/DX =    0.0                 !
 ! A14   A(9,4,10)             106.7392         -DE/DX =    0.0                 !
 ! A15   A(4,5,11)             111.1824         -DE/DX =    0.0                 !
 ! A16   A(4,5,12)             111.1329         -DE/DX =    0.0                 !
 ! A17   A(4,5,13)             110.9253         -DE/DX =    0.0                 !
 ! A18   A(11,5,12)            107.7413         -DE/DX =    0.0                 !
 ! A19   A(11,5,13)            107.7749         -DE/DX =    0.0                 !
 ! A20   A(12,5,13)            107.9302         -DE/DX =    0.0                 !
 ! D1    D(6,1,2,3)            -68.0712         -DE/DX =    0.0                 !
 ! D2    D(6,1,2,4)             52.8297         -DE/DX =    0.0                 !
 ! D3    D(6,1,2,7)            172.7375         -DE/DX =    0.0                 !
 ! D4    D(1,2,3,8)            -61.8579         -DE/DX =    0.0                 !
 ! D5    D(4,2,3,8)            174.2951         -DE/DX =    0.0                 !
 ! D6    D(7,2,3,8)             53.8899         -DE/DX =    0.0                 !
 ! D7    D(1,2,4,5)             57.6378         -DE/DX =    0.0                 !
 ! D8    D(1,2,4,9)           -179.7253         -DE/DX =    0.0                 !
 ! D9    D(1,2,4,10)           -64.9597         -DE/DX =    0.0                 !
 ! D10   D(3,2,4,5)           -179.3624         -DE/DX =    0.0                 !
 ! D11   D(3,2,4,9)            -56.7255         -DE/DX =    0.0                 !
 ! D12   D(3,2,4,10)            58.0401         -DE/DX =    0.0                 !
 ! D13   D(7,2,4,5)            -58.9479         -DE/DX =    0.0                 !
 ! D14   D(7,2,4,9)             63.689          -DE/DX =    0.0                 !
 ! D15   D(7,2,4,10)           178.4546         -DE/DX =    0.0                 !
 ! D16   D(2,4,5,11)            60.0208         -DE/DX =    0.0                 !
 ! D17   D(2,4,5,12)           -59.989          -DE/DX =    0.0                 !
 ! D18   D(2,4,5,13)           179.9344         -DE/DX =    0.0                 !
 ! D19   D(9,4,5,11)           -61.1217         -DE/DX =    0.0                 !
 ! D20   D(9,4,5,12)           178.8684         -DE/DX =    0.0                 !
 ! D21   D(9,4,5,13)            58.7919         -DE/DX =    0.0                 !
 ! D22   D(10,4,5,11)         -179.1038         -DE/DX =    0.0                 !
 ! D23   D(10,4,5,12)           60.8863         -DE/DX =    0.0                 !
 ! D24   D(10,4,5,13)          -59.1902         -DE/DX =    0.0                 !
 --------------------------------------------------------------------------------
 Lowest energy point so far.  Saving SCF results.
 Largest change from initial coordinates is atom   12       0.108 Angstoms.
 GradGradGradGradGradGradGradGradGradGradGradGradGradGradGradGradGradGrad

 Leave Link  103 at Tue Oct 21 19:35:18 2025, MaxMem=  4294967296 cpu:               0.2 elap:               0.0
 (Enter /lrz/sys/applications/gaussian/g16.C.01/x86_64_legacy/exe/l202.exe)
                          Input orientation:                          
 ---------------------------------------------------------------------
 Center     Atomic      Atomic             Coordinates (Angstroms)
 Number     Number       Type             X           Y           Z
 ---------------------------------------------------------------------
      1          8           0       -0.592183   -1.331543    0.033300
      2          6           0       -0.457817    0.022611   -0.320159
      3          8           0       -1.569896    0.771928    0.099645
      4          6           0        0.780941    0.664419    0.281187
      5          6           0        2.072515   -0.039689   -0.105344
      6          1           0       -0.538380   -1.390317    0.997462
      7          1           0       -0.391295    0.018790   -1.423011
      8          1           0       -2.346845    0.421079   -0.353457
      9          1           0        0.804720    1.717196   -0.040174
     10          1           0        0.654011    0.669516    1.378131
     11          1           0        2.216346   -0.036131   -1.197508
     12          1           0        2.068186   -1.087806    0.228787
     13          1           0        2.941889    0.457017    0.349376
 ---------------------------------------------------------------------
                    Distance matrix (angstroms):
                    1          2          3          4          5
     1  O    0.000000
     2  C    1.405959   0.000000
     3  O    2.320542   1.405145   0.000000
     4  C    2.435320   1.519229   2.360285   0.000000
     5  C    2.964577   2.540198   3.737365   1.520966   0.000000
     6  H    0.967450   1.933645   2.558398   2.544720   3.139610
     7  H    1.996145   1.104862   2.067558   2.166856   2.794642
     8  H    2.510001   1.930884   0.965426   3.200786   4.450237
     9  H    3.354332   2.131668   2.559664   1.100989   2.167532
    10  H    2.714002   2.130455   2.567250   1.104275   2.171595
    11  H    3.328786   2.815020   4.083037   2.176626   1.101599
    12  H    2.678654   2.813371   4.087900   2.174865   1.100096
    13  H    3.973476   3.492132   4.529651   2.171949   1.099682
                    6          7          8          9         10
     6  H    0.000000
     7  H    2.804622   0.000000
     8  H    2.894251   2.264941   0.000000
     9  H    3.540797   2.495450   3.422050   0.000000
    10  H    2.410314   3.059821   3.473508   1.769728   0.000000
    11  H    3.773623   2.617950   4.663065   2.531060   3.093985
    12  H    2.734330   3.162600   4.701940   3.088158   2.531613
    13  H    3.993111   3.800462   5.335352   2.511432   2.517515
                   11         12         13
    11  H    0.000000
    12  H    1.778283   0.000000
    13  H    1.778329   1.778870   0.000000
 Stoichiometry    C3H8O2
 Framework group  C1[X(C3H8O2)]
 Deg. of freedom    33
 Full point group                 C1      NOp   1
 RotChk:  IX=0 Diff= 5.34D-16
 Largest Abelian subgroup         C1      NOp   1
 Largest concise Abelian subgroup C1      NOp   1
                         Standard orientation:                         
 ---------------------------------------------------------------------
 Center     Atomic      Atomic             Coordinates (Angstroms)
 Number     Number       Type             X           Y           Z
 ---------------------------------------------------------------------
      1          8           0       -0.644539    1.337572   -0.069770
      2          6           0       -0.517237   -0.006243    0.323517
      3          8           0       -1.632930   -0.761945   -0.074698
      4          6           0        0.718506   -0.671779   -0.257909
      5          6           0        2.013476    0.036842    0.108488
      6          1           0       -0.590000    1.367634   -1.035213
      7          1           0       -0.451198    0.029737    1.425817
      8          1           0       -2.408287   -0.393954    0.367401
      9          1           0        0.736773   -1.714736    0.094348
     10          1           0        0.592049   -0.708554   -1.354303
     11          1           0        2.156792    0.064738    1.200369
     12          1           0        2.014641    1.074665   -0.256384
     13          1           0        2.880514   -0.477460   -0.330874
 ---------------------------------------------------------------------
 Rotational constants (GHZ):           8.5162775           3.5948653           2.7809148
 Leave Link  202 at Tue Oct 21 19:35:18 2025, MaxMem=  4294967296 cpu:               0.0 elap:               0.0
 (Enter /lrz/sys/applications/gaussian/g16.C.01/x86_64_legacy/exe/l601.exe)
 Copying SCF densities to generalized density rwf, IOpCl= 0 IROHF=0.

 **********************************************************************

            Population analysis using the SCF Density.

 **********************************************************************

 Orbital symmetries:
       Occupied  (A) (A) (A) (A) (A) (A) (A) (A) (A) (A) (A) (A)
                 (A) (A) (A) (A) (A) (A) (A) (A) (A)
       Virtual   (A) (A) (A) (A) (A) (A) (A) (A) (A) (A) (A) (A)
                 (A) (A) (A) (A) (A) (A) (A) (A) (A) (A) (A) (A)
                 (A) (A) (A) (A) (A) (A) (A) (A) (A) (A) (A) (A)
                 (A) (A) (A) (A) (A) (A) (A) (A) (A) (A) (A) (A)
                 (A) (A) (A) (A) (A) (A) (A) (A) (A) (A) (A) (A)
                 (A) (A) (A) (A) (A) (A) (A) (A) (A) (A) (A) (A)
                 (A) (A) (A) (A) (A) (A) (A) (A) (A) (A) (A) (A)
                 (A) (A) (A) (A) (A)
 The electronic state is 1-A.
 Alpha  occ. eigenvalues --  -19.25743 -19.25619 -10.38369 -10.28647 -10.28240
 Alpha  occ. eigenvalues --   -1.14981  -1.07798  -0.86268  -0.75480  -0.68773
 Alpha  occ. eigenvalues --   -0.62183  -0.57114  -0.54815  -0.50444  -0.49806
 Alpha  occ. eigenvalues --   -0.45855  -0.44280  -0.41527  -0.39693  -0.39352
 Alpha  occ. eigenvalues --   -0.36593
 Alpha virt. eigenvalues --    0.15044   0.16899   0.17789   0.20488   0.21580
 Alpha virt. eigenvalues --    0.22979   0.24331   0.25193   0.30328   0.31980
 Alpha virt. eigenvalues --    0.34588   0.36648   0.51828   0.52559   0.54137
 Alpha virt. eigenvalues --    0.58114   0.60177   0.63893   0.68284   0.70463
 Alpha virt. eigenvalues --    0.71626   0.73396   0.74729   0.75212   0.76618
 Alpha virt. eigenvalues --    0.77921   0.79096   0.80362   0.80948   0.83866
 Alpha virt. eigenvalues --    0.97150   1.05455   1.07569   1.08845   1.10432
 Alpha virt. eigenvalues --    1.12897   1.18930   1.31999   1.33932   1.36260
 Alpha virt. eigenvalues --    1.44140   1.45357   1.49946   1.53658   1.60403
 Alpha virt. eigenvalues --    1.63149   1.65095   1.69808   1.74910   1.80141
 Alpha virt. eigenvalues --    1.83035   1.86516   1.88495   1.90529   1.91044
 Alpha virt. eigenvalues --    1.92838   1.95888   1.98348   2.04466   2.04878
 Alpha virt. eigenvalues --    2.07200   2.12074   2.18040   2.22746   2.31246
 Alpha virt. eigenvalues --    2.32228   2.37789   2.41725   2.47299   2.49812
 Alpha virt. eigenvalues --    2.60239   2.63629   2.67792   2.84791   2.85965
 Alpha virt. eigenvalues --    2.89016   2.98424   3.03710   3.04091   3.06030
 Alpha virt. eigenvalues --    3.08300   3.11084   3.16188   3.25145   3.25471
 Alpha virt. eigenvalues --    3.45680   3.49613   3.85019   3.86903
          Condensed to atoms (all electrons):
               1          2          3          4          5          6
     1  O    7.872912   0.317840  -0.065315  -0.048808  -0.000811   0.328119
     2  C    0.317840   4.418406   0.344527   0.366397  -0.040368  -0.023376
     3  O   -0.065315   0.344527   7.846571  -0.078029   0.005017   0.004625
     4  C   -0.048808   0.366397  -0.078029   4.908992   0.358372  -0.011080
     5  C   -0.000811  -0.040368   0.005017   0.358372   4.623951  -0.001511
     6  H    0.328119  -0.023376   0.004625  -0.011080  -0.001511   0.473467
     7  H   -0.042845   0.410685  -0.029819  -0.053756  -0.002102   0.009192
     8  H    0.006119  -0.014718   0.323550   0.010275  -0.000583  -0.000811
     9  H    0.005313  -0.013385   0.006896   0.355397  -0.014101  -0.000142
    10  H   -0.005951  -0.008452   0.004365   0.351663  -0.019938   0.006762
    11  H   -0.001266  -0.003923  -0.000081  -0.025584   0.396754   0.000141
    12  H    0.015258  -0.010455   0.000330  -0.023649   0.391426   0.001081
    13  H    0.000188   0.005936  -0.000097  -0.010992   0.386529  -0.000076
               7          8          9         10         11         12
     1  O   -0.042845   0.006119   0.005313  -0.005951  -0.001266   0.015258
     2  C    0.410685  -0.014718  -0.013385  -0.008452  -0.003923  -0.010455
     3  O   -0.029819   0.323550   0.006896   0.004365  -0.000081   0.000330
     4  C   -0.053756   0.010275   0.355397   0.351663  -0.025584  -0.023649
     5  C   -0.002102  -0.000583  -0.014101  -0.019938   0.396754   0.391426
     6  H    0.009192  -0.000811  -0.000142   0.006762   0.000141   0.001081
     7  H    0.678285  -0.008035  -0.006050   0.009100   0.005676  -0.001332
     8  H   -0.008035   0.471860  -0.000529  -0.000565  -0.000000  -0.000034
     9  H   -0.006050  -0.000529   0.649415  -0.022880  -0.007788   0.007635
    10  H    0.009100  -0.000565  -0.022880   0.653750   0.007285  -0.008177
    11  H    0.005676  -0.000000  -0.007788   0.007285   0.630295  -0.023765
    12  H   -0.001332  -0.000034   0.007635  -0.008177  -0.023765   0.635340
    13  H   -0.000154   0.000013  -0.006233  -0.006435  -0.021451  -0.019853
              13
     1  O    0.000188
     2  C    0.005936
     3  O   -0.000097
     4  C   -0.010992
     5  C    0.386529
     6  H   -0.000076
     7  H   -0.000154
     8  H    0.000013
     9  H   -0.006233
    10  H   -0.006435
    11  H   -0.021451
    12  H   -0.019853
    13  H    0.622435
 Mulliken charges:
               1
     1  O   -0.380753
     2  C    0.250887
     3  O   -0.362540
     4  C   -0.099199
     5  C   -0.082635
     6  H    0.213607
     7  H    0.031153
     8  H    0.213458
     9  H    0.046452
    10  H    0.039474
    11  H    0.043706
    12  H    0.036198
    13  H    0.050191
 Sum of Mulliken charges =  -0.00000
 Mulliken charges with hydrogens summed into heavy atoms:
               1
     1  O   -0.167146
     2  C    0.282040
     3  O   -0.149082
     4  C   -0.013273
     5  C    0.047461
 Electronic spatial extent (au):  <R**2>=            476.7692
 Charge=              0.0000 electrons
 Dipole moment (field-independent basis, Debye):
    X=              0.1197    Y=             -0.0109    Z=             -0.1411  Tot=              0.1854
 Quadrupole moment (field-independent basis, Debye-Ang):
   XX=            -28.2703   YY=            -35.5034   ZZ=            -28.2774
   XY=             -1.4631   XZ=             -1.8529   YZ=             -3.1376
 Traceless Quadrupole moment (field-independent basis, Debye-Ang):
   XX=              2.4134   YY=             -4.8197   ZZ=              2.4063
   XY=             -1.4631   XZ=             -1.8529   YZ=             -3.1376
 Octapole moment (field-independent basis, Debye-Ang**2):
  XXX=            -24.7811  YYY=              0.3722  ZZZ=             -1.9157  XYY=              1.5121
  XXY=              1.0864  XXZ=              4.5491  XZZ=             -5.1527  YZZ=              4.0542
  YYZ=             -3.8545  XYZ=              2.5590
 Hexadecapole moment (field-independent basis, Debye-Ang**3):
 XXXX=           -331.2862 YYYY=           -154.9373 ZZZZ=            -55.5423 XXXY=             -1.0178
 XXXZ=            -15.1894 YYYX=              0.3024 YYYZ=             -9.1869 ZZZX=              1.2143
 ZZZY=             -5.1189 XXYY=            -93.8791 XXZZ=            -71.0892 YYZZ=            -31.4639
 XXYZ=             -3.4014 YYXZ=              1.3376 ZZXY=             -1.7593
 N-N= 1.951099830095D+02 E-N=-1.020193234343D+03  KE= 2.667624634933D+02
 No NMR shielding tensors so no spin-rotation constants.
 Leave Link  601 at Tue Oct 21 19:35:18 2025, MaxMem=  4294967296 cpu:               0.7 elap:               0.1
 (Enter /lrz/sys/applications/gaussian/g16.C.01/x86_64_legacy/exe/l9999.exe)
 Unable to Open any file for archive entry.
 1\1\GINC-CM4R13C06S02\FOpt\RwB97XD\def2SVP\C3H8O2\GO29TIZ2\21-Oct-2025
 \0\\#p opt freq wb97xd scrf=(smd,solvent=water) def2svp\\g16_C2-w_1\\0
 ,1\O,-0.5921825232,-1.3315431332,0.033299602\C,-0.4578168454,0.0226107
 684,-0.3201592336\O,-1.5698957256,0.7719275425,0.0996454988\C,0.780940
 6876,0.6644191703,0.2811873891\C,2.0725146266,-0.0396891564,-0.1053441
 614\H,-0.5383797827,-1.3903172382,0.9974624102\H,-0.3912952568,0.01878
 98692,-1.4230105112\H,-2.3468451548,0.4210789816,-0.3534573924\H,0.804
 7197914,1.7171960179,-0.0401739242\H,0.654010646,0.6695158117,1.378131
 2926\H,2.2163464386,-0.0361305489,-1.1975076638\H,2.0681861943,-1.0878
 058681,0.2287869715\H,2.941889104,0.4570172833,0.3493757226\\Version=E
 M64L-G16RevC.01\State=1-A\HF=-269.317753\RMSD=2.450e-09\RMSF=7.793e-06
 \Dipole=0.0470883,0.0024181,0.0556489\Quadrupole=1.8035874,-3.4517823,
 1.6481948,1.0210979,1.3964514,-2.4935634\PG=C01 [X(C3H8O2)]\\@
 The archive entry for this job was punched.


 WE HAVE SEEN THAT MAN ON THE AVERAGE DOES NOT LIVE ABOVE
 TWO-AND-TWENTY YEARS.  DURING THESE TWO AND TWENTY
 YEARS HE IS LIABLE TO TWO AND TWENTY THOUSAND EVILS,
 MANY OF WHICH ARE INCURABLE.  YET EVEN IN THIS DREADFUL STATE
 MEN STILL STRUT AND POSE ON THE STAGE OF LIFE.
 THEY MAKE LOVE AT THE RISK OF DESTRUCTION,
 INTRIGUE, CARRY ON WAR, AND FORM PROJECTS, JUST AS IF THEY
 WERE TO LIVE IN LUXURY AND HAPPINESS FOR A THOUSAND
 AGES.

                                              -- VOLTAIRE
 Leave Link 9999 at Tue Oct 21 19:35:18 2025, MaxMem=  4294967296 cpu:               0.2 elap:               0.0
 Job cpu time:       0 days  0 hours 18 minutes  8.6 seconds.
 Elapsed time:       0 days  0 hours  2 minutes 18.6 seconds.
 File lengths (MBytes):  RWF=    272 Int=      0 D2E=      0 Chk=      8 Scr=     32
 Normal termination of Gaussian 16 at Tue Oct 21 19:35:18 2025.
 (Enter /lrz/sys/applications/gaussian/g16.C.01/x86_64_legacy/exe/l1.exe)
 Link1:  Proceeding to internal job step number  2.
 --------------------------------------------------------------------
 #P Geom=AllCheck Guess=TCheck SCRF=Check GenChk RwB97XD/def2SVP Freq
 --------------------------------------------------------------------
 1/10=4,29=7,30=1,38=1,40=1/1,3;
 2/12=2,40=1/2;
 3/5=43,7=101,11=2,14=-4,25=1,30=1,70=2,71=2,74=-58,116=1,140=1/1,2,3;
 4/5=101/1;
 5/5=2,38=6,98=1/2;
 8/6=4,10=90,11=11/1;
 11/6=1,8=1,9=11,15=111,16=1/1,2,10;
 10/6=1/2;
 6/7=2,8=2,9=2,10=2,28=1/1;
 7/8=1,10=1,25=1/1,2,3,16;
 1/10=4,30=1/3;
 99//99;
 Leave Link    1 at Tue Oct 21 19:35:18 2025, MaxMem=  4294967296 cpu:               0.2 elap:               0.0
 (Enter /lrz/sys/applications/gaussian/g16.C.01/x86_64_legacy/exe/l101.exe)
 Structure from the checkpoint file:  "g16_C2-w_1.chk"
 ----------
 g16_C2-w_1
 ----------
 Charge =  0 Multiplicity = 1
 Redundant internal coordinates found in file.  (old form).
 O,0,-0.5921825232,-1.3315431332,0.033299602
 C,0,-0.4578168454,0.0226107684,-0.3201592336
 O,0,-1.5698957256,0.7719275425,0.0996454988
 C,0,0.7809406876,0.6644191703,0.2811873891
 C,0,2.0725146266,-0.0396891564,-0.1053441614
 H,0,-0.5383797827,-1.3903172382,0.9974624102
 H,0,-0.3912952568,0.0187898692,-1.4230105112
 H,0,-2.3468451548,0.4210789816,-0.3534573924
 H,0,0.8047197914,1.7171960179,-0.0401739242
 H,0,0.654010646,0.6695158117,1.3781312926
 H,0,2.2163464386,-0.0361305489,-1.1975076638
 H,0,2.0681861943,-1.0878058681,0.2287869715
 H,0,2.941889104,0.4570172833,0.3493757226
 Recover connectivity data from disk.
 ITRead=  0  0  0  0  0  0  0  0  0  0  0  0  0
 MicOpt= -1 -1 -1 -1 -1 -1 -1 -1 -1 -1 -1 -1 -1
 NAtoms=     13 NQM=       13 NQMF=       0 NMMI=      0 NMMIF=      0
                NMic=       0 NMicF=      0.
                    Isotopes and Nuclear Properties:
 (Nuclear quadrupole moments (NQMom) in fm**2, nuclear magnetic moments (NMagM)
  in nuclear magnetons)

  Atom         1           2           3           4           5           6           7           8           9          10
 IAtWgt=          16          12          16          12          12           1           1           1           1           1
 AtmWgt=  15.9949146  12.0000000  15.9949146  12.0000000  12.0000000   1.0078250   1.0078250   1.0078250   1.0078250   1.0078250
 NucSpn=           0           0           0           0           0           1           1           1           1           1
 AtZEff=   5.6000000   3.6000000   5.6000000   3.6000000   3.6000000   1.0000000   1.0000000   1.0000000   1.0000000   1.0000000
 NQMom=    0.0000000   0.0000000   0.0000000   0.0000000   0.0000000   0.0000000   0.0000000   0.0000000   0.0000000   0.0000000
 NMagM=    0.0000000   0.0000000   0.0000000   0.0000000   0.0000000   2.7928460   2.7928460   2.7928460   2.7928460   2.7928460
 AtZNuc=   8.0000000   6.0000000   8.0000000   6.0000000   6.0000000   1.0000000   1.0000000   1.0000000   1.0000000   1.0000000

  Atom        11          12          13
 IAtWgt=           1           1           1
 AtmWgt=   1.0078250   1.0078250   1.0078250
 NucSpn=           1           1           1
 AtZEff=   1.0000000   1.0000000   1.0000000
 NQMom=    0.0000000   0.0000000   0.0000000
 NMagM=    2.7928460   2.7928460   2.7928460
 AtZNuc=   1.0000000   1.0000000   1.0000000
 Leave Link  101 at Tue Oct 21 19:35:18 2025, MaxMem=  4294967296 cpu:               3.3 elap:               0.4
 (Enter /lrz/sys/applications/gaussian/g16.C.01/x86_64_legacy/exe/l103.exe)

 GradGradGradGradGradGradGradGradGradGradGradGradGradGradGradGradGradGrad
 Berny optimization.
 Initialization pass.
                           ----------------------------
                           !    Initial Parameters    !
                           ! (Angstroms and Degrees)  !
 --------------------------                            --------------------------
 ! Name  Definition              Value          Derivative Info.                !
 --------------------------------------------------------------------------------
 ! R1    R(1,2)                  1.406          calculate D2E/DX2 analytically  !
 ! R2    R(1,6)                  0.9674         calculate D2E/DX2 analytically  !
 ! R3    R(2,3)                  1.4051         calculate D2E/DX2 analytically  !
 ! R4    R(2,4)                  1.5192         calculate D2E/DX2 analytically  !
 ! R5    R(2,7)                  1.1049         calculate D2E/DX2 analytically  !
 ! R6    R(3,8)                  0.9654         calculate D2E/DX2 analytically  !
 ! R7    R(4,5)                  1.521          calculate D2E/DX2 analytically  !
 ! R8    R(4,9)                  1.101          calculate D2E/DX2 analytically  !
 ! R9    R(4,10)                 1.1043         calculate D2E/DX2 analytically  !
 ! R10   R(5,11)                 1.1016         calculate D2E/DX2 analytically  !
 ! R11   R(5,12)                 1.1001         calculate D2E/DX2 analytically  !
 ! R12   R(5,13)                 1.0997         calculate D2E/DX2 analytically  !
 ! A1    A(2,1,6)              107.6827         calculate D2E/DX2 analytically  !
 ! A2    A(1,2,3)              111.2767         calculate D2E/DX2 analytically  !
 ! A3    A(1,2,4)              112.6627         calculate D2E/DX2 analytically  !
 ! A4    A(1,2,7)              104.6768         calculate D2E/DX2 analytically  !
 ! A5    A(3,2,4)              107.5648         calculate D2E/DX2 analytically  !
 ! A6    A(3,2,7)              110.3475         calculate D2E/DX2 analytically  !
 ! A7    A(4,2,7)              110.3327         calculate D2E/DX2 analytically  !
 ! A8    A(2,3,8)              107.6325         calculate D2E/DX2 analytically  !
 ! A9    A(2,4,5)              113.3437         calculate D2E/DX2 analytically  !
 ! A10   A(2,4,9)              107.8203         calculate D2E/DX2 analytically  !
 ! A11   A(2,4,10)             107.543          calculate D2E/DX2 analytically  !
 ! A12   A(5,4,9)              110.4961         calculate D2E/DX2 analytically  !
 ! A13   A(5,4,10)             110.6215         calculate D2E/DX2 analytically  !
 ! A14   A(9,4,10)             106.7392         calculate D2E/DX2 analytically  !
 ! A15   A(4,5,11)             111.1824         calculate D2E/DX2 analytically  !
 ! A16   A(4,5,12)             111.1329         calculate D2E/DX2 analytically  !
 ! A17   A(4,5,13)             110.9253         calculate D2E/DX2 analytically  !
 ! A18   A(11,5,12)            107.7413         calculate D2E/DX2 analytically  !
 ! A19   A(11,5,13)            107.7749         calculate D2E/DX2 analytically  !
 ! A20   A(12,5,13)            107.9302         calculate D2E/DX2 analytically  !
 ! D1    D(6,1,2,3)            -68.0712         calculate D2E/DX2 analytically  !
 ! D2    D(6,1,2,4)             52.8297         calculate D2E/DX2 analytically  !
 ! D3    D(6,1,2,7)            172.7375         calculate D2E/DX2 analytically  !
 ! D4    D(1,2,3,8)            -61.8579         calculate D2E/DX2 analytically  !
 ! D5    D(4,2,3,8)            174.2951         calculate D2E/DX2 analytically  !
 ! D6    D(7,2,3,8)             53.8899         calculate D2E/DX2 analytically  !
 ! D7    D(1,2,4,5)             57.6378         calculate D2E/DX2 analytically  !
 ! D8    D(1,2,4,9)           -179.7253         calculate D2E/DX2 analytically  !
 ! D9    D(1,2,4,10)           -64.9597         calculate D2E/DX2 analytically  !
 ! D10   D(3,2,4,5)           -179.3624         calculate D2E/DX2 analytically  !
 ! D11   D(3,2,4,9)            -56.7255         calculate D2E/DX2 analytically  !
 ! D12   D(3,2,4,10)            58.0401         calculate D2E/DX2 analytically  !
 ! D13   D(7,2,4,5)            -58.9479         calculate D2E/DX2 analytically  !
 ! D14   D(7,2,4,9)             63.689          calculate D2E/DX2 analytically  !
 ! D15   D(7,2,4,10)           178.4546         calculate D2E/DX2 analytically  !
 ! D16   D(2,4,5,11)            60.0208         calculate D2E/DX2 analytically  !
 ! D17   D(2,4,5,12)           -59.989          calculate D2E/DX2 analytically  !
 ! D18   D(2,4,5,13)           179.9344         calculate D2E/DX2 analytically  !
 ! D19   D(9,4,5,11)           -61.1217         calculate D2E/DX2 analytically  !
 ! D20   D(9,4,5,12)           178.8684         calculate D2E/DX2 analytically  !
 ! D21   D(9,4,5,13)            58.7919         calculate D2E/DX2 analytically  !
 ! D22   D(10,4,5,11)         -179.1038         calculate D2E/DX2 analytically  !
 ! D23   D(10,4,5,12)           60.8863         calculate D2E/DX2 analytically  !
 ! D24   D(10,4,5,13)          -59.1902         calculate D2E/DX2 analytically  !
 --------------------------------------------------------------------------------
 Trust Radius=3.00D-01 FncErr=1.00D-07 GrdErr=1.00D-07 EigMax=2.50D+02 EigMin=1.00D-04
 Number of steps in this run=      2 maximum allowed number of steps=      2.
 GradGradGradGradGradGradGradGradGradGradGradGradGradGradGradGradGradGrad

 Leave Link  103 at Tue Oct 21 19:35:18 2025, MaxMem=  4294967296 cpu:               0.1 elap:               0.0
 (Enter /lrz/sys/applications/gaussian/g16.C.01/x86_64_legacy/exe/l202.exe)
                          Input orientation:                          
 ---------------------------------------------------------------------
 Center     Atomic      Atomic             Coordinates (Angstroms)
 Number     Number       Type             X           Y           Z
 ---------------------------------------------------------------------
      1          8           0       -0.592183   -1.331543    0.033300
      2          6           0       -0.457817    0.022611   -0.320159
      3          8           0       -1.569896    0.771928    0.099645
      4          6           0        0.780941    0.664419    0.281187
      5          6           0        2.072515   -0.039689   -0.105344
      6          1           0       -0.538380   -1.390317    0.997462
      7          1           0       -0.391295    0.018790   -1.423011
      8          1           0       -2.346845    0.421079   -0.353457
      9          1           0        0.804720    1.717196   -0.040174
     10          1           0        0.654011    0.669516    1.378131
     11          1           0        2.216346   -0.036131   -1.197508
     12          1           0        2.068186   -1.087806    0.228787
     13          1           0        2.941889    0.457017    0.349376
 ---------------------------------------------------------------------
                    Distance matrix (angstroms):
                    1          2          3          4          5
     1  O    0.000000
     2  C    1.405959   0.000000
     3  O    2.320542   1.405145   0.000000
     4  C    2.435320   1.519229   2.360285   0.000000
     5  C    2.964577   2.540198   3.737365   1.520966   0.000000
     6  H    0.967450   1.933645   2.558398   2.544720   3.139610
     7  H    1.996145   1.104862   2.067558   2.166856   2.794642
     8  H    2.510001   1.930884   0.965426   3.200786   4.450237
     9  H    3.354332   2.131668   2.559664   1.100989   2.167532
    10  H    2.714002   2.130455   2.567250   1.104275   2.171595
    11  H    3.328786   2.815020   4.083037   2.176626   1.101599
    12  H    2.678654   2.813371   4.087900   2.174865   1.100096
    13  H    3.973476   3.492132   4.529651   2.171949   1.099682
                    6          7          8          9         10
     6  H    0.000000
     7  H    2.804622   0.000000
     8  H    2.894251   2.264941   0.000000
     9  H    3.540797   2.495450   3.422050   0.000000
    10  H    2.410314   3.059821   3.473508   1.769728   0.000000
    11  H    3.773623   2.617950   4.663065   2.531060   3.093985
    12  H    2.734330   3.162600   4.701940   3.088158   2.531613
    13  H    3.993111   3.800462   5.335352   2.511432   2.517515
                   11         12         13
    11  H    0.000000
    12  H    1.778283   0.000000
    13  H    1.778329   1.778870   0.000000
 Stoichiometry    C3H8O2
 Framework group  C1[X(C3H8O2)]
 Deg. of freedom    33
 Full point group                 C1      NOp   1
 RotChk:  IX=0 Diff= 8.04D-16
 Largest Abelian subgroup         C1      NOp   1
 Largest concise Abelian subgroup C1      NOp   1
                         Standard orientation:                         
 ---------------------------------------------------------------------
 Center     Atomic      Atomic             Coordinates (Angstroms)
 Number     Number       Type             X           Y           Z
 ---------------------------------------------------------------------
      1          8           0       -0.644539    1.337572   -0.069770
      2          6           0       -0.517237   -0.006243    0.323517
      3          8           0       -1.632930   -0.761945   -0.074698
      4          6           0        0.718506   -0.671779   -0.257909
      5          6           0        2.013476    0.036842    0.108488
      6          1           0       -0.590000    1.367634   -1.035213
      7          1           0       -0.451198    0.029737    1.425817
      8          1           0       -2.408287   -0.393954    0.367401
      9          1           0        0.736773   -1.714736    0.094348
     10          1           0        0.592049   -0.708554   -1.354303
     11          1           0        2.156792    0.064738    1.200369
     12          1           0        2.014641    1.074665   -0.256384
     13          1           0        2.880514   -0.477460   -0.330874
 ---------------------------------------------------------------------
 Rotational constants (GHZ):           8.5162775           3.5948653           2.7809148
 Leave Link  202 at Tue Oct 21 19:35:18 2025, MaxMem=  4294967296 cpu:               0.0 elap:               0.0
 (Enter /lrz/sys/applications/gaussian/g16.C.01/x86_64_legacy/exe/l301.exe)
 Standard basis: def2SVP (5D, 7F)
 Ernie: Thresh=  0.10000D-02 Tol=  0.10000D-05 Strict=F.
 There are   115 symmetry adapted cartesian basis functions of A   symmetry.
 There are   110 symmetry adapted basis functions of A   symmetry.
   110 basis functions,   181 primitive gaussians,   115 cartesian basis functions
    21 alpha electrons       21 beta electrons
       nuclear repulsion energy       195.1108619251 Hartrees.
 IExCor= 4639 DFT=T Ex+Corr=wB97XD ExCW=0 ScaHFX=  1.000000
 ScaDFX=  1.000000  1.000000  1.000000  1.000000 ScalE2=  1.000000  1.000000
 IRadAn=      5 IRanWt=     -1 IRanGd=            0 ICorTp=0 IEmpDi=121
 HFx  wShort=  0.000000 wLong=  0.200000 cFull=  0.222036 cShort=  0.000000 cLong=  0.777964
 DFx  wShort=  0.000000 wLong=  0.200000 cFull=  0.000000 cShort=  0.000000 cLong=  1.000000
 NAtoms=   13 NActive=   13 NUniq=   13 SFac= 1.00D+00 NAtFMM=   60 NAOKFM=F Big=F
 Integral buffers will be    131072 words long.
 Raffenetti 2 integral format.
 Two-electron integral symmetry is turned on.
 R6Disp:  Grimme-D2 Dispersion energy=       -0.0055765293 Hartrees.
 Nuclear repulsion after empirical dispersion term =      195.1052853957 Hartrees.
 Force inversion solution in PCM.
 ------------------------------------------------------------------------------
 Polarizable Continuum Model (PCM)
 =================================
 Model                : PCM.
 Atomic radii         : SMD-Coulomb.
 Polarization charges : Total charges.
 Charge compensation  : None.
 Solution method      : Matrix inversion.
 Cavity type          : VdW (van der Waals Surface) (Alpha=1.000).
 Cavity algorithm     : GePol (No added spheres)
                        Default sphere list used, NSphG=   13.
                        Lebedev-Laikov grids with approx.  5.0 points / Ang**2.
                        Smoothing algorithm: York/Karplus (Gamma=1.0000).
                        Polarization charges: spherical gaussians, with
                                              point-specific exponents (IZeta= 3).
                        Self-potential: point-specific (ISelfS= 7).
                        Self-field    : sphere-specific E.n sum rule (ISelfD= 2).
 1st derivatives      : Analytical E(r).r(x)/FMM algorithm (CHGder, D1EAlg=3).
                        Cavity 1st derivative terms included.
 2nd derivatives      : Analytical E(r).r(xy)/FMM algorithm (CHGder, D2EAlg=3).
                        Cavity 2nd derivative terms included.
 Solvent              : Water, Eps=  78.355300 Eps(inf)=   1.777849
 ------------------------------------------------------------------------------
 Spheres list:
 ISph  on   Nord     Re0    Alpha      Xe            Ye            Ze
    1   O      1    1.5200  1.000     -0.644539      1.337572     -0.069770
    2   C      2    1.8500  1.000     -0.517237     -0.006243      0.323517
    3   O      3    1.5200  1.000     -1.632930     -0.761945     -0.074698
    4   C      4    1.8500  1.000      0.718506     -0.671779     -0.257909
    5   C      5    1.8500  1.000      2.013476      0.036842      0.108488
    6   H      6    1.2000  1.000     -0.590000      1.367634     -1.035213
    7   H      7    1.2000  1.000     -0.451198      0.029737      1.425817
    8   H      8    1.2000  1.000     -2.408287     -0.393954      0.367401
    9   H      9    1.2000  1.000      0.736773     -1.714736      0.094348
   10   H     10    1.2000  1.000      0.592049     -0.708554     -1.354303
   11   H     11    1.2000  1.000      2.156792      0.064738      1.200369
   12   H     12    1.2000  1.000      2.014641      1.074665     -0.256384
   13   H     13    1.2000  1.000      2.880514     -0.477460     -0.330874
 ------------------------------------------------------------------------------
 GePol: Number of generator spheres                  =      13
 GePol: Total number of spheres                      =      13
 GePol: Number of exposed spheres                    =      13 (100.00%)
 GePol: Number of points                             =     908
 GePol: Average weight of points                     =       0.12
 GePol: Minimum weight of points                     =   0.11D-07
 GePol: Maximum weight of points                     =    0.21991
 GePol: Number of points with low weight             =      52
 GePol: Fraction of low-weight points (<1% of avg)   =       5.73%
 GePol: Cavity surface area                          =    111.062 Ang**2
 GePol: Cavity volume                                =     82.170 Ang**3
 ------------------------------------------------------------------------------
 Atomic radii for non-electrostatic terms: SMD-CDS.
 ------------------------------------------------------------------------------
 PCM non-electrostatic energy =         0.0046976138 Hartrees.
 Nuclear repulsion after PCM non-electrostatic terms =      195.1099830095 Hartrees.
 Leave Link  301 at Tue Oct 21 19:35:18 2025, MaxMem=  4294967296 cpu:               0.5 elap:               0.1
 (Enter /lrz/sys/applications/gaussian/g16.C.01/x86_64_legacy/exe/l302.exe)
 NPDir=0 NMtPBC=     1 NCelOv=     1 NCel=       1 NClECP=     1 NCelD=      1
         NCelK=      1 NCelE2=     1 NClLst=     1 CellRange=     0.0.
 One-electron integrals computed using PRISM.
 One-electron integral symmetry used in STVInt
   1 Symmetry operations used in ECPInt.
 ECPInt:  NShTT=    1485 NPrTT=    5139 LenC2=    1483 LenP2D=    4436.
 LDataN:  DoStor=T MaxTD1= 4 Len=   56
 NBasis=   110 RedAO= T EigKep=  2.28D-03  NBF=   110
 NBsUse=   110 1.00D-06 EigRej= -1.00D+00 NBFU=   110
 Precomputing XC quadrature grid using
 IXCGrd= 4 IRadAn=           5 IRanWt=          -1 IRanGd=           0 AccXCQ= 0.00D+00.
 Generated NRdTot=       0 NPtTot=           0 NUsed=           0 NTot=          32
 NSgBfM=   115   115   115   115   115 MxSgAt=    13 MxSgA2=    13.
 Leave Link  302 at Tue Oct 21 19:35:19 2025, MaxMem=  4294967296 cpu:               1.2 elap:               0.2
 (Enter /lrz/sys/applications/gaussian/g16.C.01/x86_64_legacy/exe/l303.exe)
 DipDrv:  MaxL=1.
 Leave Link  303 at Tue Oct 21 19:35:19 2025, MaxMem=  4294967296 cpu:               0.2 elap:               0.0
 (Enter /lrz/sys/applications/gaussian/g16.C.01/x86_64_legacy/exe/l401.exe)
 Initial guess from the checkpoint file:  "g16_C2-w_1.chk"
 B after Tr=    -0.000000    0.000000   -0.000000
         Rot=    1.000000   -0.000000   -0.000000    0.000000 Ang=   0.00 deg.
 Guess basis will be translated and rotated to current coordinates.
 JPrj=2 DoOrth=T DoCkMO=T.
 Leave Link  401 at Tue Oct 21 19:35:19 2025, MaxMem=  4294967296 cpu:               0.8 elap:               0.1
 (Enter /lrz/sys/applications/gaussian/g16.C.01/x86_64_legacy/exe/l502.exe)
 Integral symmetry usage will be decided dynamically.
 Closed shell SCF:
 Using DIIS extrapolation, IDIIS=  1040.
 NGot=  4294967296 LenX=  4294938204 LenY=  4294924538
 Requested convergence on RMS density matrix=1.00D-08 within 128 cycles.
 Requested convergence on MAX density matrix=1.00D-06.
 Requested convergence on             energy=1.00D-06.
 No special actions if energy rises.
 Fock matrices will be formed incrementally for  20 cycles.

 Cycle   1  Pass 1  IDiag  1:
 FoFJK:  IHMeth= 1 ICntrl=       0 DoSepK=T KAlg= 0 I1Cent=           0 FoldK=F
 IRaf=         1 NMat=       1 IRICut=       1 DoRegI=T DoRafI=F ISym2E= 0 IDoP0=0 IntGTp=1.
 FoFCou: FMM=F IPFlag=           0 FMFlag=      100000 FMFlg1=           0
         NFxFlg=           0 DoJE=T BraDBF=F KetDBF=F FulRan=T
         wScrn=  0.000000 ICntrl=       500 IOpCl=  0 I1Cent=           0 NGrid=           0
         NMat0=    1 NMatS0=      1 NMatT0=    0 NMatD0=    1 NMtDS0=    0 NMtDT0=    0
 Symmetry not used in FoFCou.
 Inv3:  Mode=1 IEnd=     2473392.
 Iteration    1 A*A^-1 deviation from unit magnitude is 4.22D-15 for    465.
 Iteration    1 A*A^-1 deviation from orthogonality  is 2.77D-15 for    733    388.
 Iteration    1 A^-1*A deviation from unit magnitude is 4.88D-15 for     67.
 Iteration    1 A^-1*A deviation from orthogonality  is 2.10D-15 for    450    329.
 E= -269.317753019677    
 DIIS: error= 3.06D-09 at cycle   1 NSaved=   1.
 NSaved= 1 IEnMin= 1 EnMin= -269.317753019677     IErMin= 1 ErrMin= 3.06D-09
 ErrMax= 3.06D-09  0.00D+00 EMaxC= 1.00D-01 BMatC= 2.49D-15 BMatP= 2.49D-15
 IDIUse=1 WtCom= 1.00D+00 WtEn= 0.00D+00
 Coeff-Com:  0.100D+01
 Coeff:      0.100D+01
 Gap=     0.516 Goal=   None    Shift=    0.000
 RMSDP=8.58D-10 MaxDP=1.74D-08              OVMax= 2.25D-08

 Error on total polarization charges =  0.03204
 SCF Done:  E(RwB97XD) =  -269.317753020     A.U. after    1 cycles
            NFock=  1  Conv=0.86D-09     -V/T= 2.0096
 KE= 2.667624640231D+02 PE=-1.020193234872D+03 EE= 2.890030348201D+02
 SMD-CDS (non-electrostatic) energy       (kcal/mol) =       2.95
 (included in total energy above)
 Leave Link  502 at Tue Oct 21 19:35:22 2025, MaxMem=  4294967296 cpu:              24.2 elap:               3.1
 (Enter /lrz/sys/applications/gaussian/g16.C.01/x86_64_legacy/exe/l801.exe)
 DoSCS=F DFT=T ScalE2(SS,OS)=  1.000000  1.000000
 Range of M.O.s used for correlation:     1   110
 NBasis=   110 NAE=    21 NBE=    21 NFC=     0 NFV=     0
 NROrb=    110 NOA=    21 NOB=    21 NVA=    89 NVB=    89
 Leave Link  801 at Tue Oct 21 19:35:22 2025, MaxMem=  4294967296 cpu:               0.2 elap:               0.0
 (Enter /lrz/sys/applications/gaussian/g16.C.01/x86_64_legacy/exe/l1101.exe)
 Using compressed storage, NAtomX=    13.
 Will process     14 centers per pass.
   1 Symmetry operations used in ECPInt.
 ECPInt:  NShTT=    1485 NPrTT=    5139 LenC2=    1483 LenP2D=    4436.
 LDataN:  DoStor=T MaxTD1= 5 Len=  102
 R6Disp: Adding Grimme-D2 dispersion energy 1st derivatives to the gradient.
 Leave Link 1101 at Tue Oct 21 19:35:22 2025, MaxMem=  4294967296 cpu:               0.9 elap:               0.2
 (Enter /lrz/sys/applications/gaussian/g16.C.01/x86_64_legacy/exe/l1102.exe)
 Symmetrizing basis deriv contribution to polar:
 IMax=3 JMax=2 DiffMx= 0.00D+00
 Leave Link 1102 at Tue Oct 21 19:35:22 2025, MaxMem=  4294967296 cpu:               0.2 elap:               0.0
 (Enter /lrz/sys/applications/gaussian/g16.C.01/x86_64_legacy/exe/l1110.exe)
 Forming Gx(P) for the SCF density, NAtomX=    13.
 Integral derivatives from FoFJK, PRISM(SPDF).
 Do as many integral derivatives as possible in FoFJK.
 G2DrvN: MDV=    4294965821.
 G2DrvN: will do    14 centers at a time, making    1 passes.
 Calling FoFCou, ICntrl=  3107 FMM=F I1Cent=   0 AccDes= 0.00D+00.
 FoFJK:  IHMeth= 1 ICntrl=    3107 DoSepK=T KAlg= 0 I1Cent=           0 FoldK=F
 IRaf=         1 NMat=       1 IRICut=       1 DoRegI=T DoRafI=F ISym2E= 0 IDoP0=0 IntGTp=1.
 FoFCou: FMM=F IPFlag=           0 FMFlag=      100000 FMFlg1=           0
         NFxFlg=           0 DoJE=F BraDBF=F KetDBF=F FulRan=T
         wScrn=  0.000000 ICntrl=      3507 IOpCl=  0 I1Cent=           0 NGrid=           0
         NMat0=    1 NMatS0=      1 NMatT0=    0 NMatD0=    1 NMtDS0=    0 NMtDT0=    0
 Symmetry not used in FoFCou.
 NEqPCM:  Using equilibrium solvation (IEInf=0, Eps=  78.3553, EpsInf=   1.7778)
 G2PCM: DoFxE=T DoFxN=T DoGrad=T DoDP/DQ/DG/TGxP=FFFF NFrqRd=   0 IEInf=0 SqF1=F DoCFld=F IF1Alg=4.
 GePol: Maximum number of non-zero 1st derivatives   =     248
 End of G2Drv F.D. properties file   721 does not exist.
 End of G2Drv F.D. properties file   722 does not exist.
 End of G2Drv F.D. properties file   788 does not exist.
 Leave Link 1110 at Tue Oct 21 19:35:41 2025, MaxMem=  4294967296 cpu:             149.9 elap:              18.8
 (Enter /lrz/sys/applications/gaussian/g16.C.01/x86_64_legacy/exe/l1002.exe)
 Minotr:  Closed shell wavefunction.
          IDoAtm=1111111111111
 NEqPCM:  Using equilibrium solvation (IEInf=0, Eps=  78.3553, EpsInf=   1.7778)
          Direct CPHF calculation.
          Differentiating once with respect to electric field.
                with respect to dipole field.
          Differentiating once with respect to nuclear coordinates.
          Requested convergence is 1.0D-08 RMS, and 1.0D-07 maximum.
          Secondary convergence is 1.0D-12 RMS, and 1.0D-12 maximum.
          NewPWx=T KeepS1=F KeepF1=F KeepIn=T MapXYZ=F SortEE=F KeepMc=T.
         3861 words used for storage of precomputed grid.
 Keep R1 ints in memory in canonical form, NReq=45462283.
 FoFCou: FMM=F IPFlag=           0 FMFlag=           0 FMFlg1=           0
         NFxFlg=           0 DoJE=F BraDBF=F KetDBF=F FulRan=T
         wScrn=  0.000000 ICntrl=       600 IOpCl=  0 I1Cent=           0 NGrid=           0
         NMat0=    1 NMatS0=   6105 NMatT0=    0 NMatD0=    1 NMtDS0=    0 NMtDT0=    0
 Symmetry not used in FoFCou.
 Two-electron integral symmetry not used.
          MDV=    4294967296 using IRadAn=       1.
          Solving linear equations simultaneously, MaxMat=       0.
          There are    42 degrees of freedom in the 1st order CPHF.  IDoFFX=6 NUNeed=     3.
     39 vectors produced by pass  0 Test12= 4.45D-15 2.38D-09 XBig12= 1.30D+01 1.25D+00.
 AX will form    39 AO Fock derivatives at one time.
     39 vectors produced by pass  1 Test12= 4.45D-15 2.38D-09 XBig12= 8.74D-01 1.33D-01.
     39 vectors produced by pass  2 Test12= 4.45D-15 2.38D-09 XBig12= 1.85D-02 1.51D-02.
     39 vectors produced by pass  3 Test12= 4.45D-15 2.38D-09 XBig12= 8.55D-05 1.21D-03.
     39 vectors produced by pass  4 Test12= 4.45D-15 2.38D-09 XBig12= 3.95D-07 1.11D-04.
     39 vectors produced by pass  5 Test12= 4.45D-15 2.38D-09 XBig12= 1.97D-09 6.36D-06.
     19 vectors produced by pass  6 Test12= 4.45D-15 2.38D-09 XBig12= 7.34D-12 3.15D-07.
      3 vectors produced by pass  7 Test12= 4.45D-15 2.38D-09 XBig12= 2.93D-14 2.16D-08.
 InvSVY:  IOpt=1 It=  1 EMax= 1.78D-15
 Solved reduced A of dimension   256 with    42 vectors.
 FullF1:  Do perturbations      1 to       3.
 Isotropic polarizability for W=    0.000000       52.33 Bohr**3.
 End of Minotr F.D. properties file   721 does not exist.
 End of Minotr F.D. properties file   722 does not exist.
 End of Minotr F.D. properties file   788 does not exist.
 Leave Link 1002 at Tue Oct 21 19:36:00 2025, MaxMem=  4294967296 cpu:             153.5 elap:              19.2
 (Enter /lrz/sys/applications/gaussian/g16.C.01/x86_64_legacy/exe/l601.exe)
 Copying SCF densities to generalized density rwf, IOpCl= 0 IROHF=0.

 **********************************************************************

            Population analysis using the SCF Density.

 **********************************************************************

 Orbital symmetries:
       Occupied  (A) (A) (A) (A) (A) (A) (A) (A) (A) (A) (A) (A)
                 (A) (A) (A) (A) (A) (A) (A) (A) (A)
       Virtual   (A) (A) (A) (A) (A) (A) (A) (A) (A) (A) (A) (A)
                 (A) (A) (A) (A) (A) (A) (A) (A) (A) (A) (A) (A)
                 (A) (A) (A) (A) (A) (A) (A) (A) (A) (A) (A) (A)
                 (A) (A) (A) (A) (A) (A) (A) (A) (A) (A) (A) (A)
                 (A) (A) (A) (A) (A) (A) (A) (A) (A) (A) (A) (A)
                 (A) (A) (A) (A) (A) (A) (A) (A) (A) (A) (A) (A)
                 (A) (A) (A) (A) (A) (A) (A) (A) (A) (A) (A) (A)
                 (A) (A) (A) (A) (A)
 The electronic state is 1-A.
 Alpha  occ. eigenvalues --  -19.25743 -19.25619 -10.38369 -10.28647 -10.28240
 Alpha  occ. eigenvalues --   -1.14981  -1.07798  -0.86268  -0.75480  -0.68773
 Alpha  occ. eigenvalues --   -0.62183  -0.57114  -0.54815  -0.50444  -0.49806
 Alpha  occ. eigenvalues --   -0.45855  -0.44280  -0.41527  -0.39693  -0.39352
 Alpha  occ. eigenvalues --   -0.36593
 Alpha virt. eigenvalues --    0.15044   0.16899   0.17789   0.20488   0.21580
 Alpha virt. eigenvalues --    0.22979   0.24331   0.25193   0.30328   0.31980
 Alpha virt. eigenvalues --    0.34588   0.36648   0.51828   0.52559   0.54137
 Alpha virt. eigenvalues --    0.58114   0.60177   0.63893   0.68284   0.70463
 Alpha virt. eigenvalues --    0.71626   0.73396   0.74729   0.75212   0.76618
 Alpha virt. eigenvalues --    0.77921   0.79096   0.80362   0.80948   0.83866
 Alpha virt. eigenvalues --    0.97150   1.05455   1.07569   1.08845   1.10432
 Alpha virt. eigenvalues --    1.12897   1.18930   1.31999   1.33932   1.36260
 Alpha virt. eigenvalues --    1.44140   1.45357   1.49946   1.53658   1.60403
 Alpha virt. eigenvalues --    1.63149   1.65095   1.69808   1.74910   1.80141
 Alpha virt. eigenvalues --    1.83035   1.86516   1.88495   1.90529   1.91044
 Alpha virt. eigenvalues --    1.92838   1.95888   1.98348   2.04466   2.04878
 Alpha virt. eigenvalues --    2.07200   2.12074   2.18040   2.22746   2.31246
 Alpha virt. eigenvalues --    2.32228   2.37789   2.41725   2.47299   2.49812
 Alpha virt. eigenvalues --    2.60239   2.63629   2.67792   2.84791   2.85965
 Alpha virt. eigenvalues --    2.89016   2.98424   3.03710   3.04091   3.06030
 Alpha virt. eigenvalues --    3.08300   3.11084   3.16188   3.25145   3.25471
 Alpha virt. eigenvalues --    3.45680   3.49613   3.85019   3.86903
          Condensed to atoms (all electrons):
               1          2          3          4          5          6
     1  O    7.872912   0.317840  -0.065315  -0.048808  -0.000811   0.328119
     2  C    0.317840   4.418406   0.344527   0.366397  -0.040368  -0.023376
     3  O   -0.065315   0.344527   7.846571  -0.078029   0.005017   0.004625
     4  C   -0.048808   0.366397  -0.078029   4.908992   0.358372  -0.011080
     5  C   -0.000811  -0.040368   0.005017   0.358372   4.623951  -0.001511
     6  H    0.328119  -0.023376   0.004625  -0.011080  -0.001511   0.473467
     7  H   -0.042845   0.410685  -0.029819  -0.053756  -0.002102   0.009192
     8  H    0.006119  -0.014718   0.323550   0.010275  -0.000583  -0.000811
     9  H    0.005313  -0.013385   0.006896   0.355397  -0.014101  -0.000142
    10  H   -0.005951  -0.008452   0.004365   0.351663  -0.019938   0.006762
    11  H   -0.001266  -0.003923  -0.000081  -0.025584   0.396754   0.000141
    12  H    0.015258  -0.010455   0.000330  -0.023649   0.391426   0.001081
    13  H    0.000188   0.005936  -0.000097  -0.010992   0.386529  -0.000076
               7          8          9         10         11         12
     1  O   -0.042845   0.006119   0.005313  -0.005951  -0.001266   0.015258
     2  C    0.410685  -0.014718  -0.013385  -0.008452  -0.003923  -0.010455
     3  O   -0.029819   0.323550   0.006896   0.004365  -0.000081   0.000330
     4  C   -0.053756   0.010275   0.355397   0.351663  -0.025584  -0.023649
     5  C   -0.002102  -0.000583  -0.014101  -0.019938   0.396754   0.391426
     6  H    0.009192  -0.000811  -0.000142   0.006762   0.000141   0.001081
     7  H    0.678285  -0.008035  -0.006050   0.009100   0.005676  -0.001332
     8  H   -0.008035   0.471860  -0.000529  -0.000565  -0.000000  -0.000034
     9  H   -0.006050  -0.000529   0.649415  -0.022880  -0.007788   0.007635
    10  H    0.009100  -0.000565  -0.022880   0.653750   0.007285  -0.008177
    11  H    0.005676  -0.000000  -0.007788   0.007285   0.630295  -0.023765
    12  H   -0.001332  -0.000034   0.007635  -0.008177  -0.023765   0.635340
    13  H   -0.000154   0.000013  -0.006233  -0.006435  -0.021451  -0.019853
              13
     1  O    0.000188
     2  C    0.005936
     3  O   -0.000097
     4  C   -0.010992
     5  C    0.386529
     6  H   -0.000076
     7  H   -0.000154
     8  H    0.000013
     9  H   -0.006233
    10  H   -0.006435
    11  H   -0.021451
    12  H   -0.019853
    13  H    0.622435
 Mulliken charges:
               1
     1  O   -0.380753
     2  C    0.250887
     3  O   -0.362540
     4  C   -0.099198
     5  C   -0.082635
     6  H    0.213607
     7  H    0.031153
     8  H    0.213458
     9  H    0.046452
    10  H    0.039474
    11  H    0.043706
    12  H    0.036198
    13  H    0.050191
 Sum of Mulliken charges =   0.00000
 Mulliken charges with hydrogens summed into heavy atoms:
               1
     1  O   -0.167146
     2  C    0.282040
     3  O   -0.149082
     4  C   -0.013273
     5  C    0.047460
 APT charges:
               1
     1  O   -0.937897
     2  C    1.270085
     3  O   -0.948815
     4  C    0.024222
     5  C    0.051808
     6  H    0.370864
     7  H   -0.098399
     8  H    0.365515
     9  H   -0.023867
    10  H   -0.036888
    11  H   -0.020173
    12  H   -0.004793
    13  H   -0.011662
 Sum of APT charges =  -0.00000
 APT charges with hydrogens summed into heavy atoms:
               1
     1  O   -0.567034
     2  C    1.171686
     3  O   -0.583300
     4  C   -0.036532
     5  C    0.015180
 Electronic spatial extent (au):  <R**2>=            476.7692
 Charge=             -0.0000 electrons
 Dipole moment (field-independent basis, Debye):
    X=              0.1197    Y=             -0.0109    Z=             -0.1411  Tot=              0.1854
 Quadrupole moment (field-independent basis, Debye-Ang):
   XX=            -28.2703   YY=            -35.5034   ZZ=            -28.2774
   XY=             -1.4631   XZ=             -1.8529   YZ=             -3.1376
 Traceless Quadrupole moment (field-independent basis, Debye-Ang):
   XX=              2.4134   YY=             -4.8197   ZZ=              2.4063
   XY=             -1.4631   XZ=             -1.8529   YZ=             -3.1376
 Octapole moment (field-independent basis, Debye-Ang**2):
  XXX=            -24.7811  YYY=              0.3722  ZZZ=             -1.9157  XYY=              1.5121
  XXY=              1.0864  XXZ=              4.5491  XZZ=             -5.1527  YZZ=              4.0542
  YYZ=             -3.8545  XYZ=              2.5590
 Hexadecapole moment (field-independent basis, Debye-Ang**3):
 XXXX=           -331.2862 YYYY=           -154.9373 ZZZZ=            -55.5423 XXXY=             -1.0178
 XXXZ=            -15.1894 YYYX=              0.3024 YYYZ=             -9.1869 ZZZX=              1.2143
 ZZZY=             -5.1189 XXYY=            -93.8791 XXZZ=            -71.0892 YYZZ=            -31.4639
 XXYZ=             -3.4014 YYXZ=              1.3376 ZZXY=             -1.7593
 N-N= 1.951099830095D+02 E-N=-1.020193235206D+03  KE= 2.667624640231D+02
  Exact polarizability:      53.381       0.682      50.645      -0.619      -0.812      52.962
 Approx polarizability:      40.659       0.536      40.819      -0.422      -0.205      41.299
 No NMR shielding tensors so no spin-rotation constants.
 Leave Link  601 at Tue Oct 21 19:36:00 2025, MaxMem=  4294967296 cpu:               0.7 elap:               0.1
 (Enter /lrz/sys/applications/gaussian/g16.C.01/x86_64_legacy/exe/l701.exe)
 ... and contract with generalized density number  0.
 Compute integral second derivatives.
 R6Disp: Adding Grimme-D2 dispersion energy 2nd derivatives to the Hessian.
   1 Symmetry operations used in ECPInt.
 ECPInt:  NShTT=    1485 NPrTT=    5139 LenC2=    1483 LenP2D=    4436.
 LDataN:  DoStor=T MaxTD1= 6 Len=  172
 D2PCM: PCM CHGder 2nd derivatives, FixD1E=F FixD2E=F DoIter=F DoCFld=F I1PDM=0
 GePol: Maximum number of non-zero 2nd derivatives   =     248
 Leave Link  701 at Tue Oct 21 19:36:04 2025, MaxMem=  4294967296 cpu:              27.7 elap:               3.5
 (Enter /lrz/sys/applications/gaussian/g16.C.01/x86_64_legacy/exe/l702.exe)
 L702 exits ... SP integral derivatives will be done elsewhere.
 Leave Link  702 at Tue Oct 21 19:36:04 2025, MaxMem=  4294967296 cpu:               0.2 elap:               0.0
 (Enter /lrz/sys/applications/gaussian/g16.C.01/x86_64_legacy/exe/l703.exe)
 Integral derivatives from FoFJK, PRISM(SPDF).
 Compute integral second derivatives, UseDBF=F ICtDFT=           0.
 Calling FoFJK, ICntrl=    100127 FMM=F ISym2X=0 I1Cent= 0 IOpClX= 0 NMat=1 NMatS=1 NMatT=0.
 FoFJK:  IHMeth= 1 ICntrl=  100127 DoSepK=T KAlg= 0 I1Cent=           0 FoldK=F
 IRaf=         1 NMat=       1 IRICut=       1 DoRegI=T DoRafI=F ISym2E= 0 IDoP0=0 IntGTp=1.
 FoFCou: FMM=F IPFlag=           0 FMFlag=      100000 FMFlg1=         800
         NFxFlg=           0 DoJE=F BraDBF=F KetDBF=F FulRan=T
         wScrn=  0.000000 ICntrl=    100527 IOpCl=  0 I1Cent=           0 NGrid=           0
         NMat0=    1 NMatS0=      1 NMatT0=    0 NMatD0=    1 NMtDS0=    0 NMtDT0=    0
 Symmetry not used in FoFCou.
 Leave Link  703 at Tue Oct 21 19:36:29 2025, MaxMem=  4294967296 cpu:             202.9 elap:              25.4
 (Enter /lrz/sys/applications/gaussian/g16.C.01/x86_64_legacy/exe/l716.exe)
 Dipole        = 4.71006109D-02-4.29613922D-03-5.55250539D-02
 Polarizability= 5.33809752D+01 6.81964179D-01 5.06448706D+01
                -6.19250168D-01-8.11976407D-01 5.29622988D+01
 Full mass-weighted force constant matrix:
 Low frequencies ---  -23.3076   -2.3567    0.0004    0.0008    0.0009   19.8142
 Low frequencies ---  123.9151  241.8258  265.8048
 Diagonal vibrational polarizability:
       50.8901932      31.3277876      31.8693369
 Harmonic frequencies (cm**-1), IR intensities (KM/Mole), Raman scattering
 activities (A**4/AMU), depolarization ratios for plane and unpolarized
 incident light, reduced masses (AMU), force constants (mDyne/A),
 and normal coordinates:
                      1                      2                      3
                      A                      A                      A
 Frequencies --    123.8262               241.7966               265.7929
 Red. masses --      1.9918                 1.1527                 2.9247
 Frc consts  --      0.0180                 0.0397                 0.1217
 IR Inten    --      0.2173                 0.4208                 5.0769
  Atom  AN      X      Y      Z        X      Y      Z        X      Y      Z
     1   8    -0.07   0.01  -0.09    -0.01   0.01   0.02     0.20  -0.08  -0.03
     2   6     0.03   0.04  -0.04     0.02  -0.01  -0.03     0.03  -0.10  -0.04
     3   8     0.02  -0.03   0.12    -0.00  -0.01   0.03    -0.10   0.05   0.07
     4   6     0.01   0.08  -0.13     0.01   0.02  -0.09     0.00  -0.06  -0.11
     5   6     0.03  -0.10   0.12    -0.01  -0.01   0.04    -0.16   0.16   0.07
     6   1    -0.19  -0.04  -0.10    -0.10   0.04   0.01     0.34  -0.06  -0.02
     7   1     0.14   0.09  -0.05     0.09  -0.03  -0.04     0.11  -0.12  -0.05
     8   1     0.04  -0.01   0.14     0.04  -0.06   0.14     0.02   0.02   0.31
     9   1    -0.08  -0.00  -0.36    -0.02   0.00  -0.14     0.12  -0.09  -0.18
    10   1     0.06   0.34  -0.14     0.05   0.09  -0.09     0.05   0.03  -0.12
    11   1     0.04  -0.51   0.13    -0.37   0.39   0.07    -0.27   0.04   0.09
    12   1     0.05   0.04   0.51     0.26  -0.15  -0.36    -0.39   0.21   0.23
    13   1     0.02   0.05  -0.07     0.07  -0.31   0.53     0.01   0.44   0.07
                      4                      5                      6
                      A                      A                      A
 Frequencies --    330.5905               360.8774               460.4416
 Red. masses --      1.1039                 1.1432                 4.1499
 Frc consts  --      0.0711                 0.0877                 0.5184
 IR Inten    --    152.4370               185.6309                52.3885
  Atom  AN      X      Y      Z        X      Y      Z        X      Y      Z
     1   8    -0.01  -0.04   0.01    -0.02  -0.01  -0.01     0.11   0.14   0.02
     2   6     0.04  -0.03   0.01    -0.02   0.01   0.02     0.06   0.12   0.02
     3   8    -0.01   0.03   0.03     0.01  -0.06   0.04     0.27  -0.14  -0.00
     4   6     0.03  -0.03  -0.02    -0.03   0.05  -0.02    -0.16  -0.06  -0.02
     5   6    -0.01   0.02   0.01    -0.00  -0.00  -0.01    -0.27  -0.05  -0.01
     6   1    -0.45  -0.10  -0.01     0.83   0.11   0.05    -0.26   0.12  -0.00
     7   1     0.09  -0.02   0.01    -0.03   0.02   0.02     0.07   0.18   0.02
     8   1    -0.08   0.62  -0.60    -0.08   0.28  -0.39     0.06  -0.21  -0.32
     9   1     0.05  -0.03  -0.03    -0.03   0.02  -0.11    -0.28  -0.03   0.06
    10   1     0.02  -0.01  -0.02    -0.06   0.13  -0.02    -0.26  -0.10  -0.01
    11   1    -0.05   0.04   0.01    -0.03   0.02  -0.01    -0.38  -0.06   0.01
    12   1    -0.05   0.02  -0.00     0.07  -0.02  -0.05    -0.39  -0.03   0.04
    13   1     0.03   0.06   0.04    -0.02  -0.07   0.02    -0.16   0.08   0.05
                      7                      8                      9
                      A                      A                      A
 Frequencies --    499.0067               609.1228               801.4168
 Red. masses --      2.1864                 4.1145                 1.2417
 Frc consts  --      0.3208                 0.8995                 0.4699
 IR Inten    --     69.5164                70.7356                11.0108
  Atom  AN      X      Y      Z        X      Y      Z        X      Y      Z
     1   8     0.16  -0.06  -0.05    -0.17  -0.16  -0.06     0.01  -0.05   0.01
     2   6    -0.08  -0.02   0.14     0.14  -0.02   0.21     0.02  -0.02   0.00
     3   8    -0.02  -0.05  -0.03     0.16   0.24  -0.09     0.01   0.01  -0.00
     4   6    -0.08   0.15   0.04    -0.03  -0.03  -0.00    -0.04   0.10  -0.04
     5   6     0.02   0.02  -0.02    -0.09  -0.03  -0.02    -0.03   0.03  -0.03
     6   1    -0.32  -0.37  -0.09     0.32  -0.46  -0.04     0.01  -0.11   0.00
     7   1    -0.23   0.02   0.14     0.11  -0.02   0.21     0.09  -0.08  -0.00
     8   1    -0.11  -0.14  -0.12     0.22  -0.03   0.23     0.03   0.04   0.01
     9   1     0.00   0.03  -0.34    -0.04  -0.12  -0.26     0.15   0.27   0.44
    10   1    -0.21   0.52   0.04    -0.24   0.27   0.01    -0.16  -0.43  -0.01
    11   1     0.11   0.05  -0.03    -0.18   0.05  -0.01    -0.23  -0.33   0.01
    12   1     0.21  -0.01  -0.10    -0.19  -0.04  -0.06     0.40   0.12   0.24
    13   1    -0.11  -0.18  -0.04    -0.01   0.04   0.07    -0.11  -0.20   0.09
                     10                     11                     12
                      A                      A                      A
 Frequencies --    887.0053              1029.2349              1083.4200
 Red. masses --      1.7040                 1.5241                 1.3291
 Frc consts  --      0.7899                 0.9513                 0.9192
 IR Inten    --     31.0593                21.1081                51.9651
  Atom  AN      X      Y      Z        X      Y      Z        X      Y      Z
     1   8    -0.00   0.06  -0.01    -0.02   0.07  -0.02     0.00   0.03   0.00
     2   6    -0.07   0.05   0.13    -0.01  -0.02   0.04    -0.04   0.04   0.08
     3   8    -0.02  -0.01  -0.01    -0.01   0.00   0.00    -0.01   0.01   0.00
     4   6     0.04  -0.10  -0.08     0.13  -0.06   0.03     0.02   0.01  -0.11
     5   6     0.11   0.00  -0.05    -0.12   0.01  -0.03    -0.02  -0.02   0.06
     6   1     0.02  -0.15  -0.02    -0.00   0.07  -0.02     0.09  -0.46  -0.01
     7   1    -0.19   0.11   0.13    -0.13   0.09   0.05     0.21  -0.12   0.08
     8   1    -0.18  -0.18  -0.13    -0.05  -0.05  -0.03    -0.24  -0.25  -0.19
     9   1     0.15  -0.08  -0.04     0.70  -0.13  -0.20    -0.04   0.09   0.15
    10   1    -0.30  -0.17  -0.04     0.17   0.13   0.02     0.48  -0.26  -0.16
    11   1    -0.39  -0.11   0.02    -0.07  -0.24  -0.03     0.26   0.14   0.02
    12   1    -0.00   0.10   0.22     0.23   0.02   0.01    -0.08  -0.09  -0.16
    13   1     0.46   0.29   0.31    -0.33  -0.32  -0.05    -0.14  -0.02  -0.17
                     13                     14                     15
                      A                      A                      A
 Frequencies --   1096.0662              1204.3038              1245.1722
 Red. masses --      2.2138                 1.9254                 1.3708
 Frc consts  --      1.5670                 1.6453                 1.2522
 IR Inten    --      9.9708               188.7239                 5.0504
  Atom  AN      X      Y      Z        X      Y      Z        X      Y      Z
     1   8     0.01  -0.01   0.01    -0.02   0.17  -0.02    -0.01  -0.00   0.01
     2   6     0.01   0.02   0.01     0.11  -0.08   0.05     0.08   0.05  -0.01
     3   8    -0.05  -0.03  -0.01    -0.06  -0.09  -0.05    -0.06  -0.01  -0.01
     4   6     0.16   0.18   0.06    -0.01  -0.01   0.01     0.01  -0.03   0.10
     5   6    -0.07  -0.17  -0.09     0.00   0.02   0.02    -0.01   0.05  -0.08
     6   1     0.01  -0.12   0.00     0.08  -0.54  -0.05     0.03  -0.11   0.00
     7   1    -0.12  -0.04   0.01     0.11  -0.40   0.05     0.58  -0.03  -0.04
     8   1     0.06   0.11   0.07     0.35   0.42   0.28    -0.29  -0.28  -0.19
     9   1     0.04   0.23   0.19    -0.12  -0.01   0.00    -0.35  -0.09  -0.07
    10   1     0.27   0.08   0.06    -0.24   0.01   0.04     0.21   0.24   0.07
    11   1    -0.49  -0.02  -0.04     0.04  -0.00   0.01    -0.20  -0.21  -0.04
    12   1    -0.58  -0.15  -0.02     0.02   0.01  -0.01     0.15   0.13   0.15
    13   1     0.20   0.19   0.05    -0.05  -0.04  -0.01     0.02  -0.10   0.15
                     16                     17                     18
                      A                      A                      A
 Frequencies --   1258.7121              1305.6434              1353.4458
 Red. masses --      1.3250                 2.0594                 1.4446
 Frc consts  --      1.2369                 2.0684                 1.5591
 IR Inten    --     16.4731               190.3320               101.7701
  Atom  AN      X      Y      Z        X      Y      Z        X      Y      Z
     1   8     0.00  -0.00   0.03     0.01  -0.08   0.03    -0.00   0.03  -0.01
     2   6    -0.10   0.01  -0.05     0.11   0.15   0.07    -0.02  -0.08  -0.05
     3   8     0.07   0.02   0.03    -0.09  -0.07  -0.05     0.03   0.06   0.06
     4   6    -0.01  -0.04   0.02     0.11  -0.04  -0.08     0.13   0.01  -0.01
     5   6    -0.00   0.04  -0.06    -0.04   0.05   0.03     0.01   0.04   0.03
     6   1     0.04  -0.34   0.01    -0.02   0.05   0.04    -0.00  -0.03  -0.02
     7   1    -0.45  -0.14  -0.02    -0.40   0.54   0.09    -0.28  -0.33  -0.03
     8   1     0.21   0.21   0.12     0.14   0.17   0.15    -0.25  -0.26  -0.19
     9   1    -0.33  -0.08  -0.08    -0.49  -0.00   0.08    -0.45   0.00   0.02
    10   1     0.55   0.03  -0.05    -0.08  -0.05  -0.06    -0.44  -0.03   0.06
    11   1    -0.12  -0.15  -0.04     0.07  -0.14   0.01    -0.14  -0.19   0.04
    12   1     0.18   0.11   0.12     0.12  -0.01  -0.13    -0.16  -0.04  -0.17
    13   1     0.04  -0.05   0.11    -0.20  -0.12  -0.08    -0.21  -0.20  -0.12
                     19                     20                     21
                      A                      A                      A
 Frequencies --   1361.3786              1402.6643              1443.5119
 Red. masses --      1.7037                 1.3178                 1.2660
 Frc consts  --      1.8603                 1.5276                 1.5543
 IR Inten    --     10.8245                 1.9509                62.7054
  Atom  AN      X      Y      Z        X      Y      Z        X      Y      Z
     1   8     0.00   0.04  -0.08    -0.00   0.00  -0.01     0.00   0.02   0.02
     2   6     0.01  -0.15   0.16     0.02  -0.00  -0.01    -0.06  -0.09  -0.01
     3   8     0.00   0.01  -0.02    -0.00   0.01   0.02     0.01   0.01  -0.01
     4   6    -0.01   0.02  -0.03     0.07   0.00  -0.00     0.06   0.06   0.03
     5   6     0.00   0.02  -0.02    -0.14  -0.06  -0.03    -0.03  -0.02  -0.01
     6   1    -0.11   0.73  -0.05    -0.01   0.03  -0.01     0.03  -0.12   0.01
     7   1     0.00  -0.06   0.17    -0.13  -0.22   0.00     0.23   0.52  -0.04
     8   1     0.04   0.05   0.02    -0.09  -0.08  -0.06     0.04   0.03   0.03
     9   1    -0.37   0.06   0.13    -0.12   0.05   0.11    -0.23  -0.12  -0.47
    10   1     0.42  -0.03  -0.07    -0.15   0.11   0.02    -0.08  -0.52   0.06
    11   1    -0.05  -0.05  -0.02     0.48   0.14  -0.11     0.08   0.15  -0.03
    12   1     0.03   0.04   0.04     0.50  -0.00   0.11     0.08   0.04   0.15
    13   1     0.01  -0.03   0.04     0.28   0.39   0.25    -0.00   0.01   0.03
                     22                     23                     24
                      A                      A                      A
 Frequencies --   1457.3753              1462.4536              1472.3597
 Red. masses --      1.1522                 1.0721                 1.2520
 Frc consts  --      1.4418                 1.3510                 1.5992
 IR Inten    --     19.4830                 7.9774                71.0443
  Atom  AN      X      Y      Z        X      Y      Z        X      Y      Z
     1   8    -0.01  -0.00  -0.01    -0.00  -0.01  -0.01    -0.01   0.04   0.02
     2   6     0.09   0.03   0.00     0.04   0.04   0.01     0.03  -0.12  -0.03
     3   8    -0.02  -0.00   0.01    -0.01  -0.00   0.00     0.00   0.02   0.01
     4   6    -0.02   0.00   0.02    -0.01   0.02  -0.01    -0.01  -0.03  -0.04
     5   6     0.02  -0.04  -0.00     0.00   0.01  -0.04     0.01  -0.02  -0.02
     6   1    -0.02   0.05  -0.01    -0.01   0.05  -0.00     0.05  -0.23   0.01
     7   1    -0.29  -0.21   0.03    -0.15  -0.17   0.02    -0.13   0.53  -0.05
     8   1    -0.11  -0.11  -0.07    -0.04  -0.03  -0.02    -0.08  -0.09  -0.06
     9   1    -0.00  -0.07  -0.19     0.05  -0.02  -0.12    -0.03   0.14   0.45
    10   1     0.08  -0.18   0.01    -0.02  -0.16  -0.01    -0.00   0.43  -0.05
    11   1    -0.31   0.53   0.03     0.39   0.11  -0.08     0.02   0.28  -0.02
    12   1     0.22   0.10   0.37    -0.43   0.14   0.35    -0.06   0.10   0.30
    13   1    -0.15   0.03  -0.40    -0.02  -0.44   0.45    -0.06  -0.14  -0.00
                     25                     26                     27
                      A                      A                      A
 Frequencies --   1493.2446              3053.2158              3056.1633
 Red. masses --      1.6330                 1.0473                 1.0660
 Frc consts  --      2.1453                 5.7524                 5.8664
 IR Inten    --     97.6870                32.2153                21.6009
  Atom  AN      X      Y      Z        X      Y      Z        X      Y      Z
     1   8    -0.02   0.03   0.01     0.00  -0.00  -0.00    -0.00   0.00   0.00
     2   6     0.17  -0.07  -0.03     0.00   0.00   0.02     0.00  -0.00  -0.05
     3   8    -0.03   0.01   0.02     0.00   0.00  -0.00    -0.00  -0.00   0.00
     4   6    -0.11   0.05   0.03    -0.00  -0.02  -0.03     0.00   0.02   0.04
     5   6     0.00   0.02   0.01    -0.03  -0.02  -0.02    -0.02  -0.01  -0.02
     6   1     0.01  -0.13   0.00     0.00   0.00   0.01     0.00  -0.00  -0.01
     7   1    -0.47   0.23  -0.02    -0.01  -0.01  -0.29     0.03   0.02   0.57
     8   1    -0.23  -0.22  -0.15     0.00   0.00  -0.00    -0.00  -0.00  -0.00
     9   1     0.13  -0.01  -0.19    -0.01   0.21  -0.08     0.01  -0.22   0.08
    10   1     0.23  -0.21   0.00     0.05   0.01   0.43    -0.06  -0.01  -0.53
    11   1     0.07  -0.37   0.01     0.06   0.01   0.52     0.05   0.01   0.40
    12   1    -0.01  -0.11  -0.35    -0.01   0.42  -0.15    -0.00   0.29  -0.11
    13   1     0.19   0.19   0.15     0.35  -0.22  -0.18     0.21  -0.13  -0.11
                     28                     29                     30
                      A                      A                      A
 Frequencies --   3060.9208              3123.9093              3147.7454
 Red. masses --      1.0774                 1.1022                 1.1041
 Frc consts  --      5.9477                 6.3375                 6.4454
 IR Inten    --    104.1079                21.7872                49.8738
  Atom  AN      X      Y      Z        X      Y      Z        X      Y      Z
     1   8     0.00   0.00   0.00    -0.00   0.00  -0.00    -0.00  -0.00   0.00
     2   6    -0.00  -0.00  -0.06    -0.00  -0.00   0.01    -0.00   0.00  -0.00
     3   8    -0.00  -0.00   0.00     0.00   0.00  -0.00     0.00  -0.00   0.00
     4   6    -0.00  -0.03  -0.03     0.01  -0.07   0.06    -0.00   0.01  -0.02
     5   6     0.00   0.00   0.00     0.00   0.02  -0.02     0.02   0.01  -0.09
     6   1     0.00  -0.01  -0.01    -0.00   0.00   0.00     0.00  -0.00   0.00
     7   1     0.04   0.02   0.75    -0.00  -0.00  -0.08    -0.00   0.00   0.01
     8   1    -0.00  -0.00   0.00    -0.00   0.00  -0.00     0.00  -0.00  -0.00
     9   1    -0.00   0.35  -0.13    -0.02   0.79  -0.27     0.00  -0.18   0.06
    10   1     0.05   0.01   0.53    -0.05  -0.02  -0.45     0.02   0.01   0.15
    11   1    -0.01  -0.00  -0.09     0.02   0.01   0.17     0.09   0.02   0.72
    12   1    -0.00  -0.06   0.02     0.00  -0.20   0.07     0.01  -0.41   0.13
    13   1    -0.03   0.01   0.01    -0.02   0.01   0.00    -0.37   0.23   0.18
                     31                     32                     33
                      A                      A                      A
 Frequencies --   3159.7211              3836.1764              3862.3947
 Red. masses --      1.1047                 1.0660                 1.0668
 Frc consts  --      6.4982                 9.2429                 9.3764
 IR Inten    --     33.8944               100.6190               121.9309
  Atom  AN      X      Y      Z        X      Y      Z        X      Y      Z
     1   8     0.00   0.00  -0.00     0.00   0.00  -0.06     0.00   0.00  -0.00
     2   6    -0.00  -0.00   0.00     0.00  -0.00  -0.00    -0.00   0.00   0.00
     3   8    -0.00   0.00   0.00     0.00  -0.00  -0.00    -0.05   0.02   0.03
     4   6     0.00  -0.01   0.01    -0.00  -0.00   0.00     0.00  -0.00  -0.00
     5   6     0.05  -0.08  -0.00    -0.00  -0.00  -0.00     0.00   0.00   0.00
     6   1    -0.00   0.00   0.00    -0.06  -0.04   0.99    -0.00  -0.00   0.03
     7   1    -0.00  -0.00  -0.01     0.00   0.00   0.01     0.00   0.00   0.00
     8   1     0.00  -0.00  -0.00    -0.03   0.01   0.01     0.81  -0.37  -0.45
     9   1    -0.00   0.13  -0.04     0.00  -0.00   0.00     0.00   0.00   0.00
    10   1    -0.01  -0.00  -0.04    -0.00   0.00  -0.00     0.00  -0.00  -0.00
    11   1     0.00  -0.01  -0.01     0.00  -0.00   0.00    -0.00  -0.00  -0.00
    12   1     0.00   0.65  -0.23    -0.00   0.00  -0.00    -0.00   0.00   0.00
    13   1    -0.55   0.33   0.29     0.00  -0.00  -0.00     0.00  -0.00  -0.00

 -------------------
 - Thermochemistry -
 -------------------
 Temperature   298.150 Kelvin.  Pressure   1.00000 Atm.
 Atom     1 has atomic number  8 and mass  15.99491
 Atom     2 has atomic number  6 and mass  12.00000
 Atom     3 has atomic number  8 and mass  15.99491
 Atom     4 has atomic number  6 and mass  12.00000
 Atom     5 has atomic number  6 and mass  12.00000
 Atom     6 has atomic number  1 and mass   1.00783
 Atom     7 has atomic number  1 and mass   1.00783
 Atom     8 has atomic number  1 and mass   1.00783
 Atom     9 has atomic number  1 and mass   1.00783
 Atom    10 has atomic number  1 and mass   1.00783
 Atom    11 has atomic number  1 and mass   1.00783
 Atom    12 has atomic number  1 and mass   1.00783
 Atom    13 has atomic number  1 and mass   1.00783
 Molecular mass:    76.05243 amu.
 Principal axes and moments of inertia in atomic units:
                           1         2         3
     Eigenvalues --   211.91668 502.03305 648.97392
           X            0.99996  -0.00832  -0.00413
           Y            0.00824   0.99980  -0.01829
           Z            0.00429   0.01826   0.99982
 This molecule is an asymmetric top.
 Rotational symmetry number  1.
 Rotational temperatures (Kelvin)      0.40872     0.17253     0.13346
 Rotational constants (GHZ):           8.51628     3.59487     2.78091
 Zero-point vibrational energy     302350.8 (Joules/Mol)
                                   72.26358 (Kcal/Mol)
 Warning -- explicit consideration of   8 degrees of freedom as
           vibrations may cause significant error
 Vibrational temperatures:    178.16   347.89   382.42   475.65   519.22
          (Kelvin)            662.47   717.96   876.39  1153.06  1276.20
                             1480.84  1558.80  1576.99  1732.72  1791.53
                             1811.01  1878.53  1947.31  1958.72  2018.12
                             2076.89  2096.84  2104.14  2118.40  2148.45
                             4392.90  4397.14  4403.98  4494.61  4528.90
                             4546.13  5519.40  5557.12
 
 Zero-point correction=                           0.115159 (Hartree/Particle)
 Thermal correction to Energy=                    0.121340
 Thermal correction to Enthalpy=                  0.122284
 Thermal correction to Gibbs Free Energy=         0.086099
 Sum of electronic and zero-point Energies=           -269.202594
 Sum of electronic and thermal Energies=              -269.196413
 Sum of electronic and thermal Enthalpies=            -269.195469
 Sum of electronic and thermal Free Energies=         -269.231654
 
                     E (Thermal)             CV                S
                      KCal/Mol        Cal/Mol-Kelvin    Cal/Mol-Kelvin
 Total                   76.142             21.730             76.157
 Electronic               0.000              0.000              0.000
 Translational            0.889              2.981             38.902
 Rotational               0.889              2.981             25.738
 Vibrational             74.365             15.768             11.517
 Vibration     1          0.610              1.929              3.040
 Vibration     2          0.658              1.776              1.790
 Vibration     3          0.672              1.736              1.623
 Vibration     4          0.713              1.614              1.257
 Vibration     5          0.735              1.553              1.118
 Vibration     6          0.818              1.338              0.765
 Vibration     7          0.854              1.252              0.661
 Vibration     8          0.968              1.012              0.434
                       Q            Log10(Q)             Ln(Q)
 Total Bot       0.249475D-39        -39.602973        -91.189215
 Total V=0       0.232596D+14         13.366602         30.777739
 Vib (Bot)       0.101741D-51        -51.992504       -119.717165
 Vib (Bot)    1  0.164887D+01          0.217187          0.500090
 Vib (Bot)    2  0.810266D+00         -0.091372         -0.210392
 Vib (Bot)    3  0.728661D+00         -0.137474         -0.316546
 Vib (Bot)    4  0.564983D+00         -0.247964         -0.570959
 Vib (Bot)    5  0.507605D+00         -0.294474         -0.678051
 Vib (Bot)    6  0.369266D+00         -0.432660         -0.996237
 Vib (Bot)    7  0.329650D+00         -0.481947         -1.109723
 Vib (Bot)    8  0.242836D+00         -0.614687         -1.415370
 Vib (V=0)       0.948573D+01          0.977071          2.249789
 Vib (V=0)    1  0.222301D+01          0.346942          0.798863
 Vib (V=0)    2  0.145212D+01          0.162002          0.373024
 Vib (V=0)    3  0.138371D+01          0.141046          0.324770
 Vib (V=0)    4  0.125446D+01          0.098456          0.226703
 Vib (V=0)    5  0.121250D+01          0.083683          0.192688
 Vib (V=0)    6  0.112158D+01          0.049829          0.114736
 Vib (V=0)    7  0.109889D+01          0.040954          0.094301
 Vib (V=0)    8  0.105585D+01          0.023602          0.054346
 Electronic      0.100000D+01          0.000000          0.000000
 Translational   0.260689D+08          7.416124         17.076255
 Rotational      0.940606D+05          4.973408         11.451695
 
                                                              g16_C2-w_1
                                                             IR Spectrum
 
     33                    333333                                                11111111 1111  11 1                                 
     88                    111000                                                44444433 3222  00 0   8  8     6   44   33 22  1    
     63                    642655                                                97654065 0540  98 2   8  0     0   96   63 64  2    
     26                    084163                                                32274313 6954  63 9   7  1     9   90   11 62  4    
 
     XX                    XXXXXX                                                XXXXXXXX XXXX  XX X   X  X     X   XX   XX XX  X    
     XX                    XXXXXX                                                XX XX  X XX X   X X   X        X   XX   XX          
     XX                    XX X X                                                XX  X  X X  X   X     X        X   XX   XX          
     XX                    XX X                                                  XX  X  X X  X   X              X   XX   XX          
     XX                     X X                                                  XX  X  X X  X   X              X   XX   XX          
     XX                       X                                                  XX  X  X X  X                  X   XX   XX          
     XX                       X                                                  XX  X  X X  X                  X   X    XX          
     XX                       X                                                  X      X X  X                           XX          
     XX                       X                                                  X      X X  X                           XX          
     XX                       X                                                  X      X X  X                           XX          
     XX                       X                                                         X X  X                           XX          
     X                                                                                    X  X                           XX          
     X                                                                                    X  X                           XX          
                                                                                          X  X                           XX          
                                                                                          X  X                           XX          
                                                                                          X  X                           XX          
                                                                                          X  X                           X           
                                                                                          X  X                           X           
                                                                                          X  X                           X           
                                                                                          X  X                           X           
 
 ***** Axes restored to original set *****
 -------------------------------------------------------------------
 Center     Atomic                   Forces (Hartrees/Bohr)
 Number     Number              X              Y              Z
 -------------------------------------------------------------------
      1        8           0.000003863   -0.000011105   -0.000014877
      2        6          -0.000001748    0.000000294    0.000013442
      3        8          -0.000004175   -0.000003063   -0.000000261
      4        6           0.000019566   -0.000007941   -0.000001295
      5        6          -0.000008571    0.000013653    0.000000251
      6        1           0.000000186   -0.000008736   -0.000014383
      7        1          -0.000005492    0.000007842    0.000002313
      8        1          -0.000003226   -0.000000374    0.000005992
      9        1          -0.000001020    0.000002603    0.000016146
     10        1          -0.000002396   -0.000008227    0.000001635
     11        1           0.000001327    0.000011567    0.000001052
     12        1           0.000003109    0.000003066   -0.000012441
     13        1          -0.000001424    0.000000420    0.000002425
 -------------------------------------------------------------------
 Cartesian Forces:  Max     0.000019566 RMS     0.000007792
 Force constants in Cartesian coordinates: 
                1             2             3             4             5 
      1  0.853895D-01
      2  0.399314D-01  0.467464D+00
      3  0.238236D-01 -0.949303D-01  0.628110D+00
      4 -0.757143D-01 -0.525909D-01  0.130239D-01  0.604356D+00
      5 -0.366496D-01 -0.308678D+00  0.815164D-01 -0.431863D-02  0.606838D+00
      6  0.191343D-02  0.428048D-01 -0.127840D+00 -0.233932D-01 -0.315790D-02
      7  0.267100D-03  0.321030D-01 -0.417679D-02 -0.257666D+00  0.101181D+00
      8  0.451872D-01 -0.636374D-01 -0.825923D-02  0.829110D-01 -0.137372D+00
      9 -0.492584D-02  0.573980D-03  0.154538D-01  0.516362D-01 -0.551628D-01
     10 -0.102131D-02 -0.698754D-02 -0.128408D-02 -0.157116D+00 -0.419852D-01
     11 -0.329082D-01 -0.387598D-01 -0.906584D-02 -0.465546D-01 -0.978685D-01
     12  0.102758D-01  0.113178D-01  0.647220D-02 -0.566466D-01 -0.281371D-01
     13 -0.201859D-03  0.232408D-02 -0.814948D-03 -0.277401D-01  0.116001D-01
     14 -0.146876D-02 -0.100990D-02  0.538150D-04 -0.683030D-02  0.945086D-02
     15 -0.100097D-02 -0.214526D-04  0.536135D-03 -0.764433D-02  0.882198D-02
     16 -0.995568D-02 -0.382080D-02 -0.359662D-01 -0.602225D-03  0.537150D-03
     17 -0.521278D-02 -0.429087D-01 -0.105494D-01  0.100802D-02 -0.113538D-01
     18 -0.288780D-01  0.372351D-01 -0.514265D+00 -0.608745D-03  0.325855D-02
     19  0.344438D-02 -0.273207D-02  0.613112D-02 -0.555510D-01 -0.342531D-02
     20 -0.181313D-02 -0.152392D-01  0.433517D-01 -0.359984D-02 -0.475288D-01
     21 -0.307628D-04  0.822962D-02 -0.118434D-01  0.604858D-02 -0.568712D-03
     22  0.394610D-02 -0.280647D-02  0.224252D-03 -0.341591D-01 -0.106200D-01
     23 -0.137232D-02  0.184508D-02 -0.190005D-03  0.255938D-01  0.474766D-02
     24  0.691322D-03 -0.211054D-02 -0.160214D-03  0.147885D-01  0.555249D-02
     25 -0.542290D-02 -0.626117D-02 -0.190500D-02  0.113095D-02 -0.223645D-01
     26 -0.386031D-02 -0.293733D-02 -0.107972D-02  0.416695D-02 -0.128145D-01
     27 -0.298253D-02 -0.296402D-02  0.761393D-03  0.189149D-03 -0.132765D-01
     28  0.109109D-02  0.230545D-02  0.859864D-03  0.724255D-03  0.536238D-03
     29  0.777853D-03  0.182711D-02 -0.357778D-03  0.757647D-03 -0.175340D-02
     30  0.121331D-03 -0.425477D-04  0.272393D-02  0.300917D-02  0.152424D-02
     31 -0.142174D-03 -0.238493D-03 -0.261543D-03  0.150078D-02 -0.485994D-04
     32  0.219646D-04  0.859396D-04 -0.612453D-04 -0.679275D-03  0.203095D-03
     33  0.488570D-03  0.299312D-03 -0.678498D-04 -0.127468D-02 -0.372444D-03
     34 -0.136040D-02 -0.731419D-03  0.311659D-03  0.126388D-02  0.109928D-02
     35 -0.194667D-02  0.125878D-02 -0.284674D-03 -0.134778D-02 -0.151975D-02
     36  0.296023D-03 -0.267337D-03  0.292969D-04 -0.605195D-04  0.841084D-03
     37 -0.319586D-03 -0.494948D-03  0.341818D-04 -0.427527D-03  0.445801D-02
     38 -0.686557D-03  0.689948D-03 -0.143714D-03  0.148392D-02 -0.235099D-02
     39  0.208066D-03 -0.124277D-03  0.897975D-04  0.932487D-03 -0.839208D-03
                6             7             8             9            10 
      6  0.695473D+00
      7  0.797997D-01  0.661547D+00
      8 -0.640929D-01 -0.559125D-02  0.288095D+00
      9 -0.122781D+00  0.107615D+00  0.183867D+00  0.240568D+00
     10 -0.423024D-01 -0.462346D-01 -0.718452D-02 -0.135665D-01  0.507256D+00
     11 -0.219193D-01  0.227679D-01  0.759932D-02  0.662841D-02 -0.703899D-02
     12 -0.120358D+00  0.146934D-01  0.353457D-02  0.794726D-02 -0.151320D-01
     13  0.830327D-02 -0.505089D-02 -0.172861D-02 -0.218430D-02 -0.181694D+00
     14  0.683178D-02 -0.585999D-02 -0.368668D-03 -0.155533D-02  0.569864D-01
     15  0.363710D-02 -0.505990D-02 -0.991966D-03 -0.595212D-03  0.318028D-01
     16  0.624979D-02  0.104936D-02 -0.168133D-02 -0.723767D-03  0.285936D-03
     17  0.495184D-01 -0.506784D-03  0.316517D-02 -0.192016D-02 -0.808542D-05
     18 -0.159415D-01  0.358347D-03 -0.288532D-02  0.135507D-02  0.166025D-04
     19 -0.187543D-03 -0.133122D-01  0.116564D-01  0.350209D-01  0.144938D-02
     20 -0.845095D-02  0.127180D-01 -0.244949D-02 -0.229946D-01 -0.581946D-03
     21 -0.304127D+00  0.957273D-02 -0.617211D-02 -0.694349D-02  0.645007D-03
     22 -0.158223D-01 -0.340619D+00 -0.122472D+00 -0.172304D+00 -0.335366D-02
     23  0.101097D-01 -0.161125D+00 -0.972538D-01 -0.111062D+00  0.209471D-02
     24  0.523141D-02 -0.204957D+00 -0.105282D+00 -0.137439D+00  0.165573D-02
     25  0.112430D-01  0.289340D-03  0.284895D-04 -0.101600D-03 -0.472875D-01
     26  0.655768D-02  0.103501D-02  0.155132D-02  0.339558D-04 -0.101349D-01
     27  0.331153D-02  0.873314D-03  0.127836D-03  0.384989D-03  0.203860D-02
     28 -0.297008D-01  0.231468D-02 -0.300679D-03  0.404319D-03 -0.502314D-01
     29 -0.166749D-01  0.125086D-02  0.262885D-03  0.114087D-02 -0.115318D-02
     30 -0.172585D-01  0.534807D-03  0.276810D-03  0.161096D-02  0.277297D-01
     31  0.164236D-02 -0.486326D-04  0.427565D-04 -0.315765D-03 -0.329896D-02
     32  0.148048D-03  0.553141D-05 -0.933784D-04  0.761979D-04  0.131630D-02
     33  0.594040D-03  0.165573D-03  0.384173D-04  0.235236D-03  0.410162D-03
     34 -0.793558D-03  0.272045D-03 -0.401805D-03  0.179808D-03  0.110141D-02
     35 -0.290151D-03  0.590608D-03  0.194074D-03  0.871004D-04 -0.321439D-03
     36  0.421847D-04  0.000000D+00 -0.120613D-03 -0.605508D-04 -0.709612D-03
     37  0.304831D-02 -0.280928D-02 -0.466145D-03 -0.733572D-03 -0.198554D-01
     38 -0.138417D-02  0.143112D-02  0.306540D-03  0.287420D-03  0.149984D-01
     39  0.165887D-04  0.582174D-03 -0.398385D-04  0.263958D-03  0.869610D-02
               11            12            13            14            15 
     11  0.589350D+00
     12 -0.307267D-01  0.587316D+00
     13  0.557851D-01  0.309486D-01  0.529848D+00
     14 -0.115130D+00 -0.189318D-01  0.373653D-01  0.568157D+00
     15 -0.191061D-01 -0.920957D-01  0.224402D-01 -0.927612D-02  0.576823D+00
     16  0.958909D-03  0.235760D-02 -0.312444D-03  0.179777D-03  0.858417D-04
     17  0.208065D-02  0.672011D-03 -0.307652D-03  0.202461D-03  0.388291D-04
     18 -0.231779D-02  0.378721D-02  0.219801D-03 -0.139382D-03 -0.205761D-03
     19 -0.465067D-03 -0.255845D-01  0.158346D-02 -0.260908D-03 -0.740309D-03
     20  0.175039D-02 -0.137006D-01  0.423398D-03  0.114740D-03  0.304010D-03
     21 -0.320656D-03 -0.111500D-01  0.384225D-03 -0.618807D-04  0.704968D-03
     22  0.369763D-02  0.298499D-02 -0.484792D-03 -0.929054D-03 -0.926675D-03
     23 -0.863689D-03 -0.118686D-02  0.587519D-03  0.635076D-03  0.959023D-05
     24 -0.175768D-02  0.320639D-03  0.703859D-03  0.982917D-04  0.843246D-03
     25 -0.695506D-02  0.866136D-03  0.181307D-03  0.282799D-01 -0.901198D-02
     26 -0.294067D+00  0.770081D-01 -0.937904D-03 -0.115472D-01  0.377462D-02
     27  0.806403D-01 -0.746143D-01 -0.362440D-03 -0.903968D-02  0.230532D-02
     28 -0.142985D-02  0.286102D-01 -0.337046D-02 -0.786235D-03  0.285989D-01
     29 -0.488450D-01  0.342342D-02  0.166410D-02 -0.257755D-03 -0.154954D-01
     30  0.202443D-02 -0.307470D+00 -0.582037D-04  0.375187D-03 -0.524015D-02
     31 -0.133399D-02  0.286108D-01 -0.505382D-01 -0.554285D-03  0.305760D-01
     32 -0.196556D-03 -0.162718D-01 -0.740246D-03 -0.478238D-01  0.450670D-02
     33  0.375600D-03 -0.613885D-02  0.319191D-01  0.359685D-02 -0.315994D+00
     34  0.273939D-01 -0.972696D-02 -0.459573D-01 -0.599497D-02  0.204095D-02
     35 -0.127587D-01  0.465748D-02 -0.392273D-02 -0.296524D+00  0.815862D-01
     36 -0.988410D-02  0.266081D-02  0.130589D-02  0.822706D-01 -0.750905D-01
     37 -0.139177D-01 -0.122574D-01 -0.216263D+00 -0.100127D+00 -0.911605D-01
     38  0.770973D-02  0.834151D-02 -0.102112D+00 -0.105898D+00 -0.541509D-01
     39  0.542937D-02  0.332238D-02 -0.928051D-01 -0.542223D-01 -0.956285D-01
               16            17            18            19            20 
     16  0.785126D-02
     17  0.552140D-02  0.546172D-01
     18  0.286899D-01 -0.378898D-01  0.524491D+00
     19  0.172160D-02 -0.966647D-03  0.275854D-03  0.616948D-01
     20 -0.183477D-02 -0.521383D-02  0.257257D-02 -0.217059D-02  0.687809D-01
     21  0.459527D-03  0.160851D-02  0.166414D-02 -0.143297D-01 -0.883404D-03
     22 -0.360877D-03  0.318202D-03 -0.255681D-03  0.246478D-02 -0.130194D-02
     23 -0.878386D-04 -0.103698D-03  0.375427D-03  0.440467D-03 -0.411266D-03
     24 -0.198553D-03  0.106731D-03 -0.319998D-03  0.612180D-03  0.884997D-03
     25  0.281256D-03  0.556452D-03 -0.830502D-03  0.635339D-03  0.517565D-03
     26  0.349464D-03  0.419645D-03 -0.702489D-03 -0.135560D-04  0.506424D-03
     27 -0.333056D-03 -0.341679D-03 -0.149574D-03  0.721354D-03  0.857995D-04
     28  0.104099D-03 -0.584166D-03  0.900749D-03 -0.394961D-02 -0.214527D-02
     29 -0.291550D-03 -0.754724D-03  0.505195D-03 -0.217524D-02 -0.377619D-03
     30 -0.417295D-03 -0.116790D-02 -0.427335D-03 -0.268334D-02 -0.147339D-02
     31  0.135226D-03  0.148999D-03 -0.290529D-04 -0.252105D-03 -0.621491D-04
     32 -0.185602D-04 -0.582853D-04 -0.248977D-04  0.790583D-04  0.822868D-04
     33 -0.134405D-03 -0.945700D-04  0.520316D-04  0.528931D-03  0.244290D-03
     34 -0.308141D-03 -0.104557D-03  0.263618D-03  0.130588D-04 -0.157606D-03
     35  0.146008D-03 -0.782078D-04  0.991922D-05  0.967557D-04  0.617281D-04
     36 -0.237585D-05  0.514499D-04 -0.243906D-04  0.384134D-04 -0.552173D-04
     37  0.110626D-03  0.137596D-03 -0.122880D-03  0.581047D-04  0.830295D-05
     38  0.421315D-04 -0.138734D-04  0.293090D-05 -0.633215D-04 -0.762484D-04
     39 -0.670299D-04 -0.323936D-04 -0.155563D-04  0.196564D-03  0.114758D-03
               21            22            23            24            25 
     21  0.330166D+00
     22 -0.433935D-03  0.372291D+00
     23 -0.672241D-03  0.133668D+00  0.914108D-01
     24  0.103280D-02  0.186230D+00  0.102720D+00  0.130273D+00
     25 -0.167769D-03  0.357872D-03  0.178306D-03 -0.353584D-04  0.533760D-01
     26 -0.232952D-03  0.127113D-04  0.311538D-03 -0.237609D-03  0.703572D-02
     27  0.410288D-03  0.100958D-03 -0.205068D-04 -0.185075D-03 -0.200026D-02
     28 -0.161223D-02  0.284009D-03 -0.119767D-03  0.363549D-03 -0.769120D-03
     29 -0.117662D-02  0.156427D-03 -0.185241D-03  0.111206D-03 -0.260238D-02
     30 -0.207623D-03  0.893205D-04 -0.422461D-04  0.483249D-03  0.406839D-03
     31 -0.443823D-03  0.349063D-04  0.180889D-04 -0.125399D-03  0.108268D-02
     32  0.205791D-03 -0.195377D-04 -0.125128D-04  0.403995D-04 -0.754519D-03
     33  0.552057D-04  0.467944D-04  0.000000D+00 -0.173320D-04  0.353983D-04
     34  0.455470D-04 -0.752151D-04 -0.820823D-04 -0.282521D-04 -0.492081D-02
     35  0.966172D-05  0.493276D-04 -0.131353D-04 -0.278509D-04  0.287743D-02
     36  0.340419D-04 -0.268505D-04  0.303559D-04 -0.200219D-04  0.195825D-02
     37 -0.137397D-03 -0.326468D-03  0.206156D-03  0.299637D-03  0.106557D-02
     38  0.349917D-04  0.246266D-03 -0.106855D-03 -0.984571D-04 -0.536199D-03
     39  0.204008D-03  0.939222D-04 -0.710814D-04 -0.420328D-04 -0.457196D-03
               26            27            28            29            30 
     26  0.316154D+00
     27 -0.827646D-01  0.734259D-01
     28  0.152654D-04  0.131202D-02  0.563541D-01
     29  0.161048D-02  0.285851D-01  0.384527D-04  0.479396D-01
     30 -0.124408D-02 -0.711201D-02 -0.302841D-01  0.799592D-03  0.331149D+00
     31 -0.241499D-03 -0.611504D-03 -0.463136D-02  0.277063D-02  0.128681D-02
     32  0.416109D-03 -0.275906D-03  0.327117D-02 -0.405612D-03 -0.824320D-03
     33 -0.212883D-03  0.581650D-03  0.151707D-02 -0.108517D-02  0.719102D-03
     34  0.250782D-02  0.138069D-02  0.121114D-02 -0.776870D-03  0.113622D-05
     35 -0.352260D-03 -0.115271D-02 -0.141980D-03  0.571618D-03 -0.220728D-03
     36 -0.918670D-03  0.753084D-03 -0.724029D-03 -0.298419D-03  0.488074D-03
     37  0.651831D-04 -0.326281D-03  0.868580D-03 -0.416741D-03  0.263885D-03
     38  0.749371D-03  0.396624D-03 -0.658616D-03  0.367646D-03  0.149588D-04
     39  0.186261D-04  0.126868D-03 -0.245329D-03  0.522966D-03  0.541210D-03
               31            32            33            34            35 
     31  0.532631D-01
     32 -0.260956D-02  0.456837D-01
     33 -0.368734D-01 -0.243926D-02  0.336878D+00
     34 -0.110702D-02 -0.296067D-02  0.527039D-03  0.492041D-01
     35  0.165533D-03  0.206680D-02 -0.157660D-02  0.229905D-02  0.317649D+00
     36  0.484461D-03  0.291496D-01 -0.688293D-02 -0.348115D-02 -0.872816D-01
     37  0.400173D-02  0.308835D-02  0.264382D-02  0.663231D-03  0.145590D-02
     38  0.194257D-02  0.522555D-04  0.122719D-02 -0.220901D-01 -0.105561D-01
     39 -0.239399D-01 -0.142293D-01 -0.100144D-01  0.927948D-02  0.448386D-02
               36            37            38            39 
     36  0.738282D-01
     37  0.922452D-03  0.233233D+00
     38 -0.135172D-01  0.106003D+00  0.109127D+00
     39  0.424275D-02  0.975258D-01  0.589888D-01  0.968930D-01
 FormGI is forming the generalized inverse of G from B-inverse, IUseBI=4.
 Leave Link  716 at Tue Oct 21 19:36:29 2025, MaxMem=  4294967296 cpu:               0.3 elap:               0.1
 (Enter /lrz/sys/applications/gaussian/g16.C.01/x86_64_legacy/exe/l103.exe)

 GradGradGradGradGradGradGradGradGradGradGradGradGradGradGradGradGradGrad
 Berny optimization.
 Red2BG is reusing G-inverse.
 Internal  Forces:  Max     0.000012740 RMS     0.000003758
 Search for a local minimum.
 Step number   1 out of a maximum of    2
 All quantities printed in internal units (Hartrees-Bohrs-Radians)
 Second derivative matrix not updated -- analytic derivatives used.
 ITU=  0
     Eigenvalues ---    0.00220   0.00358   0.00445   0.00501   0.03499
     Eigenvalues ---    0.03814   0.04424   0.04448   0.06290   0.06895
     Eigenvalues ---    0.07505   0.09906   0.10699   0.12082   0.14090
     Eigenvalues ---    0.15650   0.16479   0.16953   0.20037   0.22132
     Eigenvalues ---    0.23864   0.30788   0.32996   0.33332   0.33803
     Eigenvalues ---    0.34200   0.34380   0.34790   0.34792   0.44401
     Eigenvalues ---    0.52918   0.53685   0.54088
 Angle between quadratic step and forces=  73.98 degrees.
 Linear search not attempted -- first point.
 Iteration  1 RMS(Cart)=  0.00013200 RMS(Int)=  0.00000001
 Iteration  2 RMS(Cart)=  0.00000001 RMS(Int)=  0.00000000
 ITry= 1 IFail=0 DXMaxC= 5.81D-04 DCOld= 1.00D+10 DXMaxT= 3.00D-01 DXLimC= 3.00D+00 Rises=F
 Variable       Old X    -DE/DX   Delta X   Delta X   Delta X     New X
                                 (Linear)    (Quad)   (Total)
    R1        2.65688   0.00001   0.00000   0.00001   0.00001   2.65689
    R2        1.82822  -0.00000   0.00000  -0.00000  -0.00000   1.82821
    R3        2.65534   0.00000   0.00000   0.00000   0.00000   2.65534
    R4        2.87093   0.00001   0.00000   0.00003   0.00003   2.87096
    R5        2.08789  -0.00000   0.00000  -0.00001  -0.00001   2.08788
    R6        1.82439   0.00000   0.00000   0.00000   0.00000   1.82439
    R7        2.87421  -0.00001   0.00000  -0.00005  -0.00005   2.87416
    R8        2.08057   0.00000   0.00000   0.00000   0.00000   2.08057
    R9        2.08678  -0.00000   0.00000  -0.00001  -0.00001   2.08677
   R10        2.08172  -0.00000   0.00000  -0.00001  -0.00001   2.08171
   R11        2.07888  -0.00000   0.00000  -0.00000  -0.00000   2.07888
   R12        2.07810  -0.00000   0.00000  -0.00000  -0.00000   2.07809
    A1        1.87942  -0.00000   0.00000  -0.00001  -0.00001   1.87940
    A2        1.94214   0.00000   0.00000   0.00002   0.00002   1.94217
    A3        1.96634   0.00001   0.00000   0.00003   0.00003   1.96637
    A4        1.82695  -0.00001   0.00000  -0.00004  -0.00004   1.82691
    A5        1.87736  -0.00000   0.00000  -0.00000  -0.00000   1.87736
    A6        1.92593  -0.00000   0.00000  -0.00003  -0.00003   1.92590
    A7        1.92567   0.00000   0.00000   0.00002   0.00002   1.92569
    A8        1.87854   0.00001   0.00000   0.00003   0.00003   1.87857
    A9        1.97822   0.00001   0.00000   0.00006   0.00006   1.97828
   A10        1.88182   0.00000   0.00000   0.00001   0.00001   1.88183
   A11        1.87698  -0.00001   0.00000  -0.00004  -0.00004   1.87694
   A12        1.92852  -0.00000   0.00000  -0.00000  -0.00000   1.92852
   A13        1.93071   0.00000   0.00000   0.00001   0.00001   1.93072
   A14        1.86295  -0.00000   0.00000  -0.00005  -0.00005   1.86290
   A15        1.94050   0.00000   0.00000   0.00004   0.00004   1.94053
   A16        1.93963   0.00000   0.00000   0.00001   0.00001   1.93964
   A17        1.93601  -0.00000   0.00000  -0.00000  -0.00000   1.93601
   A18        1.88044  -0.00000   0.00000  -0.00002  -0.00002   1.88042
   A19        1.88103  -0.00000   0.00000  -0.00000  -0.00000   1.88102
   A20        1.88374  -0.00000   0.00000  -0.00002  -0.00002   1.88372
    D1       -1.18807  -0.00000   0.00000   0.00031   0.00031  -1.18775
    D2        0.92205   0.00000   0.00000   0.00035   0.00035   0.92241
    D3        3.01484   0.00000   0.00000   0.00036   0.00036   3.01520
    D4       -1.07962   0.00001   0.00000   0.00008   0.00008  -1.07955
    D5        3.04202  -0.00000   0.00000   0.00002   0.00002   3.04204
    D6        0.94056  -0.00000   0.00000   0.00002   0.00002   0.94057
    D7        1.00597  -0.00000   0.00000   0.00000   0.00000   1.00597
    D8       -3.13680  -0.00000   0.00000   0.00004   0.00004  -3.13675
    D9       -1.13376  -0.00000   0.00000  -0.00002  -0.00002  -1.13378
   D10       -3.13046   0.00000   0.00000   0.00005   0.00005  -3.13041
   D11       -0.99005   0.00000   0.00000   0.00009   0.00009  -0.98996
   D12        1.01299   0.00000   0.00000   0.00002   0.00002   1.01302
   D13       -1.02883   0.00000   0.00000   0.00003   0.00003  -1.02881
   D14        1.11158   0.00000   0.00000   0.00007   0.00007   1.11165
   D15        3.11462  -0.00000   0.00000   0.00000   0.00000   3.11462
   D16        1.04756   0.00000   0.00000   0.00022   0.00022   1.04778
   D17       -1.04701   0.00000   0.00000   0.00022   0.00022  -1.04679
   D18        3.14045   0.00000   0.00000   0.00024   0.00024   3.14069
   D19       -1.06677  -0.00000   0.00000   0.00017   0.00017  -1.06661
   D20        3.12184  -0.00000   0.00000   0.00017   0.00017   3.12201
   D21        1.02611  -0.00000   0.00000   0.00019   0.00019   1.02630
   D22       -3.12595   0.00000   0.00000   0.00022   0.00022  -3.12573
   D23        1.06267   0.00000   0.00000   0.00022   0.00022   1.06289
   D24       -1.03306   0.00000   0.00000   0.00024   0.00024  -1.03283
         Item               Value     Threshold  Converged?
 Maximum Force            0.000013     0.000450     YES
 RMS     Force            0.000004     0.000300     YES
 Maximum Displacement     0.000581     0.001800     YES
 RMS     Displacement     0.000132     0.001200     YES
 Predicted change in Energy=-3.463465D-09
 Optimization completed.
    -- Stationary point found.
                           ----------------------------
                           !   Optimized Parameters   !
                           ! (Angstroms and Degrees)  !
 --------------------------                            --------------------------
 ! Name  Definition              Value          Derivative Info.                !
 --------------------------------------------------------------------------------
 ! R1    R(1,2)                  1.406          -DE/DX =    0.0                 !
 ! R2    R(1,6)                  0.9674         -DE/DX =    0.0                 !
 ! R3    R(2,3)                  1.4051         -DE/DX =    0.0                 !
 ! R4    R(2,4)                  1.5192         -DE/DX =    0.0                 !
 ! R5    R(2,7)                  1.1049         -DE/DX =    0.0                 !
 ! R6    R(3,8)                  0.9654         -DE/DX =    0.0                 !
 ! R7    R(4,5)                  1.521          -DE/DX =    0.0                 !
 ! R8    R(4,9)                  1.101          -DE/DX =    0.0                 !
 ! R9    R(4,10)                 1.1043         -DE/DX =    0.0                 !
 ! R10   R(5,11)                 1.1016         -DE/DX =    0.0                 !
 ! R11   R(5,12)                 1.1001         -DE/DX =    0.0                 !
 ! R12   R(5,13)                 1.0997         -DE/DX =    0.0                 !
 ! A1    A(2,1,6)              107.6827         -DE/DX =    0.0                 !
 ! A2    A(1,2,3)              111.2767         -DE/DX =    0.0                 !
 ! A3    A(1,2,4)              112.6627         -DE/DX =    0.0                 !
 ! A4    A(1,2,7)              104.6768         -DE/DX =    0.0                 !
 ! A5    A(3,2,4)              107.5648         -DE/DX =    0.0                 !
 ! A6    A(3,2,7)              110.3475         -DE/DX =    0.0                 !
 ! A7    A(4,2,7)              110.3327         -DE/DX =    0.0                 !
 ! A8    A(2,3,8)              107.6325         -DE/DX =    0.0                 !
 ! A9    A(2,4,5)              113.3437         -DE/DX =    0.0                 !
 ! A10   A(2,4,9)              107.8203         -DE/DX =    0.0                 !
 ! A11   A(2,4,10)             107.543          -DE/DX =    0.0                 !
 ! A12   A(5,4,9)              110.4961         -DE/DX =    0.0                 !
 ! A13   A(5,4,10)             110.6215         -DE/DX =    0.0                 !
 ! A14   A(9,4,10)             106.7392         -DE/DX =    0.0                 !
 ! A15   A(4,5,11)             111.1824         -DE/DX =    0.0                 !
 ! A16   A(4,5,12)             111.1329         -DE/DX =    0.0                 !
 ! A17   A(4,5,13)             110.9253         -DE/DX =    0.0                 !
 ! A18   A(11,5,12)            107.7413         -DE/DX =    0.0                 !
 ! A19   A(11,5,13)            107.7749         -DE/DX =    0.0                 !
 ! A20   A(12,5,13)            107.9302         -DE/DX =    0.0                 !
 ! D1    D(6,1,2,3)            -68.0712         -DE/DX =    0.0                 !
 ! D2    D(6,1,2,4)             52.8297         -DE/DX =    0.0                 !
 ! D3    D(6,1,2,7)            172.7375         -DE/DX =    0.0                 !
 ! D4    D(1,2,3,8)            -61.8579         -DE/DX =    0.0                 !
 ! D5    D(4,2,3,8)            174.2951         -DE/DX =    0.0                 !
 ! D6    D(7,2,3,8)             53.8899         -DE/DX =    0.0                 !
 ! D7    D(1,2,4,5)             57.6378         -DE/DX =    0.0                 !
 ! D8    D(1,2,4,9)           -179.7253         -DE/DX =    0.0                 !
 ! D9    D(1,2,4,10)           -64.9597         -DE/DX =    0.0                 !
 ! D10   D(3,2,4,5)           -179.3624         -DE/DX =    0.0                 !
 ! D11   D(3,2,4,9)            -56.7255         -DE/DX =    0.0                 !
 ! D12   D(3,2,4,10)            58.0401         -DE/DX =    0.0                 !
 ! D13   D(7,2,4,5)            -58.9479         -DE/DX =    0.0                 !
 ! D14   D(7,2,4,9)             63.689          -DE/DX =    0.0                 !
 ! D15   D(7,2,4,10)           178.4546         -DE/DX =    0.0                 !
 ! D16   D(2,4,5,11)            60.0208         -DE/DX =    0.0                 !
 ! D17   D(2,4,5,12)           -59.989          -DE/DX =    0.0                 !
 ! D18   D(2,4,5,13)           179.9344         -DE/DX =    0.0                 !
 ! D19   D(9,4,5,11)           -61.1217         -DE/DX =    0.0                 !
 ! D20   D(9,4,5,12)           178.8684         -DE/DX =    0.0                 !
 ! D21   D(9,4,5,13)            58.7919         -DE/DX =    0.0                 !
 ! D22   D(10,4,5,11)         -179.1038         -DE/DX =    0.0                 !
 ! D23   D(10,4,5,12)           60.8863         -DE/DX =    0.0                 !
 ! D24   D(10,4,5,13)          -59.1902         -DE/DX =    0.0                 !
 --------------------------------------------------------------------------------
 GradGradGradGradGradGradGradGradGradGradGradGradGradGradGradGradGradGrad

 Leave Link  103 at Tue Oct 21 19:36:29 2025, MaxMem=  4294967296 cpu:               0.4 elap:               0.1
 (Enter /lrz/sys/applications/gaussian/g16.C.01/x86_64_legacy/exe/l9999.exe)

 ----------------------------------------------------------------------

 Electric dipole moment (input orientation):
 (Debye = 10**-18 statcoulomb cm , SI units = C m)
                  (au)            (Debye)         (10**-30 SI)
   Tot        0.729380D-01      0.185390D+00      0.618394D+00
   x          0.470883D-01      0.119687D+00      0.399231D+00
   y          0.241809D-02      0.614617D-02      0.205014D-01
   z          0.556489D-01      0.141445D+00      0.471811D+00

 Dipole polarizability, Alpha (input orientation).
 (esu units = cm**3 , SI units = C**2 m**2 J**-1)
 Alpha(0;0):
               (au)            (10**-24 esu)      (10**-40 SI)
   iso        0.523294D+02      0.775441D+01      0.862795D+01
   aniso      0.332258D+01      0.492356D+00      0.547820D+00
   xx         0.533732D+02      0.790910D+01      0.880006D+01
   yx        -0.713169D+00     -0.105681D+00     -0.117586D+00
   yy         0.507019D+02      0.751325D+01      0.835962D+01
   zx         0.594609D+00      0.881119D-01      0.980378D-01
   zy        -0.882186D+00     -0.130727D+00     -0.145453D+00
   zz         0.529130D+02      0.784090D+01      0.872417D+01

 ----------------------------------------------------------------------

 Dipole orientation:
     8         -0.86457643         -2.50318339         -0.75786885
     6         -0.27054064          0.07326262         -1.01871927
     8         -2.40458351          1.48759622         -1.72323534
     6          0.76858102          1.21925481          1.39978145
     6          3.11999897         -0.11590301          2.37408565
     1         -1.96186566         -2.67581976          0.69420673
     1          1.17100777          0.13361359         -2.52788080
     1         -2.96486331          0.87121340         -3.34636821
     1          1.17079952          3.22706199          1.03141275
     1         -0.75295707          1.16306913          2.82680776
     1          4.65989512         -0.04405873          0.97511398
     1          2.73016112         -2.11615556          2.78488739
     1          3.80832601          0.77371768          4.12144584

 Electric dipole moment (dipole orientation):
 (Debye = 10**-18 statcoulomb cm , SI units = C m)
                  (au)            (Debye)         (10**-30 SI)
   Tot        0.729380D-01      0.185390D+00      0.618394D+00
   x          0.000000D+00      0.000000D+00      0.000000D+00
   y          0.000000D+00      0.000000D+00      0.000000D+00
   z          0.729380D-01      0.185390D+00      0.618394D+00

 Dipole polarizability, Alpha (dipole orientation).
 (esu units = cm**3 , SI units = C**2 m**2 J**-1)
 Alpha(0;0):
               (au)            (10**-24 esu)      (10**-40 SI)
   iso        0.523294D+02      0.775441D+01      0.862795D+01
   aniso      0.332258D+01      0.492356D+00      0.547820D+00
   xx         0.525942D+02      0.779365D+01      0.867161D+01
   yx         0.366608D-01      0.543258D-02      0.604456D-02
   yy         0.507810D+02      0.752497D+01      0.837265D+01
   zx         0.340942D+00      0.505224D-01      0.562138D-01
   zy        -0.122663D+01     -0.181767D+00     -0.202243D+00
   zz         0.536130D+02      0.794463D+01      0.883959D+01

 ----------------------------------------------------------------------
 Unable to Open any file for archive entry.
 1\1\GINC-CM4R13C06S02\Freq\RwB97XD\def2SVP\C3H8O2\GO29TIZ2\21-Oct-2025
 \0\\#P Geom=AllCheck Guess=TCheck SCRF=Check GenChk RwB97XD/def2SVP Fr
 eq\\g16_C2-w_1\\0,1\O,-0.5921825232,-1.3315431332,0.033299602\C,-0.457
 8168454,0.0226107684,-0.3201592336\O,-1.5698957256,0.7719275425,0.0996
 454988\C,0.7809406876,0.6644191703,0.2811873891\C,2.0725146266,-0.0396
 891564,-0.1053441614\H,-0.5383797827,-1.3903172382,0.9974624102\H,-0.3
 912952568,0.0187898692,-1.4230105112\H,-2.3468451548,0.4210789816,-0.3
 534573924\H,0.8047197914,1.7171960179,-0.0401739242\H,0.654010646,0.66
 95158117,1.3781312926\H,2.2163464386,-0.0361305489,-1.1975076638\H,2.0
 681861943,-1.0878058681,0.2287869715\H,2.941889104,0.4570172833,0.3493
 757226\\Version=EM64L-G16RevC.01\State=1-A\HF=-269.317753\RMSD=8.577e-
 10\RMSF=7.792e-06\ZeroPoint=0.1151593\Thermal=0.1213399\ETot=-269.1964
 131\HTot=-269.1954689\GTot=-269.2316535\Dipole=0.0470883,0.0024181,0.0
 556489\DipoleDeriv=-0.8956137,-0.121918,0.0169539,0.0278823,-1.3370611
 ,0.1933634,0.0270613,0.2827092,-0.5810176,1.386351,-0.1722729,-0.12697
 42,-0.2064659,1.5728514,-0.1491875,-0.1109089,-0.1231016,0.8510535,-1.
 2865027,0.3959125,0.1325669,0.2764169,-0.8900717,0.0954562,0.1680494,-
 0.0095194,-0.6698704,-0.0523064,-0.0882687,-0.0377782,-0.0806925,0.025
 5763,0.0053916,-0.1226044,-0.0729618,0.0993975,0.0127504,0.0007328,-0.
 0268861,-0.0139741,0.0561905,-0.0093644,-0.0183835,-0.0047775,0.086482
 6,0.4613753,-0.0062747,-0.0077175,-0.003117,0.3696283,-0.0831992,-0.02
 18831,-0.0289567,0.2815871,-0.0292328,-0.0021324,-0.0081059,0.0191975,
 -0.0176636,-0.0243736,0.0352073,-0.0098039,-0.2483003,0.3680561,-0.014
 3672,-0.0076849,-0.0451509,0.3568545,-0.0863662,-0.0125708,-0.0786917,
 0.3716329,0.0309835,0.0305547,-0.0043415,0.0144977,-0.1684459,0.051787
 6,-0.0006627,0.0746643,0.0658626,0.0085173,0.0039244,0.0801452,-0.0012
 529,0.0685034,0.003602,0.0449008,-0.0228211,-0.1876841,0.042105,0.0267
 654,0.0271972,0.0330143,0.0764142,-0.0014785,0.0707427,-0.0157797,-0.1
 790371,0.0747625,0.0050849,0.0254513,0.0575974,-0.1487001,0.0601079,0.
 0191853,0.063622,0.0595581,-0.1212456,-0.0577408,-0.0628262,-0.0779529
 ,0.0359239,-0.0557394,-0.0781334,-0.0545819,0.0503353\Polar=53.3732313
 ,-0.713169,50.7019171,0.5946089,-0.8821864,52.912996\Quadrupole=1.8035
 873,-3.4517825,1.6481951,1.0210981,1.3964513,-2.4935634\PG=C01 [X(C3H8
 O2)]\NImag=0\\0.08538951,0.03993135,0.46746377,0.02382360,-0.09493033,
 0.62811014,-0.07571427,-0.05259093,0.01302390,0.60435610,-0.03664962,-
 0.30867825,0.08151639,-0.00431863,0.60683810,0.00191343,0.04280476,-0.
 12784017,-0.02339316,-0.00315790,0.69547336,0.00026710,0.03210296,-0.0
 0417679,-0.25766585,0.10118112,0.07979966,0.66154746,0.04518719,-0.063
 63744,-0.00825923,0.08291102,-0.13737171,-0.06409291,-0.00559125,0.288
 09516,-0.00492584,0.00057398,0.01545383,0.05163618,-0.05516283,-0.1227
 8103,0.10761457,0.18386661,0.24056835,-0.00102131,-0.00698754,-0.00128
 408,-0.15711591,-0.04198521,-0.04230244,-0.04623462,-0.00718452,-0.013
 56652,0.50725561,-0.03290822,-0.03875977,-0.00906584,-0.04655462,-0.09
 786849,-0.02191930,0.02276791,0.00759932,0.00662841,-0.00703899,0.5893
 4973,0.01027580,0.01131778,0.00647220,-0.05664657,-0.02813715,-0.12035
 794,0.01469341,0.00353457,0.00794726,-0.01513202,-0.03072666,0.5873163
 5,-0.00020186,0.00232408,-0.00081495,-0.02774010,0.01160008,0.00830327
 ,-0.00505089,-0.00172861,-0.00218430,-0.18169363,0.05578513,0.03094859
 ,0.52984788,-0.00146876,-0.00100990,0.00005382,-0.00683030,0.00945086,
 0.00683178,-0.00585999,-0.00036867,-0.00155533,0.05698641,-0.11513023,
 -0.01893181,0.03736530,0.56815700,-0.00100097,-0.00002145,0.00053613,-
 0.00764433,0.00882198,0.00363710,-0.00505990,-0.00099197,-0.00059521,0
 .03180279,-0.01910609,-0.09209567,0.02244024,-0.00927612,0.57682279,-0
 .00995568,-0.00382080,-0.03596621,-0.00060223,0.00053715,0.00624979,0.
 00104936,-0.00168133,-0.00072377,0.00028594,0.00095891,0.00235760,-0.0
 0031244,0.00017978,0.00008584,0.00785126,-0.00521278,-0.04290871,-0.01
 054941,0.00100802,-0.01135382,0.04951835,-0.00050678,0.00316517,-0.001
 92016,-0.00000809,0.00208065,0.00067201,-0.00030765,0.00020246,0.00003
 883,0.00552140,0.05461723,-0.02887804,0.03723505,-0.51426508,-0.000608
 74,0.00325855,-0.01594150,0.00035835,-0.00288532,0.00135507,0.00001660
 ,-0.00231779,0.00378721,0.00021980,-0.00013938,-0.00020576,0.02868993,
 -0.03788977,0.52449074,0.00344438,-0.00273207,0.00613112,-0.05555099,-
 0.00342531,-0.00018754,-0.01331215,0.01165644,0.03502094,0.00144938,-0
 .00046507,-0.02558447,0.00158346,-0.00026091,-0.00074031,0.00172160,-0
 .00096665,0.00027585,0.06169476,-0.00181313,-0.01523924,0.04335175,-0.
 00359984,-0.04752876,-0.00845095,0.01271798,-0.00244949,-0.02299459,-0
 .00058195,0.00175039,-0.01370061,0.00042340,0.00011474,0.00030401,-0.0
 0183477,-0.00521383,0.00257257,-0.00217059,0.06878090,-0.00003076,0.00
 822962,-0.01184342,0.00604858,-0.00056871,-0.30412710,0.00957273,-0.00
 617211,-0.00694349,0.00064501,-0.00032066,-0.01115000,0.00038422,-0.00
 006188,0.00070497,0.00045953,0.00160851,0.00166414,-0.01432969,-0.0008
 8340,0.33016617,0.00394610,-0.00280647,0.00022425,-0.03415909,-0.01062
 002,-0.01582231,-0.34061857,-0.12247155,-0.17230445,-0.00335366,0.0036
 9763,0.00298499,-0.00048479,-0.00092905,-0.00092668,-0.00036088,0.0003
 1820,-0.00025568,0.00246478,-0.00130194,-0.00043394,0.37229101,-0.0013
 7232,0.00184508,-0.00019001,0.02559381,0.00474766,0.01010967,-0.161125
 06,-0.09725377,-0.11106165,0.00209471,-0.00086369,-0.00118686,0.000587
 52,0.00063508,0.00000959,-0.00008784,-0.00010370,0.00037543,0.00044047
 ,-0.00041127,-0.00067224,0.13366801,0.09141080,0.00069132,-0.00211054,
 -0.00016021,0.01478853,0.00555249,0.00523141,-0.20495692,-0.10528227,-
 0.13743938,0.00165573,-0.00175768,0.00032064,0.00070386,0.00009829,0.0
 0084325,-0.00019855,0.00010673,-0.00032000,0.00061218,0.00088500,0.001
 03280,0.18622967,0.10272029,0.13027270,-0.00542290,-0.00626117,-0.0019
 0500,0.00113095,-0.02236449,0.01124304,0.00028934,0.00002849,-0.000101
 60,-0.04728749,-0.00695506,0.00086614,0.00018131,0.02827986,-0.0090119
 8,0.00028126,0.00055645,-0.00083050,0.00063534,0.00051756,-0.00016777,
 0.00035787,0.00017831,-0.00003536,0.05337600,-0.00386031,-0.00293733,-
 0.00107972,0.00416695,-0.01281453,0.00655768,0.00103501,0.00155132,0.0
 0003396,-0.01013485,-0.29406742,0.07700814,-0.00093790,-0.01154723,0.0
 0377462,0.00034946,0.00041965,-0.00070249,-0.00001356,0.00050642,-0.00
 023295,0.00001271,0.00031154,-0.00023761,0.00703572,0.31615389,-0.0029
 8253,-0.00296402,0.00076139,0.00018915,-0.01327650,0.00331153,0.000873
 31,0.00012784,0.00038499,0.00203860,0.08064031,-0.07461433,-0.00036244
 ,-0.00903968,0.00230532,-0.00033306,-0.00034168,-0.00014957,0.00072135
 ,0.00008580,0.00041029,0.00010096,-0.00002051,-0.00018507,-0.00200026,
 -0.08276462,0.07342586,0.00109109,0.00230545,0.00085986,0.00072426,0.0
 0053624,-0.02970084,0.00231468,-0.00030068,0.00040432,-0.05023140,-0.0
 0142985,0.02861015,-0.00337046,-0.00078623,0.02859886,0.00010410,-0.00
 058417,0.00090075,-0.00394961,-0.00214527,-0.00161223,0.00028401,-0.00
 011977,0.00036355,-0.00076912,0.00001527,0.00131202,0.05635408,0.00077
 785,0.00182711,-0.00035778,0.00075765,-0.00175340,-0.01667489,0.001250
 86,0.00026288,0.00114087,-0.00115318,-0.04884501,0.00342342,0.00166410
 ,-0.00025776,-0.01549543,-0.00029155,-0.00075472,0.00050520,-0.0021752
 4,-0.00037762,-0.00117662,0.00015643,-0.00018524,0.00011121,-0.0026023
 8,0.00161048,0.02858505,0.00003845,0.04793963,0.00012133,-0.00004255,0
 .00272393,0.00300917,0.00152424,-0.01725848,0.00053481,0.00027681,0.00
 161096,0.02772968,0.00202443,-0.30747006,-0.00005820,0.00037519,-0.005
 24015,-0.00041729,-0.00116790,-0.00042734,-0.00268334,-0.00147339,-0.0
 0020762,0.00008932,-0.00004225,0.00048325,0.00040684,-0.00124408,-0.00
 711201,-0.03028415,0.00079959,0.33114914,-0.00014217,-0.00023849,-0.00
 026154,0.00150078,-0.00004860,0.00164236,-0.00004863,0.00004276,-0.000
 31577,-0.00329896,-0.00133399,0.02861078,-0.05053816,-0.00055428,0.030
 57596,0.00013523,0.00014900,-0.00002905,-0.00025210,-0.00006215,-0.000
 44382,0.00003491,0.00001809,-0.00012540,0.00108268,-0.00024150,-0.0006
 1150,-0.00463136,0.00277063,0.00128681,0.05326310,0.00002196,0.0000859
 4,-0.00006125,-0.00067928,0.00020309,0.00014805,0.00000553,-0.00009338
 ,0.00007620,0.00131630,-0.00019656,-0.01627183,-0.00074025,-0.04782385
 ,0.00450670,-0.00001856,-0.00005829,-0.00002490,0.00007906,0.00008229,
 0.00020579,-0.00001954,-0.00001251,0.00004040,-0.00075452,0.00041611,-
 0.00027591,0.00327117,-0.00040561,-0.00082432,-0.00260956,0.04568370,0
 .00048857,0.00029931,-0.00006785,-0.00127468,-0.00037244,0.00059404,0.
 00016557,0.00003842,0.00023524,0.00041016,0.00037560,-0.00613885,0.031
 91910,0.00359685,-0.31599370,-0.00013441,-0.00009457,0.00005203,0.0005
 2893,0.00024429,0.00005521,0.00004679,-0.00000074,-0.00001733,0.000035
 40,-0.00021288,0.00058165,0.00151707,-0.00108517,0.00071910,-0.0368733
 8,-0.00243926,0.33687779,-0.00136040,-0.00073142,0.00031166,0.00126388
 ,0.00109928,-0.00079356,0.00027204,-0.00040180,0.00017981,0.00110141,0
 .02739392,-0.00972696,-0.04595726,-0.00599497,0.00204095,-0.00030814,-
 0.00010456,0.00026362,0.00001306,-0.00015761,0.00004555,-0.00007522,-0
 .00008208,-0.00002825,-0.00492081,0.00250782,0.00138069,0.00121114,-0.
 00077687,0.00000114,-0.00110702,-0.00296067,0.00052704,0.04920407,-0.0
 0194667,0.00125878,-0.00028467,-0.00134778,-0.00151975,-0.00029015,0.0
 0059061,0.00019407,0.00008710,-0.00032144,-0.01275865,0.00465748,-0.00
 392273,-0.29652435,0.08158624,0.00014601,-0.00007821,0.00000992,0.0000
 9676,0.00006173,0.00000966,0.00004933,-0.00001314,-0.00002785,0.002877
 43,-0.00035226,-0.00115271,-0.00014198,0.00057162,-0.00022073,0.000165
 53,0.00206680,-0.00157660,0.00229905,0.31764950,0.00029602,-0.00026734
 ,0.00002930,-0.00006052,0.00084108,0.00004218,-0.00000096,-0.00012061,
 -0.00006055,-0.00070961,-0.00988410,0.00266081,0.00130589,0.08227061,-
 0.07509054,-0.00000238,0.00005145,-0.00002439,0.00003841,-0.00005522,0
 .00003404,-0.00002685,0.00003036,-0.00002002,0.00195825,-0.00091867,0.
 00075308,-0.00072403,-0.00029842,0.00048807,0.00048446,0.02914959,-0.0
 0688293,-0.00348115,-0.08728155,0.07382819,-0.00031959,-0.00049495,0.0
 0003418,-0.00042753,0.00445801,0.00304831,-0.00280928,-0.00046615,-0.0
 0073357,-0.01985537,-0.01391770,-0.01225744,-0.21626306,-0.10012684,-0
 .09116047,0.00011063,0.00013760,-0.00012288,0.00005810,0.00000830,-0.0
 0013740,-0.00032647,0.00020616,0.00029964,0.00106557,0.00006518,-0.000
 32628,0.00086858,-0.00041674,0.00026389,0.00400173,0.00308835,0.002643
 82,0.00066323,0.00145590,0.00092245,0.23323344,-0.00068656,0.00068995,
 -0.00014371,0.00148392,-0.00235099,-0.00138417,0.00143112,0.00030654,0
 .00028742,0.01499836,0.00770973,0.00834151,-0.10211247,-0.10589816,-0.
 05415091,0.00004213,-0.00001387,0.00000293,-0.00006332,-0.00007625,0.0
 0003499,0.00024627,-0.00010686,-0.00009846,-0.00053620,0.00074937,0.00
 039662,-0.00065862,0.00036765,0.00001496,0.00194257,0.00005226,0.00122
 719,-0.02209008,-0.01055614,-0.01351719,0.10600289,0.10912678,0.000208
 07,-0.00012428,0.00008980,0.00093249,-0.00083921,0.00001659,0.00058217
 ,-0.00003984,0.00026396,0.00869610,0.00542937,0.00332238,-0.09280509,-
 0.05422233,-0.09562853,-0.00006703,-0.00003239,-0.00001556,0.00019656,
 0.00011476,0.00020401,0.00009392,-0.00007108,-0.00004203,-0.00045720,0
 .00001863,0.00012687,-0.00024533,0.00052297,0.00054121,-0.02393990,-0.
 01422927,-0.01001440,0.00927948,0.00448386,0.00424275,0.09752575,0.058
 98882,0.09689295\\-0.00000386,0.00001111,0.00001488,0.00000175,-0.0000
 0029,-0.00001344,0.00000418,0.00000306,0.00000026,-0.00001957,0.000007
 94,0.00000129,0.00000857,-0.00001365,-0.00000025,-0.00000019,0.0000087
 4,0.00001438,0.00000549,-0.00000784,-0.00000231,0.00000323,0.00000037,
 -0.00000599,0.00000102,-0.00000260,-0.00001615,0.00000240,0.00000823,-
 0.00000163,-0.00000133,-0.00001157,-0.00000105,-0.00000311,-0.00000307
 ,0.00001244,0.00000142,-0.00000042,-0.00000243\\\@
 The archive entry for this job was punched.


 Mondays are the potholes in the road of life.
                                -- Tom Wilson
 Job cpu time:       0 days  0 hours  9 minutes 27.9 seconds.
 Elapsed time:       0 days  0 hours  1 minutes 11.5 seconds.
 File lengths (MBytes):  RWF=   1312 Int=      0 D2E=      0 Chk=     12 Scr=     32
 Normal termination of Gaussian 16 at Tue Oct 21 19:36:29 2025.
