 Entering Gaussian System, Link 0=g16
 Input=../../g16_C3-w_9.com
 Output=../../g16_C3-w_9.log
 Initial command:
 /lrz/sys/applications/gaussian/g16.C.01/x86_64_legacy/exe/l1.exe "/dss/lxclscratch/0D/go29tiz2/Gau-215891.inp" -scrdir="/dss/lxclscratch/0D/go29tiz2/"
 Entering Link 1 = /lrz/sys/applications/gaussian/g16.C.01/x86_64_legacy/exe/l1.exe PID=    215892.
  
 Copyright (c) 1988-2019, Gaussian, Inc.  All Rights Reserved.
  
 This is part of the Gaussian(R) 16 program.  It is based on
 the Gaussian(R) 09 system (copyright 2009, Gaussian, Inc.),
 the Gaussian(R) 03 system (copyright 2003, Gaussian, Inc.),
 the Gaussian(R) 98 system (copyright 1998, Gaussian, Inc.),
 the Gaussian(R) 94 system (copyright 1995, Gaussian, Inc.),
 the Gaussian 92(TM) system (copyright 1992, Gaussian, Inc.),
 the Gaussian 90(TM) system (copyright 1990, Gaussian, Inc.),
 the Gaussian 88(TM) system (copyright 1988, Gaussian, Inc.),
 the Gaussian 86(TM) system (copyright 1986, Carnegie Mellon
 University), and the Gaussian 82(TM) system (copyright 1983,
 Carnegie Mellon University). Gaussian is a federally registered
 trademark of Gaussian, Inc.
  
 This software contains proprietary and confidential information,
 including trade secrets, belonging to Gaussian, Inc.
  
 This software is provided under written license and may be
 used, copied, transmitted, or stored only in accord with that
 written license.
  
 The following legend is applicable only to US Government
 contracts under FAR:
  
                    RESTRICTED RIGHTS LEGEND
  
 Use, reproduction and disclosure by the US Government is
 subject to restrictions as set forth in subparagraphs (a)
 and (c) of the Commercial Computer Software - Restricted
 Rights clause in FAR 52.227-19.
  
 Gaussian, Inc.
 340 Quinnipiac St., Bldg. 40, Wallingford CT 06492
  
  
 ---------------------------------------------------------------
 Warning -- This program may not be used in any manner that
 competes with the business of Gaussian, Inc. or will provide
 assistance to any competitor of Gaussian, Inc.  The licensee
 of this program is prohibited from giving any competitor of
 Gaussian, Inc. access to this program.  By using this program,
 the user acknowledges that Gaussian, Inc. is engaged in the
 business of creating and licensing software in the field of
 computational chemistry and represents and warrants to the
 licensee that it is not a competitor of Gaussian, Inc. and that
 it will not use this program in any manner prohibited above.
 ---------------------------------------------------------------
  

 Cite this work as:
 Gaussian 16, Revision C.01,
 M. J. Frisch, G. W. Trucks, H. B. Schlegel, G. E. Scuseria, 
 M. A. Robb, J. R. Cheeseman, G. Scalmani, V. Barone, 
 G. A. Petersson, H. Nakatsuji, X. Li, M. Caricato, A. V. Marenich, 
 J. Bloino, B. G. Janesko, R. Gomperts, B. Mennucci, H. P. Hratchian, 
 J. V. Ortiz, A. F. Izmaylov, J. L. Sonnenberg, D. Williams-Young, 
 F. Ding, F. Lipparini, F. Egidi, J. Goings, B. Peng, A. Petrone, 
 T. Henderson, D. Ranasinghe, V. G. Zakrzewski, J. Gao, N. Rega, 
 G. Zheng, W. Liang, M. Hada, M. Ehara, K. Toyota, R. Fukuda, 
 J. Hasegawa, M. Ishida, T. Nakajima, Y. Honda, O. Kitao, H. Nakai, 
 T. Vreven, K. Throssell, J. A. Montgomery, Jr., J. E. Peralta, 
 F. Ogliaro, M. J. Bearpark, J. J. Heyd, E. N. Brothers, K. N. Kudin, 
 V. N. Staroverov, T. A. Keith, R. Kobayashi, J. Normand, 
 K. Raghavachari, A. P. Rendell, J. C. Burant, S. S. Iyengar, 
 J. Tomasi, M. Cossi, J. M. Millam, M. Klene, C. Adamo, R. Cammi, 
 J. W. Ochterski, R. L. Martin, K. Morokuma, O. Farkas, 
 J. B. Foresman, and D. J. Fox, Gaussian, Inc., Wallingford CT, 2019.
 
 ******************************************
 Gaussian 16:  EM64L-G16RevC.01  3-Jul-2019
                21-Oct-2025 
 ******************************************
 %chk=g16_C3-w_9.chk
 %nprocshared=8
 Will use up to    8 processors via shared memory.
 %mem=32GB
 ---------------------------------------------------
 #p opt freq wb97xd scrf=(smd,solvent=water) def2svp
 ---------------------------------------------------
 1/18=20,19=15,26=3,38=1/1,3;
 2/9=110,12=2,17=6,18=5,40=1/2;
 3/5=43,7=101,11=2,25=1,30=1,70=32201,71=1,72=1,74=-58/1,2,3;
 4//1;
 5/5=2,38=5,53=1/2;
 6/7=2,8=2,9=2,10=2,28=1/1;
 7//1,2,3,16;
 1/18=20,19=15,26=3/3(2);
 2/9=110/2;
 99//99;
 2/9=110/2;
 3/5=43,7=101,11=2,25=1,30=1,70=32205,71=1,72=1,74=-58/1,2,3;
 4/5=5,16=3,69=1/1;
 5/5=2,38=5,53=1/2;
 7//1,2,3,16;
 1/18=20,19=15,26=3/3(-5);
 2/9=110/2;
 6/7=2,8=2,9=2,10=2,19=2,28=1/1;
 99/9=1/99;
 Leave Link    1 at Tue Oct 21 19:51:50 2025, MaxMem=  4294967296 cpu:               6.6 elap:               0.9
 (Enter /lrz/sys/applications/gaussian/g16.C.01/x86_64_legacy/exe/l101.exe)
 ----------
 g16_C3-w_9
 ----------
 Symbolic Z-matrix:
 Charge =  0 Multiplicity = 1
 O                    -0.68247  -1.34272  -0.04021 
 C                    -0.57788  -0.00004  -0.46055 
 O                    -1.20865   0.78467   0.49707 
 C                     0.89092   0.41082  -0.68449 
 C                     1.72695   0.27237   0.5845 
 H                    -0.32886  -1.9238   -0.72231 
 H                    -1.1497    0.15816  -1.3889 
 H                    -0.82962   0.53863   1.35041 
 H                     1.30588  -0.21682  -1.47613 
 H                     0.90009   1.44508  -1.03029 
 H                     1.61666  -0.72621   1.00317 
 H                     1.4184    1.00184   1.33056 
 H                     2.77694   0.44081   0.3611 
 
 ITRead=  0  0  0  0  0  0  0  0  0  0  0  0  0
 MicOpt= -1 -1 -1 -1 -1 -1 -1 -1 -1 -1 -1 -1 -1
 NAtoms=     13 NQM=       13 NQMF=       0 NMMI=      0 NMMIF=      0
                NMic=       0 NMicF=      0.
                    Isotopes and Nuclear Properties:
 (Nuclear quadrupole moments (NQMom) in fm**2, nuclear magnetic moments (NMagM)
  in nuclear magnetons)

  Atom         1           2           3           4           5           6           7           8           9          10
 IAtWgt=          16          12          16          12          12           1           1           1           1           1
 AtmWgt=  15.9949146  12.0000000  15.9949146  12.0000000  12.0000000   1.0078250   1.0078250   1.0078250   1.0078250   1.0078250
 NucSpn=           0           0           0           0           0           1           1           1           1           1
 AtZEff=  -0.0000000  -0.0000000  -0.0000000  -0.0000000  -0.0000000  -0.0000000  -0.0000000  -0.0000000  -0.0000000  -0.0000000
 NQMom=    0.0000000   0.0000000   0.0000000   0.0000000   0.0000000   0.0000000   0.0000000   0.0000000   0.0000000   0.0000000
 NMagM=    0.0000000   0.0000000   0.0000000   0.0000000   0.0000000   2.7928460   2.7928460   2.7928460   2.7928460   2.7928460
 AtZNuc=   8.0000000   6.0000000   8.0000000   6.0000000   6.0000000   1.0000000   1.0000000   1.0000000   1.0000000   1.0000000

  Atom        11          12          13
 IAtWgt=           1           1           1
 AtmWgt=   1.0078250   1.0078250   1.0078250
 NucSpn=           1           1           1
 AtZEff=  -0.0000000  -0.0000000  -0.0000000
 NQMom=    0.0000000   0.0000000   0.0000000
 NMagM=    2.7928460   2.7928460   2.7928460
 AtZNuc=   1.0000000   1.0000000   1.0000000
 Leave Link  101 at Tue Oct 21 19:51:50 2025, MaxMem=  4294967296 cpu:               3.6 elap:               0.5
 (Enter /lrz/sys/applications/gaussian/g16.C.01/x86_64_legacy/exe/l103.exe)

 GradGradGradGradGradGradGradGradGradGradGradGradGradGradGradGradGradGrad
 Berny optimization.
 Initialization pass.
                           ----------------------------
                           !    Initial Parameters    !
                           ! (Angstroms and Degrees)  !
 --------------------------                            --------------------------
 ! Name  Definition              Value          Derivative Info.                !
 --------------------------------------------------------------------------------
 ! R1    R(1,2)                  1.4108         estimate D2E/DX2                !
 ! R2    R(1,6)                  0.9633         estimate D2E/DX2                !
 ! R3    R(2,3)                  1.3895         estimate D2E/DX2                !
 ! R4    R(2,4)                  1.5415         estimate D2E/DX2                !
 ! R5    R(2,7)                  1.1017         estimate D2E/DX2                !
 ! R6    R(3,8)                  0.9656         estimate D2E/DX2                !
 ! R7    R(4,5)                  1.5259         estimate D2E/DX2                !
 ! R8    R(4,9)                  1.0922         estimate D2E/DX2                !
 ! R9    R(4,10)                 1.0906         estimate D2E/DX2                !
 ! R10   R(5,11)                 1.0884         estimate D2E/DX2                !
 ! R11   R(5,12)                 1.0881         estimate D2E/DX2                !
 ! R12   R(5,13)                 1.0866         estimate D2E/DX2                !
 ! A1    A(2,1,6)              109.6277         estimate D2E/DX2                !
 ! A2    A(1,2,3)              107.3662         estimate D2E/DX2                !
 ! A3    A(1,2,4)              111.5655         estimate D2E/DX2                !
 ! A4    A(1,2,7)              110.4403         estimate D2E/DX2                !
 ! A5    A(3,2,4)              112.4663         estimate D2E/DX2                !
 ! A6    A(3,2,7)              105.3091         estimate D2E/DX2                !
 ! A7    A(4,2,7)              109.5024         estimate D2E/DX2                !
 ! A8    A(2,3,8)              106.677          estimate D2E/DX2                !
 ! A9    A(2,4,5)              112.1506         estimate D2E/DX2                !
 ! A10   A(2,4,9)              108.3096         estimate D2E/DX2                !
 ! A11   A(2,4,10)             107.8684         estimate D2E/DX2                !
 ! A12   A(5,4,9)              110.0282         estimate D2E/DX2                !
 ! A13   A(5,4,10)             110.1895         estimate D2E/DX2                !
 ! A14   A(9,4,10)             108.1785         estimate D2E/DX2                !
 ! A15   A(4,5,11)             110.3423         estimate D2E/DX2                !
 ! A16   A(4,5,12)             110.7334         estimate D2E/DX2                !
 ! A17   A(4,5,13)             110.1437         estimate D2E/DX2                !
 ! A18   A(11,5,12)            108.8201         estimate D2E/DX2                !
 ! A19   A(11,5,13)            108.616          estimate D2E/DX2                !
 ! A20   A(12,5,13)            108.1222         estimate D2E/DX2                !
 ! D1    D(6,1,2,3)            174.652          estimate D2E/DX2                !
 ! D2    D(6,1,2,4)            -61.6971         estimate D2E/DX2                !
 ! D3    D(6,1,2,7)             60.3353         estimate D2E/DX2                !
 ! D4    D(1,2,3,8)             52.0421         estimate D2E/DX2                !
 ! D5    D(4,2,3,8)            -71.0558         estimate D2E/DX2                !
 ! D6    D(7,2,3,8)            169.7511         estimate D2E/DX2                !
 ! D7    D(1,2,4,5)            -59.8913         estimate D2E/DX2                !
 ! D8    D(1,2,4,9)             61.7231         estimate D2E/DX2                !
 ! D9    D(1,2,4,10)           178.5918         estimate D2E/DX2                !
 ! D10   D(3,2,4,5)             60.8219         estimate D2E/DX2                !
 ! D11   D(3,2,4,9)           -177.5637         estimate D2E/DX2                !
 ! D12   D(3,2,4,10)           -60.695          estimate D2E/DX2                !
 ! D13   D(7,2,4,5)            177.5371         estimate D2E/DX2                !
 ! D14   D(7,2,4,9)            -60.8485         estimate D2E/DX2                !
 ! D15   D(7,2,4,10)            56.0202         estimate D2E/DX2                !
 ! D16   D(2,4,5,11)            52.5531         estimate D2E/DX2                !
 ! D17   D(2,4,5,12)           -67.9923         estimate D2E/DX2                !
 ! D18   D(2,4,5,13)           172.4629         estimate D2E/DX2                !
 ! D19   D(9,4,5,11)           -68.0715         estimate D2E/DX2                !
 ! D20   D(9,4,5,12)           171.383          estimate D2E/DX2                !
 ! D21   D(9,4,5,13)            51.8382         estimate D2E/DX2                !
 ! D22   D(10,4,5,11)          172.7295         estimate D2E/DX2                !
 ! D23   D(10,4,5,12)           52.1841         estimate D2E/DX2                !
 ! D24   D(10,4,5,13)          -67.3608         estimate D2E/DX2                !
 --------------------------------------------------------------------------------
 Trust Radius=3.00D-01 FncErr=1.00D-07 GrdErr=1.00D-06 EigMax=2.50D+02 EigMin=1.00D-04
 Number of steps in this run=     66 maximum allowed number of steps=    100.
 GradGradGradGradGradGradGradGradGradGradGradGradGradGradGradGradGradGrad

 Leave Link  103 at Tue Oct 21 19:51:50 2025, MaxMem=  4294967296 cpu:               0.1 elap:               0.0
 (Enter /lrz/sys/applications/gaussian/g16.C.01/x86_64_legacy/exe/l202.exe)
                          Input orientation:                          
 ---------------------------------------------------------------------
 Center     Atomic      Atomic             Coordinates (Angstroms)
 Number     Number       Type             X           Y           Z
 ---------------------------------------------------------------------
      1          8           0       -0.682470   -1.342720   -0.040213
      2          6           0       -0.577884   -0.000037   -0.460553
      3          8           0       -1.208650    0.784670    0.497074
      4          6           0        0.890918    0.410816   -0.684491
      5          6           0        1.726947    0.272366    0.584496
      6          1           0       -0.328861   -1.923801   -0.722306
      7          1           0       -1.149697    0.158165   -1.388895
      8          1           0       -0.829618    0.538633    1.350413
      9          1           0        1.305878   -0.216820   -1.476130
     10          1           0        0.900087    1.445082   -1.030286
     11          1           0        1.616658   -0.726214    1.003172
     12          1           0        1.418396    1.001839    1.330563
     13          1           0        2.776939    0.440814    0.361098
 ---------------------------------------------------------------------
                    Distance matrix (angstroms):
                    1          2          3          4          5
     1  O    0.000000
     2  C    1.410824   0.000000
     3  O    2.256398   1.389489   0.000000
     4  C    2.442445   1.541534   2.438042   0.000000
     5  C    2.967163   2.545304   2.981246   1.525922   0.000000
     6  H    0.963299   1.957395   3.097859   2.634336   3.279821
     7  H    2.071208   1.101734   1.988181   2.173506   3.490328
     8  H    2.344138   1.906078   0.965602   2.667849   2.682080
     9  H    2.698710   2.151034   3.349532   1.092159   2.159347
    10  H    3.355082   2.144146   2.686214   1.090580   2.160203
    11  H    2.598985   2.736026   3.243651   2.160496   1.088400
    12  H    3.433602   2.863037   2.764641   2.165175   1.088096
    13  H    3.912743   3.481996   4.002705   2.156671   1.086630
                    6          7          8          9         10
     6  H    0.000000
     7  H    2.335100   0.000000
     8  H    3.257377   2.784065   0.000000
     9  H    2.480807   2.485572   3.622209   0.000000
    10  H    3.599241   2.446706   3.079165   1.767870   0.000000
    11  H    2.862959   3.762557   2.775731   2.550099   3.059894
    12  H    3.978260   3.834363   2.295326   3.061914   2.457380
    13  H    4.051069   4.308229   3.741065   2.443749   2.543045
                   11         12         13
    11  H    0.000000
    12  H    1.769932   0.000000
    13  H    1.766484   1.760752   0.000000
 Stoichiometry    C3H8O2
 Framework group  C1[X(C3H8O2)]
 Deg. of freedom    33
 Full point group                 C1      NOp   1
 Largest Abelian subgroup         C1      NOp   1
 Largest concise Abelian subgroup C1      NOp   1
                         Standard orientation:                         
 ---------------------------------------------------------------------
 Center     Atomic      Atomic             Coordinates (Angstroms)
 Number     Number       Type             X           Y           Z
 ---------------------------------------------------------------------
      1          8           0       -1.055132    1.042487   -0.434133
      2          6           0       -0.657670    0.005028    0.435422
      3          8           0       -1.011696   -1.197305   -0.164364
      4          6           0        0.847792    0.081614    0.757983
      5          6           0        1.711092   -0.029105   -0.495369
      6          1           0       -0.900919    1.894854   -0.012665
      7          1           0       -1.236928    0.044668    1.371748
      8          1           0       -0.645470   -1.179761   -1.057649
      9          1           0        1.042515    1.029828    1.263734
     10          1           0        1.083342   -0.727731    1.449967
     11          1           0        1.391374    0.697087   -1.240380
     12          1           0        1.640865   -1.026487   -0.924613
     13          1           0        2.752561    0.160861   -0.250383
 ---------------------------------------------------------------------
 Rotational constants (GHZ):           6.8934744           4.0481952           3.3940459
 Leave Link  202 at Tue Oct 21 19:51:50 2025, MaxMem=  4294967296 cpu:               0.2 elap:               0.0
 (Enter /lrz/sys/applications/gaussian/g16.C.01/x86_64_legacy/exe/l301.exe)
 Standard basis: def2SVP (5D, 7F)
 Ernie: Thresh=  0.10000D-02 Tol=  0.10000D-05 Strict=F.
 There are   115 symmetry adapted cartesian basis functions of A   symmetry.
 There are   110 symmetry adapted basis functions of A   symmetry.
   110 basis functions,   181 primitive gaussians,   115 cartesian basis functions
    21 alpha electrons       21 beta electrons
       nuclear repulsion energy       197.7930788938 Hartrees.
 IExCor= 4639 DFT=T Ex+Corr=wB97XD ExCW=0 ScaHFX=  1.000000
 ScaDFX=  1.000000  1.000000  1.000000  1.000000 ScalE2=  1.000000  1.000000
 IRadAn=      5 IRanWt=     -1 IRanGd=            0 ICorTp=0 IEmpDi=121
 HFx  wShort=  0.000000 wLong=  0.200000 cFull=  0.222036 cShort=  0.000000 cLong=  0.777964
 DFx  wShort=  0.000000 wLong=  0.200000 cFull=  0.000000 cShort=  0.000000 cLong=  1.000000
 NAtoms=   13 NActive=   13 NUniq=   13 SFac= 1.00D+00 NAtFMM=   60 NAOKFM=F Big=F
 Integral buffers will be    131072 words long.
 Raffenetti 2 integral format.
 Two-electron integral symmetry is turned on.
 R6Disp:  Grimme-D2 Dispersion energy=       -0.0059437295 Hartrees.
 Nuclear repulsion after empirical dispersion term =      197.7871351643 Hartrees.
 ------------------------------------------------------------------------------
 Polarizable Continuum Model (PCM)
 =================================
 Model                : PCM.
 Atomic radii         : SMD-Coulomb.
 Polarization charges : Total charges.
 Charge compensation  : None.
 Solution method      : On-the-fly selection.
 Cavity type          : VdW (van der Waals Surface) (Alpha=1.000).
 Cavity algorithm     : GePol (No added spheres)
                        Default sphere list used, NSphG=   13.
                        Lebedev-Laikov grids with approx.  5.0 points / Ang**2.
                        Smoothing algorithm: York/Karplus (Gamma=1.0000).
                        Polarization charges: spherical gaussians, with
                                              point-specific exponents (IZeta= 3).
                        Self-potential: point-specific (ISelfS= 7).
                        Self-field    : sphere-specific E.n sum rule (ISelfD= 2).
 1st derivatives      : Analytical E(r).r(x)/FMM algorithm (CHGder, D1EAlg=3).
                        Cavity 1st derivative terms included.
 Solvent              : Water, Eps=  78.355300 Eps(inf)=   1.777849
 ------------------------------------------------------------------------------
 Spheres list:
 ISph  on   Nord     Re0    Alpha      Xe            Ye            Ze
    1   O      1    1.5200  1.000     -1.055132      1.042487     -0.434133
    2   C      2    1.8500  1.000     -0.657670      0.005028      0.435422
    3   O      3    1.5200  1.000     -1.011696     -1.197305     -0.164364
    4   C      4    1.8500  1.000      0.847792      0.081614      0.757983
    5   C      5    1.8500  1.000      1.711092     -0.029105     -0.495369
    6   H      6    1.2000  1.000     -0.900919      1.894854     -0.012665
    7   H      7    1.2000  1.000     -1.236928      0.044668      1.371748
    8   H      8    1.2000  1.000     -0.645470     -1.179761     -1.057649
    9   H      9    1.2000  1.000      1.042515      1.029828      1.263734
   10   H     10    1.2000  1.000      1.083342     -0.727731      1.449967
   11   H     11    1.2000  1.000      1.391374      0.697087     -1.240380
   12   H     12    1.2000  1.000      1.640865     -1.026487     -0.924613
   13   H     13    1.2000  1.000      2.752561      0.160861     -0.250383
 ------------------------------------------------------------------------------
 GePol: Number of generator spheres                  =      13
 GePol: Total number of spheres                      =      13
 GePol: Number of exposed spheres                    =      13 (100.00%)
 GePol: Number of points                             =     906
 GePol: Average weight of points                     =       0.12
 GePol: Minimum weight of points                     =   0.50D-11
 GePol: Maximum weight of points                     =    0.21991
 GePol: Number of points with low weight             =      49
 GePol: Fraction of low-weight points (<1% of avg)   =       5.41%
 GePol: Cavity surface area                          =    109.648 Ang**2
 GePol: Cavity volume                                =     82.055 Ang**3
 ------------------------------------------------------------------------------
 Atomic radii for non-electrostatic terms: SMD-CDS.
 ------------------------------------------------------------------------------
 PCM non-electrostatic energy =         0.0046654700 Hartrees.
 Nuclear repulsion after PCM non-electrostatic terms =      197.7918006342 Hartrees.
 Leave Link  301 at Tue Oct 21 19:51:50 2025, MaxMem=  4294967296 cpu:               0.5 elap:               0.1
 (Enter /lrz/sys/applications/gaussian/g16.C.01/x86_64_legacy/exe/l302.exe)
 NPDir=0 NMtPBC=     1 NCelOv=     1 NCel=       1 NClECP=     1 NCelD=      1
         NCelK=      1 NCelE2=     1 NClLst=     1 CellRange=     0.0.
 One-electron integrals computed using PRISM.
 One-electron integral symmetry used in STVInt
   1 Symmetry operations used in ECPInt.
 ECPInt:  NShTT=    1485 NPrTT=    5139 LenC2=    1483 LenP2D=    4470.
 LDataN:  DoStor=T MaxTD1= 4 Len=   56
 NBasis=   110 RedAO= T EigKep=  2.30D-03  NBF=   110
 NBsUse=   110 1.00D-06 EigRej= -1.00D+00 NBFU=   110
 Precomputing XC quadrature grid using
 IXCGrd= 4 IRadAn=           5 IRanWt=          -1 IRanGd=           0 AccXCQ= 0.00D+00.
 Generated NRdTot=       0 NPtTot=           0 NUsed=           0 NTot=          32
 NSgBfM=   115   115   115   115   115 MxSgAt=    13 MxSgA2=    13.
 Leave Link  302 at Tue Oct 21 19:51:51 2025, MaxMem=  4294967296 cpu:               1.2 elap:               0.2
 (Enter /lrz/sys/applications/gaussian/g16.C.01/x86_64_legacy/exe/l303.exe)
 DipDrv:  MaxL=1.
 Leave Link  303 at Tue Oct 21 19:51:51 2025, MaxMem=  4294967296 cpu:               0.2 elap:               0.0
 (Enter /lrz/sys/applications/gaussian/g16.C.01/x86_64_legacy/exe/l401.exe)
 ExpMin= 1.22D-01 ExpMax= 2.27D+03 ExpMxC= 3.41D+02 IAcc=3 IRadAn=         5 AccDes= 0.00D+00
 Harris functional with IExCor= 4639 and IRadAn=       5 diagonalized for initial guess.
 HarFok:  IExCor= 4639 AccDes= 0.00D+00 IRadAn=         5 IDoV= 1 UseB2=F ITyADJ=14
 ICtDFT=  3500011 ScaDFX=  1.000000  1.000000  1.000000  1.000000
 FoFCou: FMM=F IPFlag=           0 FMFlag=      100000 FMFlg1=           0
         NFxFlg=           0 DoJE=T BraDBF=F KetDBF=T FulRan=T
         wScrn=  0.000000 ICntrl=       500 IOpCl=  0 I1Cent=   200000004 NGrid=           0
         NMat0=    1 NMatS0=      1 NMatT0=    0 NMatD0=    1 NMtDS0=    0 NMtDT0=    0
 Petite list used in FoFCou.
 Harris En= -258.099771714334    
 JPrj=0 DoOrth=F DoCkMO=F.
 Leave Link  401 at Tue Oct 21 19:51:51 2025, MaxMem=  4294967296 cpu:               5.3 elap:               0.7
 (Enter /lrz/sys/applications/gaussian/g16.C.01/x86_64_legacy/exe/l502.exe)
 Integral symmetry usage will be decided dynamically.
 Closed shell SCF:
 Using DIIS extrapolation, IDIIS=  1040.
 NGot=  4294967296 LenX=  4294938204 LenY=  4294924538
 Requested convergence on RMS density matrix=1.00D-08 within 128 cycles.
 Requested convergence on MAX density matrix=1.00D-06.
 Requested convergence on             energy=1.00D-06.
 No special actions if energy rises.
 Fock matrices will be formed incrementally for  20 cycles.

 Cycle   1  Pass 1  IDiag  1:
 FoFJK:  IHMeth= 1 ICntrl=       0 DoSepK=T KAlg= 0 I1Cent=           0 FoldK=F
 IRaf=         1 NMat=       1 IRICut=       1 DoRegI=T DoRafI=F ISym2E= 0 IDoP0=0 IntGTp=1.
 FoFCou: FMM=F IPFlag=           0 FMFlag=      100000 FMFlg1=           0
         NFxFlg=           0 DoJE=T BraDBF=F KetDBF=F FulRan=T
         wScrn=  0.000000 ICntrl=       500 IOpCl=  0 I1Cent=           0 NGrid=           0
         NMat0=    1 NMatS0=      1 NMatT0=    0 NMatD0=    1 NMtDS0=    0 NMtDT0=    0
 Symmetry not used in FoFCou.
 Inv3:  Mode=1 IEnd=     2462508.
 Iteration    1 A*A^-1 deviation from unit magnitude is 4.33D-15 for    132.
 Iteration    1 A*A^-1 deviation from orthogonality  is 2.71D-15 for    811     93.
 Iteration    1 A^-1*A deviation from unit magnitude is 4.22D-15 for    143.
 Iteration    1 A^-1*A deviation from orthogonality  is 2.23D-15 for    880    707.
 E= -269.260248537541    
 DIIS: error= 3.32D-02 at cycle   1 NSaved=   1.
 NSaved= 1 IEnMin= 1 EnMin= -269.260248537541     IErMin= 1 ErrMin= 3.32D-02
 ErrMax= 3.32D-02  0.00D+00 EMaxC= 1.00D-01 BMatC= 1.20D-01 BMatP= 1.20D-01
 IDIUse=3 WtCom= 6.68D-01 WtEn= 3.32D-01
 Coeff-Com:  0.100D+01
 Coeff-En:   0.100D+01
 Coeff:      0.100D+01
 Gap=     0.535 Goal=   None    Shift=    0.000
 GapD=    0.535 DampG=2.000 DampE=0.500 DampFc=1.0000 IDamp=-1.
 RMSDP=4.04D-03 MaxDP=8.35D-02              OVMax= 7.69D-02

 Cycle   2  Pass 1  IDiag  1:
 RMSU=  4.00D-03    CP:  9.83D-01
 E= -269.288279022497     Delta-E=       -0.028030484956 Rises=F Damp=F
 DIIS: error= 9.23D-03 at cycle   2 NSaved=   2.
 NSaved= 2 IEnMin= 2 EnMin= -269.288279022497     IErMin= 2 ErrMin= 9.23D-03
 ErrMax= 9.23D-03  0.00D+00 EMaxC= 1.00D-01 BMatC= 3.05D-02 BMatP= 1.20D-01
 IDIUse=3 WtCom= 9.08D-01 WtEn= 9.23D-02
 Coeff-Com:  0.292D+00 0.708D+00
 Coeff-En:   0.217D+00 0.783D+00
 Coeff:      0.285D+00 0.715D+00
 Gap=     0.508 Goal=   None    Shift=    0.000
 RMSDP=1.57D-03 MaxDP=3.57D-02 DE=-2.80D-02 OVMax= 3.77D-02

 Cycle   3  Pass 1  IDiag  1:
 RMSU=  1.14D-03    CP:  9.87D-01  7.32D-01
 E= -269.308838605774     Delta-E=       -0.020559583277 Rises=F Damp=F
 DIIS: error= 4.03D-03 at cycle   3 NSaved=   3.
 NSaved= 3 IEnMin= 3 EnMin= -269.308838605774     IErMin= 3 ErrMin= 4.03D-03
 ErrMax= 4.03D-03  0.00D+00 EMaxC= 1.00D-01 BMatC= 4.74D-03 BMatP= 3.05D-02
 IDIUse=3 WtCom= 9.60D-01 WtEn= 4.03D-02
 Coeff-Com:  0.352D-02 0.280D+00 0.717D+00
 Coeff-En:   0.000D+00 0.243D-01 0.976D+00
 Coeff:      0.338D-02 0.270D+00 0.727D+00
 Gap=     0.493 Goal=   None    Shift=    0.000
 RMSDP=5.90D-04 MaxDP=1.22D-02 DE=-2.06D-02 OVMax= 1.28D-02

 Cycle   4  Pass 1  IDiag  1:
 RMSU=  2.48D-04    CP:  9.84D-01  8.55D-01  8.28D-01
 E= -269.312337176853     Delta-E=       -0.003498571079 Rises=F Damp=F
 DIIS: error= 7.30D-04 at cycle   4 NSaved=   4.
 NSaved= 4 IEnMin= 4 EnMin= -269.312337176853     IErMin= 4 ErrMin= 7.30D-04
 ErrMax= 7.30D-04  0.00D+00 EMaxC= 1.00D-01 BMatC= 1.67D-04 BMatP= 4.74D-03
 IDIUse=3 WtCom= 9.93D-01 WtEn= 7.30D-03
 Coeff-Com: -0.339D-02 0.998D-01 0.317D+00 0.587D+00
 Coeff-En:   0.000D+00 0.000D+00 0.000D+00 0.100D+01
 Coeff:     -0.336D-02 0.990D-01 0.314D+00 0.590D+00
 Gap=     0.492 Goal=   None    Shift=    0.000
 RMSDP=8.90D-05 MaxDP=3.24D-03 DE=-3.50D-03 OVMax= 1.96D-03

 Cycle   5  Pass 1  IDiag  1:
 RMSU=  7.15D-05    CP:  9.84D-01  8.59D-01  8.47D-01  8.12D-01
 E= -269.312464064333     Delta-E=       -0.000126887480 Rises=F Damp=F
 DIIS: error= 9.87D-05 at cycle   5 NSaved=   5.
 NSaved= 5 IEnMin= 5 EnMin= -269.312464064333     IErMin= 5 ErrMin= 9.87D-05
 ErrMax= 9.87D-05  0.00D+00 EMaxC= 1.00D-01 BMatC= 2.54D-06 BMatP= 1.67D-04
 IDIUse=1 WtCom= 1.00D+00 WtEn= 0.00D+00
 Coeff-Com: -0.442D-03-0.181D-01-0.348D-01 0.388D-01 0.101D+01
 Coeff:     -0.442D-03-0.181D-01-0.348D-01 0.388D-01 0.101D+01
 Gap=     0.492 Goal=   None    Shift=    0.000
 RMSDP=4.43D-05 MaxDP=7.64D-04 DE=-1.27D-04 OVMax= 8.79D-04

 Cycle   6  Pass 1  IDiag  1:
 RMSU=  1.33D-05    CP:  9.84D-01  8.64D-01  8.64D-01  9.13D-01  1.21D+00
 E= -269.312468250143     Delta-E=       -0.000004185810 Rises=F Damp=F
 DIIS: error= 2.40D-05 at cycle   6 NSaved=   6.
 NSaved= 6 IEnMin= 6 EnMin= -269.312468250143     IErMin= 6 ErrMin= 2.40D-05
 ErrMax= 2.40D-05  0.00D+00 EMaxC= 1.00D-01 BMatC= 1.36D-07 BMatP= 2.54D-06
 IDIUse=1 WtCom= 1.00D+00 WtEn= 0.00D+00
 Coeff-Com:  0.107D-03-0.815D-02-0.204D-01-0.220D-01 0.166D+00 0.885D+00
 Coeff:      0.107D-03-0.815D-02-0.204D-01-0.220D-01 0.166D+00 0.885D+00
 Gap=     0.492 Goal=   None    Shift=    0.000
 RMSDP=9.05D-06 MaxDP=1.20D-04 DE=-4.19D-06 OVMax= 2.23D-04

 Cycle   7  Pass 1  IDiag  1:
 RMSU=  3.63D-06    CP:  9.84D-01  8.65D-01  8.66D-01  9.29D-01  1.28D+00
                    CP:  1.14D+00
 E= -269.312468435760     Delta-E=       -0.000000185618 Rises=F Damp=F
 DIIS: error= 1.11D-05 at cycle   7 NSaved=   7.
 NSaved= 7 IEnMin= 7 EnMin= -269.312468435760     IErMin= 7 ErrMin= 1.11D-05
 ErrMax= 1.11D-05  0.00D+00 EMaxC= 1.00D-01 BMatC= 2.35D-08 BMatP= 1.36D-07
 IDIUse=1 WtCom= 1.00D+00 WtEn= 0.00D+00
 Coeff-Com:  0.476D-04-0.244D-02-0.630D-02-0.101D-01 0.175D-01 0.342D+00
 Coeff-Com:  0.660D+00
 Coeff:      0.476D-04-0.244D-02-0.630D-02-0.101D-01 0.175D-01 0.342D+00
 Coeff:      0.660D+00
 Gap=     0.492 Goal=   None    Shift=    0.000
 RMSDP=2.12D-06 MaxDP=3.12D-05 DE=-1.86D-07 OVMax= 6.26D-05

 Cycle   8  Pass 1  IDiag  1:
 RMSU=  1.23D-06    CP:  9.84D-01  8.66D-01  8.67D-01  9.31D-01  1.29D+00
                    CP:  1.22D+00  9.53D-01
 E= -269.312468459499     Delta-E=       -0.000000023739 Rises=F Damp=F
 DIIS: error= 2.95D-06 at cycle   8 NSaved=   8.
 NSaved= 8 IEnMin= 8 EnMin= -269.312468459499     IErMin= 8 ErrMin= 2.95D-06
 ErrMax= 2.95D-06  0.00D+00 EMaxC= 1.00D-01 BMatC= 2.05D-09 BMatP= 2.35D-08
 IDIUse=1 WtCom= 1.00D+00 WtEn= 0.00D+00
 Coeff-Com: -0.107D-04 0.861D-03 0.224D-02 0.220D-02-0.242D-01-0.903D-01
 Coeff-Com:  0.141D+00 0.968D+00
 Coeff:     -0.107D-04 0.861D-03 0.224D-02 0.220D-02-0.242D-01-0.903D-01
 Coeff:      0.141D+00 0.968D+00
 Gap=     0.492 Goal=   None    Shift=    0.000
 RMSDP=1.23D-06 MaxDP=2.08D-05 DE=-2.37D-08 OVMax= 4.16D-05

 Cycle   9  Pass 1  IDiag  1:
 RMSU=  4.08D-07    CP:  9.84D-01  8.66D-01  8.67D-01  9.33D-01  1.29D+00
                    CP:  1.27D+00  1.13D+00  1.24D+00
 E= -269.312468462975     Delta-E=       -0.000000003476 Rises=F Damp=F
 DIIS: error= 6.71D-07 at cycle   9 NSaved=   9.
 NSaved= 9 IEnMin= 9 EnMin= -269.312468462975     IErMin= 9 ErrMin= 6.71D-07
 ErrMax= 6.71D-07  0.00D+00 EMaxC= 1.00D-01 BMatC= 2.24D-10 BMatP= 2.05D-09
 IDIUse=1 WtCom= 1.00D+00 WtEn= 0.00D+00
 Coeff-Com: -0.454D-05 0.498D-03 0.128D-02 0.158D-02-0.103D-01-0.593D-01
 Coeff-Com:  0.791D-02 0.365D+00 0.693D+00
 Coeff:     -0.454D-05 0.498D-03 0.128D-02 0.158D-02-0.103D-01-0.593D-01
 Coeff:      0.791D-02 0.365D+00 0.693D+00
 Gap=     0.492 Goal=   None    Shift=    0.000
 RMSDP=2.48D-07 MaxDP=4.52D-06 DE=-3.48D-09 OVMax= 7.80D-06

 Cycle  10  Pass 1  IDiag  1:
 RMSU=  1.29D-07    CP:  9.84D-01  8.66D-01  8.67D-01  9.33D-01  1.29D+00
                    CP:  1.28D+00  1.16D+00  1.33D+00  1.00D+00
 E= -269.312468463265     Delta-E=       -0.000000000290 Rises=F Damp=F
 DIIS: error= 1.86D-07 at cycle  10 NSaved=  10.
 NSaved=10 IEnMin=10 EnMin= -269.312468463265     IErMin=10 ErrMin= 1.86D-07
 ErrMax= 1.86D-07  0.00D+00 EMaxC= 1.00D-01 BMatC= 7.16D-12 BMatP= 2.24D-10
 IDIUse=1 WtCom= 1.00D+00 WtEn= 0.00D+00
 Coeff-Com:  0.222D-06-0.751D-04-0.195D-03-0.171D-03 0.236D-02 0.790D-02
 Coeff-Com: -0.139D-01-0.924D-01-0.166D-02 0.110D+01
 Coeff:      0.222D-06-0.751D-04-0.195D-03-0.171D-03 0.236D-02 0.790D-02
 Coeff:     -0.139D-01-0.924D-01-0.166D-02 0.110D+01
 Gap=     0.492 Goal=   None    Shift=    0.000
 RMSDP=1.17D-07 MaxDP=1.91D-06 DE=-2.90D-10 OVMax= 3.90D-06

 Cycle  11  Pass 1  IDiag  1:
 RMSU=  2.85D-08    CP:  9.84D-01  8.66D-01  8.67D-01  9.33D-01  1.29D+00
                    CP:  1.28D+00  1.18D+00  1.38D+00  1.17D+00  1.30D+00
 E= -269.312468463288     Delta-E=       -0.000000000023 Rises=F Damp=F
 DIIS: error= 3.03D-08 at cycle  11 NSaved=  11.
 NSaved=11 IEnMin=11 EnMin= -269.312468463288     IErMin=11 ErrMin= 3.03D-08
 ErrMax= 3.03D-08  0.00D+00 EMaxC= 1.00D-01 BMatC= 3.05D-13 BMatP= 7.16D-12
 IDIUse=1 WtCom= 1.00D+00 WtEn= 0.00D+00
 Coeff-Com:  0.254D-06-0.305D-04-0.796D-04-0.909D-04 0.685D-03 0.349D-02
 Coeff-Com: -0.141D-02-0.249D-01-0.367D-01 0.829D-01 0.976D+00
 Coeff:      0.254D-06-0.305D-04-0.796D-04-0.909D-04 0.685D-03 0.349D-02
 Coeff:     -0.141D-02-0.249D-01-0.367D-01 0.829D-01 0.976D+00
 Gap=     0.492 Goal=   None    Shift=    0.000
 RMSDP=2.26D-08 MaxDP=3.18D-07 DE=-2.27D-11 OVMax= 6.57D-07

 Cycle  12  Pass 1  IDiag  1:
 RMSU=  5.98D-09    CP:  9.84D-01  8.66D-01  8.67D-01  9.33D-01  1.29D+00
                    CP:  1.28D+00  1.18D+00  1.39D+00  1.20D+00  1.39D+00
                    CP:  1.23D+00
 E= -269.312468463290     Delta-E=       -0.000000000002 Rises=F Damp=F
 DIIS: error= 9.77D-09 at cycle  12 NSaved=  12.
 NSaved=12 IEnMin=12 EnMin= -269.312468463290     IErMin=12 ErrMin= 9.77D-09
 ErrMax= 9.77D-09  0.00D+00 EMaxC= 1.00D-01 BMatC= 2.97D-14 BMatP= 3.05D-13
 IDIUse=1 WtCom= 1.00D+00 WtEn= 0.00D+00
 Coeff-Com:  0.720D-07-0.265D-05-0.715D-05-0.102D-04 0.271D-04 0.316D-03
 Coeff-Com:  0.357D-03-0.666D-03-0.728D-02-0.354D-01 0.204D+00 0.839D+00
 Coeff:      0.720D-07-0.265D-05-0.715D-05-0.102D-04 0.271D-04 0.316D-03
 Coeff:      0.357D-03-0.666D-03-0.728D-02-0.354D-01 0.204D+00 0.839D+00
 Gap=     0.492 Goal=   None    Shift=    0.000
 RMSDP=4.11D-09 MaxDP=6.66D-08 DE=-2.05D-12 OVMax= 1.05D-07

 Error on total polarization charges =  0.03155
 SCF Done:  E(RwB97XD) =  -269.312468463     A.U. after   12 cycles
            NFock= 12  Conv=0.41D-08     -V/T= 2.0093
 KE= 2.668338383858D+02 PE=-1.025545248465D+03 EE= 2.916071409821D+02
 SMD-CDS (non-electrostatic) energy       (kcal/mol) =       2.93
 (included in total energy above)
 Leave Link  502 at Tue Oct 21 19:52:08 2025, MaxMem=  4294967296 cpu:             135.8 elap:              17.1
 (Enter /lrz/sys/applications/gaussian/g16.C.01/x86_64_legacy/exe/l601.exe)
 Copying SCF densities to generalized density rwf, IOpCl= 0 IROHF=0.

 **********************************************************************

            Population analysis using the SCF Density.

 **********************************************************************

 Orbital symmetries:
       Occupied  (A) (A) (A) (A) (A) (A) (A) (A) (A) (A) (A) (A)
                 (A) (A) (A) (A) (A) (A) (A) (A) (A)
       Virtual   (A) (A) (A) (A) (A) (A) (A) (A) (A) (A) (A) (A)
                 (A) (A) (A) (A) (A) (A) (A) (A) (A) (A) (A) (A)
                 (A) (A) (A) (A) (A) (A) (A) (A) (A) (A) (A) (A)
                 (A) (A) (A) (A) (A) (A) (A) (A) (A) (A) (A) (A)
                 (A) (A) (A) (A) (A) (A) (A) (A) (A) (A) (A) (A)
                 (A) (A) (A) (A) (A) (A) (A) (A) (A) (A) (A) (A)
                 (A) (A) (A) (A) (A) (A) (A) (A) (A) (A) (A) (A)
                 (A) (A) (A) (A) (A)
 The electronic state is 1-A.
 Alpha  occ. eigenvalues --  -19.25926 -19.25551 -10.38487 -10.28212 -10.27738
 Alpha  occ. eigenvalues --   -1.15427  -1.08002  -0.85715  -0.75919  -0.68293
 Alpha  occ. eigenvalues --   -0.62839  -0.56435  -0.56021  -0.52438  -0.46560
 Alpha  occ. eigenvalues --   -0.46214  -0.44477  -0.42742  -0.41432  -0.38824
 Alpha  occ. eigenvalues --   -0.34847
 Alpha virt. eigenvalues --    0.14357   0.17103   0.19540   0.21004   0.21549
 Alpha virt. eigenvalues --    0.22900   0.24774   0.25893   0.29713   0.31455
 Alpha virt. eigenvalues --    0.32813   0.37832   0.51929   0.53521   0.53855
 Alpha virt. eigenvalues --    0.57896   0.60322   0.65086   0.68195   0.69053
 Alpha virt. eigenvalues --    0.72660   0.74685   0.75595   0.76818   0.78652
 Alpha virt. eigenvalues --    0.79364   0.79842   0.80587   0.80910   0.84060
 Alpha virt. eigenvalues --    0.92648   1.03796   1.08198   1.08810   1.12291
 Alpha virt. eigenvalues --    1.14368   1.22535   1.25044   1.35778   1.38277
 Alpha virt. eigenvalues --    1.42766   1.45481   1.51896   1.55246   1.57633
 Alpha virt. eigenvalues --    1.63822   1.66573   1.68142   1.76154   1.80540
 Alpha virt. eigenvalues --    1.84709   1.87198   1.89084   1.89906   1.92452
 Alpha virt. eigenvalues --    1.95952   1.96814   1.99029   2.01081   2.03946
 Alpha virt. eigenvalues --    2.07921   2.16014   2.17777   2.23512   2.28592
 Alpha virt. eigenvalues --    2.33471   2.36958   2.42805   2.43460   2.51233
 Alpha virt. eigenvalues --    2.64237   2.66790   2.68634   2.85186   2.89040
 Alpha virt. eigenvalues --    2.93979   2.99138   3.01293   3.04226   3.07371
 Alpha virt. eigenvalues --    3.09235   3.10914   3.18268   3.23223   3.25374
 Alpha virt. eigenvalues --    3.42763   3.53386   3.81601   3.90429
          Condensed to atoms (all electrons):
               1          2          3          4          5          6
     1  O    7.873276   0.307710  -0.056830  -0.068702  -0.009666   0.333061
     2  C    0.307710   4.430053   0.321702   0.387414  -0.035038  -0.017336
     3  O   -0.056830   0.321702   7.842804  -0.054384  -0.003576   0.004083
     4  C   -0.068702   0.387414  -0.054384   4.891929   0.356675   0.002714
     5  C   -0.009666  -0.035038  -0.003576   0.356675   4.631414  -0.000804
     6  H    0.333061  -0.017336   0.004083   0.002714  -0.000804   0.456479
     7  H   -0.027732   0.402485  -0.034351  -0.061483   0.009606  -0.002642
     8  H    0.003838  -0.026238   0.339913  -0.014774   0.009227  -0.000396
     9  H    0.000318  -0.011313   0.004689   0.359340  -0.022491   0.001147
    10  H    0.005184  -0.011003   0.002178   0.356684  -0.022913  -0.000100
    11  H    0.021968  -0.007344  -0.001569  -0.039280   0.396843   0.000240
    12  H   -0.000152  -0.007021   0.008628  -0.024319   0.394142  -0.000073
    13  H    0.000110   0.005845   0.000202  -0.012968   0.392444  -0.000009
               7          8          9         10         11         12
     1  O   -0.027732   0.003838   0.000318   0.005184   0.021968  -0.000152
     2  C    0.402485  -0.026238  -0.011313  -0.011003  -0.007344  -0.007021
     3  O   -0.034351   0.339913   0.004689   0.002178  -0.001569   0.008628
     4  C   -0.061483  -0.014774   0.359340   0.356684  -0.039280  -0.024319
     5  C    0.009606   0.009227  -0.022491  -0.022913   0.396843   0.394142
     6  H   -0.002642  -0.000396   0.001147  -0.000100   0.000240  -0.000073
     7  H    0.678112   0.008691  -0.003183  -0.002646   0.000912   0.000025
     8  H    0.008691   0.464107  -0.000069  -0.000488   0.001023   0.002643
     9  H   -0.003183  -0.000069   0.652871  -0.018212  -0.006288   0.008289
    10  H   -0.002646  -0.000488  -0.018212   0.656008   0.008424  -0.008960
    11  H    0.000912   0.001023  -0.006288   0.008424   0.639363  -0.024914
    12  H    0.000025   0.002643   0.008289  -0.008960  -0.024914   0.630976
    13  H   -0.000232  -0.000196  -0.007581  -0.004046  -0.020589  -0.020149
              13
     1  O    0.000110
     2  C    0.005845
     3  O    0.000202
     4  C   -0.012968
     5  C    0.392444
     6  H   -0.000009
     7  H   -0.000232
     8  H   -0.000196
     9  H   -0.007581
    10  H   -0.004046
    11  H   -0.020589
    12  H   -0.020149
    13  H    0.619927
 Mulliken charges:
               1
     1  O   -0.382383
     2  C    0.260083
     3  O   -0.373490
     4  C   -0.078847
     5  C   -0.095862
     6  H    0.223635
     7  H    0.032438
     8  H    0.212718
     9  H    0.042482
    10  H    0.039889
    11  H    0.031211
    12  H    0.040885
    13  H    0.047241
 Sum of Mulliken charges =  -0.00000
 Mulliken charges with hydrogens summed into heavy atoms:
               1
     1  O   -0.158748
     2  C    0.292521
     3  O   -0.160771
     4  C    0.003524
     5  C    0.023474
 Electronic spatial extent (au):  <R**2>=            441.2185
 Charge=             -0.0000 electrons
 Dipole moment (field-independent basis, Debye):
    X=              1.9827    Y=              1.9590    Z=              0.8398  Tot=              2.9110
 Quadrupole moment (field-independent basis, Debye-Ang):
   XX=            -34.7961   YY=            -29.1923   ZZ=            -29.5587
   XY=             -2.2281   XZ=             -1.2453   YZ=              3.5326
 Traceless Quadrupole moment (field-independent basis, Debye-Ang):
   XX=             -3.6138   YY=              1.9901   ZZ=              1.6237
   XY=             -2.2281   XZ=             -1.2453   YZ=              3.5326
 Octapole moment (field-independent basis, Debye-Ang**2):
  XXX=             -1.7963  YYY=             14.5746  ZZZ=             -3.1993  XYY=             -2.1076
  XXY=              2.7063  XXZ=              2.7451  XZZ=             -4.4569  YZZ=             -3.5762
  YYZ=             -1.2071  XYZ=             -2.5431
 Hexadecapole moment (field-independent basis, Debye-Ang**3):
 XXXX=           -304.7930 YYYY=           -117.8097 ZZZZ=           -103.1503 XXXY=             -1.8818
 XXXZ=              0.9151 YYYX=            -14.8514 YYYZ=              6.4473 ZZZX=              3.0408
 ZZZY=              3.8739 XXYY=            -75.8918 XXZZ=            -68.1935 YYZZ=            -36.6652
 XXYZ=              2.5336 YYXZ=              0.8123 ZZXY=              2.2234
 N-N= 1.977918006342D+02 E-N=-1.025545247179D+03  KE= 2.668338383858D+02
 No NMR shielding tensors so no spin-rotation constants.
 Leave Link  601 at Tue Oct 21 19:52:08 2025, MaxMem=  4294967296 cpu:               0.7 elap:               0.1
 (Enter /lrz/sys/applications/gaussian/g16.C.01/x86_64_legacy/exe/l701.exe)
 ... and contract with generalized density number  0.
 Compute integral first derivatives.
 R6Disp: Adding Grimme-D2 dispersion energy 1st derivatives to the gradient.
   1 Symmetry operations used in ECPInt.
 ECPInt:  NShTT=    1485 NPrTT=    5139 LenC2=    1483 LenP2D=    4470.
 LDataN:  DoStor=T MaxTD1= 5 Len=  102
 D1PCM: PCM CHGder 1st derivatives, ID1Alg=3 FixD1E=F DoIter=F DoCFld=F I1PDM=0.
 GePol: Maximum number of non-zero 1st derivatives   =     251
 Leave Link  701 at Tue Oct 21 19:52:09 2025, MaxMem=  4294967296 cpu:               4.5 elap:               0.6
 (Enter /lrz/sys/applications/gaussian/g16.C.01/x86_64_legacy/exe/l702.exe)
 L702 exits ... SP integral derivatives will be done elsewhere.
 Leave Link  702 at Tue Oct 21 19:52:09 2025, MaxMem=  4294967296 cpu:               0.1 elap:               0.0
 (Enter /lrz/sys/applications/gaussian/g16.C.01/x86_64_legacy/exe/l703.exe)
 Integral derivatives from FoFJK, PRISM(SPDF).
 Compute integral first derivatives, UseDBF=F ICtDFT=           0.
 Calling FoFJK, ICntrl=      2127 FMM=F ISym2X=0 I1Cent= 0 IOpClX= 0 NMat=1 NMatS=1 NMatT=0.
 FoFJK:  IHMeth= 1 ICntrl=    2127 DoSepK=T KAlg= 0 I1Cent=           0 FoldK=F
 IRaf=         1 NMat=       1 IRICut=       1 DoRegI=T DoRafI=F ISym2E= 0 IDoP0=0 IntGTp=1.
 FoFCou: FMM=F IPFlag=           0 FMFlag=      100000 FMFlg1=         800
         NFxFlg=           0 DoJE=F BraDBF=F KetDBF=F FulRan=T
         wScrn=  0.000000 ICntrl=      2527 IOpCl=  0 I1Cent=           0 NGrid=           0
         NMat0=    1 NMatS0=      1 NMatT0=    0 NMatD0=    1 NMtDS0=    0 NMtDT0=    0
 Symmetry not used in FoFCou.
 Leave Link  703 at Tue Oct 21 19:52:11 2025, MaxMem=  4294967296 cpu:              18.7 elap:               2.4
 (Enter /lrz/sys/applications/gaussian/g16.C.01/x86_64_legacy/exe/l716.exe)
 Dipole        = 7.80058745D-01 7.70732824D-01 3.30393254D-01
 ***** Axes restored to original set *****
 -------------------------------------------------------------------
 Center     Atomic                   Forces (Hartrees/Bohr)
 Number     Number              X              Y              Z
 -------------------------------------------------------------------
      1        8          -0.003687111    0.000766987    0.002196227
      2        6           0.009791174   -0.001722540   -0.008848207
      3        8          -0.003609548    0.001070798    0.005937618
      4        6          -0.008830500   -0.006302052    0.012571083
      5        6          -0.004818149    0.001245885   -0.010568571
      6        1           0.001808723    0.000630666   -0.002073951
      7        1          -0.000186248   -0.000612566   -0.002546403
      8        1           0.000419995    0.002429852    0.002463187
      9        1           0.001488691   -0.003023980   -0.005743877
     10        1           0.000158016    0.006015413   -0.004091616
     11        1           0.000337125   -0.006860210    0.003709859
     12        1          -0.001717163    0.004978704    0.007058484
     13        1           0.008844996    0.001383042   -0.000063833
 -------------------------------------------------------------------
 Cartesian Forces:  Max     0.012571083 RMS     0.005065505
 Leave Link  716 at Tue Oct 21 19:52:12 2025, MaxMem=  4294967296 cpu:               0.2 elap:               0.0
 (Enter /lrz/sys/applications/gaussian/g16.C.01/x86_64_legacy/exe/l103.exe)

 GradGradGradGradGradGradGradGradGradGradGradGradGradGradGradGradGradGrad
 Berny optimization.
 FormGI is forming the generalized inverse of G from B-inverse, IUseBI=4.
 Internal  Forces:  Max     0.009210235 RMS     0.003064979
 Search for a local minimum.
 Step number   1 out of a maximum of   66
 All quantities printed in internal units (Hartrees-Bohrs-Radians)
 RMS Force = .30650D-02 SwitMx=.10000D-02 MixMth= 1
 Mixed Optimization -- RFO/linear search
 Second derivative matrix not updated -- first step.
 ITU=  0
     Eigenvalues ---    0.00230   0.00423   0.01549   0.01831   0.03612
     Eigenvalues ---    0.04857   0.05402   0.05635   0.05676   0.05704
     Eigenvalues ---    0.08179   0.09956   0.12087   0.16000   0.16000
     Eigenvalues ---    0.16000   0.16000   0.16000   0.19450   0.20451
     Eigenvalues ---    0.21960   0.28383   0.29803   0.33491   0.34564
     Eigenvalues ---    0.34746   0.34998   0.35034   0.35205   0.43873
     Eigenvalues ---    0.47408   0.54286   0.54770
 RFO step:  Lambda=-2.09397447D-03 EMin= 2.30000000D-03
 Linear search not attempted -- first point.
 Iteration  1 RMS(Cart)=  0.02673109 RMS(Int)=  0.00050172
 Iteration  2 RMS(Cart)=  0.00057798 RMS(Int)=  0.00005797
 Iteration  3 RMS(Cart)=  0.00000029 RMS(Int)=  0.00005797
 ITry= 1 IFail=0 DXMaxC= 9.51D-02 DCOld= 1.00D+10 DXMaxT= 3.00D-01 DXLimC= 3.00D+00 Rises=F
 Variable       Old X    -DE/DX   Delta X   Delta X   Delta X     New X
                                 (Linear)    (Quad)   (Total)
    R1        2.66607  -0.00114   0.00000  -0.00258  -0.00258   2.66349
    R2        1.82037   0.00176   0.00000   0.00320   0.00320   1.82357
    R3        2.62575   0.00921   0.00000   0.01934   0.01934   2.64510
    R4        2.91308  -0.00542   0.00000  -0.01894  -0.01894   2.89413
    R5        2.08198   0.00215   0.00000   0.00638   0.00638   2.08836
    R6        1.82472   0.00173   0.00000   0.00317   0.00317   1.82790
    R7        2.88357   0.00147   0.00000   0.00491   0.00491   2.88849
    R8        2.06388   0.00646   0.00000   0.01859   0.01859   2.08247
    R9        2.06090   0.00701   0.00000   0.02005   0.02005   2.08094
   R10        2.05678   0.00767   0.00000   0.02180   0.02180   2.07857
   R11        2.05620   0.00867   0.00000   0.02460   0.02460   2.08080
   R12        2.05343   0.00878   0.00000   0.02479   0.02479   2.07822
    A1        1.91336  -0.00374   0.00000  -0.02306  -0.02306   1.89030
    A2        1.87389  -0.00081   0.00000  -0.00256  -0.00256   1.87133
    A3        1.94719   0.00098   0.00000   0.00307   0.00305   1.95024
    A4        1.92755  -0.00071   0.00000  -0.01137  -0.01138   1.91617
    A5        1.96291   0.00032   0.00000   0.00449   0.00448   1.96739
    A6        1.83799   0.00100   0.00000   0.01296   0.01296   1.85095
    A7        1.91118  -0.00081   0.00000  -0.00635  -0.00639   1.90479
    A8        1.86186   0.00453   0.00000   0.02797   0.02797   1.88984
    A9        1.95740   0.00466   0.00000   0.02613   0.02603   1.98343
   A10        1.89036  -0.00191   0.00000  -0.01018  -0.01038   1.87998
   A11        1.88266  -0.00176   0.00000  -0.00862  -0.00883   1.87383
   A12        1.92035  -0.00050   0.00000   0.00471   0.00474   1.92510
   A13        1.92317  -0.00059   0.00000   0.00417   0.00418   1.92735
   A14        1.88807  -0.00009   0.00000  -0.01821  -0.01833   1.86974
   A15        1.92584   0.00112   0.00000   0.00635   0.00632   1.93216
   A16        1.93266   0.00149   0.00000   0.00928   0.00923   1.94190
   A17        1.92237   0.00192   0.00000   0.01225   0.01219   1.93456
   A18        1.89927  -0.00146   0.00000  -0.00980  -0.00982   1.88945
   A19        1.89571  -0.00158   0.00000  -0.00996  -0.00999   1.88571
   A20        1.88709  -0.00163   0.00000  -0.00904  -0.00911   1.87798
    D1        3.04825   0.00044   0.00000   0.02757   0.02758   3.07583
    D2       -1.07682   0.00092   0.00000   0.03340   0.03339  -1.04343
    D3        1.05305   0.00006   0.00000   0.01946   0.01947   1.07252
    D4        0.90831   0.00153   0.00000   0.05343   0.05344   0.96175
    D5       -1.24016   0.00065   0.00000   0.04847   0.04850  -1.19166
    D6        2.96272   0.00083   0.00000   0.04559   0.04556   3.00827
    D7       -1.04530  -0.00028   0.00000  -0.01413  -0.01412  -1.05942
    D8        1.07727   0.00077   0.00000   0.00154   0.00147   1.07874
    D9        3.11701  -0.00128   0.00000  -0.02992  -0.02984   3.08717
   D10        1.06154  -0.00039   0.00000  -0.01207  -0.01205   1.04949
   D11       -3.09907   0.00066   0.00000   0.00360   0.00353  -3.09554
   D12       -1.05933  -0.00140   0.00000  -0.02786  -0.02777  -1.08710
   D13        3.09861   0.00052   0.00000   0.00264   0.00264   3.10124
   D14       -1.06201   0.00157   0.00000   0.01831   0.01822  -1.04379
   D15        0.97774  -0.00048   0.00000  -0.01315  -0.01309   0.96465
   D16        0.91723   0.00018   0.00000   0.03867   0.03867   0.95590
   D17       -1.18669   0.00030   0.00000   0.04071   0.04072  -1.14597
   D18        3.01004   0.00015   0.00000   0.03817   0.03817   3.04821
   D19       -1.18807  -0.00015   0.00000   0.03097   0.03090  -1.15718
   D20        2.99120  -0.00003   0.00000   0.03300   0.03295   3.02414
   D21        0.90475  -0.00018   0.00000   0.03047   0.03039   0.93514
   D22        3.01470   0.00064   0.00000   0.04791   0.04797   3.06266
   D23        0.91078   0.00076   0.00000   0.04994   0.05002   0.96080
   D24       -1.17567   0.00061   0.00000   0.04741   0.04746  -1.12820
         Item               Value     Threshold  Converged?
 Maximum Force            0.009210     0.000450     NO 
 RMS     Force            0.003065     0.000300     NO 
 Maximum Displacement     0.095057     0.001800     NO 
 RMS     Displacement     0.026712     0.001200     NO 
 Predicted change in Energy=-1.081566D-03
 Lowest energy point so far.  Saving SCF results.
 GradGradGradGradGradGradGradGradGradGradGradGradGradGradGradGradGradGrad

 Leave Link  103 at Tue Oct 21 19:52:12 2025, MaxMem=  4294967296 cpu:               0.2 elap:               0.0
 (Enter /lrz/sys/applications/gaussian/g16.C.01/x86_64_legacy/exe/l202.exe)
                          Input orientation:                          
 ---------------------------------------------------------------------
 Center     Atomic      Atomic             Coordinates (Angstroms)
 Number     Number       Type             X           Y           Z
 ---------------------------------------------------------------------
      1          8           0       -0.705871   -1.345475   -0.054913
      2          6           0       -0.583326   -0.002037   -0.463246
      3          8           0       -1.223957    0.784316    0.501362
      4          6           0        0.880613    0.395636   -0.673623
      5          6           0        1.736821    0.270942    0.586431
      6          1           0       -0.321215   -1.906580   -0.739316
      7          1           0       -1.140313    0.155136   -1.404697
      8          1           0       -0.838766    0.579233    1.364613
      9          1           0        1.288267   -0.238792   -1.477188
     10          1           0        0.889506    1.432886   -1.043280
     11          1           0        1.666961   -0.743744    1.005224
     12          1           0        1.415853    0.986134    1.359687
     13          1           0        2.794070    0.475139    0.362888
 ---------------------------------------------------------------------
                    Distance matrix (angstroms):
                    1          2          3          4          5
     1  O    0.000000
     2  C    1.409460   0.000000
     3  O    2.261386   1.399725   0.000000
     4  C    2.435405   1.531509   2.441490   0.000000
     5  C    2.998478   2.561137   3.006160   1.528521   0.000000
     6  H    0.964991   1.942216   3.097604   2.597866   3.276389
     7  H    2.064580   1.105110   2.008962   2.162510   3.500843
     8  H    2.395248   1.934992   0.967281   2.672897   2.708184
     9  H    2.687788   2.141726   3.357481   1.101997   2.172453
    10  H    3.352818   2.136511   2.696903   1.101187   2.173480
    11  H    2.667639   2.787530   3.308511   2.176018   1.099934
    12  H    3.455315   2.880327   2.783172   2.183923   1.101111
    13  H    3.967213   3.509558   4.032283   2.177612   1.099747
                    6          7          8          9         10
     6  H    0.000000
     7  H    2.316102   0.000000
     8  H    3.297521   2.817777   0.000000
     9  H    2.432367   2.461389   3.642700   0.000000
    10  H    3.565148   2.425579   3.084412   1.772510   0.000000
    11  H    2.889369   3.807426   2.856237   2.561397   3.088449
    12  H    3.973791   3.855692   2.291047   3.092666   2.500176
    13  H    4.073382   4.325058   3.769852   2.482542   2.553810
                   11         12         13
    11  H    0.000000
    12  H    1.783585   0.000000
    13  H    1.780069   1.776009   0.000000
 Stoichiometry    C3H8O2
 Framework group  C1[X(C3H8O2)]
 Deg. of freedom    33
 Full point group                 C1      NOp   1
 RotChk:  IX=3 Diff= 3.75D-02
 Largest Abelian subgroup         C1      NOp   1
 Largest concise Abelian subgroup C1      NOp   1
                         Standard orientation:                         
 ---------------------------------------------------------------------
 Center     Atomic      Atomic             Coordinates (Angstroms)
 Number     Number       Type             X           Y           Z
 ---------------------------------------------------------------------
      1          8           0       -1.065507    1.035124   -0.455637
      2          6           0       -0.659670    0.018063    0.431754
      3          8           0       -1.020347   -1.204569   -0.146444
      4          6           0        0.836391    0.104580    0.747722
      5          6           0        1.732147   -0.043444   -0.481947
      6          1           0       -0.878037    1.888106   -0.045169
      7          1           0       -1.233645    0.091987    1.373219
      8          1           0       -0.630073   -1.249013   -1.030380
      9          1           0        1.019685    1.073393    1.239861
     10          1           0        1.062562   -0.681576    1.484893
     11          1           0        1.456017    0.689032   -1.254660
     12          1           0        1.649636   -1.051573   -0.917049
     13          1           0        2.787474    0.120009   -0.219246
 ---------------------------------------------------------------------
 Rotational constants (GHZ):           6.8802712           4.0047226           3.3520207
 Leave Link  202 at Tue Oct 21 19:52:12 2025, MaxMem=  4294967296 cpu:               0.1 elap:               0.0
 (Enter /lrz/sys/applications/gaussian/g16.C.01/x86_64_legacy/exe/l301.exe)
 Standard basis: def2SVP (5D, 7F)
 Ernie: Thresh=  0.10000D-02 Tol=  0.10000D-05 Strict=F.
 There are   115 symmetry adapted cartesian basis functions of A   symmetry.
 There are   110 symmetry adapted basis functions of A   symmetry.
   110 basis functions,   181 primitive gaussians,   115 cartesian basis functions
    21 alpha electrons       21 beta electrons
       nuclear repulsion energy       197.0633822575 Hartrees.
 IExCor= 4639 DFT=T Ex+Corr=wB97XD ExCW=0 ScaHFX=  1.000000
 ScaDFX=  1.000000  1.000000  1.000000  1.000000 ScalE2=  1.000000  1.000000
 IRadAn=      5 IRanWt=     -1 IRanGd=            0 ICorTp=0 IEmpDi=121
 HFx  wShort=  0.000000 wLong=  0.200000 cFull=  0.222036 cShort=  0.000000 cLong=  0.777964
 DFx  wShort=  0.000000 wLong=  0.200000 cFull=  0.000000 cShort=  0.000000 cLong=  1.000000
 NAtoms=   13 NActive=   13 NUniq=   13 SFac= 1.00D+00 NAtFMM=   60 NAOKFM=F Big=F
 Integral buffers will be    131072 words long.
 Raffenetti 2 integral format.
 Two-electron integral symmetry is turned on.
 R6Disp:  Grimme-D2 Dispersion energy=       -0.0059317295 Hartrees.
 Nuclear repulsion after empirical dispersion term =      197.0574505280 Hartrees.
 ------------------------------------------------------------------------------
 Polarizable Continuum Model (PCM)
 =================================
 Model                : PCM.
 Atomic radii         : SMD-Coulomb.
 Polarization charges : Total charges.
 Charge compensation  : None.
 Solution method      : On-the-fly selection.
 Cavity type          : VdW (van der Waals Surface) (Alpha=1.000).
 Cavity algorithm     : GePol (No added spheres)
                        Default sphere list used, NSphG=   13.
                        Lebedev-Laikov grids with approx.  5.0 points / Ang**2.
                        Smoothing algorithm: York/Karplus (Gamma=1.0000).
                        Polarization charges: spherical gaussians, with
                                              point-specific exponents (IZeta= 3).
                        Self-potential: point-specific (ISelfS= 7).
                        Self-field    : sphere-specific E.n sum rule (ISelfD= 2).
 1st derivatives      : Analytical E(r).r(x)/FMM algorithm (CHGder, D1EAlg=3).
                        Cavity 1st derivative terms included.
 Solvent              : Water, Eps=  78.355300 Eps(inf)=   1.777849
 ------------------------------------------------------------------------------
 Spheres list:
 ISph  on   Nord     Re0    Alpha      Xe            Ye            Ze
    1   O      1    1.5200  1.000     -1.065507      1.035124     -0.455637
    2   C      2    1.8500  1.000     -0.659670      0.018063      0.431754
    3   O      3    1.5200  1.000     -1.020347     -1.204569     -0.146444
    4   C      4    1.8500  1.000      0.836391      0.104580      0.747722
    5   C      5    1.8500  1.000      1.732147     -0.043444     -0.481947
    6   H      6    1.2000  1.000     -0.878037      1.888106     -0.045169
    7   H      7    1.2000  1.000     -1.233645      0.091987      1.373219
    8   H      8    1.2000  1.000     -0.630073     -1.249013     -1.030380
    9   H      9    1.2000  1.000      1.019685      1.073393      1.239861
   10   H     10    1.2000  1.000      1.062562     -0.681576      1.484893
   11   H     11    1.2000  1.000      1.456017      0.689032     -1.254660
   12   H     12    1.2000  1.000      1.649636     -1.051573     -0.917049
   13   H     13    1.2000  1.000      2.787474      0.120009     -0.219246
 ------------------------------------------------------------------------------
 GePol: Number of generator spheres                  =      13
 GePol: Total number of spheres                      =      13
 GePol: Number of exposed spheres                    =      13 (100.00%)
 GePol: Number of points                             =     916
 GePol: Average weight of points                     =       0.12
 GePol: Minimum weight of points                     =   0.18D-10
 GePol: Maximum weight of points                     =    0.21991
 GePol: Number of points with low weight             =      58
 GePol: Fraction of low-weight points (<1% of avg)   =       6.33%
 GePol: Cavity surface area                          =    110.463 Ang**2
 GePol: Cavity volume                                =     82.460 Ang**3
 ------------------------------------------------------------------------------
 Atomic radii for non-electrostatic terms: SMD-CDS.
 ------------------------------------------------------------------------------
 PCM non-electrostatic energy =         0.0045690887 Hartrees.
 Nuclear repulsion after PCM non-electrostatic terms =      197.0620196167 Hartrees.
 Leave Link  301 at Tue Oct 21 19:52:12 2025, MaxMem=  4294967296 cpu:               0.5 elap:               0.1
 (Enter /lrz/sys/applications/gaussian/g16.C.01/x86_64_legacy/exe/l302.exe)
 NPDir=0 NMtPBC=     1 NCelOv=     1 NCel=       1 NClECP=     1 NCelD=      1
         NCelK=      1 NCelE2=     1 NClLst=     1 CellRange=     0.0.
 One-electron integrals computed using PRISM.
 One-electron integral symmetry used in STVInt
   1 Symmetry operations used in ECPInt.
 ECPInt:  NShTT=    1485 NPrTT=    5139 LenC2=    1483 LenP2D=    4460.
 LDataN:  DoStor=T MaxTD1= 4 Len=   56
 NBasis=   110 RedAO= T EigKep=  2.35D-03  NBF=   110
 NBsUse=   110 1.00D-06 EigRej= -1.00D+00 NBFU=   110
 Precomputing XC quadrature grid using
 IXCGrd= 4 IRadAn=           5 IRanWt=          -1 IRanGd=           0 AccXCQ= 0.00D+00.
 Generated NRdTot=       0 NPtTot=           0 NUsed=           0 NTot=          32
 NSgBfM=   115   115   115   115   115 MxSgAt=    13 MxSgA2=    13.
 Leave Link  302 at Tue Oct 21 19:52:12 2025, MaxMem=  4294967296 cpu:               1.2 elap:               0.2
 (Enter /lrz/sys/applications/gaussian/g16.C.01/x86_64_legacy/exe/l303.exe)
 DipDrv:  MaxL=1.
 Leave Link  303 at Tue Oct 21 19:52:12 2025, MaxMem=  4294967296 cpu:               0.2 elap:               0.0
 (Enter /lrz/sys/applications/gaussian/g16.C.01/x86_64_legacy/exe/l401.exe)
 Initial guess from the checkpoint file:  "g16_C3-w_9.chk"
 B after Tr=     0.000000   -0.000000    0.000000
         Rot=    0.999930    0.011405    0.003139    0.000477 Ang=   1.36 deg.
 Guess basis will be translated and rotated to current coordinates.
 JPrj=2 DoOrth=T DoCkMO=T.
 Generating alternative initial guess.
 ExpMin= 1.22D-01 ExpMax= 2.27D+03 ExpMxC= 3.41D+02 IAcc=3 IRadAn=         5 AccDes= 0.00D+00
 Harris functional with IExCor= 4639 and IRadAn=       5 diagonalized for initial guess.
 HarFok:  IExCor= 4639 AccDes= 0.00D+00 IRadAn=         5 IDoV= 1 UseB2=F ITyADJ=14
 ICtDFT=  3500011 ScaDFX=  1.000000  1.000000  1.000000  1.000000
 FoFCou: FMM=F IPFlag=           0 FMFlag=      100000 FMFlg1=           0
         NFxFlg=           0 DoJE=T BraDBF=F KetDBF=T FulRan=T
         wScrn=  0.000000 ICntrl=       500 IOpCl=  0 I1Cent=   200000004 NGrid=           0
         NMat0=    1 NMatS0=      1 NMatT0=    0 NMatD0=    1 NMtDS0=    0 NMtDT0=    0
 Petite list used in FoFCou.
 Harris En= -258.103506694663    
 Leave Link  401 at Tue Oct 21 19:52:13 2025, MaxMem=  4294967296 cpu:               5.6 elap:               0.7
 (Enter /lrz/sys/applications/gaussian/g16.C.01/x86_64_legacy/exe/l502.exe)
 Integral symmetry usage will be decided dynamically.
 Closed shell SCF:
 Using DIIS extrapolation, IDIIS=  1040.
 NGot=  4294967296 LenX=  4294938204 LenY=  4294924538
 Requested convergence on RMS density matrix=1.00D-08 within 128 cycles.
 Requested convergence on MAX density matrix=1.00D-06.
 Requested convergence on             energy=1.00D-06.
 No special actions if energy rises.
 Fock matrices will be formed incrementally for  20 cycles.

 Cycle   1  Pass 1  IDiag  1:
 FoFJK:  IHMeth= 1 ICntrl=       0 DoSepK=T KAlg= 0 I1Cent=           0 FoldK=F
 IRaf=         1 NMat=       1 IRICut=       1 DoRegI=T DoRafI=F ISym2E= 0 IDoP0=0 IntGTp=1.
 FoFCou: FMM=F IPFlag=           0 FMFlag=      100000 FMFlg1=           0
         NFxFlg=           0 DoJE=T BraDBF=F KetDBF=F FulRan=T
         wScrn=  0.000000 ICntrl=       500 IOpCl=  0 I1Cent=           0 NGrid=           0
         NMat0=    1 NMatS0=      1 NMatT0=    0 NMatD0=    1 NMtDS0=    0 NMtDT0=    0
 Symmetry not used in FoFCou.
 Inv3:  Mode=1 IEnd=     2517168.
 Iteration    1 A*A^-1 deviation from unit magnitude is 4.77D-15 for    250.
 Iteration    1 A*A^-1 deviation from orthogonality  is 3.53D-15 for    682    147.
 Iteration    1 A^-1*A deviation from unit magnitude is 4.44D-15 for    226.
 Iteration    1 A^-1*A deviation from orthogonality  is 2.29D-15 for    512    203.
 E= -269.312537002956    
 DIIS: error= 1.79D-03 at cycle   1 NSaved=   1.
 NSaved= 1 IEnMin= 1 EnMin= -269.312537002956     IErMin= 1 ErrMin= 1.79D-03
 ErrMax= 1.79D-03  0.00D+00 EMaxC= 1.00D-01 BMatC= 7.76D-04 BMatP= 7.76D-04
 IDIUse=3 WtCom= 9.82D-01 WtEn= 1.79D-02
 Coeff-Com:  0.100D+01
 Coeff-En:   0.100D+01
 Coeff:      0.100D+01
 Gap=     0.746 Goal=   None    Shift=    0.000
 GapD=    0.746 DampG=2.000 DampE=1.000 DampFc=2.0000 IDamp=-1.
 RMSDP=4.30D-04 MaxDP=7.73D-03              OVMax= 5.85D-03

 Cycle   2  Pass 1  IDiag  1:
 RMSU=  4.30D-04    CP:  9.99D-01
 E= -269.313547972049     Delta-E=       -0.001010969093 Rises=F Damp=F
 DIIS: error= 3.03D-04 at cycle   2 NSaved=   2.
 NSaved= 2 IEnMin= 2 EnMin= -269.313547972049     IErMin= 2 ErrMin= 3.03D-04
 ErrMax= 3.03D-04  0.00D+00 EMaxC= 1.00D-01 BMatC= 3.10D-05 BMatP= 7.76D-04
 IDIUse=3 WtCom= 9.97D-01 WtEn= 3.03D-03
 Coeff-Com: -0.106D+00 0.111D+01
 Coeff-En:   0.000D+00 0.100D+01
 Coeff:     -0.106D+00 0.111D+01
 Gap=     0.492 Goal=   None    Shift=    0.000
 RMSDP=1.04D-04 MaxDP=1.86D-03 DE=-1.01D-03 OVMax= 1.86D-03

 Cycle   3  Pass 1  IDiag  1:
 RMSU=  7.10D-05    CP:  9.99D-01  1.18D+00
 E= -269.313590704036     Delta-E=       -0.000042731986 Rises=F Damp=F
 DIIS: error= 2.06D-04 at cycle   3 NSaved=   3.
 NSaved= 3 IEnMin= 3 EnMin= -269.313590704036     IErMin= 3 ErrMin= 2.06D-04
 ErrMax= 2.06D-04  0.00D+00 EMaxC= 1.00D-01 BMatC= 1.25D-05 BMatP= 3.10D-05
 IDIUse=3 WtCom= 9.98D-01 WtEn= 2.06D-03
 Coeff-Com: -0.711D-01 0.458D+00 0.613D+00
 Coeff-En:   0.000D+00 0.000D+00 0.100D+01
 Coeff:     -0.709D-01 0.457D+00 0.614D+00
 Gap=     0.491 Goal=   None    Shift=    0.000
 RMSDP=2.91D-05 MaxDP=7.27D-04 DE=-4.27D-05 OVMax= 5.76D-04

 Cycle   4  Pass 1  IDiag  1:
 RMSU=  2.53D-05    CP:  9.99D-01  1.20D+00  8.71D-01
 E= -269.313601314077     Delta-E=       -0.000010610041 Rises=F Damp=F
 DIIS: error= 3.59D-05 at cycle   4 NSaved=   4.
 NSaved= 4 IEnMin= 4 EnMin= -269.313601314077     IErMin= 4 ErrMin= 3.59D-05
 ErrMax= 3.59D-05  0.00D+00 EMaxC= 1.00D-01 BMatC= 4.64D-07 BMatP= 1.25D-05
 IDIUse=1 WtCom= 1.00D+00 WtEn= 0.00D+00
 Coeff-Com: -0.999D-03-0.338D-01 0.108D+00 0.927D+00
 Coeff:     -0.999D-03-0.338D-01 0.108D+00 0.927D+00
 Gap=     0.491 Goal=   None    Shift=    0.000
 RMSDP=1.14D-05 MaxDP=1.41D-04 DE=-1.06D-05 OVMax= 2.34D-04

 Cycle   5  Pass 1  IDiag  1:
 RMSU=  6.42D-06    CP:  9.99D-01  1.21D+00  9.78D-01  1.14D+00
 E= -269.313601858341     Delta-E=       -0.000000544265 Rises=F Damp=F
 DIIS: error= 1.77D-05 at cycle   5 NSaved=   5.
 NSaved= 5 IEnMin= 5 EnMin= -269.313601858341     IErMin= 5 ErrMin= 1.77D-05
 ErrMax= 1.77D-05  0.00D+00 EMaxC= 1.00D-01 BMatC= 8.51D-08 BMatP= 4.64D-07
 IDIUse=1 WtCom= 1.00D+00 WtEn= 0.00D+00
 Coeff-Com:  0.457D-02-0.478D-01-0.165D-02 0.377D+00 0.668D+00
 Coeff:      0.457D-02-0.478D-01-0.165D-02 0.377D+00 0.668D+00
 Gap=     0.491 Goal=   None    Shift=    0.000
 RMSDP=3.48D-06 MaxDP=7.85D-05 DE=-5.44D-07 OVMax= 6.60D-05

 Cycle   6  Pass 1  IDiag  1:
 RMSU=  1.90D-06    CP:  9.99D-01  1.21D+00  1.00D+00  1.21D+00  8.59D-01
 E= -269.313601948976     Delta-E=       -0.000000090634 Rises=F Damp=F
 DIIS: error= 3.46D-06 at cycle   6 NSaved=   6.
 NSaved= 6 IEnMin= 6 EnMin= -269.313601948976     IErMin= 6 ErrMin= 3.46D-06
 ErrMax= 3.46D-06  0.00D+00 EMaxC= 1.00D-01 BMatC= 2.11D-09 BMatP= 8.51D-08
 IDIUse=1 WtCom= 1.00D+00 WtEn= 0.00D+00
 Coeff-Com:  0.799D-03-0.445D-02-0.982D-02-0.340D-01 0.662D-01 0.981D+00
 Coeff:      0.799D-03-0.445D-02-0.982D-02-0.340D-01 0.662D-01 0.981D+00
 Gap=     0.491 Goal=   None    Shift=    0.000
 RMSDP=1.28D-06 MaxDP=2.52D-05 DE=-9.06D-08 OVMax= 3.10D-05

 Cycle   7  Pass 1  IDiag  1:
 RMSU=  3.94D-07    CP:  9.99D-01  1.22D+00  1.01D+00  1.24D+00  9.62D-01
                    CP:  1.23D+00
 E= -269.313601953904     Delta-E=       -0.000000004928 Rises=F Damp=F
 DIIS: error= 7.49D-07 at cycle   7 NSaved=   7.
 NSaved= 7 IEnMin= 7 EnMin= -269.313601953904     IErMin= 7 ErrMin= 7.49D-07
 ErrMax= 7.49D-07  0.00D+00 EMaxC= 1.00D-01 BMatC= 9.53D-11 BMatP= 2.11D-09
 IDIUse=1 WtCom= 1.00D+00 WtEn= 0.00D+00
 Coeff-Com: -0.207D-03 0.236D-02 0.949D-04-0.206D-01-0.358D-01 0.292D-01
 Coeff-Com:  0.103D+01
 Coeff:     -0.207D-03 0.236D-02 0.949D-04-0.206D-01-0.358D-01 0.292D-01
 Coeff:      0.103D+01
 Gap=     0.491 Goal=   None    Shift=    0.000
 RMSDP=2.99D-07 MaxDP=7.44D-06 DE=-4.93D-09 OVMax= 9.02D-06

 Cycle   8  Pass 1  IDiag  1:
 RMSU=  1.17D-07    CP:  9.99D-01  1.22D+00  1.01D+00  1.24D+00  9.81D-01
                    CP:  1.33D+00  1.25D+00
 E= -269.313601954164     Delta-E=       -0.000000000260 Rises=F Damp=F
 DIIS: error= 2.18D-07 at cycle   8 NSaved=   8.
 NSaved= 8 IEnMin= 8 EnMin= -269.313601954164     IErMin= 8 ErrMin= 2.18D-07
 ErrMax= 2.18D-07  0.00D+00 EMaxC= 1.00D-01 BMatC= 1.74D-11 BMatP= 9.53D-11
 IDIUse=1 WtCom= 1.00D+00 WtEn= 0.00D+00
 Coeff-Com: -0.995D-04 0.932D-03 0.580D-03-0.415D-02-0.144D-01-0.461D-01
 Coeff-Com:  0.331D+00 0.733D+00
 Coeff:     -0.995D-04 0.932D-03 0.580D-03-0.415D-02-0.144D-01-0.461D-01
 Coeff:      0.331D+00 0.733D+00
 Gap=     0.491 Goal=   None    Shift=    0.000
 RMSDP=6.19D-08 MaxDP=1.30D-06 DE=-2.60D-10 OVMax= 1.87D-06

 Cycle   9  Pass 1  IDiag  1:
 RMSU=  3.62D-08    CP:  9.99D-01  1.22D+00  1.01D+00  1.24D+00  9.83D-01
                    CP:  1.35D+00  1.36D+00  9.95D-01
 E= -269.313601954183     Delta-E=       -0.000000000019 Rises=F Damp=F
 DIIS: error= 7.23D-08 at cycle   9 NSaved=   9.
 NSaved= 9 IEnMin= 9 EnMin= -269.313601954183     IErMin= 9 ErrMin= 7.23D-08
 ErrMax= 7.23D-08  0.00D+00 EMaxC= 1.00D-01 BMatC= 1.57D-12 BMatP= 1.74D-11
 IDIUse=1 WtCom= 1.00D+00 WtEn= 0.00D+00
 Coeff-Com:  0.670D-05-0.120D-03 0.122D-03 0.191D-02 0.175D-02-0.157D-01
 Coeff-Com: -0.625D-01 0.161D+00 0.914D+00
 Coeff:      0.670D-05-0.120D-03 0.122D-03 0.191D-02 0.175D-02-0.157D-01
 Coeff:     -0.625D-01 0.161D+00 0.914D+00
 Gap=     0.491 Goal=   None    Shift=    0.000
 RMSDP=2.96D-08 MaxDP=5.99D-07 DE=-1.89D-11 OVMax= 9.76D-07

 Cycle  10  Pass 1  IDiag  1:
 RMSU=  1.03D-08    CP:  9.99D-01  1.22D+00  1.01D+00  1.24D+00  9.84D-01
                    CP:  1.35D+00  1.40D+00  1.14D+00  1.12D+00
 E= -269.313601954185     Delta-E=       -0.000000000002 Rises=F Damp=F
 DIIS: error= 3.76D-08 at cycle  10 NSaved=  10.
 NSaved=10 IEnMin=10 EnMin= -269.313601954185     IErMin=10 ErrMin= 3.76D-08
 ErrMax= 3.76D-08  0.00D+00 EMaxC= 1.00D-01 BMatC= 2.87D-13 BMatP= 1.57D-12
 IDIUse=1 WtCom= 1.00D+00 WtEn= 0.00D+00
 Coeff-Com:  0.110D-04-0.132D-03 0.721D-05 0.118D-02 0.193D-02-0.331D-02
 Coeff-Com: -0.537D-01 0.941D-02 0.388D+00 0.656D+00
 Coeff:      0.110D-04-0.132D-03 0.721D-05 0.118D-02 0.193D-02-0.331D-02
 Coeff:     -0.537D-01 0.941D-02 0.388D+00 0.656D+00
 Gap=     0.491 Goal=   None    Shift=    0.000
 RMSDP=7.20D-09 MaxDP=1.19D-07 DE=-2.16D-12 OVMax= 2.17D-07

 Error on total polarization charges =  0.03191
 SCF Done:  E(RwB97XD) =  -269.313601954     A.U. after   10 cycles
            NFock= 10  Conv=0.72D-08     -V/T= 2.0097
 KE= 2.667384155456D+02 PE=-1.024027849157D+03 EE= 2.909138120402D+02
 SMD-CDS (non-electrostatic) energy       (kcal/mol) =       2.87
 (included in total energy above)
 Leave Link  502 at Tue Oct 21 19:52:27 2025, MaxMem=  4294967296 cpu:             116.0 elap:              14.6
 (Enter /lrz/sys/applications/gaussian/g16.C.01/x86_64_legacy/exe/l701.exe)
 ... and contract with generalized density number  0.
 Compute integral first derivatives.
 R6Disp: Adding Grimme-D2 dispersion energy 1st derivatives to the gradient.
   1 Symmetry operations used in ECPInt.
 ECPInt:  NShTT=    1485 NPrTT=    5139 LenC2=    1483 LenP2D=    4460.
 LDataN:  DoStor=T MaxTD1= 5 Len=  102
 D1PCM: PCM CHGder 1st derivatives, ID1Alg=3 FixD1E=F DoIter=F DoCFld=F I1PDM=0.
 GePol: Maximum number of non-zero 1st derivatives   =     253
 Leave Link  701 at Tue Oct 21 19:52:28 2025, MaxMem=  4294967296 cpu:               4.4 elap:               0.6
 (Enter /lrz/sys/applications/gaussian/g16.C.01/x86_64_legacy/exe/l702.exe)
 L702 exits ... SP integral derivatives will be done elsewhere.
 Leave Link  702 at Tue Oct 21 19:52:28 2025, MaxMem=  4294967296 cpu:               0.2 elap:               0.0
 (Enter /lrz/sys/applications/gaussian/g16.C.01/x86_64_legacy/exe/l703.exe)
 Integral derivatives from FoFJK, PRISM(SPDF).
 Compute integral first derivatives, UseDBF=F ICtDFT=           0.
 Calling FoFJK, ICntrl=      2127 FMM=F ISym2X=0 I1Cent= 0 IOpClX= 0 NMat=1 NMatS=1 NMatT=0.
 FoFJK:  IHMeth= 1 ICntrl=    2127 DoSepK=T KAlg= 0 I1Cent=           0 FoldK=F
 IRaf=         1 NMat=       1 IRICut=       1 DoRegI=T DoRafI=F ISym2E= 0 IDoP0=0 IntGTp=1.
 FoFCou: FMM=F IPFlag=           0 FMFlag=      100000 FMFlg1=         800
         NFxFlg=           0 DoJE=F BraDBF=F KetDBF=F FulRan=T
         wScrn=  0.000000 ICntrl=      2527 IOpCl=  0 I1Cent=           0 NGrid=           0
         NMat0=    1 NMatS0=      1 NMatT0=    0 NMatD0=    1 NMtDS0=    0 NMtDT0=    0
 Symmetry not used in FoFCou.
 Leave Link  703 at Tue Oct 21 19:52:30 2025, MaxMem=  4294967296 cpu:              17.4 elap:               2.2
 (Enter /lrz/sys/applications/gaussian/g16.C.01/x86_64_legacy/exe/l716.exe)
 Dipole        = 8.47777426D-01 7.51180702D-01 3.25925823D-01
 ***** Axes restored to original set *****
 -------------------------------------------------------------------
 Center     Atomic                   Forces (Hartrees/Bohr)
 Number     Number              X              Y              Z
 -------------------------------------------------------------------
      1        8          -0.001487246   -0.001474527    0.000520153
      2        6           0.003284856    0.000634961    0.000038113
      3        8          -0.001863069   -0.000710967   -0.000635318
      4        6          -0.001256643   -0.000391973    0.003930235
      5        6          -0.001337699    0.000212187   -0.003197056
      6        1           0.000716328   -0.000161753    0.000020402
      7        1          -0.000337285    0.001404000    0.000710780
      8        1           0.001317580    0.000598994   -0.001187567
      9        1           0.000082855    0.000147697   -0.000414901
     10        1           0.000676461   -0.000009795   -0.000742829
     11        1           0.000343800   -0.000096286    0.000333709
     12        1           0.000002033   -0.000298259    0.000382286
     13        1          -0.000141971    0.000145720    0.000241992
 -------------------------------------------------------------------
 Cartesian Forces:  Max     0.003930235 RMS     0.001218302
 Leave Link  716 at Tue Oct 21 19:52:30 2025, MaxMem=  4294967296 cpu:               0.2 elap:               0.0
 (Enter /lrz/sys/applications/gaussian/g16.C.01/x86_64_legacy/exe/l103.exe)

 GradGradGradGradGradGradGradGradGradGradGradGradGradGradGradGradGradGrad
 Berny optimization.
 Using GEDIIS/GDIIS optimizer.
 FormGI is forming the generalized inverse of G from B-inverse, IUseBI=4.
 Internal  Forces:  Max     0.002496071 RMS     0.000659319
 Search for a local minimum.
 Step number   2 out of a maximum of   66
 All quantities printed in internal units (Hartrees-Bohrs-Radians)
 RMS Force = .65932D-03 SwitMx=.10000D-02 MixMth= 2
 Mixed Optimization -- En-DIIS/RFO-DIIS
 Update second derivatives using D2CorX and points    1    2
 DE= -1.13D-03 DEPred=-1.08D-03 R= 1.05D+00
 TightC=F SS=  1.41D+00  RLast= 1.83D-01 DXNew= 5.0454D-01 5.4865D-01
 Trust test= 1.05D+00 RLast= 1.83D-01 DXMaxT set to 5.05D-01
 ITU=  1  0
 Use linear search instead of GDIIS.
     Eigenvalues ---    0.00231   0.00412   0.01467   0.01679   0.03439
     Eigenvalues ---    0.04649   0.05545   0.05567   0.05599   0.05706
     Eigenvalues ---    0.08489   0.09978   0.12289   0.15616   0.16000
     Eigenvalues ---    0.16000   0.16000   0.16950   0.19499   0.20486
     Eigenvalues ---    0.21764   0.27389   0.29913   0.33515   0.34585
     Eigenvalues ---    0.34765   0.35003   0.35098   0.36471   0.44253
     Eigenvalues ---    0.49531   0.54577   0.54729
 RFO step:  Lambda=-3.70052732D-04 EMin= 2.31253908D-03
 Quartic linear search produced a step of  0.09696.
 Iteration  1 RMS(Cart)=  0.03270234 RMS(Int)=  0.00070833
 Iteration  2 RMS(Cart)=  0.00071161 RMS(Int)=  0.00001528
 Iteration  3 RMS(Cart)=  0.00000030 RMS(Int)=  0.00001527
 ITry= 1 IFail=0 DXMaxC= 1.09D-01 DCOld= 1.00D+10 DXMaxT= 5.05D-01 DXLimC= 3.00D+00 Rises=F
 Variable       Old X    -DE/DX   Delta X   Delta X   Delta X     New X
                                 (Linear)    (Quad)   (Total)
    R1        2.66349   0.00179  -0.00025   0.00430   0.00405   2.66755
    R2        1.82357   0.00037   0.00031   0.00093   0.00124   1.82481
    R3        2.64510  -0.00107   0.00188  -0.00126   0.00062   2.64571
    R4        2.89413  -0.00170  -0.00184  -0.00771  -0.00955   2.88458
    R5        2.08836  -0.00024   0.00062  -0.00039   0.00023   2.08859
    R6        1.82790  -0.00065   0.00031  -0.00112  -0.00081   1.82709
    R7        2.88849  -0.00250   0.00048  -0.00884  -0.00836   2.88013
    R8        2.08247   0.00025   0.00180   0.00193   0.00374   2.08621
    R9        2.08094   0.00025   0.00194   0.00202   0.00397   2.08491
   R10        2.07857   0.00019   0.00211   0.00193   0.00405   2.08262
   R11        2.08080   0.00007   0.00238   0.00175   0.00414   2.08494
   R12        2.07822  -0.00015   0.00240   0.00106   0.00346   2.08168
    A1        1.89030  -0.00003  -0.00224  -0.00160  -0.00383   1.88647
    A2        1.87133  -0.00000  -0.00025   0.00162   0.00136   1.87269
    A3        1.95024   0.00027   0.00030   0.00526   0.00554   1.95578
    A4        1.91617   0.00028  -0.00110   0.00590   0.00478   1.92095
    A5        1.96739   0.00015   0.00043   0.00040   0.00082   1.96821
    A6        1.85095  -0.00085   0.00126  -0.01408  -0.01283   1.83813
    A7        1.90479   0.00011  -0.00062   0.00015  -0.00050   1.90429
    A8        1.88984  -0.00170   0.00271  -0.00983  -0.00712   1.88271
    A9        1.98343   0.00049   0.00252   0.00596   0.00845   1.99188
   A10        1.87998  -0.00011  -0.00101  -0.00162  -0.00264   1.87734
   A11        1.87383   0.00010  -0.00086   0.00375   0.00283   1.87666
   A12        1.92510  -0.00017   0.00046  -0.00203  -0.00156   1.92354
   A13        1.92735  -0.00008   0.00041   0.00206   0.00242   1.92977
   A14        1.86974  -0.00027  -0.00178  -0.00898  -0.01076   1.85898
   A15        1.93216   0.00051   0.00061   0.00391   0.00451   1.93667
   A16        1.94190   0.00033   0.00090   0.00270   0.00359   1.94548
   A17        1.93456   0.00008   0.00118   0.00137   0.00254   1.93710
   A18        1.88945  -0.00047  -0.00095  -0.00400  -0.00496   1.88449
   A19        1.88571  -0.00028  -0.00097  -0.00229  -0.00326   1.88245
   A20        1.87798  -0.00022  -0.00088  -0.00212  -0.00301   1.87497
    D1        3.07583  -0.00003   0.00267   0.02115   0.02381   3.09964
    D2       -1.04343   0.00032   0.00324   0.02615   0.02938  -1.01405
    D3        1.07252   0.00083   0.00189   0.03386   0.03577   1.10828
    D4        0.96175   0.00104   0.00518   0.05552   0.06070   1.02245
    D5       -1.19166   0.00061   0.00470   0.04747   0.05219  -1.13947
    D6        3.00827   0.00093   0.00442   0.05611   0.06051   3.06878
    D7       -1.05942   0.00025  -0.00137   0.03214   0.03078  -1.02864
    D8        1.07874   0.00028   0.00014   0.03232   0.03245   1.11118
    D9        3.08717  -0.00003  -0.00289   0.02297   0.02008   3.10725
   D10        1.04949   0.00055  -0.00117   0.03835   0.03720   1.08669
   D11       -3.09554   0.00058   0.00034   0.03853   0.03886  -3.05668
   D12       -1.08710   0.00026  -0.00269   0.02918   0.02649  -1.06061
   D13        3.10124  -0.00034   0.00026   0.02118   0.02144   3.12269
   D14       -1.04379  -0.00031   0.00177   0.02135   0.02311  -1.02068
   D15        0.96465  -0.00063  -0.00127   0.01201   0.01074   0.97539
   D16        0.95590   0.00001   0.00375   0.03197   0.03571   0.99161
   D17       -1.14597   0.00004   0.00395   0.03258   0.03652  -1.10944
   D18        3.04821   0.00004   0.00370   0.03256   0.03625   3.08446
   D19       -1.15718  -0.00006   0.00300   0.03140   0.03439  -1.12279
   D20        3.02414  -0.00004   0.00319   0.03201   0.03520   3.05935
   D21        0.93514  -0.00003   0.00295   0.03199   0.03493   0.97007
   D22        3.06266   0.00043   0.00465   0.04246   0.04712   3.10979
   D23        0.96080   0.00045   0.00485   0.04307   0.04794   1.00874
   D24       -1.12820   0.00046   0.00460   0.04305   0.04766  -1.08054
         Item               Value     Threshold  Converged?
 Maximum Force            0.002496     0.000450     NO 
 RMS     Force            0.000659     0.000300     NO 
 Maximum Displacement     0.109183     0.001800     NO 
 RMS     Displacement     0.032835     0.001200     NO 
 Predicted change in Energy=-1.976204D-04
 Lowest energy point so far.  Saving SCF results.
 GradGradGradGradGradGradGradGradGradGradGradGradGradGradGradGradGradGrad

 Leave Link  103 at Tue Oct 21 19:52:30 2025, MaxMem=  4294967296 cpu:               0.1 elap:               0.0
 (Enter /lrz/sys/applications/gaussian/g16.C.01/x86_64_legacy/exe/l202.exe)
                          Input orientation:                          
 ---------------------------------------------------------------------
 Center     Atomic      Atomic             Coordinates (Angstroms)
 Number     Number       Type             X           Y           Z
 ---------------------------------------------------------------------
      1          8           0       -0.712672   -1.345481   -0.040758
      2          6           0       -0.585806   -0.004885   -0.464242
      3          8           0       -1.242339    0.793793    0.479802
      4          6           0        0.872926    0.396975   -0.665917
      5          6           0        1.736348    0.255400    0.582013
      6          1           0       -0.296222   -1.910146   -0.704230
      7          1           0       -1.137193    0.147803   -1.409862
      8          1           0       -0.829223    0.637010    1.339778
      9          1           0        1.279482   -0.223645   -1.483414
     10          1           0        0.883407    1.438989   -1.028324
     11          1           0        1.704659   -0.776220    0.968440
     12          1           0        1.397677    0.930701    1.386092
     13          1           0        2.787601    0.502503    0.364563
 ---------------------------------------------------------------------
                    Distance matrix (angstroms):
                    1          2          3          4          5
     1  O    0.000000
     2  C    1.411605   0.000000
     3  O    2.264514   1.400051   0.000000
     4  C    2.437436   1.526454   2.438131   0.000000
     5  C    2.991381   2.560234   3.028678   1.524097   0.000000
     6  H    0.965647   1.942028   3.099735   2.586732   3.236565
     7  H    2.069918   1.105233   1.999798   2.157804   3.498054
     8  H    2.418622   1.930225   0.966853   2.641541   2.702219
     9  H    2.703414   2.136789   3.353950   1.103974   2.168917
    10  H    3.357979   2.135778   2.685054   1.103287   2.172919
    11  H    2.680676   2.809584   3.374686   2.176991   1.102075
    12  H    3.416208   2.869366   2.794600   2.184255   1.103301
    13  H    3.978849   3.510589   4.042097   2.176926   1.101580
                    6          7          8          9         10
     6  H    0.000000
     7  H    2.332446   0.000000
     8  H    3.309088   2.809749   0.000000
     9  H    2.436033   2.446160   3.627365   0.000000
    10  H    3.565567   2.428076   3.030541   1.768709   0.000000
    11  H    2.843789   3.819196   2.925007   2.549059   3.093327
    12  H    3.912691   3.854329   2.246660   3.095246   2.520364
    13  H    4.058714   4.321851   3.748407   2.493338   2.538325
                   11         12         13
    11  H    0.000000
    12  H    1.783886   0.000000
    13  H    1.781170   1.777292   0.000000
 Stoichiometry    C3H8O2
 Framework group  C1[X(C3H8O2)]
 Deg. of freedom    33
 Full point group                 C1      NOp   1
 RotChk:  IX=0 Diff= 6.18D-02
 Largest Abelian subgroup         C1      NOp   1
 Largest concise Abelian subgroup C1      NOp   1
                         Standard orientation:                         
 ---------------------------------------------------------------------
 Center     Atomic      Atomic             Coordinates (Angstroms)
 Number     Number       Type             X           Y           Z
 ---------------------------------------------------------------------
      1          8           0       -1.048295    1.062758   -0.430865
      2          6           0       -0.658838    0.013066    0.428844
      3          8           0       -1.049146   -1.187438   -0.176624
      4          6           0        0.833461    0.056422    0.747003
      5          6           0        1.734643   -0.033284   -0.478841
      6          1           0       -0.818442    1.898998   -0.006197
      7          1           0       -1.231616    0.063736    1.372717
      8          1           0       -0.618097   -1.237868   -1.040602
      9          1           0        1.029758    0.993327    1.296942
     10          1           0        1.048018   -0.768908    1.447030
     11          1           0        1.503572    0.769497   -1.197673
     12          1           0        1.615483   -0.999616   -0.997759
     13          1           0        2.795259    0.061042   -0.196573
 ---------------------------------------------------------------------
 Rotational constants (GHZ):           6.8874722           4.0005936           3.3419144
 Leave Link  202 at Tue Oct 21 19:52:30 2025, MaxMem=  4294967296 cpu:               0.0 elap:               0.0
 (Enter /lrz/sys/applications/gaussian/g16.C.01/x86_64_legacy/exe/l301.exe)
 Standard basis: def2SVP (5D, 7F)
 Ernie: Thresh=  0.10000D-02 Tol=  0.10000D-05 Strict=F.
 There are   115 symmetry adapted cartesian basis functions of A   symmetry.
 There are   110 symmetry adapted basis functions of A   symmetry.
   110 basis functions,   181 primitive gaussians,   115 cartesian basis functions
    21 alpha electrons       21 beta electrons
       nuclear repulsion energy       197.0304771477 Hartrees.
 IExCor= 4639 DFT=T Ex+Corr=wB97XD ExCW=0 ScaHFX=  1.000000
 ScaDFX=  1.000000  1.000000  1.000000  1.000000 ScalE2=  1.000000  1.000000
 IRadAn=      5 IRanWt=     -1 IRanGd=            0 ICorTp=0 IEmpDi=121
 HFx  wShort=  0.000000 wLong=  0.200000 cFull=  0.222036 cShort=  0.000000 cLong=  0.777964
 DFx  wShort=  0.000000 wLong=  0.200000 cFull=  0.000000 cShort=  0.000000 cLong=  1.000000
 NAtoms=   13 NActive=   13 NUniq=   13 SFac= 1.00D+00 NAtFMM=   60 NAOKFM=F Big=F
 Integral buffers will be    131072 words long.
 Raffenetti 2 integral format.
 Two-electron integral symmetry is turned on.
 R6Disp:  Grimme-D2 Dispersion energy=       -0.0059333530 Hartrees.
 Nuclear repulsion after empirical dispersion term =      197.0245437947 Hartrees.
 ------------------------------------------------------------------------------
 Polarizable Continuum Model (PCM)
 =================================
 Model                : PCM.
 Atomic radii         : SMD-Coulomb.
 Polarization charges : Total charges.
 Charge compensation  : None.
 Solution method      : On-the-fly selection.
 Cavity type          : VdW (van der Waals Surface) (Alpha=1.000).
 Cavity algorithm     : GePol (No added spheres)
                        Default sphere list used, NSphG=   13.
                        Lebedev-Laikov grids with approx.  5.0 points / Ang**2.
                        Smoothing algorithm: York/Karplus (Gamma=1.0000).
                        Polarization charges: spherical gaussians, with
                                              point-specific exponents (IZeta= 3).
                        Self-potential: point-specific (ISelfS= 7).
                        Self-field    : sphere-specific E.n sum rule (ISelfD= 2).
 1st derivatives      : Analytical E(r).r(x)/FMM algorithm (CHGder, D1EAlg=3).
                        Cavity 1st derivative terms included.
 Solvent              : Water, Eps=  78.355300 Eps(inf)=   1.777849
 ------------------------------------------------------------------------------
 Spheres list:
 ISph  on   Nord     Re0    Alpha      Xe            Ye            Ze
    1   O      1    1.5200  1.000     -1.048295      1.062758     -0.430865
    2   C      2    1.8500  1.000     -0.658838      0.013066      0.428844
    3   O      3    1.5200  1.000     -1.049146     -1.187438     -0.176624
    4   C      4    1.8500  1.000      0.833461      0.056422      0.747003
    5   C      5    1.8500  1.000      1.734643     -0.033284     -0.478841
    6   H      6    1.2000  1.000     -0.818442      1.898998     -0.006197
    7   H      7    1.2000  1.000     -1.231616      0.063736      1.372717
    8   H      8    1.2000  1.000     -0.618097     -1.237868     -1.040602
    9   H      9    1.2000  1.000      1.029758      0.993327      1.296942
   10   H     10    1.2000  1.000      1.048018     -0.768908      1.447030
   11   H     11    1.2000  1.000      1.503572      0.769497     -1.197673
   12   H     12    1.2000  1.000      1.615483     -0.999616     -0.997759
   13   H     13    1.2000  1.000      2.795259      0.061042     -0.196573
 ------------------------------------------------------------------------------
 GePol: Number of generator spheres                  =      13
 GePol: Total number of spheres                      =      13
 GePol: Number of exposed spheres                    =      13 (100.00%)
 GePol: Number of points                             =     906
 GePol: Average weight of points                     =       0.12
 GePol: Minimum weight of points                     =   0.21D-07
 GePol: Maximum weight of points                     =    0.21991
 GePol: Number of points with low weight             =      43
 GePol: Fraction of low-weight points (<1% of avg)   =       4.75%
 GePol: Cavity surface area                          =    110.177 Ang**2
 GePol: Cavity volume                                =     82.377 Ang**3
 ------------------------------------------------------------------------------
 Atomic radii for non-electrostatic terms: SMD-CDS.
 ------------------------------------------------------------------------------
 PCM non-electrostatic energy =         0.0045324185 Hartrees.
 Nuclear repulsion after PCM non-electrostatic terms =      197.0290762132 Hartrees.
 Leave Link  301 at Tue Oct 21 19:52:30 2025, MaxMem=  4294967296 cpu:               0.6 elap:               0.1
 (Enter /lrz/sys/applications/gaussian/g16.C.01/x86_64_legacy/exe/l302.exe)
 NPDir=0 NMtPBC=     1 NCelOv=     1 NCel=       1 NClECP=     1 NCelD=      1
         NCelK=      1 NCelE2=     1 NClLst=     1 CellRange=     0.0.
 One-electron integrals computed using PRISM.
 One-electron integral symmetry used in STVInt
   1 Symmetry operations used in ECPInt.
 ECPInt:  NShTT=    1485 NPrTT=    5139 LenC2=    1483 LenP2D=    4462.
 LDataN:  DoStor=T MaxTD1= 4 Len=   56
 NBasis=   110 RedAO= T EigKep=  2.36D-03  NBF=   110
 NBsUse=   110 1.00D-06 EigRej= -1.00D+00 NBFU=   110
 Precomputing XC quadrature grid using
 IXCGrd= 4 IRadAn=           5 IRanWt=          -1 IRanGd=           0 AccXCQ= 0.00D+00.
 Generated NRdTot=       0 NPtTot=           0 NUsed=           0 NTot=          32
 NSgBfM=   115   115   115   115   115 MxSgAt=    13 MxSgA2=    13.
 Leave Link  302 at Tue Oct 21 19:52:30 2025, MaxMem=  4294967296 cpu:               1.3 elap:               0.2
 (Enter /lrz/sys/applications/gaussian/g16.C.01/x86_64_legacy/exe/l303.exe)
 DipDrv:  MaxL=1.
 Leave Link  303 at Tue Oct 21 19:52:31 2025, MaxMem=  4294967296 cpu:               0.3 elap:               0.1
 (Enter /lrz/sys/applications/gaussian/g16.C.01/x86_64_legacy/exe/l401.exe)
 Initial guess from the checkpoint file:  "g16_C3-w_9.chk"
 B after Tr=    -0.000000   -0.000000   -0.000000
         Rot=    0.999823   -0.017492    0.001161    0.006875 Ang=  -2.16 deg.
 Guess basis will be translated and rotated to current coordinates.
 JPrj=2 DoOrth=T DoCkMO=T.
 Generating alternative initial guess.
 ExpMin= 1.22D-01 ExpMax= 2.27D+03 ExpMxC= 3.41D+02 IAcc=3 IRadAn=         5 AccDes= 0.00D+00
 Harris functional with IExCor= 4639 and IRadAn=       5 diagonalized for initial guess.
 HarFok:  IExCor= 4639 AccDes= 0.00D+00 IRadAn=         5 IDoV= 1 UseB2=F ITyADJ=14
 ICtDFT=  3500011 ScaDFX=  1.000000  1.000000  1.000000  1.000000
 FoFCou: FMM=F IPFlag=           0 FMFlag=      100000 FMFlg1=           0
         NFxFlg=           0 DoJE=T BraDBF=F KetDBF=T FulRan=T
         wScrn=  0.000000 ICntrl=       500 IOpCl=  0 I1Cent=   200000004 NGrid=           0
         NMat0=    1 NMatS0=      1 NMatT0=    0 NMatD0=    1 NMtDS0=    0 NMtDT0=    0
 Petite list used in FoFCou.
 Harris En= -258.103568485348    
 Leave Link  401 at Tue Oct 21 19:52:31 2025, MaxMem=  4294967296 cpu:               5.4 elap:               0.7
 (Enter /lrz/sys/applications/gaussian/g16.C.01/x86_64_legacy/exe/l502.exe)
 Integral symmetry usage will be decided dynamically.
 Closed shell SCF:
 Using DIIS extrapolation, IDIIS=  1040.
 NGot=  4294967296 LenX=  4294938204 LenY=  4294924538
 Requested convergence on RMS density matrix=1.00D-08 within 128 cycles.
 Requested convergence on MAX density matrix=1.00D-06.
 Requested convergence on             energy=1.00D-06.
 No special actions if energy rises.
 Fock matrices will be formed incrementally for  20 cycles.

 Cycle   1  Pass 1  IDiag  1:
 FoFJK:  IHMeth= 1 ICntrl=       0 DoSepK=T KAlg= 0 I1Cent=           0 FoldK=F
 IRaf=         1 NMat=       1 IRICut=       1 DoRegI=T DoRafI=F ISym2E= 0 IDoP0=0 IntGTp=1.
 FoFCou: FMM=F IPFlag=           0 FMFlag=      100000 FMFlg1=           0
         NFxFlg=           0 DoJE=T BraDBF=F KetDBF=F FulRan=T
         wScrn=  0.000000 ICntrl=       500 IOpCl=  0 I1Cent=           0 NGrid=           0
         NMat0=    1 NMatS0=      1 NMatT0=    0 NMatD0=    1 NMtDS0=    0 NMtDT0=    0
 Symmetry not used in FoFCou.
 Inv3:  Mode=1 IEnd=     2462508.
 Iteration    1 A*A^-1 deviation from unit magnitude is 5.33D-15 for     93.
 Iteration    1 A*A^-1 deviation from orthogonality  is 2.27D-15 for    641    172.
 Iteration    1 A^-1*A deviation from unit magnitude is 4.66D-15 for     22.
 Iteration    1 A^-1*A deviation from orthogonality  is 1.58D-15 for    601     45.
 E= -269.312447544030    
 DIIS: error= 1.86D-03 at cycle   1 NSaved=   1.
 NSaved= 1 IEnMin= 1 EnMin= -269.312447544030     IErMin= 1 ErrMin= 1.86D-03
 ErrMax= 1.86D-03  0.00D+00 EMaxC= 1.00D-01 BMatC= 9.35D-04 BMatP= 9.35D-04
 IDIUse=3 WtCom= 9.81D-01 WtEn= 1.86D-02
 Coeff-Com:  0.100D+01
 Coeff-En:   0.100D+01
 Coeff:      0.100D+01
 Gap=     0.743 Goal=   None    Shift=    0.000
 GapD=    0.743 DampG=2.000 DampE=1.000 DampFc=2.0000 IDamp=-1.
 RMSDP=4.54D-04 MaxDP=8.90D-03              OVMax= 7.77D-03

 Cycle   2  Pass 1  IDiag  1:
 RMSU=  4.54D-04    CP:  1.00D+00
 E= -269.313796464520     Delta-E=       -0.001348920489 Rises=F Damp=F
 DIIS: error= 3.94D-04 at cycle   2 NSaved=   2.
 NSaved= 2 IEnMin= 2 EnMin= -269.313796464520     IErMin= 2 ErrMin= 3.94D-04
 ErrMax= 3.94D-04  0.00D+00 EMaxC= 1.00D-01 BMatC= 3.32D-05 BMatP= 9.35D-04
 IDIUse=3 WtCom= 9.96D-01 WtEn= 3.94D-03
 Coeff-Com: -0.166D+00 0.117D+01
 Coeff-En:   0.000D+00 0.100D+01
 Coeff:     -0.165D+00 0.117D+01
 Gap=     0.492 Goal=   None    Shift=    0.000
 RMSDP=1.18D-04 MaxDP=1.84D-03 DE=-1.35D-03 OVMax= 2.58D-03

 Cycle   3  Pass 1  IDiag  1:
 RMSU=  6.18D-05    CP:  1.00D+00  1.22D+00
 E= -269.313866166253     Delta-E=       -0.000069701733 Rises=F Damp=F
 DIIS: error= 1.52D-04 at cycle   3 NSaved=   3.
 NSaved= 3 IEnMin= 3 EnMin= -269.313866166253     IErMin= 3 ErrMin= 1.52D-04
 ErrMax= 1.52D-04  0.00D+00 EMaxC= 1.00D-01 BMatC= 5.42D-06 BMatP= 3.32D-05
 IDIUse=3 WtCom= 9.98D-01 WtEn= 1.52D-03
 Coeff-Com: -0.665D-01 0.381D+00 0.686D+00
 Coeff-En:   0.000D+00 0.000D+00 0.100D+01
 Coeff:     -0.664D-01 0.380D+00 0.686D+00
 Gap=     0.492 Goal=   None    Shift=    0.000
 RMSDP=2.39D-05 MaxDP=6.20D-04 DE=-6.97D-05 OVMax= 5.64D-04

 Cycle   4  Pass 1  IDiag  1:
 RMSU=  2.20D-05    CP:  1.00D+00  1.24D+00  1.02D+00
 E= -269.313870686064     Delta-E=       -0.000004519811 Rises=F Damp=F
 DIIS: error= 5.55D-05 at cycle   4 NSaved=   4.
 NSaved= 4 IEnMin= 4 EnMin= -269.313870686064     IErMin= 4 ErrMin= 5.55D-05
 ErrMax= 5.55D-05  0.00D+00 EMaxC= 1.00D-01 BMatC= 9.09D-07 BMatP= 5.42D-06
 IDIUse=1 WtCom= 1.00D+00 WtEn= 0.00D+00
 Coeff-Com:  0.131D-01-0.122D+00 0.242D+00 0.867D+00
 Coeff:      0.131D-01-0.122D+00 0.242D+00 0.867D+00
 Gap=     0.492 Goal=   None    Shift=    0.000
 RMSDP=1.32D-05 MaxDP=2.11D-04 DE=-4.52D-06 OVMax= 2.87D-04

 Cycle   5  Pass 1  IDiag  1:
 RMSU=  4.48D-06    CP:  1.00D+00  1.26D+00  1.19D+00  1.01D+00
 E= -269.313871683531     Delta-E=       -0.000000997468 Rises=F Damp=F
 DIIS: error= 6.71D-06 at cycle   5 NSaved=   5.
 NSaved= 5 IEnMin= 5 EnMin= -269.313871683531     IErMin= 5 ErrMin= 6.71D-06
 ErrMax= 6.71D-06  0.00D+00 EMaxC= 1.00D-01 BMatC= 9.80D-09 BMatP= 9.09D-07
 IDIUse=1 WtCom= 1.00D+00 WtEn= 0.00D+00
 Coeff-Com:  0.319D-02-0.240D-01 0.128D-02 0.762D-01 0.943D+00
 Coeff:      0.319D-02-0.240D-01 0.128D-02 0.762D-01 0.943D+00
 Gap=     0.492 Goal=   None    Shift=    0.000
 RMSDP=2.55D-06 MaxDP=4.68D-05 DE=-9.97D-07 OVMax= 6.55D-05

 Cycle   6  Pass 1  IDiag  1:
 RMSU=  1.16D-06    CP:  1.00D+00  1.26D+00  1.22D+00  1.05D+00  1.23D+00
 E= -269.313871704738     Delta-E=       -0.000000021207 Rises=F Damp=F
 DIIS: error= 2.20D-06 at cycle   6 NSaved=   6.
 NSaved= 6 IEnMin= 6 EnMin= -269.313871704738     IErMin= 6 ErrMin= 2.20D-06
 ErrMax= 2.20D-06  0.00D+00 EMaxC= 1.00D-01 BMatC= 1.85D-09 BMatP= 9.80D-09
 IDIUse=1 WtCom= 1.00D+00 WtEn= 0.00D+00
 Coeff-Com: -0.289D-05 0.199D-02-0.181D-01-0.436D-01 0.264D+00 0.795D+00
 Coeff:     -0.289D-05 0.199D-02-0.181D-01-0.436D-01 0.264D+00 0.795D+00
 Gap=     0.492 Goal=   None    Shift=    0.000
 RMSDP=7.64D-07 MaxDP=1.54D-05 DE=-2.12D-08 OVMax= 2.10D-05

 Cycle   7  Pass 1  IDiag  1:
 RMSU=  3.56D-07    CP:  1.00D+00  1.26D+00  1.22D+00  1.07D+00  1.35D+00
                    CP:  9.47D-01
 E= -269.313871707473     Delta-E=       -0.000000002736 Rises=F Damp=F
 DIIS: error= 8.73D-07 at cycle   7 NSaved=   7.
 NSaved= 7 IEnMin= 7 EnMin= -269.313871707473     IErMin= 7 ErrMin= 8.73D-07
 ErrMax= 8.73D-07  0.00D+00 EMaxC= 1.00D-01 BMatC= 1.85D-10 BMatP= 1.85D-09
 IDIUse=1 WtCom= 1.00D+00 WtEn= 0.00D+00
 Coeff-Com: -0.305D-03 0.286D-02-0.372D-02-0.171D-01-0.484D-01 0.202D+00
 Coeff-Com:  0.865D+00
 Coeff:     -0.305D-03 0.286D-02-0.372D-02-0.171D-01-0.484D-01 0.202D+00
 Coeff:      0.865D+00
 Gap=     0.492 Goal=   None    Shift=    0.000
 RMSDP=2.64D-07 MaxDP=6.27D-06 DE=-2.74D-09 OVMax= 8.68D-06

 Cycle   8  Pass 1  IDiag  1:
 RMSU=  1.04D-07    CP:  1.00D+00  1.26D+00  1.22D+00  1.07D+00  1.39D+00
                    CP:  1.08D+00  1.10D+00
 E= -269.313871707762     Delta-E=       -0.000000000289 Rises=F Damp=F
 DIIS: error= 3.31D-07 at cycle   8 NSaved=   8.
 NSaved= 8 IEnMin= 8 EnMin= -269.313871707762     IErMin= 8 ErrMin= 3.31D-07
 ErrMax= 3.31D-07  0.00D+00 EMaxC= 1.00D-01 BMatC= 2.50D-11 BMatP= 1.85D-10
 IDIUse=1 WtCom= 1.00D+00 WtEn= 0.00D+00
 Coeff-Com: -0.100D-03 0.830D-03-0.363D-04-0.301D-02-0.369D-01 0.238D-01
 Coeff-Com:  0.329D+00 0.687D+00
 Coeff:     -0.100D-03 0.830D-03-0.363D-04-0.301D-02-0.369D-01 0.238D-01
 Coeff:      0.329D+00 0.687D+00
 Gap=     0.492 Goal=   None    Shift=    0.000
 RMSDP=6.50D-08 MaxDP=1.28D-06 DE=-2.89D-10 OVMax= 2.20D-06

 Cycle   9  Pass 1  IDiag  1:
 RMSU=  4.01D-08    CP:  1.00D+00  1.26D+00  1.22D+00  1.07D+00  1.39D+00
                    CP:  1.11D+00  1.20D+00  9.52D-01
 E= -269.313871707794     Delta-E=       -0.000000000032 Rises=F Damp=F
 DIIS: error= 1.00D-07 at cycle   9 NSaved=   9.
 NSaved= 9 IEnMin= 9 EnMin= -269.313871707794     IErMin= 9 ErrMin= 1.00D-07
 ErrMax= 1.00D-07  0.00D+00 EMaxC= 1.00D-01 BMatC= 2.33D-12 BMatP= 2.50D-11
 IDIUse=1 WtCom= 1.00D+00 WtEn= 0.00D+00
 Coeff-Com:  0.370D-04-0.384D-03 0.858D-03 0.291D-02-0.273D-02-0.356D-01
 Coeff-Com: -0.735D-01 0.183D+00 0.926D+00
 Coeff:      0.370D-04-0.384D-03 0.858D-03 0.291D-02-0.273D-02-0.356D-01
 Coeff:     -0.735D-01 0.183D+00 0.926D+00
 Gap=     0.492 Goal=   None    Shift=    0.000
 RMSDP=3.65D-08 MaxDP=7.22D-07 DE=-3.18D-11 OVMax= 1.22D-06

 Cycle  10  Pass 1  IDiag  1:
 RMSU=  7.68D-09    CP:  1.00D+00  1.26D+00  1.22D+00  1.07D+00  1.40D+00
                    CP:  1.12D+00  1.25D+00  1.13D+00  1.12D+00
 E= -269.313871707799     Delta-E=       -0.000000000004 Rises=F Damp=F
 DIIS: error= 1.27D-08 at cycle  10 NSaved=  10.
 NSaved=10 IEnMin=10 EnMin= -269.313871707799     IErMin=10 ErrMin= 1.27D-08
 ErrMax= 1.27D-08  0.00D+00 EMaxC= 1.00D-01 BMatC= 2.71D-14 BMatP= 2.33D-12
 IDIUse=1 WtCom= 1.00D+00 WtEn= 0.00D+00
 Coeff-Com:  0.301D-05-0.224D-04-0.455D-05 0.676D-04 0.104D-02 0.193D-03
 Coeff-Com: -0.703D-02-0.277D-01-0.451D-01 0.108D+01
 Coeff:      0.301D-05-0.224D-04-0.455D-05 0.676D-04 0.104D-02 0.193D-03
 Coeff:     -0.703D-02-0.277D-01-0.451D-01 0.108D+01
 Gap=     0.492 Goal=   None    Shift=    0.000
 RMSDP=6.30D-09 MaxDP=8.15D-08 DE=-4.38D-12 OVMax= 2.00D-07

 Error on total polarization charges =  0.03201
 SCF Done:  E(RwB97XD) =  -269.313871708     A.U. after   10 cycles
            NFock= 10  Conv=0.63D-08     -V/T= 2.0097
 KE= 2.667369177419D+02 PE=-1.023946924304D+03 EE= 2.908670586409D+02
 SMD-CDS (non-electrostatic) energy       (kcal/mol) =       2.84
 (included in total energy above)
 Leave Link  502 at Tue Oct 21 19:52:46 2025, MaxMem=  4294967296 cpu:             113.2 elap:              14.2
 (Enter /lrz/sys/applications/gaussian/g16.C.01/x86_64_legacy/exe/l701.exe)
 ... and contract with generalized density number  0.
 Compute integral first derivatives.
 R6Disp: Adding Grimme-D2 dispersion energy 1st derivatives to the gradient.
   1 Symmetry operations used in ECPInt.
 ECPInt:  NShTT=    1485 NPrTT=    5139 LenC2=    1483 LenP2D=    4462.
 LDataN:  DoStor=T MaxTD1= 5 Len=  102
 D1PCM: PCM CHGder 1st derivatives, ID1Alg=3 FixD1E=F DoIter=F DoCFld=F I1PDM=0.
 GePol: Maximum number of non-zero 1st derivatives   =     250
 Leave Link  701 at Tue Oct 21 19:52:46 2025, MaxMem=  4294967296 cpu:               4.3 elap:               0.6
 (Enter /lrz/sys/applications/gaussian/g16.C.01/x86_64_legacy/exe/l702.exe)
 L702 exits ... SP integral derivatives will be done elsewhere.
 Leave Link  702 at Tue Oct 21 19:52:46 2025, MaxMem=  4294967296 cpu:               0.2 elap:               0.0
 (Enter /lrz/sys/applications/gaussian/g16.C.01/x86_64_legacy/exe/l703.exe)
 Integral derivatives from FoFJK, PRISM(SPDF).
 Compute integral first derivatives, UseDBF=F ICtDFT=           0.
 Calling FoFJK, ICntrl=      2127 FMM=F ISym2X=0 I1Cent= 0 IOpClX= 0 NMat=1 NMatS=1 NMatT=0.
 FoFJK:  IHMeth= 1 ICntrl=    2127 DoSepK=T KAlg= 0 I1Cent=           0 FoldK=F
 IRaf=         1 NMat=       1 IRICut=       1 DoRegI=T DoRafI=F ISym2E= 0 IDoP0=0 IntGTp=1.
 FoFCou: FMM=F IPFlag=           0 FMFlag=      100000 FMFlg1=         800
         NFxFlg=           0 DoJE=F BraDBF=F KetDBF=F FulRan=T
         wScrn=  0.000000 ICntrl=      2527 IOpCl=  0 I1Cent=           0 NGrid=           0
         NMat0=    1 NMatS0=      1 NMatT0=    0 NMatD0=    1 NMtDS0=    0 NMtDT0=    0
 Symmetry not used in FoFCou.
 Leave Link  703 at Tue Oct 21 19:52:48 2025, MaxMem=  4294967296 cpu:              17.7 elap:               2.2
 (Enter /lrz/sys/applications/gaussian/g16.C.01/x86_64_legacy/exe/l716.exe)
 Dipole        = 9.31294409D-01 7.02604269D-01 3.57147059D-01
 ***** Axes restored to original set *****
 -------------------------------------------------------------------
 Center     Atomic                   Forces (Hartrees/Bohr)
 Number     Number              X              Y              Z
 -------------------------------------------------------------------
      1        8          -0.000516374    0.000403564   -0.000886612
      2        6          -0.000802942    0.000998311    0.000181447
      3        8          -0.000612674   -0.001614611    0.000241141
      4        6           0.000943895   -0.000069397   -0.000571891
      5        6           0.000498170   -0.000406209    0.000421493
      6        1           0.000514789   -0.000009885    0.000450676
      7        1           0.000161145    0.000048192    0.000204365
      8        1           0.000691917    0.000939850   -0.000188232
      9        1          -0.000065160    0.000431426    0.000683730
     10        1           0.000064749   -0.001057662    0.000302743
     11        1           0.000072715    0.001158591   -0.000361384
     12        1           0.000401325   -0.000773514   -0.000671428
     13        1          -0.001351557   -0.000048656    0.000193953
 -------------------------------------------------------------------
 Cartesian Forces:  Max     0.001614611 RMS     0.000642655
 Leave Link  716 at Tue Oct 21 19:52:48 2025, MaxMem=  4294967296 cpu:               0.2 elap:               0.0
 (Enter /lrz/sys/applications/gaussian/g16.C.01/x86_64_legacy/exe/l103.exe)

 GradGradGradGradGradGradGradGradGradGradGradGradGradGradGradGradGradGrad
 Berny optimization.
 Using GEDIIS/GDIIS optimizer.
 FormGI is forming the generalized inverse of G from B-inverse, IUseBI=4.
 Internal  Forces:  Max     0.001335335 RMS     0.000428228
 Search for a local minimum.
 Step number   3 out of a maximum of   66
 All quantities printed in internal units (Hartrees-Bohrs-Radians)
 RMS Force = .42823D-03 SwitMx=.10000D-02 MixMth= 2
 Mixed Optimization -- En-DIIS/RFO-DIIS
 Swapping is turned off.
 Update second derivatives using D2CorX and points    1    2    3
 DE= -2.70D-04 DEPred=-1.98D-04 R= 1.37D+00
 TightC=F SS=  1.41D+00  RLast= 1.87D-01 DXNew= 8.4853D-01 5.6188D-01
 Trust test= 1.37D+00 RLast= 1.87D-01 DXMaxT set to 5.62D-01
 ITU=  1  1  0
     Eigenvalues ---    0.00231   0.00317   0.00862   0.01623   0.03392
     Eigenvalues ---    0.04744   0.05493   0.05512   0.05563   0.06372
     Eigenvalues ---    0.08609   0.10021   0.12401   0.15761   0.16000
     Eigenvalues ---    0.16000   0.16196   0.17274   0.19578   0.20582
     Eigenvalues ---    0.21889   0.28666   0.30320   0.33527   0.34596
     Eigenvalues ---    0.34828   0.35036   0.35140   0.42257   0.46210
     Eigenvalues ---    0.49862   0.54563   0.54848
 En-DIIS/RFO-DIIS/Sim-DIIS IScMMF=       -3 using points:     3    2
 RFO step:  Lambda=-2.92494677D-04.
 NNeg= 0 NGDIIS= 2 SimSw=  2.50D-03 Rises=F DC= -2.70D-04 SmlDif=  1.00D-05
 NRisDI= 0 DoIntr=F SqrtH=F CThrHd= 10.0 CDAdj=  3.0
 RMS Error=  0.3167278380D-01 NUsed= 2 OKEnD=T EnDIS=F
 InvSVX:  RCond= 7.07D-03 Info=           0 Equed=N FErr=  6.78D-15 BErr=  1.92D-17
 DidBck=F Rises=F RFO-DIIS coefs:    2.28825   -1.28825
 Iteration  1 RMS(Cart)=  0.03773790 RMS(Int)=  0.00133520
 Iteration  2 RMS(Cart)=  0.00125354 RMS(Int)=  0.00002163
 Iteration  3 RMS(Cart)=  0.00000135 RMS(Int)=  0.00002161
 Iteration  4 RMS(Cart)=  0.00000000 RMS(Int)=  0.00002161
 ITry= 1 IFail=0 DXMaxC= 1.43D-01 DCOld= 1.00D+10 DXMaxT= 5.62D-01 DXLimC= 3.00D+00 Rises=F
 Variable       Old X    -DE/DX   Delta X   Delta X   Delta X     New X
                                 (Linear)    (Quad)   (Total)
    R1        2.66755  -0.00049   0.00522  -0.00502   0.00020   2.66774
    R2        1.82481  -0.00009   0.00160  -0.00068   0.00092   1.82573
    R3        2.64571  -0.00038   0.00079   0.00109   0.00188   2.64759
    R4        2.88458   0.00034  -0.01230   0.00599  -0.00631   2.87827
    R5        2.08859  -0.00025   0.00030  -0.00042  -0.00012   2.08847
    R6        1.82709  -0.00002  -0.00104   0.00097  -0.00007   1.82702
    R7        2.88013  -0.00056  -0.01077   0.00374  -0.00704   2.87309
    R8        2.08621  -0.00077   0.00481  -0.00347   0.00135   2.08755
    R9        2.08491  -0.00110   0.00511  -0.00488   0.00023   2.08514
   R10        2.08262  -0.00122   0.00521  -0.00518   0.00003   2.08265
   R11        2.08494  -0.00109   0.00533  -0.00426   0.00107   2.08601
   R12        2.08168  -0.00134   0.00446  -0.00482  -0.00036   2.08133
    A1        1.88647   0.00025  -0.00494   0.00190  -0.00304   1.88343
    A2        1.87269  -0.00003   0.00176  -0.00282  -0.00107   1.87162
    A3        1.95578  -0.00055   0.00714  -0.00917  -0.00205   1.95373
    A4        1.92095   0.00009   0.00616  -0.00646  -0.00032   1.92063
    A5        1.96821   0.00044   0.00106   0.00349   0.00453   1.97274
    A6        1.83813  -0.00004  -0.01652   0.01437  -0.00216   1.83597
    A7        1.90429   0.00013  -0.00065   0.00169   0.00100   1.90529
    A8        1.88271   0.00018  -0.00918   0.01088   0.00170   1.88441
    A9        1.99188   0.00004   0.01089  -0.00185   0.00898   2.00085
   A10        1.87734   0.00022  -0.00340   0.00404   0.00064   1.87798
   A11        1.87666  -0.00007   0.00365  -0.00383  -0.00027   1.87640
   A12        1.92354  -0.00022  -0.00200  -0.00104  -0.00305   1.92049
   A13        1.92977   0.00004   0.00311  -0.00134   0.00169   1.93145
   A14        1.85898  -0.00000  -0.01387   0.00456  -0.00930   1.84968
   A15        1.93667   0.00014   0.00581  -0.00036   0.00543   1.94210
   A16        1.94548   0.00021   0.00462   0.00053   0.00514   1.95062
   A17        1.93710  -0.00026   0.00327  -0.00291   0.00034   1.93744
   A18        1.88449  -0.00015  -0.00639   0.00115  -0.00526   1.87923
   A19        1.88245   0.00011  -0.00421   0.00251  -0.00171   1.88074
   A20        1.87497  -0.00005  -0.00388  -0.00075  -0.00464   1.87033
    D1        3.09964   0.00032   0.03068   0.02632   0.05699  -3.12656
    D2       -1.01405   0.00050   0.03785   0.02276   0.06060  -0.95344
    D3        1.10828   0.00035   0.04607   0.01417   0.06027   1.16855
    D4        1.02245   0.00052   0.07820   0.02017   0.09836   1.12081
    D5       -1.13947   0.00095   0.06723   0.03151   0.09876  -1.04071
    D6        3.06878   0.00059   0.07795   0.01850   0.09644  -3.11796
    D7       -1.02864   0.00003   0.03966  -0.02196   0.01771  -1.01093
    D8        1.11118  -0.00007   0.04180  -0.02155   0.02025   1.13143
    D9        3.10725   0.00000   0.02586  -0.01617   0.00967   3.11692
   D10        1.08669  -0.00010   0.04792  -0.02984   0.01809   1.10478
   D11       -3.05668  -0.00019   0.05007  -0.02944   0.02063  -3.03604
   D12       -1.06061  -0.00012   0.03413  -0.02406   0.01006  -1.05056
   D13        3.12269   0.00020   0.02763  -0.00886   0.01877   3.14146
   D14       -1.02068   0.00010   0.02977  -0.00846   0.02132  -0.99936
   D15        0.97539   0.00017   0.01383  -0.00308   0.01074   0.98613
   D16        0.99161   0.00012   0.04600   0.00320   0.04919   1.04080
   D17       -1.10944   0.00008   0.04705   0.00164   0.04867  -1.06078
   D18        3.08446   0.00017   0.04670   0.00419   0.05087   3.13534
   D19       -1.12279  -0.00003   0.04430   0.00003   0.04433  -1.07846
   D20        3.05935  -0.00007   0.04535  -0.00154   0.04381   3.10315
   D21        0.97007   0.00003   0.04499   0.00102   0.04602   1.01608
   D22        3.10979   0.00009   0.06070  -0.00413   0.05659  -3.11681
   D23        1.00874   0.00004   0.06176  -0.00570   0.05607   1.06480
   D24       -1.08054   0.00014   0.06140  -0.00314   0.05828  -1.02226
         Item               Value     Threshold  Converged?
 Maximum Force            0.001335     0.000450     NO 
 RMS     Force            0.000428     0.000300     NO 
 Maximum Displacement     0.143168     0.001800     NO 
 RMS     Displacement     0.037941     0.001200     NO 
 Predicted change in Energy=-1.550558D-04
 Lowest energy point so far.  Saving SCF results.
 GradGradGradGradGradGradGradGradGradGradGradGradGradGradGradGradGradGrad

 Leave Link  103 at Tue Oct 21 19:52:48 2025, MaxMem=  4294967296 cpu:               0.2 elap:               0.0
 (Enter /lrz/sys/applications/gaussian/g16.C.01/x86_64_legacy/exe/l202.exe)
                          Input orientation:                          
 ---------------------------------------------------------------------
 Center     Atomic      Atomic             Coordinates (Angstroms)
 Number     Number       Type             X           Y           Z
 ---------------------------------------------------------------------
      1          8           0       -0.722807   -1.344213   -0.038179
      2          6           0       -0.594139   -0.005207   -0.466468
      3          8           0       -1.262153    0.795863    0.468932
      4          6           0        0.863283    0.393093   -0.659223
      5          6           0        1.731963    0.237604    0.578821
      6          1           0       -0.253345   -1.904635   -0.669800
      7          1           0       -1.139361    0.142717   -1.416337
      8          1           0       -0.802237    0.712771    1.315281
      9          1           0        1.269720   -0.216773   -1.485784
     10          1           0        0.877696    1.436989   -1.016408
     11          1           0        1.744918   -0.807097    0.929587
     12          1           0        1.373214    0.866445    1.412118
     13          1           0        2.771892    0.535236    0.371404
 ---------------------------------------------------------------------
                    Distance matrix (angstroms):
                    1          2          3          4          5
     1  O    0.000000
     2  C    1.411710   0.000000
     3  O    2.264504   1.401046   0.000000
     4  C    2.433025   1.523114   2.439762   0.000000
     5  C    2.984750   2.561706   3.047698   1.520374   0.000000
     6  H    0.966134   1.940441   3.099531   2.554706   3.176427
     7  H    2.069734   1.105170   1.998979   2.155572   3.497737
     8  H    2.463604   1.932208   0.966816   2.602848   2.681478
     9  H    2.708662   2.134886   3.355105   1.104686   2.163960
    10  H    3.354643   2.132760   2.682580   1.103407   2.170957
    11  H    2.704576   2.839575   3.438627   2.177626   1.102091
    12  H    3.373970   2.856456   2.799954   2.185073   1.103868
    13  H    3.989112   3.510595   4.043632   2.173750   1.101390
                    6          7          8          9         10
     6  H    0.000000
     7  H    2.352445   0.000000
     8  H    3.330562   2.810757   0.000000
     9  H    2.415458   2.436746   3.605971   0.000000
    10  H    3.544834   2.429733   2.963687   1.763215   0.000000
    11  H    2.784902   3.837261   2.991113   2.531465   3.094333
    12  H    3.828702   3.851879   2.183021   3.095466   2.543383
    13  H    4.023573   4.318332   3.700922   2.504234   2.515385
                   11         12         13
    11  H    0.000000
    12  H    1.780939   0.000000
    13  H    1.779917   1.774566   0.000000
 Stoichiometry    C3H8O2
 Framework group  C1[X(C3H8O2)]
 Deg. of freedom    33
 Full point group                 C1      NOp   1
 RotChk:  IX=0 Diff= 3.70D-02
 Largest Abelian subgroup         C1      NOp   1
 Largest concise Abelian subgroup C1      NOp   1
                         Standard orientation:                         
 ---------------------------------------------------------------------
 Center     Atomic      Atomic             Coordinates (Angstroms)
 Number     Number       Type             X           Y           Z
 ---------------------------------------------------------------------
      1          8           0       -1.030542    1.082789   -0.417337
      2          6           0       -0.661323    0.013387    0.427045
      3          8           0       -1.078348   -1.170336   -0.195705
      4          6           0        0.828324    0.026928    0.744294
      5          6           0        1.736367   -0.035150   -0.473549
      6          1           0       -0.735020    1.904099   -0.003175
      7          1           0       -1.233795    0.061176    1.371181
      8          1           0       -0.583494   -1.263493   -1.021039
      9          1           0        1.037614    0.942317    1.326180
     10          1           0        1.030618   -0.818150    1.424315
     11          1           0        1.560131    0.818715   -1.147686
     12          1           0        1.578017   -0.959743   -1.055424
     13          1           0        2.796835   -0.015537   -0.176763
 ---------------------------------------------------------------------
 Rotational constants (GHZ):           6.9027069           3.9992687           3.3344711
 Leave Link  202 at Tue Oct 21 19:52:48 2025, MaxMem=  4294967296 cpu:               0.1 elap:               0.0
 (Enter /lrz/sys/applications/gaussian/g16.C.01/x86_64_legacy/exe/l301.exe)
 Standard basis: def2SVP (5D, 7F)
 Ernie: Thresh=  0.10000D-02 Tol=  0.10000D-05 Strict=F.
 There are   115 symmetry adapted cartesian basis functions of A   symmetry.
 There are   110 symmetry adapted basis functions of A   symmetry.
   110 basis functions,   181 primitive gaussians,   115 cartesian basis functions
    21 alpha electrons       21 beta electrons
       nuclear repulsion energy       197.0685017363 Hartrees.
 IExCor= 4639 DFT=T Ex+Corr=wB97XD ExCW=0 ScaHFX=  1.000000
 ScaDFX=  1.000000  1.000000  1.000000  1.000000 ScalE2=  1.000000  1.000000
 IRadAn=      5 IRanWt=     -1 IRanGd=            0 ICorTp=0 IEmpDi=121
 HFx  wShort=  0.000000 wLong=  0.200000 cFull=  0.222036 cShort=  0.000000 cLong=  0.777964
 DFx  wShort=  0.000000 wLong=  0.200000 cFull=  0.000000 cShort=  0.000000 cLong=  1.000000
 NAtoms=   13 NActive=   13 NUniq=   13 SFac= 1.00D+00 NAtFMM=   60 NAOKFM=F Big=F
 Integral buffers will be    131072 words long.
 Raffenetti 2 integral format.
 Two-electron integral symmetry is turned on.
 R6Disp:  Grimme-D2 Dispersion energy=       -0.0059392758 Hartrees.
 Nuclear repulsion after empirical dispersion term =      197.0625624605 Hartrees.
 ------------------------------------------------------------------------------
 Polarizable Continuum Model (PCM)
 =================================
 Model                : PCM.
 Atomic radii         : SMD-Coulomb.
 Polarization charges : Total charges.
 Charge compensation  : None.
 Solution method      : On-the-fly selection.
 Cavity type          : VdW (van der Waals Surface) (Alpha=1.000).
 Cavity algorithm     : GePol (No added spheres)
                        Default sphere list used, NSphG=   13.
                        Lebedev-Laikov grids with approx.  5.0 points / Ang**2.
                        Smoothing algorithm: York/Karplus (Gamma=1.0000).
                        Polarization charges: spherical gaussians, with
                                              point-specific exponents (IZeta= 3).
                        Self-potential: point-specific (ISelfS= 7).
                        Self-field    : sphere-specific E.n sum rule (ISelfD= 2).
 1st derivatives      : Analytical E(r).r(x)/FMM algorithm (CHGder, D1EAlg=3).
                        Cavity 1st derivative terms included.
 Solvent              : Water, Eps=  78.355300 Eps(inf)=   1.777849
 ------------------------------------------------------------------------------
 Spheres list:
 ISph  on   Nord     Re0    Alpha      Xe            Ye            Ze
    1   O      1    1.5200  1.000     -1.030542      1.082789     -0.417337
    2   C      2    1.8500  1.000     -0.661323      0.013387      0.427045
    3   O      3    1.5200  1.000     -1.078348     -1.170336     -0.195705
    4   C      4    1.8500  1.000      0.828324      0.026928      0.744294
    5   C      5    1.8500  1.000      1.736367     -0.035150     -0.473549
    6   H      6    1.2000  1.000     -0.735020      1.904099     -0.003175
    7   H      7    1.2000  1.000     -1.233795      0.061176      1.371181
    8   H      8    1.2000  1.000     -0.583494     -1.263493     -1.021039
    9   H      9    1.2000  1.000      1.037614      0.942317      1.326180
   10   H     10    1.2000  1.000      1.030618     -0.818150      1.424315
   11   H     11    1.2000  1.000      1.560131      0.818715     -1.147686
   12   H     12    1.2000  1.000      1.578017     -0.959743     -1.055424
   13   H     13    1.2000  1.000      2.796835     -0.015537     -0.176763
 ------------------------------------------------------------------------------
 GePol: Number of generator spheres                  =      13
 GePol: Total number of spheres                      =      13
 GePol: Number of exposed spheres                    =      13 (100.00%)
 GePol: Number of points                             =     918
 GePol: Average weight of points                     =       0.12
 GePol: Minimum weight of points                     =   0.85D-10
 GePol: Maximum weight of points                     =    0.21991
 GePol: Number of points with low weight             =      63
 GePol: Fraction of low-weight points (<1% of avg)   =       6.86%
 GePol: Cavity surface area                          =    109.686 Ang**2
 GePol: Cavity volume                                =     82.197 Ang**3
 ------------------------------------------------------------------------------
 Atomic radii for non-electrostatic terms: SMD-CDS.
 ------------------------------------------------------------------------------
 PCM non-electrostatic energy =         0.0044871183 Hartrees.
 Nuclear repulsion after PCM non-electrostatic terms =      197.0670495788 Hartrees.
 Leave Link  301 at Tue Oct 21 19:52:49 2025, MaxMem=  4294967296 cpu:               0.5 elap:               0.1
 (Enter /lrz/sys/applications/gaussian/g16.C.01/x86_64_legacy/exe/l302.exe)
 NPDir=0 NMtPBC=     1 NCelOv=     1 NCel=       1 NClECP=     1 NCelD=      1
         NCelK=      1 NCelE2=     1 NClLst=     1 CellRange=     0.0.
 One-electron integrals computed using PRISM.
 One-electron integral symmetry used in STVInt
   1 Symmetry operations used in ECPInt.
 ECPInt:  NShTT=    1485 NPrTT=    5139 LenC2=    1483 LenP2D=    4460.
 LDataN:  DoStor=T MaxTD1= 4 Len=   56
 NBasis=   110 RedAO= T EigKep=  2.38D-03  NBF=   110
 NBsUse=   110 1.00D-06 EigRej= -1.00D+00 NBFU=   110
 Precomputing XC quadrature grid using
 IXCGrd= 4 IRadAn=           5 IRanWt=          -1 IRanGd=           0 AccXCQ= 0.00D+00.
 Generated NRdTot=       0 NPtTot=           0 NUsed=           0 NTot=          32
 NSgBfM=   115   115   115   115   115 MxSgAt=    13 MxSgA2=    13.
 Leave Link  302 at Tue Oct 21 19:52:49 2025, MaxMem=  4294967296 cpu:               1.2 elap:               0.2
 (Enter /lrz/sys/applications/gaussian/g16.C.01/x86_64_legacy/exe/l303.exe)
 DipDrv:  MaxL=1.
 Leave Link  303 at Tue Oct 21 19:52:49 2025, MaxMem=  4294967296 cpu:               0.2 elap:               0.0
 (Enter /lrz/sys/applications/gaussian/g16.C.01/x86_64_legacy/exe/l401.exe)
 Initial guess from the checkpoint file:  "g16_C3-w_9.chk"
 B after Tr=     0.000000   -0.000000    0.000000
         Rot=    0.999930   -0.009217    0.001736    0.007275 Ang=  -1.36 deg.
 Guess basis will be translated and rotated to current coordinates.
 JPrj=2 DoOrth=T DoCkMO=T.
 Generating alternative initial guess.
 ExpMin= 1.22D-01 ExpMax= 2.27D+03 ExpMxC= 3.41D+02 IAcc=3 IRadAn=         5 AccDes= 0.00D+00
 Harris functional with IExCor= 4639 and IRadAn=       5 diagonalized for initial guess.
 HarFok:  IExCor= 4639 AccDes= 0.00D+00 IRadAn=         5 IDoV= 1 UseB2=F ITyADJ=14
 ICtDFT=  3500011 ScaDFX=  1.000000  1.000000  1.000000  1.000000
 FoFCou: FMM=F IPFlag=           0 FMFlag=      100000 FMFlg1=           0
         NFxFlg=           0 DoJE=T BraDBF=F KetDBF=T FulRan=T
         wScrn=  0.000000 ICntrl=       500 IOpCl=  0 I1Cent=   200000004 NGrid=           0
         NMat0=    1 NMatS0=      1 NMatT0=    0 NMatD0=    1 NMtDS0=    0 NMtDT0=    0
 Petite list used in FoFCou.
 Harris En= -258.103030895629    
 Leave Link  401 at Tue Oct 21 19:52:49 2025, MaxMem=  4294967296 cpu:               5.6 elap:               0.7
 (Enter /lrz/sys/applications/gaussian/g16.C.01/x86_64_legacy/exe/l502.exe)
 Integral symmetry usage will be decided dynamically.
 Closed shell SCF:
 Using DIIS extrapolation, IDIIS=  1040.
 NGot=  4294967296 LenX=  4294938204 LenY=  4294924538
 Requested convergence on RMS density matrix=1.00D-08 within 128 cycles.
 Requested convergence on MAX density matrix=1.00D-06.
 Requested convergence on             energy=1.00D-06.
 No special actions if energy rises.
 Fock matrices will be formed incrementally for  20 cycles.

 Cycle   1  Pass 1  IDiag  1:
 FoFJK:  IHMeth= 1 ICntrl=       0 DoSepK=T KAlg= 0 I1Cent=           0 FoldK=F
 IRaf=         1 NMat=       1 IRICut=       1 DoRegI=T DoRafI=F ISym2E= 0 IDoP0=0 IntGTp=1.
 FoFCou: FMM=F IPFlag=           0 FMFlag=      100000 FMFlg1=           0
         NFxFlg=           0 DoJE=T BraDBF=F KetDBF=F FulRan=T
         wScrn=  0.000000 ICntrl=       500 IOpCl=  0 I1Cent=           0 NGrid=           0
         NMat0=    1 NMatS0=      1 NMatT0=    0 NMatD0=    1 NMtDS0=    0 NMtDT0=    0
 Symmetry not used in FoFCou.
 Inv3:  Mode=1 IEnd=     2528172.
 Iteration    1 A*A^-1 deviation from unit magnitude is 5.55D-15 for    797.
 Iteration    1 A*A^-1 deviation from orthogonality  is 3.65D-15 for    797    403.
 Iteration    1 A^-1*A deviation from unit magnitude is 5.55D-15 for    797.
 Iteration    1 A^-1*A deviation from orthogonality  is 1.02D-13 for    776    740.
 E= -269.311622520112    
 DIIS: error= 2.90D-03 at cycle   1 NSaved=   1.
 NSaved= 1 IEnMin= 1 EnMin= -269.311622520112     IErMin= 1 ErrMin= 2.90D-03
 ErrMax= 2.90D-03  0.00D+00 EMaxC= 1.00D-01 BMatC= 1.71D-03 BMatP= 1.71D-03
 IDIUse=3 WtCom= 9.71D-01 WtEn= 2.90D-02
 Coeff-Com:  0.100D+01
 Coeff-En:   0.100D+01
 Coeff:      0.100D+01
 Gap=     0.741 Goal=   None    Shift=    0.000
 GapD=    0.741 DampG=2.000 DampE=1.000 DampFc=2.0000 IDamp=-1.
 RMSDP=6.28D-04 MaxDP=1.41D-02              OVMax= 1.25D-02

 Cycle   2  Pass 1  IDiag  1:
 RMSU=  6.28D-04    CP:  1.00D+00
 E= -269.313927649342     Delta-E=       -0.002305129230 Rises=F Damp=F
 DIIS: error= 4.67D-04 at cycle   2 NSaved=   2.
 NSaved= 2 IEnMin= 2 EnMin= -269.313927649342     IErMin= 2 ErrMin= 4.67D-04
 ErrMax= 4.67D-04  0.00D+00 EMaxC= 1.00D-01 BMatC= 5.63D-05 BMatP= 1.71D-03
 IDIUse=3 WtCom= 9.95D-01 WtEn= 4.67D-03
 Coeff-Com: -0.157D+00 0.116D+01
 Coeff-En:   0.000D+00 0.100D+01
 Coeff:     -0.156D+00 0.116D+01
 Gap=     0.493 Goal=   None    Shift=    0.000
 RMSDP=1.53D-04 MaxDP=2.88D-03 DE=-2.31D-03 OVMax= 4.13D-03

 Cycle   3  Pass 1  IDiag  1:
 RMSU=  7.31D-05    CP:  9.99D-01  1.21D+00
 E= -269.314039435671     Delta-E=       -0.000111786330 Rises=F Damp=F
 DIIS: error= 1.75D-04 at cycle   3 NSaved=   3.
 NSaved= 3 IEnMin= 3 EnMin= -269.314039435671     IErMin= 3 ErrMin= 1.75D-04
 ErrMax= 1.75D-04  0.00D+00 EMaxC= 1.00D-01 BMatC= 8.28D-06 BMatP= 5.63D-05
 IDIUse=3 WtCom= 9.98D-01 WtEn= 1.75D-03
 Coeff-Com: -0.581D-01 0.346D+00 0.712D+00
 Coeff-En:   0.000D+00 0.000D+00 0.100D+01
 Coeff:     -0.580D-01 0.346D+00 0.712D+00
 Gap=     0.493 Goal=   None    Shift=    0.000
 RMSDP=3.09D-05 MaxDP=7.34D-04 DE=-1.12D-04 OVMax= 8.01D-04

 Cycle   4  Pass 1  IDiag  1:
 RMSU=  2.82D-05    CP:  9.99D-01  1.23D+00  1.01D+00
 E= -269.314046425922     Delta-E=       -0.000006990251 Rises=F Damp=F
 DIIS: error= 7.29D-05 at cycle   4 NSaved=   4.
 NSaved= 4 IEnMin= 4 EnMin= -269.314046425922     IErMin= 4 ErrMin= 7.29D-05
 ErrMax= 7.29D-05  0.00D+00 EMaxC= 1.00D-01 BMatC= 1.70D-06 BMatP= 8.28D-06
 IDIUse=1 WtCom= 1.00D+00 WtEn= 0.00D+00
 Coeff-Com:  0.122D-01-0.117D+00 0.269D+00 0.836D+00
 Coeff:      0.122D-01-0.117D+00 0.269D+00 0.836D+00
 Gap=     0.493 Goal=   None    Shift=    0.000
 RMSDP=1.65D-05 MaxDP=2.80D-04 DE=-6.99D-06 OVMax= 4.59D-04

 Cycle   5  Pass 1  IDiag  1:
 RMSU=  6.62D-06    CP:  9.99D-01  1.25D+00  1.19D+00  9.79D-01
 E= -269.314048275930     Delta-E=       -0.000001850008 Rises=F Damp=F
 DIIS: error= 1.17D-05 at cycle   5 NSaved=   5.
 NSaved= 5 IEnMin= 5 EnMin= -269.314048275930     IErMin= 5 ErrMin= 1.17D-05
 ErrMax= 1.17D-05  0.00D+00 EMaxC= 1.00D-01 BMatC= 2.32D-08 BMatP= 1.70D-06
 IDIUse=1 WtCom= 1.00D+00 WtEn= 0.00D+00
 Coeff-Com:  0.350D-02-0.271D-01-0.516D-02 0.730D-01 0.956D+00
 Coeff:      0.350D-02-0.271D-01-0.516D-02 0.730D-01 0.956D+00
 Gap=     0.493 Goal=   None    Shift=    0.000
 RMSDP=3.93D-06 MaxDP=7.54D-05 DE=-1.85D-06 OVMax= 1.19D-04

 Cycle   6  Pass 1  IDiag  1:
 RMSU=  1.50D-06    CP:  9.99D-01  1.25D+00  1.22D+00  1.04D+00  1.27D+00
 E= -269.314048331232     Delta-E=       -0.000000055302 Rises=F Damp=F
 DIIS: error= 4.06D-06 at cycle   6 NSaved=   6.
 NSaved= 6 IEnMin= 6 EnMin= -269.314048331232     IErMin= 6 ErrMin= 4.06D-06
 ErrMax= 4.06D-06  0.00D+00 EMaxC= 1.00D-01 BMatC= 2.92D-09 BMatP= 2.32D-08
 IDIUse=1 WtCom= 1.00D+00 WtEn= 0.00D+00
 Coeff-Com:  0.893D-05 0.169D-02-0.191D-01-0.407D-01 0.191D+00 0.867D+00
 Coeff:      0.893D-05 0.169D-02-0.191D-01-0.407D-01 0.191D+00 0.867D+00
 Gap=     0.493 Goal=   None    Shift=    0.000
 RMSDP=1.17D-06 MaxDP=2.44D-05 DE=-5.53D-08 OVMax= 3.56D-05

 Cycle   7  Pass 1  IDiag  1:
 RMSU=  5.28D-07    CP:  9.99D-01  1.25D+00  1.22D+00  1.05D+00  1.40D+00
                    CP:  1.01D+00
 E= -269.314048336690     Delta-E=       -0.000000005458 Rises=F Damp=F
 DIIS: error= 1.16D-06 at cycle   7 NSaved=   7.
 NSaved= 7 IEnMin= 7 EnMin= -269.314048336690     IErMin= 7 ErrMin= 1.16D-06
 ErrMax= 1.16D-06  0.00D+00 EMaxC= 1.00D-01 BMatC= 3.99D-10 BMatP= 2.92D-09
 IDIUse=1 WtCom= 1.00D+00 WtEn= 0.00D+00
 Coeff-Com: -0.363D-03 0.341D-02-0.315D-02-0.169D-01-0.759D-01 0.239D+00
 Coeff-Com:  0.854D+00
 Coeff:     -0.363D-03 0.341D-02-0.315D-02-0.169D-01-0.759D-01 0.239D+00
 Coeff:      0.854D+00
 Gap=     0.493 Goal=   None    Shift=    0.000
 RMSDP=3.93D-07 MaxDP=8.49D-06 DE=-5.46D-09 OVMax= 1.34D-05

 Cycle   8  Pass 1  IDiag  1:
 RMSU=  1.22D-07    CP:  9.99D-01  1.25D+00  1.22D+00  1.06D+00  1.44D+00
                    CP:  1.18D+00  1.06D+00
 E= -269.314048337361     Delta-E=       -0.000000000671 Rises=F Damp=F
 DIIS: error= 2.73D-07 at cycle   8 NSaved=   8.
 NSaved= 8 IEnMin= 8 EnMin= -269.314048337361     IErMin= 8 ErrMin= 2.73D-07
 ErrMax= 2.73D-07  0.00D+00 EMaxC= 1.00D-01 BMatC= 7.82D-12 BMatP= 3.99D-10
 IDIUse=1 WtCom= 1.00D+00 WtEn= 0.00D+00
 Coeff-Com:  0.315D-04-0.373D-03 0.130D-02 0.326D-02-0.803D-02-0.504D-01
 Coeff-Com: -0.391D-01 0.109D+01
 Coeff:      0.315D-04-0.373D-03 0.130D-02 0.326D-02-0.803D-02-0.504D-01
 Coeff:     -0.391D-01 0.109D+01
 Gap=     0.493 Goal=   None    Shift=    0.000
 RMSDP=9.82D-08 MaxDP=1.79D-06 DE=-6.71D-10 OVMax= 3.45D-06

 Cycle   9  Pass 1  IDiag  1:
 RMSU=  2.89D-08    CP:  9.99D-01  1.25D+00  1.22D+00  1.06D+00  1.45D+00
                    CP:  1.21D+00  1.16D+00  1.31D+00
 E= -269.314048337382     Delta-E=       -0.000000000021 Rises=F Damp=F
 DIIS: error= 1.24D-07 at cycle   9 NSaved=   9.
 NSaved= 9 IEnMin= 9 EnMin= -269.314048337382     IErMin= 9 ErrMin= 1.24D-07
 ErrMax= 1.24D-07  0.00D+00 EMaxC= 1.00D-01 BMatC= 2.52D-12 BMatP= 7.82D-12
 IDIUse=1 WtCom= 1.00D+00 WtEn= 0.00D+00
 Coeff-Com:  0.354D-04-0.370D-03 0.802D-03 0.249D-02 0.199D-03-0.362D-01
 Coeff-Com: -0.639D-01 0.492D+00 0.605D+00
 Coeff:      0.354D-04-0.370D-03 0.802D-03 0.249D-02 0.199D-03-0.362D-01
 Coeff:     -0.639D-01 0.492D+00 0.605D+00
 Gap=     0.493 Goal=   None    Shift=    0.000
 RMSDP=1.83D-08 MaxDP=3.05D-07 DE=-2.09D-11 OVMax= 5.13D-07

 Cycle  10  Pass 1  IDiag  1:
 RMSU=  9.51D-09    CP:  9.99D-01  1.25D+00  1.22D+00  1.06D+00  1.45D+00
                    CP:  1.21D+00  1.17D+00  1.38D+00  8.37D-01
 E= -269.314048337384     Delta-E=       -0.000000000003 Rises=F Damp=F
 DIIS: error= 2.26D-08 at cycle  10 NSaved=  10.
 NSaved=10 IEnMin=10 EnMin= -269.314048337384     IErMin=10 ErrMin= 2.26D-08
 ErrMax= 2.26D-08  0.00D+00 EMaxC= 1.00D-01 BMatC= 1.06D-13 BMatP= 2.52D-12
 IDIUse=1 WtCom= 1.00D+00 WtEn= 0.00D+00
 Coeff-Com:  0.239D-05-0.184D-04-0.208D-04 0.252D-04 0.897D-03 0.657D-03
 Coeff-Com: -0.469D-02-0.675D-01 0.104D+00 0.966D+00
 Coeff:      0.239D-05-0.184D-04-0.208D-04 0.252D-04 0.897D-03 0.657D-03
 Coeff:     -0.469D-02-0.675D-01 0.104D+00 0.966D+00
 Gap=     0.493 Goal=   None    Shift=    0.000
 RMSDP=8.37D-09 MaxDP=8.87D-08 DE=-2.50D-12 OVMax= 2.80D-07

 Error on total polarization charges =  0.03200
 SCF Done:  E(RwB97XD) =  -269.314048337     A.U. after   10 cycles
            NFock= 10  Conv=0.84D-08     -V/T= 2.0096
 KE= 2.667445287996D+02 PE=-1.024014458528D+03 EE= 2.908888318119D+02
 SMD-CDS (non-electrostatic) energy       (kcal/mol) =       2.82
 (included in total energy above)
 Leave Link  502 at Tue Oct 21 19:53:04 2025, MaxMem=  4294967296 cpu:             115.0 elap:              14.4
 (Enter /lrz/sys/applications/gaussian/g16.C.01/x86_64_legacy/exe/l701.exe)
 ... and contract with generalized density number  0.
 Compute integral first derivatives.
 R6Disp: Adding Grimme-D2 dispersion energy 1st derivatives to the gradient.
   1 Symmetry operations used in ECPInt.
 ECPInt:  NShTT=    1485 NPrTT=    5139 LenC2=    1483 LenP2D=    4460.
 LDataN:  DoStor=T MaxTD1= 5 Len=  102
 D1PCM: PCM CHGder 1st derivatives, ID1Alg=3 FixD1E=F DoIter=F DoCFld=F I1PDM=0.
 GePol: Maximum number of non-zero 1st derivatives   =     254
 Leave Link  701 at Tue Oct 21 19:53:05 2025, MaxMem=  4294967296 cpu:               4.5 elap:               0.6
 (Enter /lrz/sys/applications/gaussian/g16.C.01/x86_64_legacy/exe/l702.exe)
 L702 exits ... SP integral derivatives will be done elsewhere.
 Leave Link  702 at Tue Oct 21 19:53:05 2025, MaxMem=  4294967296 cpu:               0.2 elap:               0.0
 (Enter /lrz/sys/applications/gaussian/g16.C.01/x86_64_legacy/exe/l703.exe)
 Integral derivatives from FoFJK, PRISM(SPDF).
 Compute integral first derivatives, UseDBF=F ICtDFT=           0.
 Calling FoFJK, ICntrl=      2127 FMM=F ISym2X=0 I1Cent= 0 IOpClX= 0 NMat=1 NMatS=1 NMatT=0.
 FoFJK:  IHMeth= 1 ICntrl=    2127 DoSepK=T KAlg= 0 I1Cent=           0 FoldK=F
 IRaf=         1 NMat=       1 IRICut=       1 DoRegI=T DoRafI=F ISym2E= 0 IDoP0=0 IntGTp=1.
 FoFCou: FMM=F IPFlag=           0 FMFlag=      100000 FMFlg1=         800
         NFxFlg=           0 DoJE=F BraDBF=F KetDBF=F FulRan=T
         wScrn=  0.000000 ICntrl=      2527 IOpCl=  0 I1Cent=           0 NGrid=           0
         NMat0=    1 NMatS0=      1 NMatT0=    0 NMatD0=    1 NMtDS0=    0 NMtDT0=    0
 Symmetry not used in FoFCou.
 Leave Link  703 at Tue Oct 21 19:53:07 2025, MaxMem=  4294967296 cpu:              17.7 elap:               2.2
 (Enter /lrz/sys/applications/gaussian/g16.C.01/x86_64_legacy/exe/l716.exe)
 Dipole        = 1.05523625D+00 6.36983962D-01 3.83782529D-01
 ***** Axes restored to original set *****
 -------------------------------------------------------------------
 Center     Atomic                   Forces (Hartrees/Bohr)
 Number     Number              X              Y              Z
 -------------------------------------------------------------------
      1        8          -0.000010895   -0.000371962   -0.001207047
      2        6          -0.002716660    0.000855264    0.001604114
      3        8           0.000767829   -0.001340005   -0.000722393
      4        6           0.001932871    0.001224223   -0.003781485
      5        6           0.001278876   -0.000807960    0.002870182
      6        1           0.000069434   -0.000003817    0.000821254
      7        1           0.000127050    0.000019209    0.000193917
      8        1           0.000147478    0.000345801   -0.000075447
      9        1          -0.000352612    0.000306770    0.001101155
     10        1          -0.000145945   -0.000827100    0.000852628
     11        1          -0.000283674    0.001125036   -0.000542703
     12        1           0.000438309   -0.000350319   -0.001020645
     13        1          -0.001252061   -0.000175140   -0.000093529
 -------------------------------------------------------------------
 Cartesian Forces:  Max     0.003781485 RMS     0.001172288
 Leave Link  716 at Tue Oct 21 19:53:07 2025, MaxMem=  4294967296 cpu:               0.3 elap:               0.1
 (Enter /lrz/sys/applications/gaussian/g16.C.01/x86_64_legacy/exe/l103.exe)

 GradGradGradGradGradGradGradGradGradGradGradGradGradGradGradGradGradGrad
 Berny optimization.
 Using GEDIIS/GDIIS optimizer.
 FormGI is forming the generalized inverse of G from B-inverse, IUseBI=4.
 Internal  Forces:  Max     0.001758634 RMS     0.000542357
 Search for a local minimum.
 Step number   4 out of a maximum of   66
 All quantities printed in internal units (Hartrees-Bohrs-Radians)
 RMS Force = .54236D-03 SwitMx=.10000D-02 MixMth= 2
 Mixed Optimization -- En-DIIS/RFO-DIIS
 Swapping is turned off.
 Update second derivatives using D2CorX and points    1    2    3    4
 DE= -1.77D-04 DEPred=-1.55D-04 R= 1.14D+00
 TightC=F SS=  1.41D+00  RLast= 2.56D-01 DXNew= 9.4497D-01 7.6734D-01
 Trust test= 1.14D+00 RLast= 2.56D-01 DXMaxT set to 7.67D-01
 ITU=  1  1  1  0
     Eigenvalues ---    0.00242   0.00343   0.00671   0.01660   0.03329
     Eigenvalues ---    0.04895   0.05477   0.05488   0.05538   0.06455
     Eigenvalues ---    0.08690   0.10055   0.12499   0.15867   0.16000
     Eigenvalues ---    0.16002   0.16416   0.17469   0.19600   0.20648
     Eigenvalues ---    0.22080   0.29061   0.32073   0.33533   0.34640
     Eigenvalues ---    0.34841   0.35041   0.35170   0.40516   0.45654
     Eigenvalues ---    0.50265   0.54614   0.55029
 En-DIIS/RFO-DIIS/Sim-DIIS IScMMF=       -3 using points:     4    3    2
 RFO step:  Lambda=-8.00948036D-05.
 NNeg= 0 NGDIIS= 3 SimSw=  2.50D-01 Rises=F DC= -1.77D-04 SmlDif=  1.00D-05
 NRisDI= 0 DoIntr=F SqrtH=F CThrHd= 10.0 CDAdj=  3.0
 RMS Error=  0.1030762012D-01 NUsed= 3 OKEnD=T EnDIS=F
 InvSVX:  RCond= 1.03D-04 Info=           0 Equed=N FErr=  1.46D-13 BErr=  7.32D-17
 DidBck=F Rises=F RFO-DIIS coefs:    1.27934   -0.48402    0.20468
 Iteration  1 RMS(Cart)=  0.00898134 RMS(Int)=  0.00010521
 Iteration  2 RMS(Cart)=  0.00010601 RMS(Int)=  0.00000407
 Iteration  3 RMS(Cart)=  0.00000002 RMS(Int)=  0.00000407
 ITry= 1 IFail=0 DXMaxC= 3.18D-02 DCOld= 1.00D+10 DXMaxT= 7.67D-01 DXLimC= 3.00D+00 Rises=F
 Variable       Old X    -DE/DX   Delta X   Delta X   Delta X     New X
                                 (Linear)    (Quad)   (Total)
    R1        2.66774   0.00024  -0.00077   0.00222   0.00145   2.66919
    R2        1.82573  -0.00051   0.00000  -0.00061  -0.00061   1.82512
    R3        2.64759  -0.00153   0.00040  -0.00314  -0.00274   2.64485
    R4        2.87827   0.00176   0.00019   0.00365   0.00384   2.88211
    R5        2.08847  -0.00023  -0.00008  -0.00041  -0.00049   2.08798
    R6        1.82702  -0.00003   0.00015  -0.00029  -0.00014   1.82688
    R7        2.87309   0.00110  -0.00025   0.00239   0.00214   2.87523
    R8        2.08755  -0.00112  -0.00039  -0.00167  -0.00206   2.08549
    R9        2.08514  -0.00106  -0.00075  -0.00103  -0.00178   2.08336
   R10        2.08265  -0.00125  -0.00082  -0.00144  -0.00226   2.08039
   R11        2.08601  -0.00111  -0.00055  -0.00118  -0.00172   2.08429
   R12        2.08133  -0.00121  -0.00081  -0.00135  -0.00216   2.07916
    A1        1.88343   0.00079  -0.00006   0.00372   0.00365   1.88708
    A2        1.87162   0.00009  -0.00058   0.00116   0.00059   1.87221
    A3        1.95373  -0.00012  -0.00171   0.00197   0.00027   1.95400
    A4        1.92063  -0.00001  -0.00107   0.00107   0.00001   1.92064
    A5        1.97274  -0.00003   0.00110  -0.00078   0.00032   1.97306
    A6        1.83597   0.00009   0.00202  -0.00279  -0.00077   1.83520
    A7        1.90529   0.00000   0.00038  -0.00086  -0.00047   1.90482
    A8        1.88441   0.00017   0.00193  -0.00155   0.00038   1.88480
    A9        2.00085  -0.00071   0.00078  -0.00290  -0.00212   1.99873
   A10        1.87798   0.00018   0.00072  -0.00117  -0.00046   1.87752
   A11        1.87640   0.00029  -0.00065   0.00214   0.00150   1.87790
   A12        1.92049   0.00014  -0.00053   0.00011  -0.00043   1.92006
   A13        1.93145   0.00001  -0.00002  -0.00087  -0.00088   1.93058
   A14        1.84968   0.00015  -0.00040   0.00321   0.00281   1.85249
   A15        1.94210  -0.00023   0.00059  -0.00017   0.00042   1.94252
   A16        1.95062  -0.00007   0.00070  -0.00017   0.00053   1.95115
   A17        1.93744  -0.00047  -0.00042  -0.00240  -0.00282   1.93463
   A18        1.87923   0.00027  -0.00046   0.00186   0.00140   1.88063
   A19        1.88074   0.00040   0.00019   0.00165   0.00184   1.88258
   A20        1.87033   0.00016  -0.00068  -0.00060  -0.00128   1.86906
    D1       -3.12656   0.00036   0.01104   0.01732   0.02837  -3.09819
    D2       -0.95344   0.00030   0.01092   0.01844   0.02936  -0.92408
    D3        1.16855   0.00022   0.00951   0.01944   0.02895   1.19750
    D4        1.12081   0.00016   0.01505   0.01450   0.02955   1.15037
    D5       -1.04071   0.00027   0.01690   0.01167   0.02858  -1.01214
    D6       -3.11796   0.00023   0.01455   0.01491   0.02946  -3.08850
    D7       -1.01093  -0.00010  -0.00135  -0.00989  -0.01125  -1.02218
    D8        1.13143  -0.00026  -0.00099  -0.01258  -0.01356   1.11787
    D9        3.11692   0.00015  -0.00141  -0.00840  -0.00980   3.10712
   D10        1.10478  -0.00010  -0.00256  -0.00747  -0.01004   1.09474
   D11       -3.03604  -0.00026  -0.00219  -0.01016  -0.01236  -3.04840
   D12       -1.05056   0.00015  -0.00261  -0.00599  -0.00860  -1.05915
   D13        3.14146  -0.00000   0.00086  -0.01196  -0.01111   3.13035
   D14       -0.99936  -0.00016   0.00122  -0.01465  -0.01342  -1.01278
   D15        0.98613   0.00024   0.00080  -0.01047  -0.00967   0.97646
   D16        1.04080  -0.00005   0.00643  -0.01290  -0.00646   1.03433
   D17       -1.06078  -0.00019   0.00612  -0.01503  -0.00891  -1.06969
   D18        3.13534  -0.00002   0.00679  -0.01254  -0.00574   3.12960
   D19       -1.07846   0.00010   0.00535  -0.00939  -0.00405  -1.08251
   D20        3.10315  -0.00004   0.00503  -0.01152  -0.00649   3.09666
   D21        1.01608   0.00013   0.00571  -0.00903  -0.00332   1.01276
   D22       -3.11681  -0.00017   0.00616  -0.01287  -0.00670  -3.12351
   D23        1.06480  -0.00031   0.00585  -0.01500  -0.00915   1.05566
   D24       -1.02226  -0.00014   0.00652  -0.01250  -0.00598  -1.02825
         Item               Value     Threshold  Converged?
 Maximum Force            0.001759     0.000450     NO 
 RMS     Force            0.000542     0.000300     NO 
 Maximum Displacement     0.031793     0.001800     NO 
 RMS     Displacement     0.008933     0.001200     NO 
 Predicted change in Energy=-3.935680D-05
 Lowest energy point so far.  Saving SCF results.
 GradGradGradGradGradGradGradGradGradGradGradGradGradGradGradGradGradGrad

 Leave Link  103 at Tue Oct 21 19:53:07 2025, MaxMem=  4294967296 cpu:               0.1 elap:               0.0
 (Enter /lrz/sys/applications/gaussian/g16.C.01/x86_64_legacy/exe/l202.exe)
                          Input orientation:                          
 ---------------------------------------------------------------------
 Center     Atomic      Atomic             Coordinates (Angstroms)
 Number     Number       Type             X           Y           Z
 ---------------------------------------------------------------------
      1          8           0       -0.727354   -1.349261   -0.050026
      2          6           0       -0.597477   -0.005968   -0.466895
      3          8           0       -1.261957    0.787562    0.475254
      4          6           0        0.861936    0.392534   -0.660246
      5          6           0        1.728390    0.238115    0.580880
      6          1           0       -0.239147   -1.905038   -0.670960
      7          1           0       -1.144422    0.151213   -1.413980
      8          1           0       -0.785413    0.718014    1.313501
      9          1           0        1.268427   -0.220154   -1.483230
     10          1           0        0.878124    1.435341   -1.017629
     11          1           0        1.734976   -0.803612    0.936881
     12          1           0        1.374202    0.874367    1.409280
     13          1           0        2.768356    0.529682    0.371115
 ---------------------------------------------------------------------
                    Distance matrix (angstroms):
                    1          2          3          4          5
     1  O    0.000000
     2  C    1.412475   0.000000
     3  O    2.264449   1.399596   0.000000
     4  C    2.435583   1.525147   2.440559   0.000000
     5  C    2.991401   2.562629   3.042240   1.521506   0.000000
     6  H    0.965812   1.943325   3.100007   2.547811   3.167240
     7  H    2.070203   1.104909   1.996988   2.156809   3.498581
     8  H    2.477136   1.931135   0.966742   2.591404   2.662000
     9  H    2.704090   2.135512   3.354697   1.103596   2.163822
    10  H    3.356758   2.134965   2.688543   1.102466   2.170607
    11  H    2.708281   2.836752   3.424403   2.178022   1.100897
    12  H    3.389783   2.860513   2.798083   2.185753   1.102956
    13  H    3.990961   3.509702   4.039896   2.171854   1.100245
                    6          7          8          9         10
     6  H    0.000000
     7  H    2.366383   0.000000
     8  H    3.334201   2.808791   0.000000
     9  H    2.402374   2.442243   3.594458   0.000000
    10  H    3.539295   2.428327   2.952302   1.763458   0.000000
    11  H    2.774069   3.837861   2.968088   2.532791   3.093091
    12  H    3.828235   3.851911   2.167384   3.094475   2.539817
    13  H    4.007350   4.317364   3.681417   2.500127   2.514320
                   11         12         13
    11  H    0.000000
    12  H    1.780149   0.000000
    13  H    1.779223   1.772077   0.000000
 Stoichiometry    C3H8O2
 Framework group  C1[X(C3H8O2)]
 Deg. of freedom    33
 Full point group                 C1      NOp   1
 RotChk:  IX=0 Diff= 1.72D-02
 Largest Abelian subgroup         C1      NOp   1
 Largest concise Abelian subgroup C1      NOp   1
                         Standard orientation:                         
 ---------------------------------------------------------------------
 Center     Atomic      Atomic             Coordinates (Angstroms)
 Number     Number       Type             X           Y           Z
 ---------------------------------------------------------------------
      1          8           0       -1.040532    1.077896   -0.420168
      2          6           0       -0.662920    0.012285    0.426572
      3          8           0       -1.070431   -1.174894   -0.192628
      4          6           0        0.828335    0.038106    0.745267
      5          6           0        1.735881   -0.034373   -0.473785
      6          1           0       -0.729881    1.901683   -0.023098
      7          1           0       -1.235844    0.057153    1.370272
      8          1           0       -0.556034   -1.280108   -1.004365
      9          1           0        1.031766    0.962268    1.313128
     10          1           0        1.036395   -0.797019    1.434258
     11          1           0        1.550134    0.805329   -1.161078
     12          1           0        1.588803   -0.970187   -1.038702
     13          1           0        2.794584    0.000759   -0.176372
 ---------------------------------------------------------------------
 Rotational constants (GHZ):           6.8997466           3.9990872           3.3331602
 Leave Link  202 at Tue Oct 21 19:53:07 2025, MaxMem=  4294967296 cpu:               0.1 elap:               0.0
 (Enter /lrz/sys/applications/gaussian/g16.C.01/x86_64_legacy/exe/l301.exe)
 Standard basis: def2SVP (5D, 7F)
 Ernie: Thresh=  0.10000D-02 Tol=  0.10000D-05 Strict=F.
 There are   115 symmetry adapted cartesian basis functions of A   symmetry.
 There are   110 symmetry adapted basis functions of A   symmetry.
   110 basis functions,   181 primitive gaussians,   115 cartesian basis functions
    21 alpha electrons       21 beta electrons
       nuclear repulsion energy       197.0601320899 Hartrees.
 IExCor= 4639 DFT=T Ex+Corr=wB97XD ExCW=0 ScaHFX=  1.000000
 ScaDFX=  1.000000  1.000000  1.000000  1.000000 ScalE2=  1.000000  1.000000
 IRadAn=      5 IRanWt=     -1 IRanGd=            0 ICorTp=0 IEmpDi=121
 HFx  wShort=  0.000000 wLong=  0.200000 cFull=  0.222036 cShort=  0.000000 cLong=  0.777964
 DFx  wShort=  0.000000 wLong=  0.200000 cFull=  0.000000 cShort=  0.000000 cLong=  1.000000
 NAtoms=   13 NActive=   13 NUniq=   13 SFac= 1.00D+00 NAtFMM=   60 NAOKFM=F Big=F
 Integral buffers will be    131072 words long.
 Raffenetti 2 integral format.
 Two-electron integral symmetry is turned on.
 R6Disp:  Grimme-D2 Dispersion energy=       -0.0059445162 Hartrees.
 Nuclear repulsion after empirical dispersion term =      197.0541875737 Hartrees.
 ------------------------------------------------------------------------------
 Polarizable Continuum Model (PCM)
 =================================
 Model                : PCM.
 Atomic radii         : SMD-Coulomb.
 Polarization charges : Total charges.
 Charge compensation  : None.
 Solution method      : On-the-fly selection.
 Cavity type          : VdW (van der Waals Surface) (Alpha=1.000).
 Cavity algorithm     : GePol (No added spheres)
                        Default sphere list used, NSphG=   13.
                        Lebedev-Laikov grids with approx.  5.0 points / Ang**2.
                        Smoothing algorithm: York/Karplus (Gamma=1.0000).
                        Polarization charges: spherical gaussians, with
                                              point-specific exponents (IZeta= 3).
                        Self-potential: point-specific (ISelfS= 7).
                        Self-field    : sphere-specific E.n sum rule (ISelfD= 2).
 1st derivatives      : Analytical E(r).r(x)/FMM algorithm (CHGder, D1EAlg=3).
                        Cavity 1st derivative terms included.
 Solvent              : Water, Eps=  78.355300 Eps(inf)=   1.777849
 ------------------------------------------------------------------------------
 Spheres list:
 ISph  on   Nord     Re0    Alpha      Xe            Ye            Ze
    1   O      1    1.5200  1.000     -1.040532      1.077896     -0.420168
    2   C      2    1.8500  1.000     -0.662920      0.012285      0.426572
    3   O      3    1.5200  1.000     -1.070431     -1.174894     -0.192628
    4   C      4    1.8500  1.000      0.828335      0.038106      0.745267
    5   C      5    1.8500  1.000      1.735881     -0.034373     -0.473785
    6   H      6    1.2000  1.000     -0.729881      1.901683     -0.023098
    7   H      7    1.2000  1.000     -1.235844      0.057153      1.370272
    8   H      8    1.2000  1.000     -0.556034     -1.280108     -1.004365
    9   H      9    1.2000  1.000      1.031766      0.962268      1.313128
   10   H     10    1.2000  1.000      1.036395     -0.797019      1.434258
   11   H     11    1.2000  1.000      1.550134      0.805329     -1.161078
   12   H     12    1.2000  1.000      1.588803     -0.970187     -1.038702
   13   H     13    1.2000  1.000      2.794584      0.000759     -0.176372
 ------------------------------------------------------------------------------
 GePol: Number of generator spheres                  =      13
 GePol: Total number of spheres                      =      13
 GePol: Number of exposed spheres                    =      13 (100.00%)
 GePol: Number of points                             =     915
 GePol: Average weight of points                     =       0.12
 GePol: Minimum weight of points                     =   0.76D-09
 GePol: Maximum weight of points                     =    0.21991
 GePol: Number of points with low weight             =      57
 GePol: Fraction of low-weight points (<1% of avg)   =       6.23%
 GePol: Cavity surface area                          =    109.453 Ang**2
 GePol: Cavity volume                                =     82.095 Ang**3
 ------------------------------------------------------------------------------
 Atomic radii for non-electrostatic terms: SMD-CDS.
 ------------------------------------------------------------------------------
 PCM non-electrostatic energy =         0.0044882857 Hartrees.
 Nuclear repulsion after PCM non-electrostatic terms =      197.0586758594 Hartrees.
 Leave Link  301 at Tue Oct 21 19:53:07 2025, MaxMem=  4294967296 cpu:               0.5 elap:               0.1
 (Enter /lrz/sys/applications/gaussian/g16.C.01/x86_64_legacy/exe/l302.exe)
 NPDir=0 NMtPBC=     1 NCelOv=     1 NCel=       1 NClECP=     1 NCelD=      1
         NCelK=      1 NCelE2=     1 NClLst=     1 CellRange=     0.0.
 One-electron integrals computed using PRISM.
 One-electron integral symmetry used in STVInt
   1 Symmetry operations used in ECPInt.
 ECPInt:  NShTT=    1485 NPrTT=    5139 LenC2=    1483 LenP2D=    4461.
 LDataN:  DoStor=T MaxTD1= 4 Len=   56
 NBasis=   110 RedAO= T EigKep=  2.39D-03  NBF=   110
 NBsUse=   110 1.00D-06 EigRej= -1.00D+00 NBFU=   110
 Precomputing XC quadrature grid using
 IXCGrd= 4 IRadAn=           5 IRanWt=          -1 IRanGd=           0 AccXCQ= 0.00D+00.
 Generated NRdTot=       0 NPtTot=           0 NUsed=           0 NTot=          32
 NSgBfM=   115   115   115   115   115 MxSgAt=    13 MxSgA2=    13.
 Leave Link  302 at Tue Oct 21 19:53:07 2025, MaxMem=  4294967296 cpu:               1.2 elap:               0.2
 (Enter /lrz/sys/applications/gaussian/g16.C.01/x86_64_legacy/exe/l303.exe)
 DipDrv:  MaxL=1.
 Leave Link  303 at Tue Oct 21 19:53:07 2025, MaxMem=  4294967296 cpu:               0.3 elap:               0.1
 (Enter /lrz/sys/applications/gaussian/g16.C.01/x86_64_legacy/exe/l401.exe)
 Initial guess from the checkpoint file:  "g16_C3-w_9.chk"
 B after Tr=    -0.000000    0.000000    0.000000
         Rot=    0.999991    0.003522    0.000144   -0.002421 Ang=   0.49 deg.
 Guess basis will be translated and rotated to current coordinates.
 JPrj=2 DoOrth=T DoCkMO=T.
 Generating alternative initial guess.
 ExpMin= 1.22D-01 ExpMax= 2.27D+03 ExpMxC= 3.41D+02 IAcc=3 IRadAn=         5 AccDes= 0.00D+00
 Harris functional with IExCor= 4639 and IRadAn=       5 diagonalized for initial guess.
 HarFok:  IExCor= 4639 AccDes= 0.00D+00 IRadAn=         5 IDoV= 1 UseB2=F ITyADJ=14
 ICtDFT=  3500011 ScaDFX=  1.000000  1.000000  1.000000  1.000000
 FoFCou: FMM=F IPFlag=           0 FMFlag=      100000 FMFlg1=           0
         NFxFlg=           0 DoJE=T BraDBF=F KetDBF=T FulRan=T
         wScrn=  0.000000 ICntrl=       500 IOpCl=  0 I1Cent=   200000004 NGrid=           0
         NMat0=    1 NMatS0=      1 NMatT0=    0 NMatD0=    1 NMtDS0=    0 NMtDT0=    0
 Petite list used in FoFCou.
 Harris En= -258.102886903320    
 Leave Link  401 at Tue Oct 21 19:53:08 2025, MaxMem=  4294967296 cpu:               5.6 elap:               0.7
 (Enter /lrz/sys/applications/gaussian/g16.C.01/x86_64_legacy/exe/l502.exe)
 Integral symmetry usage will be decided dynamically.
 Closed shell SCF:
 Using DIIS extrapolation, IDIIS=  1040.
 NGot=  4294967296 LenX=  4294938204 LenY=  4294924538
 Requested convergence on RMS density matrix=1.00D-08 within 128 cycles.
 Requested convergence on MAX density matrix=1.00D-06.
 Requested convergence on             energy=1.00D-06.
 No special actions if energy rises.
 Fock matrices will be formed incrementally for  20 cycles.

 Cycle   1  Pass 1  IDiag  1:
 FoFJK:  IHMeth= 1 ICntrl=       0 DoSepK=T KAlg= 0 I1Cent=           0 FoldK=F
 IRaf=         1 NMat=       1 IRICut=       1 DoRegI=T DoRafI=F ISym2E= 0 IDoP0=0 IntGTp=1.
 FoFCou: FMM=F IPFlag=           0 FMFlag=      100000 FMFlg1=           0
         NFxFlg=           0 DoJE=T BraDBF=F KetDBF=F FulRan=T
         wScrn=  0.000000 ICntrl=       500 IOpCl=  0 I1Cent=           0 NGrid=           0
         NMat0=    1 NMatS0=      1 NMatT0=    0 NMatD0=    1 NMtDS0=    0 NMtDT0=    0
 Symmetry not used in FoFCou.
 Inv3:  Mode=1 IEnd=     2511675.
 Iteration    1 A*A^-1 deviation from unit magnitude is 4.77D-15 for     62.
 Iteration    1 A*A^-1 deviation from orthogonality  is 2.43D-15 for    743     92.
 Iteration    1 A^-1*A deviation from unit magnitude is 4.77D-15 for     62.
 Iteration    1 A^-1*A deviation from orthogonality  is 3.21D-15 for    767    743.
 E= -269.313899522018    
 DIIS: error= 8.84D-04 at cycle   1 NSaved=   1.
 NSaved= 1 IEnMin= 1 EnMin= -269.313899522018     IErMin= 1 ErrMin= 8.84D-04
 ErrMax= 8.84D-04  0.00D+00 EMaxC= 1.00D-01 BMatC= 1.56D-04 BMatP= 1.56D-04
 IDIUse=3 WtCom= 9.91D-01 WtEn= 8.84D-03
 Coeff-Com:  0.100D+01
 Coeff-En:   0.100D+01
 Coeff:      0.100D+01
 Gap=     0.740 Goal=   None    Shift=    0.000
 RMSDP=1.85D-04 MaxDP=4.51D-03              OVMax= 3.72D-03

 Cycle   2  Pass 1  IDiag  1:
 RMSU=  1.85D-04    CP:  1.00D+00
 E= -269.314103754564     Delta-E=       -0.000204232546 Rises=F Damp=F
 DIIS: error= 1.32D-04 at cycle   2 NSaved=   2.
 NSaved= 2 IEnMin= 2 EnMin= -269.314103754564     IErMin= 2 ErrMin= 1.32D-04
 ErrMax= 1.32D-04  0.00D+00 EMaxC= 1.00D-01 BMatC= 4.93D-06 BMatP= 1.56D-04
 IDIUse=3 WtCom= 9.99D-01 WtEn= 1.32D-03
 Coeff-Com: -0.158D+00 0.116D+01
 Coeff-En:   0.000D+00 0.100D+01
 Coeff:     -0.158D+00 0.116D+01
 Gap=     0.493 Goal=   None    Shift=    0.000
 RMSDP=4.30D-05 MaxDP=9.21D-04 DE=-2.04D-04 OVMax= 1.27D-03

 Cycle   3  Pass 1  IDiag  1:
 RMSU=  2.04D-05    CP:  1.00D+00  1.20D+00
 E= -269.314113420368     Delta-E=       -0.000009665804 Rises=F Damp=F
 DIIS: error= 4.47D-05 at cycle   3 NSaved=   3.
 NSaved= 3 IEnMin= 3 EnMin= -269.314113420368     IErMin= 3 ErrMin= 4.47D-05
 ErrMax= 4.47D-05  0.00D+00 EMaxC= 1.00D-01 BMatC= 4.08D-07 BMatP= 4.93D-06
 IDIUse=1 WtCom= 1.00D+00 WtEn= 0.00D+00
 Coeff-Com: -0.385D-01 0.218D+00 0.821D+00
 Coeff:     -0.385D-01 0.218D+00 0.821D+00
 Gap=     0.493 Goal=   None    Shift=    0.000
 RMSDP=8.52D-06 MaxDP=1.55D-04 DE=-9.67D-06 OVMax= 2.28D-04

 Cycle   4  Pass 1  IDiag  1:
 RMSU=  7.53D-06    CP:  1.00D+00  1.22D+00  1.09D+00
 E= -269.314113824374     Delta-E=       -0.000000404006 Rises=F Damp=F
 DIIS: error= 2.88D-05 at cycle   4 NSaved=   4.
 NSaved= 4 IEnMin= 4 EnMin= -269.314113824374     IErMin= 4 ErrMin= 2.88D-05
 ErrMax= 2.88D-05  0.00D+00 EMaxC= 1.00D-01 BMatC= 1.54D-07 BMatP= 4.08D-07
 IDIUse=1 WtCom= 1.00D+00 WtEn= 0.00D+00
 Coeff-Com:  0.957D-02-0.977D-01 0.363D+00 0.725D+00
 Coeff:      0.957D-02-0.977D-01 0.363D+00 0.725D+00
 Gap=     0.493 Goal=   None    Shift=    0.000
 RMSDP=4.25D-06 MaxDP=8.37D-05 DE=-4.04D-07 OVMax= 1.28D-04

 Cycle   5  Pass 1  IDiag  1:
 RMSU=  2.09D-06    CP:  1.00D+00  1.23D+00  1.25D+00  8.95D-01
 E= -269.314113973679     Delta-E=       -0.000000149305 Rises=F Damp=F
 DIIS: error= 3.97D-06 at cycle   5 NSaved=   5.
 NSaved= 5 IEnMin= 5 EnMin= -269.314113973679     IErMin= 5 ErrMin= 3.97D-06
 ErrMax= 3.97D-06  0.00D+00 EMaxC= 1.00D-01 BMatC= 5.06D-09 BMatP= 1.54D-07
 IDIUse=1 WtCom= 1.00D+00 WtEn= 0.00D+00
 Coeff-Com:  0.497D-02-0.422D-01 0.399D-01 0.181D+00 0.816D+00
 Coeff:      0.497D-02-0.422D-01 0.399D-01 0.181D+00 0.816D+00
 Gap=     0.493 Goal=   None    Shift=    0.000
 RMSDP=1.28D-06 MaxDP=2.47D-05 DE=-1.49D-07 OVMax= 3.87D-05

 Cycle   6  Pass 1  IDiag  1:
 RMSU=  7.18D-07    CP:  1.00D+00  1.24D+00  1.29D+00  9.71D-01  1.15D+00
 E= -269.314113981283     Delta-E=       -0.000000007605 Rises=F Damp=F
 DIIS: error= 1.85D-06 at cycle   6 NSaved=   6.
 NSaved= 6 IEnMin= 6 EnMin= -269.314113981283     IErMin= 6 ErrMin= 1.85D-06
 ErrMax= 1.85D-06  0.00D+00 EMaxC= 1.00D-01 BMatC= 6.03D-10 BMatP= 5.06D-09
 IDIUse=1 WtCom= 1.00D+00 WtEn= 0.00D+00
 Coeff-Com:  0.438D-03-0.167D-02-0.302D-01-0.317D-01 0.218D+00 0.845D+00
 Coeff:      0.438D-03-0.167D-02-0.302D-01-0.317D-01 0.218D+00 0.845D+00
 Gap=     0.493 Goal=   None    Shift=    0.000
 RMSDP=5.10D-07 MaxDP=1.13D-05 DE=-7.60D-09 OVMax= 1.69D-05

 Cycle   7  Pass 1  IDiag  1:
 RMSU=  1.90D-07    CP:  1.00D+00  1.24D+00  1.30D+00  1.00D+00  1.30D+00
                    CP:  1.01D+00
 E= -269.314113982367     Delta-E=       -0.000000001083 Rises=F Damp=F
 DIIS: error= 4.02D-07 at cycle   7 NSaved=   7.
 NSaved= 7 IEnMin= 7 EnMin= -269.314113982367     IErMin= 7 ErrMin= 4.02D-07
 ErrMax= 4.02D-07  0.00D+00 EMaxC= 1.00D-01 BMatC= 3.07D-11 BMatP= 6.03D-10
 IDIUse=1 WtCom= 1.00D+00 WtEn= 0.00D+00
 Coeff-Com: -0.383D-03 0.380D-02-0.550D-02-0.192D-01-0.639D-01 0.946D-01
 Coeff-Com:  0.991D+00
 Coeff:     -0.383D-03 0.380D-02-0.550D-02-0.192D-01-0.639D-01 0.946D-01
 Coeff:      0.991D+00
 Gap=     0.493 Goal=   None    Shift=    0.000
 RMSDP=1.60D-07 MaxDP=3.81D-06 DE=-1.08D-09 OVMax= 5.81D-06

 Cycle   8  Pass 1  IDiag  1:
 RMSU=  4.80D-08    CP:  1.00D+00  1.24D+00  1.30D+00  1.01D+00  1.35D+00
                    CP:  1.13D+00  1.22D+00
 E= -269.314113982442     Delta-E=       -0.000000000075 Rises=F Damp=F
 DIIS: error= 9.94D-08 at cycle   8 NSaved=   8.
 NSaved= 8 IEnMin= 8 EnMin= -269.314113982442     IErMin= 8 ErrMin= 9.94D-08
 ErrMax= 9.94D-08  0.00D+00 EMaxC= 1.00D-01 BMatC= 2.39D-12 BMatP= 3.07D-11
 IDIUse=1 WtCom= 1.00D+00 WtEn= 0.00D+00
 Coeff-Com: -0.102D-03 0.929D-03-0.192D-03-0.344D-02-0.241D-01-0.569D-02
 Coeff-Com:  0.248D+00 0.785D+00
 Coeff:     -0.102D-03 0.929D-03-0.192D-03-0.344D-02-0.241D-01-0.569D-02
 Coeff:      0.248D+00 0.785D+00
 Gap=     0.493 Goal=   None    Shift=    0.000
 RMSDP=2.68D-08 MaxDP=4.64D-07 DE=-7.49D-11 OVMax= 8.95D-07

 Cycle   9  Pass 1  IDiag  1:
 RMSU=  1.47D-08    CP:  1.00D+00  1.24D+00  1.30D+00  1.01D+00  1.35D+00
                    CP:  1.15D+00  1.30D+00  1.10D+00
 E= -269.314113982448     Delta-E=       -0.000000000007 Rises=F Damp=F
 DIIS: error= 4.14D-08 at cycle   9 NSaved=   9.
 NSaved= 9 IEnMin= 9 EnMin= -269.314113982448     IErMin= 9 ErrMin= 4.14D-08
 ErrMax= 4.14D-08  0.00D+00 EMaxC= 1.00D-01 BMatC= 5.86D-13 BMatP= 2.39D-12
 IDIUse=1 WtCom= 1.00D+00 WtEn= 0.00D+00
 Coeff-Com:  0.317D-04-0.358D-03 0.104D-02 0.233D-02 0.139D-02-0.221D-01
 Coeff-Com: -0.832D-01 0.326D+00 0.774D+00
 Coeff:      0.317D-04-0.358D-03 0.104D-02 0.233D-02 0.139D-02-0.221D-01
 Coeff:     -0.832D-01 0.326D+00 0.774D+00
 Gap=     0.493 Goal=   None    Shift=    0.000
 RMSDP=1.31D-08 MaxDP=2.14D-07 DE=-6.59D-12 OVMax= 4.72D-07

 Cycle  10  Pass 1  IDiag  1:
 RMSU=  3.58D-09    CP:  1.00D+00  1.24D+00  1.30D+00  1.01D+00  1.36D+00
                    CP:  1.15D+00  1.33D+00  1.27D+00  9.13D-01
 E= -269.314113982444     Delta-E=        0.000000000004 Rises=F Damp=F
 DIIS: error= 6.55D-09 at cycle  10 NSaved=  10.
 NSaved=10 IEnMin= 9 EnMin= -269.314113982448     IErMin=10 ErrMin= 6.55D-09
 ErrMax= 6.55D-09  0.00D+00 EMaxC= 1.00D-01 BMatC= 9.62D-15 BMatP= 5.86D-13
 IDIUse=1 WtCom= 1.00D+00 WtEn= 0.00D+00
 Coeff-Com:  0.760D-05-0.770D-04 0.140D-03 0.396D-03 0.921D-03-0.205D-02
 Coeff-Com: -0.174D-01-0.567D-03 0.817D-01 0.937D+00
 Coeff:      0.760D-05-0.770D-04 0.140D-03 0.396D-03 0.921D-03-0.205D-02
 Coeff:     -0.174D-01-0.567D-03 0.817D-01 0.937D+00
 Gap=     0.493 Goal=   None    Shift=    0.000
 RMSDP=2.76D-09 MaxDP=3.44D-08 DE= 3.75D-12 OVMax= 9.10D-08

 Error on total polarization charges =  0.03197
 SCF Done:  E(RwB97XD) =  -269.314113982     A.U. after   10 cycles
            NFock= 10  Conv=0.28D-08     -V/T= 2.0096
 KE= 2.667479772354D+02 PE=-1.023994919421D+03 EE= 2.908741523439D+02
 SMD-CDS (non-electrostatic) energy       (kcal/mol) =       2.82
 (included in total energy above)
 Leave Link  502 at Tue Oct 21 19:53:22 2025, MaxMem=  4294967296 cpu:             113.9 elap:              14.3
 (Enter /lrz/sys/applications/gaussian/g16.C.01/x86_64_legacy/exe/l701.exe)
 ... and contract with generalized density number  0.
 Compute integral first derivatives.
 R6Disp: Adding Grimme-D2 dispersion energy 1st derivatives to the gradient.
   1 Symmetry operations used in ECPInt.
 ECPInt:  NShTT=    1485 NPrTT=    5139 LenC2=    1483 LenP2D=    4461.
 LDataN:  DoStor=T MaxTD1= 5 Len=  102
 D1PCM: PCM CHGder 1st derivatives, ID1Alg=3 FixD1E=F DoIter=F DoCFld=F I1PDM=0.
 GePol: Maximum number of non-zero 1st derivatives   =     250
 Leave Link  701 at Tue Oct 21 19:53:23 2025, MaxMem=  4294967296 cpu:               4.1 elap:               0.5
 (Enter /lrz/sys/applications/gaussian/g16.C.01/x86_64_legacy/exe/l702.exe)
 L702 exits ... SP integral derivatives will be done elsewhere.
 Leave Link  702 at Tue Oct 21 19:53:23 2025, MaxMem=  4294967296 cpu:               0.2 elap:               0.0
 (Enter /lrz/sys/applications/gaussian/g16.C.01/x86_64_legacy/exe/l703.exe)
 Integral derivatives from FoFJK, PRISM(SPDF).
 Compute integral first derivatives, UseDBF=F ICtDFT=           0.
 Calling FoFJK, ICntrl=      2127 FMM=F ISym2X=0 I1Cent= 0 IOpClX= 0 NMat=1 NMatS=1 NMatT=0.
 FoFJK:  IHMeth= 1 ICntrl=    2127 DoSepK=T KAlg= 0 I1Cent=           0 FoldK=F
 IRaf=         1 NMat=       1 IRICut=       1 DoRegI=T DoRafI=F ISym2E= 0 IDoP0=0 IntGTp=1.
 FoFCou: FMM=F IPFlag=           0 FMFlag=      100000 FMFlg1=         800
         NFxFlg=           0 DoJE=F BraDBF=F KetDBF=F FulRan=T
         wScrn=  0.000000 ICntrl=      2527 IOpCl=  0 I1Cent=           0 NGrid=           0
         NMat0=    1 NMatS0=      1 NMatT0=    0 NMatD0=    1 NMtDS0=    0 NMtDT0=    0
 Symmetry not used in FoFCou.
 Leave Link  703 at Tue Oct 21 19:53:25 2025, MaxMem=  4294967296 cpu:              17.0 elap:               2.1
 (Enter /lrz/sys/applications/gaussian/g16.C.01/x86_64_legacy/exe/l716.exe)
 Dipole        = 1.08763380D+00 6.30138249D-01 3.81427757D-01
 ***** Axes restored to original set *****
 -------------------------------------------------------------------
 Center     Atomic                   Forces (Hartrees/Bohr)
 Number     Number              X              Y              Z
 -------------------------------------------------------------------
      1        8           0.000008077    0.000302466   -0.000760883
      2        6          -0.001441198    0.000248952    0.000720203
      3        8           0.000559122   -0.000680171   -0.000130748
      4        6           0.000838376    0.000375607   -0.002115040
      5        6           0.000616389   -0.000346612    0.001681249
      6        1           0.000190839    0.000137773    0.000416994
      7        1           0.000079263   -0.000181219   -0.000032088
      8        1           0.000014113    0.000183516    0.000074962
      9        1          -0.000111104    0.000113614    0.000524802
     10        1          -0.000216910   -0.000371147    0.000581073
     11        1          -0.000225609    0.000416372   -0.000324265
     12        1           0.000155095   -0.000077402   -0.000542722
     13        1          -0.000466454   -0.000121747   -0.000093537
 -------------------------------------------------------------------
 Cartesian Forces:  Max     0.002115040 RMS     0.000615854
 Leave Link  716 at Tue Oct 21 19:53:25 2025, MaxMem=  4294967296 cpu:               0.2 elap:               0.0
 (Enter /lrz/sys/applications/gaussian/g16.C.01/x86_64_legacy/exe/l103.exe)

 GradGradGradGradGradGradGradGradGradGradGradGradGradGradGradGradGradGrad
 Berny optimization.
 Using GEDIIS/GDIIS optimizer.
 FormGI is forming the generalized inverse of G from B-inverse, IUseBI=4.
 Internal  Forces:  Max     0.000629772 RMS     0.000275938
 Search for a local minimum.
 Step number   5 out of a maximum of   66
 All quantities printed in internal units (Hartrees-Bohrs-Radians)
 RMS Force = .27594D-03 SwitMx=.10000D-02 MixMth= 2
 Mixed Optimization -- En-DIIS/RFO-DIIS
 Swapping is turned off.
 Update second derivatives using D2CorX and points    2    3    4    5
 DE= -6.56D-05 DEPred=-3.94D-05 R= 1.67D+00
 TightC=F SS=  1.41D+00  RLast= 8.17D-02 DXNew= 1.2905D+00 2.4515D-01
 Trust test= 1.67D+00 RLast= 8.17D-02 DXMaxT set to 7.67D-01
 ITU=  1  1  1  1  0
     Eigenvalues ---    0.00239   0.00351   0.00411   0.01663   0.03347
     Eigenvalues ---    0.04535   0.05448   0.05496   0.05558   0.06550
     Eigenvalues ---    0.08653   0.10054   0.12491   0.15503   0.15983
     Eigenvalues ---    0.16003   0.16398   0.17623   0.19599   0.20742
     Eigenvalues ---    0.21444   0.29031   0.30177   0.33532   0.34573
     Eigenvalues ---    0.34778   0.35041   0.35102   0.37166   0.45392
     Eigenvalues ---    0.50892   0.54707   0.54853
 En-DIIS/RFO-DIIS/Sim-DIIS IScMMF=       -3 using points:     5    4    3    2
 RFO step:  Lambda=-9.54029694D-05.
 NNeg= 0 NGDIIS= 4 SimSw=  2.50D-01 Rises=F DC= -6.56D-05 SmlDif=  1.00D-05
 NRisDI= 0 DoIntr=F SqrtH=F CThrHd= 10.0 CDAdj=  3.0
 RMS Error=  0.1890916078D-01 NUsed= 4 OKEnD=T EnDIS=F
 InvSVX:  RCond= 3.63D-05 Info=           0 Equed=N FErr=  3.78D-13 BErr=  2.53D-17
 DidBck=F Rises=F RFO-DIIS coefs:    2.81724   -1.92816    0.20421   -0.09328
 Iteration  1 RMS(Cart)=  0.01879076 RMS(Int)=  0.00041268
 Iteration  2 RMS(Cart)=  0.00039224 RMS(Int)=  0.00000495
 Iteration  3 RMS(Cart)=  0.00000016 RMS(Int)=  0.00000495
 ITry= 1 IFail=0 DXMaxC= 7.98D-02 DCOld= 1.00D+10 DXMaxT= 7.67D-01 DXLimC= 3.00D+00 Rises=F
 Variable       Old X    -DE/DX   Delta X   Delta X   Delta X     New X
                                 (Linear)    (Quad)   (Total)
    R1        2.66919  -0.00052   0.00298  -0.00340  -0.00042   2.66877
    R2        1.82512  -0.00026  -0.00109   0.00024  -0.00085   1.82428
    R3        2.64485  -0.00059  -0.00513   0.00160  -0.00353   2.64132
    R4        2.88211   0.00061   0.00679  -0.00406   0.00273   2.88484
    R5        2.08798  -0.00004  -0.00086   0.00054  -0.00032   2.08766
    R6        1.82688   0.00006  -0.00032   0.00022  -0.00010   1.82678
    R7        2.87523   0.00063   0.00389  -0.00122   0.00267   2.87790
    R8        2.08549  -0.00049  -0.00354   0.00112  -0.00242   2.08307
    R9        2.08336  -0.00055  -0.00289   0.00037  -0.00252   2.08084
   R10        2.08039  -0.00051  -0.00373   0.00131  -0.00242   2.07797
   R11        2.08429  -0.00050  -0.00287   0.00079  -0.00207   2.08221
   R12        2.07916  -0.00045  -0.00357   0.00140  -0.00217   2.07699
    A1        1.88708   0.00013   0.00662  -0.00478   0.00184   1.88892
    A2        1.87221   0.00011   0.00132  -0.00103   0.00028   1.87250
    A3        1.95400  -0.00032   0.00123  -0.00481  -0.00358   1.95042
    A4        1.92064   0.00001   0.00050  -0.00072  -0.00023   1.92041
    A5        1.97306  -0.00001   0.00016  -0.00004   0.00011   1.97317
    A6        1.83520   0.00018  -0.00235   0.00550   0.00314   1.83835
    A7        1.90482   0.00006  -0.00102   0.00168   0.00066   1.90547
    A8        1.88480   0.00026  -0.00015   0.00158   0.00143   1.88623
    A9        1.99873  -0.00056  -0.00405  -0.00133  -0.00540   1.99333
   A10        1.87752   0.00018  -0.00115   0.00149   0.00033   1.87785
   A11        1.87790   0.00014   0.00302  -0.00180   0.00120   1.87910
   A12        1.92006   0.00010  -0.00059   0.00035  -0.00025   1.91981
   A13        1.93058   0.00008  -0.00156   0.00049  -0.00108   1.92950
   A14        1.85249   0.00010   0.00514   0.00096   0.00610   1.85859
   A15        1.94252  -0.00027   0.00059  -0.00190  -0.00131   1.94121
   A16        1.95115  -0.00016   0.00072  -0.00122  -0.00050   1.95065
   A17        1.93463  -0.00019  -0.00492   0.00162  -0.00331   1.93132
   A18        1.88063   0.00027   0.00267   0.00067   0.00334   1.88397
   A19        1.88258   0.00025   0.00324  -0.00035   0.00288   1.88546
   A20        1.86906   0.00014  -0.00208   0.00129  -0.00080   1.86826
    D1       -3.09819   0.00038   0.04745   0.01292   0.06036  -3.03782
    D2       -0.92408   0.00024   0.04937   0.00899   0.05836  -0.86572
    D3        1.19750   0.00010   0.04926   0.00737   0.05663   1.25412
    D4        1.15037  -0.00008   0.04846  -0.00467   0.04379   1.19416
    D5       -1.01214   0.00025   0.04584   0.00222   0.04806  -0.96407
    D6       -3.08850   0.00008   0.04849  -0.00330   0.04519  -3.04330
    D7       -1.02218  -0.00005  -0.01953   0.01150  -0.00804  -1.03021
    D8        1.11787  -0.00016  -0.02386   0.01217  -0.01170   1.10617
    D9        3.10712   0.00012  -0.01702   0.01313  -0.00389   3.10323
   D10        1.09474  -0.00015  -0.01678   0.00654  -0.01024   1.08450
   D11       -3.04840  -0.00026  -0.02112   0.00721  -0.01390  -3.06230
   D12       -1.05915   0.00002  -0.01427   0.00818  -0.00609  -1.06524
   D13        3.13035   0.00010  -0.02027   0.01444  -0.00583   3.12452
   D14       -1.01278  -0.00000  -0.02460   0.01510  -0.00950  -1.02228
   D15        0.97646   0.00027  -0.01775   0.01607  -0.00168   0.97478
   D16        1.03433  -0.00003  -0.01387  -0.00866  -0.02253   1.01180
   D17       -1.06969  -0.00009  -0.01818  -0.00736  -0.02554  -1.09523
   D18        3.12960  -0.00003  -0.01270  -0.00928  -0.02198   3.10761
   D19       -1.08251   0.00005  -0.00906  -0.00993  -0.01899  -1.10150
   D20        3.09666  -0.00001  -0.01337  -0.00863  -0.02200   3.07466
   D21        1.01276   0.00005  -0.00789  -0.01055  -0.01844   0.99432
   D22       -3.12351  -0.00018  -0.01407  -0.01161  -0.02567   3.13400
   D23        1.05566  -0.00024  -0.01837  -0.01032  -0.02868   1.02697
   D24       -1.02825  -0.00018  -0.01289  -0.01223  -0.02512  -1.05337
         Item               Value     Threshold  Converged?
 Maximum Force            0.000630     0.000450     NO 
 RMS     Force            0.000276     0.000300     YES
 Maximum Displacement     0.079754     0.001800     NO 
 RMS     Displacement     0.018667     0.001200     NO 
 Predicted change in Energy=-4.860557D-05
 Lowest energy point so far.  Saving SCF results.
 GradGradGradGradGradGradGradGradGradGradGradGradGradGradGradGradGradGrad

 Leave Link  103 at Tue Oct 21 19:53:25 2025, MaxMem=  4294967296 cpu:               0.2 elap:               0.0
 (Enter /lrz/sys/applications/gaussian/g16.C.01/x86_64_legacy/exe/l202.exe)
                          Input orientation:                          
 ---------------------------------------------------------------------
 Center     Atomic      Atomic             Coordinates (Angstroms)
 Number     Number       Type             X           Y           Z
 ---------------------------------------------------------------------
      1          8           0       -0.726799   -1.354069   -0.065148
      2          6           0       -0.602970   -0.006376   -0.468695
      3          8           0       -1.262727    0.774812    0.484250
      4          6           0        0.857299    0.394117   -0.662850
      5          6           0        1.719502    0.234517    0.582304
      6          1           0       -0.196943   -1.897736   -0.661479
      7          1           0       -1.152916    0.158053   -1.412608
      8          1           0       -0.759733    0.730612    1.308588
      9          1           0        1.264306   -0.218103   -1.484209
     10          1           0        0.873750    1.437881   -1.013246
     11          1           0        1.704780   -0.802975    0.946380
     12          1           0        1.378020    0.886812    1.402058
     13          1           0        2.763075    0.505251    0.368597
 ---------------------------------------------------------------------
                    Distance matrix (angstroms):
                    1          2          3          4          5
     1  O    0.000000
     2  C    1.412254   0.000000
     3  O    2.263005   1.397726   0.000000
     4  C    2.433675   1.526591   2.440345   0.000000
     5  C    2.987840   2.560567   3.032363   1.522917   0.000000
     6  H    0.965365   1.944033   3.096950   2.522701   3.125101
     7  H    2.069719   1.104740   1.997629   2.158432   3.498043
     8  H    2.496824   1.930404   0.966690   2.571885   2.630628
     9  H    2.696043   2.136075   3.353596   1.102315   2.163919
    10  H    3.354941   2.136145   2.691968   1.101131   2.170060
    11  H    2.690627   2.821829   3.392503   2.177356   1.099617
    12  H    3.406539   2.867372   2.797939   2.185805   1.101859
    13  H    3.977993   3.506149   4.036474   2.169842   1.099096
                    6          7          8          9         10
     6  H    0.000000
     7  H    2.388377   0.000000
     8  H    3.332582   2.808438   0.000000
     9  H    2.373457   2.447362   3.577221   0.000000
    10  H    3.520861   2.429985   2.925647   1.765396   0.000000
    11  H    2.720343   3.828163   2.925220   2.538475   3.090661
    12  H    3.806888   3.854747   2.145490   3.092620   2.528173
    13  H    3.949317   4.316043   3.653019   2.490470   2.519690
                   11         12         13
    11  H    0.000000
    12  H    1.780391   0.000000
    13  H    1.779122   1.769747   0.000000
 Stoichiometry    C3H8O2
 Framework group  C1[X(C3H8O2)]
 Deg. of freedom    33
 Full point group                 C1      NOp   1
 RotChk:  IX=0 Diff= 1.63D-02
 Largest Abelian subgroup         C1      NOp   1
 Largest concise Abelian subgroup C1      NOp   1
                         Standard orientation:                         
 ---------------------------------------------------------------------
 Center     Atomic      Atomic             Coordinates (Angstroms)
 Number     Number       Type             X           Y           Z
 ---------------------------------------------------------------------
      1          8           0       -1.041633    1.077081   -0.420938
      2          6           0       -0.665946    0.012119    0.427104
      3          8           0       -1.066780   -1.174337   -0.193615
      4          6           0        0.826092    0.044187    0.748467
      5          6           0        1.730190   -0.037072   -0.474349
      6          1           0       -0.688536    1.896147   -0.051635
      7          1           0       -1.241111    0.057615    1.369211
      8          1           0       -0.521189   -1.299636   -0.981726
      9          1           0        1.027164    0.974327    1.304800
     10          1           0        1.036686   -0.785801    1.440754
     11          1           0        1.523696    0.782938   -1.177272
     12          1           0        1.601336   -0.988362   -1.015217
     13          1           0        2.787245    0.025421   -0.179832
 ---------------------------------------------------------------------
 Rotational constants (GHZ):           6.8976421           4.0140824           3.3444305
 Leave Link  202 at Tue Oct 21 19:53:25 2025, MaxMem=  4294967296 cpu:               0.0 elap:               0.0
 (Enter /lrz/sys/applications/gaussian/g16.C.01/x86_64_legacy/exe/l301.exe)
 Standard basis: def2SVP (5D, 7F)
 Ernie: Thresh=  0.10000D-02 Tol=  0.10000D-05 Strict=F.
 There are   115 symmetry adapted cartesian basis functions of A   symmetry.
 There are   110 symmetry adapted basis functions of A   symmetry.
   110 basis functions,   181 primitive gaussians,   115 cartesian basis functions
    21 alpha electrons       21 beta electrons
       nuclear repulsion energy       197.2270577652 Hartrees.
 IExCor= 4639 DFT=T Ex+Corr=wB97XD ExCW=0 ScaHFX=  1.000000
 ScaDFX=  1.000000  1.000000  1.000000  1.000000 ScalE2=  1.000000  1.000000
 IRadAn=      5 IRanWt=     -1 IRanGd=            0 ICorTp=0 IEmpDi=121
 HFx  wShort=  0.000000 wLong=  0.200000 cFull=  0.222036 cShort=  0.000000 cLong=  0.777964
 DFx  wShort=  0.000000 wLong=  0.200000 cFull=  0.000000 cShort=  0.000000 cLong=  1.000000
 NAtoms=   13 NActive=   13 NUniq=   13 SFac= 1.00D+00 NAtFMM=   60 NAOKFM=F Big=F
 Integral buffers will be    131072 words long.
 Raffenetti 2 integral format.
 Two-electron integral symmetry is turned on.
 R6Disp:  Grimme-D2 Dispersion energy=       -0.0059631958 Hartrees.
 Nuclear repulsion after empirical dispersion term =      197.2210945694 Hartrees.
 ------------------------------------------------------------------------------
 Polarizable Continuum Model (PCM)
 =================================
 Model                : PCM.
 Atomic radii         : SMD-Coulomb.
 Polarization charges : Total charges.
 Charge compensation  : None.
 Solution method      : On-the-fly selection.
 Cavity type          : VdW (van der Waals Surface) (Alpha=1.000).
 Cavity algorithm     : GePol (No added spheres)
                        Default sphere list used, NSphG=   13.
                        Lebedev-Laikov grids with approx.  5.0 points / Ang**2.
                        Smoothing algorithm: York/Karplus (Gamma=1.0000).
                        Polarization charges: spherical gaussians, with
                                              point-specific exponents (IZeta= 3).
                        Self-potential: point-specific (ISelfS= 7).
                        Self-field    : sphere-specific E.n sum rule (ISelfD= 2).
 1st derivatives      : Analytical E(r).r(x)/FMM algorithm (CHGder, D1EAlg=3).
                        Cavity 1st derivative terms included.
 Solvent              : Water, Eps=  78.355300 Eps(inf)=   1.777849
 ------------------------------------------------------------------------------
 Spheres list:
 ISph  on   Nord     Re0    Alpha      Xe            Ye            Ze
    1   O      1    1.5200  1.000     -1.041633      1.077081     -0.420938
    2   C      2    1.8500  1.000     -0.665946      0.012119      0.427104
    3   O      3    1.5200  1.000     -1.066780     -1.174337     -0.193615
    4   C      4    1.8500  1.000      0.826092      0.044187      0.748467
    5   C      5    1.8500  1.000      1.730190     -0.037072     -0.474349
    6   H      6    1.2000  1.000     -0.688536      1.896147     -0.051635
    7   H      7    1.2000  1.000     -1.241111      0.057615      1.369211
    8   H      8    1.2000  1.000     -0.521189     -1.299636     -0.981726
    9   H      9    1.2000  1.000      1.027164      0.974327      1.304800
   10   H     10    1.2000  1.000      1.036686     -0.785801      1.440754
   11   H     11    1.2000  1.000      1.523696      0.782938     -1.177272
   12   H     12    1.2000  1.000      1.601336     -0.988362     -1.015217
   13   H     13    1.2000  1.000      2.787245      0.025421     -0.179832
 ------------------------------------------------------------------------------
 GePol: Number of generator spheres                  =      13
 GePol: Total number of spheres                      =      13
 GePol: Number of exposed spheres                    =      13 (100.00%)
 GePol: Number of points                             =     906
 GePol: Average weight of points                     =       0.12
 GePol: Minimum weight of points                     =   0.61D-08
 GePol: Maximum weight of points                     =    0.21991
 GePol: Number of points with low weight             =      48
 GePol: Fraction of low-weight points (<1% of avg)   =       5.30%
 GePol: Cavity surface area                          =    109.090 Ang**2
 GePol: Cavity volume                                =     81.954 Ang**3
 ------------------------------------------------------------------------------
 Atomic radii for non-electrostatic terms: SMD-CDS.
 ------------------------------------------------------------------------------
 PCM non-electrostatic energy =         0.0044837907 Hartrees.
 Nuclear repulsion after PCM non-electrostatic terms =      197.2255783601 Hartrees.
 Leave Link  301 at Tue Oct 21 19:53:25 2025, MaxMem=  4294967296 cpu:               0.5 elap:               0.1
 (Enter /lrz/sys/applications/gaussian/g16.C.01/x86_64_legacy/exe/l302.exe)
 NPDir=0 NMtPBC=     1 NCelOv=     1 NCel=       1 NClECP=     1 NCelD=      1
         NCelK=      1 NCelE2=     1 NClLst=     1 CellRange=     0.0.
 One-electron integrals computed using PRISM.
 One-electron integral symmetry used in STVInt
   1 Symmetry operations used in ECPInt.
 ECPInt:  NShTT=    1485 NPrTT=    5139 LenC2=    1483 LenP2D=    4465.
 LDataN:  DoStor=T MaxTD1= 4 Len=   56
 NBasis=   110 RedAO= T EigKep=  2.40D-03  NBF=   110
 NBsUse=   110 1.00D-06 EigRej= -1.00D+00 NBFU=   110
 Precomputing XC quadrature grid using
 IXCGrd= 4 IRadAn=           5 IRanWt=          -1 IRanGd=           0 AccXCQ= 0.00D+00.
 Generated NRdTot=       0 NPtTot=           0 NUsed=           0 NTot=          32
 NSgBfM=   115   115   115   115   115 MxSgAt=    13 MxSgA2=    13.
 Leave Link  302 at Tue Oct 21 19:53:25 2025, MaxMem=  4294967296 cpu:               1.2 elap:               0.2
 (Enter /lrz/sys/applications/gaussian/g16.C.01/x86_64_legacy/exe/l303.exe)
 DipDrv:  MaxL=1.
 Leave Link  303 at Tue Oct 21 19:53:25 2025, MaxMem=  4294967296 cpu:               0.2 elap:               0.0
 (Enter /lrz/sys/applications/gaussian/g16.C.01/x86_64_legacy/exe/l401.exe)
 Initial guess from the checkpoint file:  "g16_C3-w_9.chk"
 B after Tr=     0.000000   -0.000000   -0.000000
         Rot=    0.999996    0.002843    0.000435   -0.000544 Ang=   0.34 deg.
 Guess basis will be translated and rotated to current coordinates.
 JPrj=2 DoOrth=T DoCkMO=T.
 Generating alternative initial guess.
 ExpMin= 1.22D-01 ExpMax= 2.27D+03 ExpMxC= 3.41D+02 IAcc=3 IRadAn=         5 AccDes= 0.00D+00
 Harris functional with IExCor= 4639 and IRadAn=       5 diagonalized for initial guess.
 HarFok:  IExCor= 4639 AccDes= 0.00D+00 IRadAn=         5 IDoV= 1 UseB2=F ITyADJ=14
 ICtDFT=  3500011 ScaDFX=  1.000000  1.000000  1.000000  1.000000
 FoFCou: FMM=F IPFlag=           0 FMFlag=      100000 FMFlg1=           0
         NFxFlg=           0 DoJE=T BraDBF=F KetDBF=T FulRan=T
         wScrn=  0.000000 ICntrl=       500 IOpCl=  0 I1Cent=   200000004 NGrid=           0
         NMat0=    1 NMatS0=      1 NMatT0=    0 NMatD0=    1 NMtDS0=    0 NMtDT0=    0
 Petite list used in FoFCou.
 Harris En= -258.102273881684    
 Leave Link  401 at Tue Oct 21 19:53:26 2025, MaxMem=  4294967296 cpu:               5.5 elap:               0.7
 (Enter /lrz/sys/applications/gaussian/g16.C.01/x86_64_legacy/exe/l502.exe)
 Integral symmetry usage will be decided dynamically.
 Closed shell SCF:
 Using DIIS extrapolation, IDIIS=  1040.
 NGot=  4294967296 LenX=  4294938204 LenY=  4294924538
 Requested convergence on RMS density matrix=1.00D-08 within 128 cycles.
 Requested convergence on MAX density matrix=1.00D-06.
 Requested convergence on             energy=1.00D-06.
 No special actions if energy rises.
 Fock matrices will be formed incrementally for  20 cycles.

 Cycle   1  Pass 1  IDiag  1:
 FoFJK:  IHMeth= 1 ICntrl=       0 DoSepK=T KAlg= 0 I1Cent=           0 FoldK=F
 IRaf=         1 NMat=       1 IRICut=       1 DoRegI=T DoRafI=F ISym2E= 0 IDoP0=0 IntGTp=1.
 FoFCou: FMM=F IPFlag=           0 FMFlag=      100000 FMFlg1=           0
         NFxFlg=           0 DoJE=T BraDBF=F KetDBF=F FulRan=T
         wScrn=  0.000000 ICntrl=       500 IOpCl=  0 I1Cent=           0 NGrid=           0
         NMat0=    1 NMatS0=      1 NMatT0=    0 NMatD0=    1 NMtDS0=    0 NMtDT0=    0
 Symmetry not used in FoFCou.
 Inv3:  Mode=1 IEnd=     2462508.
 Iteration    1 A*A^-1 deviation from unit magnitude is 4.44D-15 for     82.
 Iteration    1 A*A^-1 deviation from orthogonality  is 2.76D-15 for    603     39.
 Iteration    1 A^-1*A deviation from unit magnitude is 4.44D-15 for    247.
 Iteration    1 A^-1*A deviation from orthogonality  is 4.00D-15 for    769    736.
 E= -269.313386669882    
 DIIS: error= 1.72D-03 at cycle   1 NSaved=   1.
 NSaved= 1 IEnMin= 1 EnMin= -269.313386669882     IErMin= 1 ErrMin= 1.72D-03
 ErrMax= 1.72D-03  0.00D+00 EMaxC= 1.00D-01 BMatC= 5.60D-04 BMatP= 5.60D-04
 IDIUse=3 WtCom= 9.83D-01 WtEn= 1.72D-02
 Coeff-Com:  0.100D+01
 Coeff-En:   0.100D+01
 Coeff:      0.100D+01
 Gap=     0.740 Goal=   None    Shift=    0.000
 GapD=    0.740 DampG=2.000 DampE=1.000 DampFc=2.0000 IDamp=-1.
 RMSDP=3.48D-04 MaxDP=1.02D-02              OVMax= 6.82D-03

 Cycle   2  Pass 1  IDiag  1:
 RMSU=  3.48D-04    CP:  1.00D+00
 E= -269.314125121636     Delta-E=       -0.000738451754 Rises=F Damp=F
 DIIS: error= 2.84D-04 at cycle   2 NSaved=   2.
 NSaved= 2 IEnMin= 2 EnMin= -269.314125121636     IErMin= 2 ErrMin= 2.84D-04
 ErrMax= 2.84D-04  0.00D+00 EMaxC= 1.00D-01 BMatC= 1.72D-05 BMatP= 5.60D-04
 IDIUse=3 WtCom= 9.97D-01 WtEn= 2.84D-03
 Coeff-Com: -0.161D+00 0.116D+01
 Coeff-En:   0.000D+00 0.100D+01
 Coeff:     -0.161D+00 0.116D+01
 Gap=     0.494 Goal=   None    Shift=    0.000
 RMSDP=8.23D-05 MaxDP=2.12D-03 DE=-7.38D-04 OVMax= 2.35D-03

 Cycle   3  Pass 1  IDiag  1:
 RMSU=  3.69D-05    CP:  1.00D+00  1.21D+00
 E= -269.314160795578     Delta-E=       -0.000035673942 Rises=F Damp=F
 DIIS: error= 4.59D-05 at cycle   3 NSaved=   3.
 NSaved= 3 IEnMin= 3 EnMin= -269.314160795578     IErMin= 3 ErrMin= 4.59D-05
 ErrMax= 4.59D-05  0.00D+00 EMaxC= 1.00D-01 BMatC= 5.48D-07 BMatP= 1.72D-05
 IDIUse=1 WtCom= 1.00D+00 WtEn= 0.00D+00
 Coeff-Com: -0.534D-02-0.162D-01 0.102D+01
 Coeff:     -0.534D-02-0.162D-01 0.102D+01
 Gap=     0.493 Goal=   None    Shift=    0.000
 RMSDP=1.63D-05 MaxDP=2.52D-04 DE=-3.57D-05 OVMax= 5.38D-04

 Cycle   4  Pass 1  IDiag  1:
 RMSU=  9.97D-06    CP:  1.00D+00  1.24D+00  1.26D+00
 E= -269.314161864814     Delta-E=       -0.000001069236 Rises=F Damp=F
 DIIS: error= 3.33D-05 at cycle   4 NSaved=   4.
 NSaved= 4 IEnMin= 4 EnMin= -269.314161864814     IErMin= 4 ErrMin= 3.33D-05
 ErrMax= 3.33D-05  0.00D+00 EMaxC= 1.00D-01 BMatC= 2.93D-07 BMatP= 5.48D-07
 IDIUse=1 WtCom= 1.00D+00 WtEn= 0.00D+00
 Coeff-Com:  0.110D-01-0.106D+00 0.446D+00 0.648D+00
 Coeff:      0.110D-01-0.106D+00 0.446D+00 0.648D+00
 Gap=     0.494 Goal=   None    Shift=    0.000
 RMSDP=5.68D-06 MaxDP=1.20D-04 DE=-1.07D-06 OVMax= 1.54D-04

 Cycle   5  Pass 1  IDiag  1:
 RMSU=  3.49D-06    CP:  1.00D+00  1.24D+00  1.36D+00  8.59D-01
 E= -269.314162147486     Delta-E=       -0.000000282672 Rises=F Damp=F
 DIIS: error= 7.43D-06 at cycle   5 NSaved=   5.
 NSaved= 5 IEnMin= 5 EnMin= -269.314162147486     IErMin= 5 ErrMin= 7.43D-06
 ErrMax= 7.43D-06  0.00D+00 EMaxC= 1.00D-01 BMatC= 1.44D-08 BMatP= 2.93D-07
 IDIUse=1 WtCom= 1.00D+00 WtEn= 0.00D+00
 Coeff-Com:  0.368D-02-0.297D-01 0.605D-02 0.162D+00 0.858D+00
 Coeff:      0.368D-02-0.297D-01 0.605D-02 0.162D+00 0.858D+00
 Gap=     0.494 Goal=   None    Shift=    0.000
 RMSDP=2.36D-06 MaxDP=5.23D-05 DE=-2.83D-07 OVMax= 8.01D-05

 Cycle   6  Pass 1  IDiag  1:
 RMSU=  9.78D-07    CP:  1.00D+00  1.24D+00  1.40D+00  9.83D-01  1.17D+00
 E= -269.314162170257     Delta-E=       -0.000000022771 Rises=F Damp=F
 DIIS: error= 2.71D-06 at cycle   6 NSaved=   6.
 NSaved= 6 IEnMin= 6 EnMin= -269.314162170257     IErMin= 6 ErrMin= 2.71D-06
 ErrMax= 2.71D-06  0.00D+00 EMaxC= 1.00D-01 BMatC= 1.38D-09 BMatP= 1.44D-08
 IDIUse=1 WtCom= 1.00D+00 WtEn= 0.00D+00
 Coeff-Com:  0.871D-04 0.121D-02-0.369D-01-0.171D-01 0.212D+00 0.841D+00
 Coeff:      0.871D-04 0.121D-02-0.369D-01-0.171D-01 0.212D+00 0.841D+00
 Gap=     0.494 Goal=   None    Shift=    0.000
 RMSDP=7.67D-07 MaxDP=1.88D-05 DE=-2.28D-08 OVMax= 2.78D-05

 Cycle   7  Pass 1  IDiag  1:
 RMSU=  3.44D-07    CP:  1.00D+00  1.24D+00  1.41D+00  1.02D+00  1.29D+00
                    CP:  9.79D-01
 E= -269.314162172613     Delta-E=       -0.000000002356 Rises=F Damp=F
 DIIS: error= 6.67D-07 at cycle   7 NSaved=   7.
 NSaved= 7 IEnMin= 7 EnMin= -269.314162172613     IErMin= 7 ErrMin= 6.67D-07
 ErrMax= 6.67D-07  0.00D+00 EMaxC= 1.00D-01 BMatC= 1.49D-10 BMatP= 1.38D-09
 IDIUse=1 WtCom= 1.00D+00 WtEn= 0.00D+00
 Coeff-Com: -0.378D-03 0.371D-02-0.752D-02-0.236D-01-0.629D-01 0.214D+00
 Coeff-Com:  0.877D+00
 Coeff:     -0.378D-03 0.371D-02-0.752D-02-0.236D-01-0.629D-01 0.214D+00
 Coeff:      0.877D+00
 Gap=     0.494 Goal=   None    Shift=    0.000
 RMSDP=2.59D-07 MaxDP=6.55D-06 DE=-2.36D-09 OVMax= 9.70D-06

 Cycle   8  Pass 1  IDiag  1:
 RMSU=  8.15D-08    CP:  1.00D+00  1.25D+00  1.41D+00  1.03D+00  1.34D+00
                    CP:  1.13D+00  1.11D+00
 E= -269.314162172866     Delta-E=       -0.000000000253 Rises=F Damp=F
 DIIS: error= 1.49D-07 at cycle   8 NSaved=   8.
 NSaved= 8 IEnMin= 8 EnMin= -269.314162172866     IErMin= 8 ErrMin= 1.49D-07
 ErrMax= 1.49D-07  0.00D+00 EMaxC= 1.00D-01 BMatC= 5.74D-12 BMatP= 1.49D-10
 IDIUse=1 WtCom= 1.00D+00 WtEn= 0.00D+00
 Coeff-Com: -0.527D-04 0.441D-03 0.594D-03-0.293D-02-0.200D-01 0.116D-02
 Coeff-Com:  0.138D+00 0.882D+00
 Coeff:     -0.527D-04 0.441D-03 0.594D-03-0.293D-02-0.200D-01 0.116D-02
 Coeff:      0.138D+00 0.882D+00
 Gap=     0.494 Goal=   None    Shift=    0.000
 RMSDP=5.32D-08 MaxDP=1.01D-06 DE=-2.53D-10 OVMax= 1.88D-06

 Cycle   9  Pass 1  IDiag  1:
 RMSU=  2.47D-08    CP:  1.00D+00  1.25D+00  1.41D+00  1.03D+00  1.34D+00
                    CP:  1.15D+00  1.20D+00  1.16D+00
 E= -269.314162172874     Delta-E=       -0.000000000008 Rises=F Damp=F
 DIIS: error= 8.38D-08 at cycle   9 NSaved=   9.
 NSaved= 9 IEnMin= 9 EnMin= -269.314162172874     IErMin= 9 ErrMin= 8.38D-08
 ErrMax= 8.38D-08  0.00D+00 EMaxC= 1.00D-01 BMatC= 2.16D-12 BMatP= 5.74D-12
 IDIUse=1 WtCom= 1.00D+00 WtEn= 0.00D+00
 Coeff-Com:  0.361D-04-0.397D-03 0.157D-02 0.239D-02-0.233D-03-0.340D-01
 Coeff-Com: -0.722D-01 0.416D+00 0.687D+00
 Coeff:      0.361D-04-0.397D-03 0.157D-02 0.239D-02-0.233D-03-0.340D-01
 Coeff:     -0.722D-01 0.416D+00 0.687D+00
 Gap=     0.494 Goal=   None    Shift=    0.000
 RMSDP=2.11D-08 MaxDP=3.54D-07 DE=-7.67D-12 OVMax= 7.43D-07

 Cycle  10  Pass 1  IDiag  1:
 RMSU=  6.59D-09    CP:  1.00D+00  1.25D+00  1.41D+00  1.03D+00  1.35D+00
                    CP:  1.15D+00  1.24D+00  1.30D+00  8.15D-01
 E= -269.314162172884     Delta-E=       -0.000000000010 Rises=F Damp=F
 DIIS: error= 1.16D-08 at cycle  10 NSaved=  10.
 NSaved=10 IEnMin=10 EnMin= -269.314162172884     IErMin=10 ErrMin= 1.16D-08
 ErrMax= 1.16D-08  0.00D+00 EMaxC= 1.00D-01 BMatC= 2.42D-14 BMatP= 2.16D-12
 IDIUse=1 WtCom= 1.00D+00 WtEn= 0.00D+00
 Coeff-Com:  0.343D-05-0.293D-04 0.251D-04 0.146D-03 0.730D-03 0.220D-05
 Coeff-Com: -0.635D-02-0.443D-01 0.322D-02 0.105D+01
 Coeff:      0.343D-05-0.293D-04 0.251D-04 0.146D-03 0.730D-03 0.220D-05
 Coeff:     -0.635D-02-0.443D-01 0.322D-02 0.105D+01
 Gap=     0.494 Goal=   None    Shift=    0.000
 RMSDP=5.43D-09 MaxDP=7.45D-08 DE=-1.05D-11 OVMax= 1.73D-07

 Error on total polarization charges =  0.03194
 SCF Done:  E(RwB97XD) =  -269.314162173     A.U. after   10 cycles
            NFock= 10  Conv=0.54D-08     -V/T= 2.0096
 KE= 2.667573542197D+02 PE=-1.024322159713D+03 EE= 2.910250649601D+02
 SMD-CDS (non-electrostatic) energy       (kcal/mol) =       2.81
 (included in total energy above)
 Leave Link  502 at Tue Oct 21 19:53:40 2025, MaxMem=  4294967296 cpu:             112.3 elap:              14.1
 (Enter /lrz/sys/applications/gaussian/g16.C.01/x86_64_legacy/exe/l701.exe)
 ... and contract with generalized density number  0.
 Compute integral first derivatives.
 R6Disp: Adding Grimme-D2 dispersion energy 1st derivatives to the gradient.
   1 Symmetry operations used in ECPInt.
 ECPInt:  NShTT=    1485 NPrTT=    5139 LenC2=    1483 LenP2D=    4465.
 LDataN:  DoStor=T MaxTD1= 5 Len=  102
 D1PCM: PCM CHGder 1st derivatives, ID1Alg=3 FixD1E=F DoIter=F DoCFld=F I1PDM=0.
 GePol: Maximum number of non-zero 1st derivatives   =     242
 Leave Link  701 at Tue Oct 21 19:53:41 2025, MaxMem=  4294967296 cpu:               4.3 elap:               0.6
 (Enter /lrz/sys/applications/gaussian/g16.C.01/x86_64_legacy/exe/l702.exe)
 L702 exits ... SP integral derivatives will be done elsewhere.
 Leave Link  702 at Tue Oct 21 19:53:41 2025, MaxMem=  4294967296 cpu:               0.2 elap:               0.0
 (Enter /lrz/sys/applications/gaussian/g16.C.01/x86_64_legacy/exe/l703.exe)
 Integral derivatives from FoFJK, PRISM(SPDF).
 Compute integral first derivatives, UseDBF=F ICtDFT=           0.
 Calling FoFJK, ICntrl=      2127 FMM=F ISym2X=0 I1Cent= 0 IOpClX= 0 NMat=1 NMatS=1 NMatT=0.
 FoFJK:  IHMeth= 1 ICntrl=    2127 DoSepK=T KAlg= 0 I1Cent=           0 FoldK=F
 IRaf=         1 NMat=       1 IRICut=       1 DoRegI=T DoRafI=F ISym2E= 0 IDoP0=0 IntGTp=1.
 FoFCou: FMM=F IPFlag=           0 FMFlag=      100000 FMFlg1=         800
         NFxFlg=           0 DoJE=F BraDBF=F KetDBF=F FulRan=T
         wScrn=  0.000000 ICntrl=      2527 IOpCl=  0 I1Cent=           0 NGrid=           0
         NMat0=    1 NMatS0=      1 NMatT0=    0 NMatD0=    1 NMtDS0=    0 NMtDT0=    0
 Symmetry not used in FoFCou.
 Leave Link  703 at Tue Oct 21 19:53:43 2025, MaxMem=  4294967296 cpu:              17.1 elap:               2.2
 (Enter /lrz/sys/applications/gaussian/g16.C.01/x86_64_legacy/exe/l716.exe)
 Dipole        = 1.14918273D+00 6.07718888D-01 3.79821827D-01
 ***** Axes restored to original set *****
 -------------------------------------------------------------------
 Center     Atomic                   Forces (Hartrees/Bohr)
 Number     Number              X              Y              Z
 -------------------------------------------------------------------
      1        8          -0.000345841   -0.000122878   -0.000265640
      2        6           0.000420876   -0.000292276   -0.000031158
      3        8          -0.000125608    0.000510321    0.000290687
      4        6          -0.000200781   -0.000153889   -0.000089095
      5        6          -0.000020938    0.000247068    0.000048657
      6        1           0.000212002   -0.000031137    0.000013333
      7        1          -0.000182430   -0.000088633   -0.000007128
      8        1          -0.000055603   -0.000070357    0.000093507
      9        1           0.000148689   -0.000008962   -0.000201494
     10        1          -0.000052839    0.000216783   -0.000021627
     11        1          -0.000015828   -0.000257226    0.000021454
     12        1          -0.000103974    0.000112889    0.000144635
     13        1           0.000322275   -0.000061702    0.000003868
 -------------------------------------------------------------------
 Cartesian Forces:  Max     0.000510321 RMS     0.000189563
 Leave Link  716 at Tue Oct 21 19:53:43 2025, MaxMem=  4294967296 cpu:               0.2 elap:               0.0
 (Enter /lrz/sys/applications/gaussian/g16.C.01/x86_64_legacy/exe/l103.exe)

 GradGradGradGradGradGradGradGradGradGradGradGradGradGradGradGradGradGrad
 Berny optimization.
 Using GEDIIS/GDIIS optimizer.
 FormGI is forming the generalized inverse of G from B-inverse, IUseBI=4.
 Internal  Forces:  Max     0.000597278 RMS     0.000137121
 Search for a local minimum.
 Step number   6 out of a maximum of   66
 All quantities printed in internal units (Hartrees-Bohrs-Radians)
 RMS Force = .13712D-03 SwitMx=.10000D-02 MixMth= 2
 Mixed Optimization -- En-DIIS/RFO-DIIS
 Swapping is turned off.
 Update second derivatives using D2CorX and points    2    3    4    5    6
 DE= -4.82D-05 DEPred=-4.86D-05 R= 9.91D-01
 TightC=F SS=  1.41D+00  RLast= 1.49D-01 DXNew= 1.2905D+00 4.4832D-01
 Trust test= 9.91D-01 RLast= 1.49D-01 DXMaxT set to 7.67D-01
 ITU=  1  1  1  1  1  0
     Eigenvalues ---    0.00227   0.00287   0.00373   0.01618   0.03389
     Eigenvalues ---    0.04564   0.05473   0.05573   0.05631   0.06492
     Eigenvalues ---    0.08587   0.10079   0.12459   0.15439   0.15993
     Eigenvalues ---    0.16054   0.16469   0.17497   0.19477   0.20917
     Eigenvalues ---    0.21412   0.29242   0.30409   0.33526   0.34623
     Eigenvalues ---    0.34809   0.35045   0.35117   0.39448   0.45730
     Eigenvalues ---    0.51929   0.54729   0.55034
 En-DIIS/RFO-DIIS/Sim-DIIS IScMMF=       -3 using points:     6    5    4    3    2
 RFO step:  Lambda=-1.01994533D-05.
 NNeg= 0 NGDIIS= 5 SimSw=  2.50D-01 Rises=F DC= -4.82D-05 SmlDif=  1.00D-05
 NRisDI= 0 DoIntr=F SqrtH=F CThrHd= 10.0 CDAdj=  3.0
 RMS Error=  0.5861872714D-02 NUsed= 5 OKEnD=T EnDIS=F
 InvSVX:  RCond= 2.06D-05 Info=           0 Equed=N FErr=  3.72D-13 BErr=  6.46D-17
 DidBck=F Rises=F RFO-DIIS coefs:    1.13618    0.12932   -0.31704    0.05173   -0.00019
 Iteration  1 RMS(Cart)=  0.00474292 RMS(Int)=  0.00002523
 Iteration  2 RMS(Cart)=  0.00002709 RMS(Int)=  0.00000163
 Iteration  3 RMS(Cart)=  0.00000000 RMS(Int)=  0.00000163
 ITry= 1 IFail=0 DXMaxC= 1.45D-02 DCOld= 1.00D+10 DXMaxT= 7.67D-01 DXLimC= 3.00D+00 Rises=F
 Variable       Old X    -DE/DX   Delta X   Delta X   Delta X     New X
                                 (Linear)    (Quad)   (Total)
    R1        2.66877   0.00011   0.00032   0.00005   0.00037   2.66914
    R2        1.82428   0.00011  -0.00032   0.00039   0.00006   1.82434
    R3        2.64132   0.00060  -0.00131   0.00187   0.00056   2.64188
    R4        2.88484   0.00012   0.00172  -0.00085   0.00086   2.88570
    R5        2.08766   0.00008  -0.00017   0.00031   0.00014   2.08780
    R6        1.82678   0.00004  -0.00005   0.00008   0.00003   1.82681
    R7        2.87790   0.00027   0.00129  -0.00017   0.00112   2.87901
    R8        2.08307   0.00022  -0.00095   0.00113   0.00018   2.08326
    R9        2.08084   0.00020  -0.00083   0.00096   0.00013   2.08097
   R10        2.07797   0.00024  -0.00093   0.00114   0.00021   2.07818
   R11        2.08221   0.00021  -0.00079   0.00098   0.00019   2.08240
   R12        2.07699   0.00029  -0.00085   0.00121   0.00035   2.07735
    A1        1.88892  -0.00000   0.00138  -0.00091   0.00047   1.88939
    A2        1.87250   0.00013   0.00025   0.00117   0.00142   1.87392
    A3        1.95042   0.00015  -0.00031   0.00108   0.00077   1.95118
    A4        1.92041  -0.00019  -0.00001  -0.00174  -0.00176   1.91865
    A5        1.97317  -0.00018  -0.00013  -0.00017  -0.00030   1.97287
    A6        1.83835   0.00000   0.00033  -0.00080  -0.00047   1.83788
    A7        1.90547   0.00007  -0.00009   0.00029   0.00020   1.90567
    A8        1.88623   0.00008   0.00021   0.00025   0.00046   1.88668
    A9        1.99333  -0.00007  -0.00176   0.00080  -0.00096   1.99238
   A10        1.87785   0.00008  -0.00011   0.00119   0.00107   1.87892
   A11        1.87910  -0.00002   0.00058  -0.00095  -0.00038   1.87872
   A12        1.91981   0.00002   0.00001   0.00047   0.00048   1.92029
   A13        1.92950   0.00002  -0.00047  -0.00014  -0.00061   1.92889
   A14        1.85859  -0.00003   0.00205  -0.00154   0.00052   1.85910
   A15        1.94121  -0.00010  -0.00035  -0.00056  -0.00091   1.94031
   A16        1.95065  -0.00006  -0.00019   0.00000  -0.00019   1.95045
   A17        1.93132   0.00016  -0.00122   0.00172   0.00050   1.93181
   A18        1.88397   0.00006   0.00110  -0.00060   0.00049   1.88446
   A19        1.88546  -0.00006   0.00097  -0.00118  -0.00021   1.88525
   A20        1.86826   0.00001  -0.00021   0.00058   0.00036   1.86862
    D1       -3.03782   0.00011   0.01282   0.00262   0.01544  -3.02239
    D2       -0.86572   0.00007   0.01262   0.00393   0.01655  -0.84916
    D3        1.25412   0.00014   0.01230   0.00381   0.01611   1.27024
    D4        1.19416   0.00006   0.00875  -0.00188   0.00687   1.20102
    D5       -0.96407  -0.00011   0.00905  -0.00398   0.00507  -0.95901
    D6       -3.04330  -0.00010   0.00902  -0.00373   0.00529  -3.03801
    D7       -1.03021  -0.00011  -0.00499  -0.00175  -0.00674  -1.03695
    D8        1.10617  -0.00008  -0.00623   0.00026  -0.00597   1.10020
    D9        3.10323  -0.00008  -0.00363  -0.00141  -0.00503   3.09820
   D10        1.08450   0.00004  -0.00499   0.00045  -0.00454   1.07996
   D11       -3.06230   0.00008  -0.00623   0.00246  -0.00377  -3.06607
   D12       -1.06524   0.00008  -0.00363   0.00080  -0.00283  -1.06807
   D13        3.12452  -0.00003  -0.00471  -0.00046  -0.00517   3.11935
   D14       -1.02228   0.00001  -0.00595   0.00155  -0.00440  -1.02668
   D15        0.97478   0.00001  -0.00335  -0.00011  -0.00346   0.97132
   D16        1.01180   0.00002  -0.00731   0.00111  -0.00620   1.00560
   D17       -1.09523   0.00006  -0.00835   0.00228  -0.00607  -1.10129
   D18        3.10761  -0.00002  -0.00713   0.00040  -0.00673   3.10088
   D19       -1.10150  -0.00005  -0.00594  -0.00134  -0.00729  -1.10879
   D20        3.07466  -0.00001  -0.00697  -0.00018  -0.00715   3.06751
   D21        0.99432  -0.00008  -0.00576  -0.00205  -0.00781   0.98650
   D22        3.13400  -0.00004  -0.00818   0.00034  -0.00784   3.12616
   D23        1.02697   0.00000  -0.00922   0.00151  -0.00771   1.01927
   D24       -1.05337  -0.00008  -0.00800  -0.00037  -0.00837  -1.06174
         Item               Value     Threshold  Converged?
 Maximum Force            0.000597     0.000450     NO 
 RMS     Force            0.000137     0.000300     YES
 Maximum Displacement     0.014480     0.001800     NO 
 RMS     Displacement     0.004735     0.001200     NO 
 Predicted change in Energy=-5.035074D-06
 Lowest energy point so far.  Saving SCF results.
 GradGradGradGradGradGradGradGradGradGradGradGradGradGradGradGradGradGrad

 Leave Link  103 at Tue Oct 21 19:53:43 2025, MaxMem=  4294967296 cpu:               0.2 elap:               0.0
 (Enter /lrz/sys/applications/gaussian/g16.C.01/x86_64_legacy/exe/l202.exe)
                          Input orientation:                          
 ---------------------------------------------------------------------
 Center     Atomic      Atomic             Coordinates (Angstroms)
 Number     Number       Type             X           Y           Z
 ---------------------------------------------------------------------
      1          8           0       -0.729143   -1.356436   -0.071400
      2          6           0       -0.603882   -0.006812   -0.468690
      3          8           0       -1.261794    0.772466    0.487524
      4          6           0        0.856783    0.393579   -0.663674
      5          6           0        1.718288    0.235441    0.582873
      6          1           0       -0.189281   -1.896804   -0.661779
      7          1           0       -1.155321    0.161063   -1.411213
      8          1           0       -0.755422    0.729666    1.309884
      9          1           0        1.264606   -0.218870   -1.484588
     10          1           0        0.872796    1.437439   -1.014027
     11          1           0        1.697425   -0.800529    0.951288
     12          1           0        1.379865    0.893552    1.399375
     13          1           0        2.763721    0.499039    0.368370
 ---------------------------------------------------------------------
                    Distance matrix (angstroms):
                    1          2          3          4          5
     1  O    0.000000
     2  C    1.412450   0.000000
     3  O    2.264583   1.398023   0.000000
     4  C    2.434852   1.527048   2.440734   0.000000
     5  C    2.992001   2.560654   3.029584   1.523508   0.000000
     6  H    0.965399   1.944543   3.097771   2.517957   3.120008
     7  H    2.068702   1.104815   1.997587   2.159037   3.498505
     8  H    2.502091   1.930982   0.966706   2.570427   2.625271
     9  H    2.695588   2.137351   3.354799   1.102413   2.164861
    10  H    3.355666   2.136313   2.693199   1.101203   2.170194
    11  H    2.691312   2.818216   3.383248   2.177309   1.099727
    12  H    3.416657   2.869769   2.797231   2.186266   1.101960
    13  H    3.979483   3.506751   4.036550   2.170864   1.099284
                    6          7          8          9         10
     6  H    0.000000
     7  H    2.393679   0.000000
     8  H    3.332614   2.808487   0.000000
     9  H    2.367756   2.450669   3.576215   0.000000
    10  H    3.516997   2.429023   2.924483   1.765872   0.000000
    11  H    2.713570   3.826778   2.913168   2.541486   3.090465
    12  H    3.807448   3.855271   2.143436   3.093220   2.525360
    13  H    3.939732   4.317410   3.650206   2.489215   2.523333
                   11         12         13
    11  H    0.000000
    12  H    1.780881   0.000000
    13  H    1.779229   1.770217   0.000000
 Stoichiometry    C3H8O2
 Framework group  C1[X(C3H8O2)]
 Deg. of freedom    33
 Full point group                 C1      NOp   1
 RotChk:  IX=0 Diff= 9.25D-03
 Largest Abelian subgroup         C1      NOp   1
 Largest concise Abelian subgroup C1      NOp   1
                         Standard orientation:                         
 ---------------------------------------------------------------------
 Center     Atomic      Atomic             Coordinates (Angstroms)
 Number     Number       Type             X           Y           Z
 ---------------------------------------------------------------------
      1          8           0       -1.046937    1.074800   -0.422720
      2          6           0       -0.666271    0.012341    0.426569
      3          8           0       -1.062256   -1.177826   -0.190817
      4          6           0        0.825928    0.050718    0.748663
      5          6           0        1.730160   -0.037466   -0.474311
      6          1           0       -0.685118    1.894231   -0.062699
      7          1           0       -1.242288    0.058014    1.368234
      8          1           0       -0.512793   -1.306230   -0.975753
      9          1           0        1.025262    0.984942    1.298940
     10          1           0        1.038197   -0.774754    1.445933
     11          1           0        1.516316    0.773481   -1.185672
     12          1           0        1.607849   -0.995783   -1.004390
     13          1           0        2.787216    0.036760   -0.181823
 ---------------------------------------------------------------------
 Rotational constants (GHZ):           6.8915612           4.0140970           3.3425740
 Leave Link  202 at Tue Oct 21 19:53:43 2025, MaxMem=  4294967296 cpu:               0.0 elap:               0.0
 (Enter /lrz/sys/applications/gaussian/g16.C.01/x86_64_legacy/exe/l301.exe)
 Standard basis: def2SVP (5D, 7F)
 Ernie: Thresh=  0.10000D-02 Tol=  0.10000D-05 Strict=F.
 There are   115 symmetry adapted cartesian basis functions of A   symmetry.
 There are   110 symmetry adapted basis functions of A   symmetry.
   110 basis functions,   181 primitive gaussians,   115 cartesian basis functions
    21 alpha electrons       21 beta electrons
       nuclear repulsion energy       197.1888111379 Hartrees.
 IExCor= 4639 DFT=T Ex+Corr=wB97XD ExCW=0 ScaHFX=  1.000000
 ScaDFX=  1.000000  1.000000  1.000000  1.000000 ScalE2=  1.000000  1.000000
 IRadAn=      5 IRanWt=     -1 IRanGd=            0 ICorTp=0 IEmpDi=121
 HFx  wShort=  0.000000 wLong=  0.200000 cFull=  0.222036 cShort=  0.000000 cLong=  0.777964
 DFx  wShort=  0.000000 wLong=  0.200000 cFull=  0.000000 cShort=  0.000000 cLong=  1.000000
 NAtoms=   13 NActive=   13 NUniq=   13 SFac= 1.00D+00 NAtFMM=   60 NAOKFM=F Big=F
 Integral buffers will be    131072 words long.
 Raffenetti 2 integral format.
 Two-electron integral symmetry is turned on.
 R6Disp:  Grimme-D2 Dispersion energy=       -0.0059660861 Hartrees.
 Nuclear repulsion after empirical dispersion term =      197.1828450517 Hartrees.
 ------------------------------------------------------------------------------
 Polarizable Continuum Model (PCM)
 =================================
 Model                : PCM.
 Atomic radii         : SMD-Coulomb.
 Polarization charges : Total charges.
 Charge compensation  : None.
 Solution method      : On-the-fly selection.
 Cavity type          : VdW (van der Waals Surface) (Alpha=1.000).
 Cavity algorithm     : GePol (No added spheres)
                        Default sphere list used, NSphG=   13.
                        Lebedev-Laikov grids with approx.  5.0 points / Ang**2.
                        Smoothing algorithm: York/Karplus (Gamma=1.0000).
                        Polarization charges: spherical gaussians, with
                                              point-specific exponents (IZeta= 3).
                        Self-potential: point-specific (ISelfS= 7).
                        Self-field    : sphere-specific E.n sum rule (ISelfD= 2).
 1st derivatives      : Analytical E(r).r(x)/FMM algorithm (CHGder, D1EAlg=3).
                        Cavity 1st derivative terms included.
 Solvent              : Water, Eps=  78.355300 Eps(inf)=   1.777849
 ------------------------------------------------------------------------------
 Spheres list:
 ISph  on   Nord     Re0    Alpha      Xe            Ye            Ze
    1   O      1    1.5200  1.000     -1.046937      1.074800     -0.422720
    2   C      2    1.8500  1.000     -0.666271      0.012341      0.426569
    3   O      3    1.5200  1.000     -1.062256     -1.177826     -0.190817
    4   C      4    1.8500  1.000      0.825928      0.050718      0.748663
    5   C      5    1.8500  1.000      1.730160     -0.037466     -0.474311
    6   H      6    1.2000  1.000     -0.685118      1.894231     -0.062699
    7   H      7    1.2000  1.000     -1.242288      0.058014      1.368234
    8   H      8    1.2000  1.000     -0.512793     -1.306230     -0.975753
    9   H      9    1.2000  1.000      1.025262      0.984942      1.298940
   10   H     10    1.2000  1.000      1.038197     -0.774754      1.445933
   11   H     11    1.2000  1.000      1.516316      0.773481     -1.185672
   12   H     12    1.2000  1.000      1.607849     -0.995783     -1.004390
   13   H     13    1.2000  1.000      2.787216      0.036760     -0.181823
 ------------------------------------------------------------------------------
 GePol: Number of generator spheres                  =      13
 GePol: Total number of spheres                      =      13
 GePol: Number of exposed spheres                    =      13 (100.00%)
 GePol: Number of points                             =     909
 GePol: Average weight of points                     =       0.12
 GePol: Minimum weight of points                     =   0.59D-09
 GePol: Maximum weight of points                     =    0.21991
 GePol: Number of points with low weight             =      45
 GePol: Fraction of low-weight points (<1% of avg)   =       4.95%
 GePol: Cavity surface area                          =    109.084 Ang**2
 GePol: Cavity volume                                =     81.956 Ang**3
 ------------------------------------------------------------------------------
 Atomic radii for non-electrostatic terms: SMD-CDS.
 ------------------------------------------------------------------------------
 PCM non-electrostatic energy =         0.0044775241 Hartrees.
 Nuclear repulsion after PCM non-electrostatic terms =      197.1873225759 Hartrees.
 Leave Link  301 at Tue Oct 21 19:53:43 2025, MaxMem=  4294967296 cpu:               0.5 elap:               0.1
 (Enter /lrz/sys/applications/gaussian/g16.C.01/x86_64_legacy/exe/l302.exe)
 NPDir=0 NMtPBC=     1 NCelOv=     1 NCel=       1 NClECP=     1 NCelD=      1
         NCelK=      1 NCelE2=     1 NClLst=     1 CellRange=     0.0.
 One-electron integrals computed using PRISM.
 One-electron integral symmetry used in STVInt
   1 Symmetry operations used in ECPInt.
 ECPInt:  NShTT=    1485 NPrTT=    5139 LenC2=    1483 LenP2D=    4466.
 LDataN:  DoStor=T MaxTD1= 4 Len=   56
 NBasis=   110 RedAO= T EigKep=  2.40D-03  NBF=   110
 NBsUse=   110 1.00D-06 EigRej= -1.00D+00 NBFU=   110
 Precomputing XC quadrature grid using
 IXCGrd= 4 IRadAn=           5 IRanWt=          -1 IRanGd=           0 AccXCQ= 0.00D+00.
 Generated NRdTot=       0 NPtTot=           0 NUsed=           0 NTot=          32
 NSgBfM=   115   115   115   115   115 MxSgAt=    13 MxSgA2=    13.
 Leave Link  302 at Tue Oct 21 19:53:43 2025, MaxMem=  4294967296 cpu:               1.2 elap:               0.2
 (Enter /lrz/sys/applications/gaussian/g16.C.01/x86_64_legacy/exe/l303.exe)
 DipDrv:  MaxL=1.
 Leave Link  303 at Tue Oct 21 19:53:43 2025, MaxMem=  4294967296 cpu:               0.3 elap:               0.1
 (Enter /lrz/sys/applications/gaussian/g16.C.01/x86_64_legacy/exe/l401.exe)
 Initial guess from the checkpoint file:  "g16_C3-w_9.chk"
 B after Tr=     0.000000    0.000000   -0.000000
         Rot=    0.999997    0.002150   -0.000017   -0.001223 Ang=   0.28 deg.
 Guess basis will be translated and rotated to current coordinates.
 JPrj=2 DoOrth=T DoCkMO=T.
 Leave Link  401 at Tue Oct 21 19:53:44 2025, MaxMem=  4294967296 cpu:               0.9 elap:               0.1
 (Enter /lrz/sys/applications/gaussian/g16.C.01/x86_64_legacy/exe/l502.exe)
 Integral symmetry usage will be decided dynamically.
 Closed shell SCF:
 Using DIIS extrapolation, IDIIS=  1040.
 NGot=  4294967296 LenX=  4294938204 LenY=  4294924538
 Requested convergence on RMS density matrix=1.00D-08 within 128 cycles.
 Requested convergence on MAX density matrix=1.00D-06.
 Requested convergence on             energy=1.00D-06.
 No special actions if energy rises.
 Fock matrices will be formed incrementally for  20 cycles.

 Cycle   1  Pass 1  IDiag  1:
 FoFJK:  IHMeth= 1 ICntrl=       0 DoSepK=T KAlg= 0 I1Cent=           0 FoldK=F
 IRaf=         1 NMat=       1 IRICut=       1 DoRegI=T DoRafI=F ISym2E= 0 IDoP0=0 IntGTp=1.
 FoFCou: FMM=F IPFlag=           0 FMFlag=      100000 FMFlg1=           0
         NFxFlg=           0 DoJE=T BraDBF=F KetDBF=F FulRan=T
         wScrn=  0.000000 ICntrl=       500 IOpCl=  0 I1Cent=           0 NGrid=           0
         NMat0=    1 NMatS0=      1 NMatT0=    0 NMatD0=    1 NMtDS0=    0 NMtDT0=    0
 Symmetry not used in FoFCou.
 Inv3:  Mode=1 IEnd=     2478843.
 Iteration    1 A*A^-1 deviation from unit magnitude is 5.00D-15 for    187.
 Iteration    1 A*A^-1 deviation from orthogonality  is 3.56D-15 for    740     92.
 Iteration    1 A^-1*A deviation from unit magnitude is 4.44D-15 for    491.
 Iteration    1 A^-1*A deviation from orthogonality  is 2.59D-15 for    772    740.
 E= -269.314117582197    
 DIIS: error= 4.03D-04 at cycle   1 NSaved=   1.
 NSaved= 1 IEnMin= 1 EnMin= -269.314117582197     IErMin= 1 ErrMin= 4.03D-04
 ErrMax= 4.03D-04  0.00D+00 EMaxC= 1.00D-01 BMatC= 3.21D-05 BMatP= 3.21D-05
 IDIUse=3 WtCom= 9.96D-01 WtEn= 4.03D-03
 Coeff-Com:  0.100D+01
 Coeff-En:   0.100D+01
 Coeff:      0.100D+01
 Gap=     0.741 Goal=   None    Shift=    0.000
 RMSDP=8.13D-05 MaxDP=2.46D-03              OVMax= 1.64D-03

 Cycle   2  Pass 1  IDiag  1:
 RMSU=  8.13D-05    CP:  1.00D+00
 E= -269.314161520134     Delta-E=       -0.000043937937 Rises=F Damp=F
 DIIS: error= 6.95D-05 at cycle   2 NSaved=   2.
 NSaved= 2 IEnMin= 2 EnMin= -269.314161520134     IErMin= 2 ErrMin= 6.95D-05
 ErrMax= 6.95D-05  0.00D+00 EMaxC= 1.00D-01 BMatC= 1.07D-06 BMatP= 3.21D-05
 IDIUse=1 WtCom= 1.00D+00 WtEn= 0.00D+00
 Coeff-Com: -0.167D+00 0.117D+01
 Coeff:     -0.167D+00 0.117D+01
 Gap=     0.494 Goal=   None    Shift=    0.000
 RMSDP=2.04D-05 MaxDP=5.07D-04 DE=-4.39D-05 OVMax= 5.53D-04

 Cycle   3  Pass 1  IDiag  1:
 RMSU=  1.06D-05    CP:  1.00D+00  1.21D+00
 E= -269.314163765354     Delta-E=       -0.000002245220 Rises=F Damp=F
 DIIS: error= 1.34D-05 at cycle   3 NSaved=   3.
 NSaved= 3 IEnMin= 3 EnMin= -269.314163765354     IErMin= 3 ErrMin= 1.34D-05
 ErrMax= 1.34D-05  0.00D+00 EMaxC= 1.00D-01 BMatC= 6.25D-08 BMatP= 1.07D-06
 IDIUse=1 WtCom= 1.00D+00 WtEn= 0.00D+00
 Coeff-Com: -0.299D-01 0.146D+00 0.884D+00
 Coeff:     -0.299D-01 0.146D+00 0.884D+00
 Gap=     0.494 Goal=   None    Shift=    0.000
 RMSDP=4.05D-06 MaxDP=6.36D-05 DE=-2.25D-06 OVMax= 1.18D-04

 Cycle   4  Pass 1  IDiag  1:
 RMSU=  3.29D-06    CP:  1.00D+00  1.24D+00  1.15D+00
 E= -269.314163841847     Delta-E=       -0.000000076493 Rises=F Damp=F
 DIIS: error= 1.09D-05 at cycle   4 NSaved=   4.
 NSaved= 4 IEnMin= 4 EnMin= -269.314163841847     IErMin= 4 ErrMin= 1.09D-05
 ErrMax= 1.09D-05  0.00D+00 EMaxC= 1.00D-01 BMatC= 2.66D-08 BMatP= 6.25D-08
 IDIUse=1 WtCom= 1.00D+00 WtEn= 0.00D+00
 Coeff-Com:  0.100D-01-0.996D-01 0.383D+00 0.706D+00
 Coeff:      0.100D-01-0.996D-01 0.383D+00 0.706D+00
 Gap=     0.494 Goal=   None    Shift=    0.000
 RMSDP=1.85D-06 MaxDP=3.14D-05 DE=-7.65D-08 OVMax= 4.82D-05

 Cycle   5  Pass 1  IDiag  1:
 RMSU=  9.08D-07    CP:  1.00D+00  1.24D+00  1.28D+00  8.84D-01
 E= -269.314163867968     Delta-E=       -0.000000026121 Rises=F Damp=F
 DIIS: error= 2.04D-06 at cycle   5 NSaved=   5.
 NSaved= 5 IEnMin= 5 EnMin= -269.314163867968     IErMin= 5 ErrMin= 2.04D-06
 ErrMax= 2.04D-06  0.00D+00 EMaxC= 1.00D-01 BMatC= 1.16D-09 BMatP= 2.66D-08
 IDIUse=1 WtCom= 1.00D+00 WtEn= 0.00D+00
 Coeff-Com:  0.519D-02-0.434D-01 0.576D-01 0.213D+00 0.767D+00
 Coeff:      0.519D-02-0.434D-01 0.576D-01 0.213D+00 0.767D+00
 Gap=     0.494 Goal=   None    Shift=    0.000
 RMSDP=5.39D-07 MaxDP=1.21D-05 DE=-2.61D-08 OVMax= 1.71D-05

 Cycle   6  Pass 1  IDiag  1:
 RMSU=  3.25D-07    CP:  1.00D+00  1.25D+00  1.31D+00  9.55D-01  1.12D+00
 E= -269.314163869429     Delta-E=       -0.000000001461 Rises=F Damp=F
 DIIS: error= 5.91D-07 at cycle   6 NSaved=   6.
 NSaved= 6 IEnMin= 6 EnMin= -269.314163869429     IErMin= 6 ErrMin= 5.91D-07
 ErrMax= 5.91D-07  0.00D+00 EMaxC= 1.00D-01 BMatC= 1.12D-10 BMatP= 1.16D-09
 IDIUse=1 WtCom= 1.00D+00 WtEn= 0.00D+00
 Coeff-Com:  0.258D-03-0.236D-03-0.311D-01-0.302D-01 0.193D+00 0.868D+00
 Coeff:      0.258D-03-0.236D-03-0.311D-01-0.302D-01 0.193D+00 0.868D+00
 Gap=     0.494 Goal=   None    Shift=    0.000
 RMSDP=2.30D-07 MaxDP=6.25D-06 DE=-1.46D-09 OVMax= 8.47D-06

 Cycle   7  Pass 1  IDiag  1:
 RMSU=  8.06D-08    CP:  1.00D+00  1.25D+00  1.32D+00  9.88D-01  1.27D+00
                    CP:  1.02D+00
 E= -269.314163869623     Delta-E=       -0.000000000193 Rises=F Damp=F
 DIIS: error= 1.64D-07 at cycle   7 NSaved=   7.
 NSaved= 7 IEnMin= 7 EnMin= -269.314163869623     IErMin= 7 ErrMin= 1.64D-07
 ErrMax= 1.64D-07  0.00D+00 EMaxC= 1.00D-01 BMatC= 5.18D-12 BMatP= 1.12D-10
 IDIUse=1 WtCom= 1.00D+00 WtEn= 0.00D+00
 Coeff-Com: -0.340D-03 0.334D-02-0.562D-02-0.191D-01-0.529D-01 0.818D-01
 Coeff-Com:  0.993D+00
 Coeff:     -0.340D-03 0.334D-02-0.562D-02-0.191D-01-0.529D-01 0.818D-01
 Coeff:      0.993D+00
 Gap=     0.494 Goal=   None    Shift=    0.000
 RMSDP=6.55D-08 MaxDP=1.98D-06 DE=-1.93D-10 OVMax= 2.70D-06

 Cycle   8  Pass 1  IDiag  1:
 RMSU=  2.17D-08    CP:  1.00D+00  1.25D+00  1.32D+00  9.93D-01  1.31D+00
                    CP:  1.13D+00  1.27D+00
 E= -269.314163869640     Delta-E=       -0.000000000017 Rises=F Damp=F
 DIIS: error= 4.71D-08 at cycle   8 NSaved=   8.
 NSaved= 8 IEnMin= 8 EnMin= -269.314163869640     IErMin= 8 ErrMin= 4.71D-08
 ErrMax= 4.71D-08  0.00D+00 EMaxC= 1.00D-01 BMatC= 6.90D-13 BMatP= 5.18D-12
 IDIUse=1 WtCom= 1.00D+00 WtEn= 0.00D+00
 Coeff-Com: -0.106D-03 0.952D-03-0.151D-03-0.430D-02-0.255D-01-0.131D-01
 Coeff-Com:  0.306D+00 0.737D+00
 Coeff:     -0.106D-03 0.952D-03-0.151D-03-0.430D-02-0.255D-01-0.131D-01
 Coeff:      0.306D+00 0.737D+00
 Gap=     0.494 Goal=   None    Shift=    0.000
 RMSDP=1.32D-08 MaxDP=2.87D-07 DE=-1.71D-11 OVMax= 4.92D-07

 Cycle   9  Pass 1  IDiag  1:
 RMSU=  7.40D-09    CP:  1.00D+00  1.25D+00  1.32D+00  9.94D-01  1.32D+00
                    CP:  1.14D+00  1.37D+00  1.05D+00
 E= -269.314163869639     Delta-E=        0.000000000001 Rises=F Damp=F
 DIIS: error= 1.95D-08 at cycle   9 NSaved=   9.
 NSaved= 9 IEnMin= 8 EnMin= -269.314163869640     IErMin= 9 ErrMin= 1.95D-08
 ErrMax= 1.95D-08  0.00D+00 EMaxC= 1.00D-01 BMatC= 1.29D-13 BMatP= 6.90D-13
 IDIUse=1 WtCom= 1.00D+00 WtEn= 0.00D+00
 Coeff-Com:  0.368D-04-0.408D-03 0.134D-02 0.272D-02 0.799D-03-0.261D-01
 Coeff-Com: -0.976D-01 0.281D+00 0.838D+00
 Coeff:      0.368D-04-0.408D-03 0.134D-02 0.272D-02 0.799D-03-0.261D-01
 Coeff:     -0.976D-01 0.281D+00 0.838D+00
 Gap=     0.494 Goal=   None    Shift=    0.000
 RMSDP=7.35D-09 MaxDP=1.58D-07 DE= 1.19D-12 OVMax= 2.87D-07

 Error on total polarization charges =  0.03195
 SCF Done:  E(RwB97XD) =  -269.314163870     A.U. after    9 cycles
            NFock=  9  Conv=0.74D-08     -V/T= 2.0096
 KE= 2.667535409860D+02 PE=-1.024239815269D+03 EE= 2.909847878378D+02
 SMD-CDS (non-electrostatic) energy       (kcal/mol) =       2.81
 (included in total energy above)
 Leave Link  502 at Tue Oct 21 19:53:57 2025, MaxMem=  4294967296 cpu:             104.8 elap:              13.2
 (Enter /lrz/sys/applications/gaussian/g16.C.01/x86_64_legacy/exe/l701.exe)
 ... and contract with generalized density number  0.
 Compute integral first derivatives.
 R6Disp: Adding Grimme-D2 dispersion energy 1st derivatives to the gradient.
   1 Symmetry operations used in ECPInt.
 ECPInt:  NShTT=    1485 NPrTT=    5139 LenC2=    1483 LenP2D=    4466.
 LDataN:  DoStor=T MaxTD1= 5 Len=  102
 D1PCM: PCM CHGder 1st derivatives, ID1Alg=3 FixD1E=F DoIter=F DoCFld=F I1PDM=0.
 GePol: Maximum number of non-zero 1st derivatives   =     243
 Leave Link  701 at Tue Oct 21 19:53:57 2025, MaxMem=  4294967296 cpu:               4.2 elap:               0.5
 (Enter /lrz/sys/applications/gaussian/g16.C.01/x86_64_legacy/exe/l702.exe)
 L702 exits ... SP integral derivatives will be done elsewhere.
 Leave Link  702 at Tue Oct 21 19:53:57 2025, MaxMem=  4294967296 cpu:               0.2 elap:               0.0
 (Enter /lrz/sys/applications/gaussian/g16.C.01/x86_64_legacy/exe/l703.exe)
 Integral derivatives from FoFJK, PRISM(SPDF).
 Compute integral first derivatives, UseDBF=F ICtDFT=           0.
 Calling FoFJK, ICntrl=      2127 FMM=F ISym2X=0 I1Cent= 0 IOpClX= 0 NMat=1 NMatS=1 NMatT=0.
 FoFJK:  IHMeth= 1 ICntrl=    2127 DoSepK=T KAlg= 0 I1Cent=           0 FoldK=F
 IRaf=         1 NMat=       1 IRICut=       1 DoRegI=T DoRafI=F ISym2E= 0 IDoP0=0 IntGTp=1.
 FoFCou: FMM=F IPFlag=           0 FMFlag=      100000 FMFlg1=         800
         NFxFlg=           0 DoJE=F BraDBF=F KetDBF=F FulRan=T
         wScrn=  0.000000 ICntrl=      2527 IOpCl=  0 I1Cent=           0 NGrid=           0
         NMat0=    1 NMatS0=      1 NMatT0=    0 NMatD0=    1 NMtDS0=    0 NMtDT0=    0
 Symmetry not used in FoFCou.
 Leave Link  703 at Tue Oct 21 19:54:00 2025, MaxMem=  4294967296 cpu:              17.9 elap:               2.3
 (Enter /lrz/sys/applications/gaussian/g16.C.01/x86_64_legacy/exe/l716.exe)
 Dipole        = 1.16126268D+00 6.08283483D-01 3.74117030D-01
 ***** Axes restored to original set *****
 -------------------------------------------------------------------
 Center     Atomic                   Forces (Hartrees/Bohr)
 Number     Number              X              Y              Z
 -------------------------------------------------------------------
      1        8          -0.000179374    0.000112061    0.000012225
      2        6           0.000377712   -0.000242359   -0.000300431
      3        8           0.000021327    0.000209257    0.000140727
      4        6          -0.000266948   -0.000116517    0.000293610
      5        6          -0.000112299    0.000170560   -0.000182084
      6        1           0.000148286    0.000046408   -0.000013665
      7        1          -0.000100689    0.000012051    0.000013549
      8        1          -0.000043309   -0.000124585    0.000065218
      9        1           0.000057555    0.000011278   -0.000130747
     10        1          -0.000034691    0.000137904   -0.000059246
     11        1           0.000019947   -0.000202172    0.000046956
     12        1          -0.000062350    0.000034241    0.000102044
     13        1           0.000174834   -0.000048127    0.000011844
 -------------------------------------------------------------------
 Cartesian Forces:  Max     0.000377712 RMS     0.000146688
 Leave Link  716 at Tue Oct 21 19:54:00 2025, MaxMem=  4294967296 cpu:               0.2 elap:               0.0
 (Enter /lrz/sys/applications/gaussian/g16.C.01/x86_64_legacy/exe/l103.exe)

 GradGradGradGradGradGradGradGradGradGradGradGradGradGradGradGradGradGrad
 Berny optimization.
 Using GEDIIS/GDIIS optimizer.
 FormGI is forming the generalized inverse of G from B-inverse, IUseBI=4.
 Internal  Forces:  Max     0.000222514 RMS     0.000074328
 Search for a local minimum.
 Step number   7 out of a maximum of   66
 All quantities printed in internal units (Hartrees-Bohrs-Radians)
 RMS Force = .74328D-04 SwitMx=.10000D-02 MixMth= 2
 Mixed Optimization -- En-DIIS/RFO-DIIS
 Swapping is turned off.
 Update second derivatives using D2CorX and points    2    3    4    5    6
                                                      7
 DE= -1.70D-06 DEPred=-5.04D-06 R= 3.37D-01
 Trust test= 3.37D-01 RLast= 3.96D-02 DXMaxT set to 7.67D-01
 ITU=  0  1  1  1  1  1  0
     Eigenvalues ---    0.00219   0.00258   0.00353   0.01323   0.03422
     Eigenvalues ---    0.04629   0.05472   0.05564   0.06245   0.06666
     Eigenvalues ---    0.08631   0.10111   0.12445   0.15620   0.15984
     Eigenvalues ---    0.16027   0.16588   0.17462   0.19628   0.20763
     Eigenvalues ---    0.21444   0.29548   0.32188   0.33527   0.34631
     Eigenvalues ---    0.34807   0.35080   0.35228   0.38883   0.47216
     Eigenvalues ---    0.50614   0.54673   0.54808
 En-DIIS/RFO-DIIS/Sim-DIIS IScMMF=       -3 using points:     7    6    5    4    3    2
 RFO step:  Lambda=-4.53297441D-06.
 NNeg= 0 NGDIIS= 6 SimSw=  2.50D-01 Rises=F DC= -1.70D-06 SmlDif=  1.00D-05
 NRisDI= 0 DoIntr=F SqrtH=F CThrHd= 10.0 CDAdj=  3.0
 RMS Error=  0.4001019807D-02 NUsed= 6 OKEnD=F EnDIS=F
 InvSVX:  RCond= 3.37D-06 Info=           0 Equed=N FErr=  9.58D-13 BErr=  5.36D-17
 DidBck=F Rises=F RFO-DIIS coefs:    1.82810   -0.65100   -0.55229    0.37775    0.03812
                  RFO-DIIS coefs:   -0.04068
 Iteration  1 RMS(Cart)=  0.00417382 RMS(Int)=  0.00003020
 Iteration  2 RMS(Cart)=  0.00002755 RMS(Int)=  0.00000143
 Iteration  3 RMS(Cart)=  0.00000000 RMS(Int)=  0.00000143
 ITry= 1 IFail=0 DXMaxC= 2.03D-02 DCOld= 1.00D+10 DXMaxT= 7.67D-01 DXLimC= 3.00D+00 Rises=F
 Variable       Old X    -DE/DX   Delta X   Delta X   Delta X     New X
                                 (Linear)    (Quad)   (Total)
    R1        2.66914  -0.00013  -0.00014   0.00001  -0.00013   2.66901
    R2        1.82434   0.00005   0.00018  -0.00008   0.00010   1.82444
    R3        2.64188   0.00020   0.00090  -0.00033   0.00056   2.64244
    R4        2.88570  -0.00022  -0.00065   0.00011  -0.00054   2.88517
    R5        2.08780   0.00004   0.00025  -0.00011   0.00015   2.08795
    R6        1.82681   0.00003   0.00003   0.00003   0.00006   1.82687
    R7        2.87901  -0.00001   0.00024   0.00015   0.00039   2.87940
    R8        2.08326   0.00012   0.00065  -0.00030   0.00035   2.08361
    R9        2.08097   0.00014   0.00049  -0.00009   0.00040   2.08137
   R10        2.07818   0.00020   0.00076  -0.00014   0.00061   2.07880
   R11        2.08240   0.00012   0.00061  -0.00029   0.00032   2.08272
   R12        2.07735   0.00015   0.00086  -0.00041   0.00045   2.07780
    A1        1.88939  -0.00011  -0.00082   0.00038  -0.00044   1.88895
    A2        1.87392  -0.00003   0.00106  -0.00133  -0.00027   1.87364
    A3        1.95118   0.00005   0.00012   0.00037   0.00049   1.95167
    A4        1.91865  -0.00001  -0.00130   0.00125  -0.00005   1.91860
    A5        1.97287  -0.00007  -0.00030  -0.00065  -0.00095   1.97192
    A6        1.83788   0.00002  -0.00007  -0.00021  -0.00028   1.83760
    A7        1.90567   0.00004   0.00044   0.00057   0.00101   1.90669
    A8        1.88668  -0.00001   0.00020  -0.00022  -0.00002   1.88667
    A9        1.99238  -0.00002  -0.00059   0.00009  -0.00050   1.99188
   A10        1.87892   0.00002   0.00101  -0.00033   0.00069   1.87961
   A11        1.87872  -0.00002  -0.00055   0.00017  -0.00038   1.87834
   A12        1.92029   0.00001   0.00044  -0.00018   0.00027   1.92056
   A13        1.92889   0.00004  -0.00026   0.00055   0.00028   1.92917
   A14        1.85910  -0.00003  -0.00001  -0.00035  -0.00036   1.85874
   A15        1.94031  -0.00001  -0.00095   0.00038  -0.00057   1.93974
   A16        1.95045  -0.00003  -0.00029   0.00024  -0.00004   1.95041
   A17        1.93181   0.00009   0.00099  -0.00012   0.00086   1.93268
   A18        1.88446   0.00000   0.00026  -0.00024   0.00001   1.88447
   A19        1.88525  -0.00006  -0.00049  -0.00031  -0.00080   1.88445
   A20        1.86862   0.00000   0.00050   0.00002   0.00052   1.86914
    D1       -3.02239   0.00010   0.01395   0.00351   0.01746  -3.00493
    D2       -0.84916   0.00002   0.01438   0.00201   0.01639  -0.83278
    D3        1.27024   0.00010   0.01412   0.00384   0.01796   1.28820
    D4        1.20102  -0.00007   0.00507  -0.00406   0.00101   1.20203
    D5       -0.95901  -0.00006   0.00436  -0.00315   0.00122  -0.95779
    D6       -3.03801  -0.00008   0.00404  -0.00335   0.00068  -3.03733
    D7       -1.03695   0.00005  -0.00149   0.00210   0.00061  -1.03634
    D8        1.10020   0.00006  -0.00056   0.00169   0.00114   1.10134
    D9        3.09820   0.00002  -0.00033   0.00121   0.00087   3.09907
   D10        1.07996  -0.00001  -0.00024   0.00017  -0.00008   1.07988
   D11       -3.06607  -0.00000   0.00068  -0.00024   0.00045  -3.06563
   D12       -1.06807  -0.00004   0.00091  -0.00073   0.00018  -1.06789
   D13        3.11935  -0.00001  -0.00023  -0.00011  -0.00034   3.11901
   D14       -1.02668   0.00000   0.00070  -0.00052   0.00018  -1.02650
   D15        0.97132  -0.00003   0.00093  -0.00101  -0.00008   0.97124
   D16        1.00560   0.00000  -0.00512   0.00063  -0.00450   1.00110
   D17       -1.10129   0.00003  -0.00460   0.00050  -0.00409  -1.10539
   D18        3.10088  -0.00002  -0.00571   0.00040  -0.00530   3.09558
   D19       -1.10879  -0.00001  -0.00637   0.00112  -0.00525  -1.11403
   D20        3.06751   0.00001  -0.00584   0.00100  -0.00484   3.06266
   D21        0.98650  -0.00004  -0.00695   0.00090  -0.00605   0.98045
   D22        3.12616  -0.00001  -0.00646   0.00132  -0.00514   3.12102
   D23        1.01927   0.00001  -0.00594   0.00120  -0.00474   1.01453
   D24       -1.06174  -0.00003  -0.00705   0.00110  -0.00595  -1.06769
         Item               Value     Threshold  Converged?
 Maximum Force            0.000223     0.000450     YES
 RMS     Force            0.000074     0.000300     YES
 Maximum Displacement     0.020286     0.001800     NO 
 RMS     Displacement     0.004173     0.001200     NO 
 Predicted change in Energy=-2.079128D-06
 Lowest energy point so far.  Saving SCF results.
 GradGradGradGradGradGradGradGradGradGradGradGradGradGradGradGradGradGrad

 Leave Link  103 at Tue Oct 21 19:54:00 2025, MaxMem=  4294967296 cpu:               0.2 elap:               0.0
 (Enter /lrz/sys/applications/gaussian/g16.C.01/x86_64_legacy/exe/l202.exe)
                          Input orientation:                          
 ---------------------------------------------------------------------
 Center     Atomic      Atomic             Coordinates (Angstroms)
 Number     Number       Type             X           Y           Z
 ---------------------------------------------------------------------
      1          8           0       -0.730205   -1.356377   -0.073331
      2          6           0       -0.604556   -0.006627   -0.469821
      3          8           0       -1.261487    0.772224    0.487851
      4          6           0        0.855756    0.394143   -0.664449
      5          6           0        1.716926    0.234400    0.582375
      6          1           0       -0.178546   -1.894564   -0.654820
      7          1           0       -1.157170    0.162237   -1.411570
      8          1           0       -0.753912    0.729221    1.309493
      9          1           0        1.264179   -0.216657   -1.486544
     10          1           0        0.871166    1.438713   -1.013377
     11          1           0        1.691921   -0.801485    0.951741
     12          1           0        1.380665    0.894593    1.398316
     13          1           0        2.763907    0.492974    0.368079
 ---------------------------------------------------------------------
                    Distance matrix (angstroms):
                    1          2          3          4          5
     1  O    0.000000
     2  C    1.412380   0.000000
     3  O    2.264537   1.398321   0.000000
     4  C    2.434956   1.526764   2.439971   0.000000
     5  C    2.991483   2.560174   3.028058   1.523713   0.000000
     6  H    0.965455   1.944227   3.096808   2.511584   3.107403
     7  H    2.068664   1.104893   1.997690   2.159593   3.498779
     8  H    2.502496   1.931253   0.966736   2.568999   2.622707
     9  H    2.696979   2.137758   3.354864   1.102600   2.165378
    10  H    3.355682   2.135934   2.691858   1.101415   2.170738
    11  H    2.688005   2.815394   3.378517   2.177330   1.100052
    12  H    3.418828   2.871103   2.797301   2.186545   1.102128
    13  H    3.977909   3.506882   4.036846   2.171848   1.099524
                    6          7          8          9         10
     6  H    0.000000
     7  H    2.400168   0.000000
     8  H    3.327736   2.808607   0.000000
     9  H    2.364020   2.451961   3.575640   0.000000
    10  H    3.513003   2.429423   2.922325   1.765955   0.000000
    11  H    2.697130   3.825091   2.907429   2.543663   3.090924
    12  H    3.798145   3.856477   2.142815   3.093681   2.524266
    13  H    3.924881   4.318725   3.649264   2.488451   2.526917
                   11         12         13
    11  H    0.000000
    12  H    1.781289   0.000000
    13  H    1.779169   1.770888   0.000000
 Stoichiometry    C3H8O2
 Framework group  C1[X(C3H8O2)]
 Deg. of freedom    33
 Full point group                 C1      NOp   1
 RotChk:  IX=0 Diff= 9.41D-04
 Largest Abelian subgroup         C1      NOp   1
 Largest concise Abelian subgroup C1      NOp   1
                         Standard orientation:                         
 ---------------------------------------------------------------------
 Center     Atomic      Atomic             Coordinates (Angstroms)
 Number     Number       Type             X           Y           Z
 ---------------------------------------------------------------------
      1          8           0       -1.046881    1.075750   -0.421278
      2          6           0       -0.666514    0.012532    0.427077
      3          8           0       -1.062087   -1.177123   -0.192233
      4          6           0        0.825412    0.049414    0.749261
      5          6           0        1.729173   -0.037656   -0.474396
      6          1           0       -0.671996    1.892526   -0.068516
      7          1           0       -1.243551    0.056834    1.368275
      8          1           0       -0.511482   -1.304914   -0.976504
      9          1           0        1.026023    0.982412    1.301526
     10          1           0        1.036757   -0.777651    1.445258
     11          1           0        1.511989    0.772259   -1.186424
     12          1           0        1.608917   -0.996960   -1.003508
     13          1           0        2.786662    0.040738   -0.183664
 ---------------------------------------------------------------------
 Rotational constants (GHZ):           6.8906431           4.0163658           3.3446396
 Leave Link  202 at Tue Oct 21 19:54:00 2025, MaxMem=  4294967296 cpu:               0.0 elap:               0.0
 (Enter /lrz/sys/applications/gaussian/g16.C.01/x86_64_legacy/exe/l301.exe)
 Standard basis: def2SVP (5D, 7F)
 Ernie: Thresh=  0.10000D-02 Tol=  0.10000D-05 Strict=F.
 There are   115 symmetry adapted cartesian basis functions of A   symmetry.
 There are   110 symmetry adapted basis functions of A   symmetry.
   110 basis functions,   181 primitive gaussians,   115 cartesian basis functions
    21 alpha electrons       21 beta electrons
       nuclear repulsion energy       197.2062065005 Hartrees.
 IExCor= 4639 DFT=T Ex+Corr=wB97XD ExCW=0 ScaHFX=  1.000000
 ScaDFX=  1.000000  1.000000  1.000000  1.000000 ScalE2=  1.000000  1.000000
 IRadAn=      5 IRanWt=     -1 IRanGd=            0 ICorTp=0 IEmpDi=121
 HFx  wShort=  0.000000 wLong=  0.200000 cFull=  0.222036 cShort=  0.000000 cLong=  0.777964
 DFx  wShort=  0.000000 wLong=  0.200000 cFull=  0.000000 cShort=  0.000000 cLong=  1.000000
 NAtoms=   13 NActive=   13 NUniq=   13 SFac= 1.00D+00 NAtFMM=   60 NAOKFM=F Big=F
 Integral buffers will be    131072 words long.
 Raffenetti 2 integral format.
 Two-electron integral symmetry is turned on.
 R6Disp:  Grimme-D2 Dispersion energy=       -0.0059704691 Hartrees.
 Nuclear repulsion after empirical dispersion term =      197.2002360314 Hartrees.
 ------------------------------------------------------------------------------
 Polarizable Continuum Model (PCM)
 =================================
 Model                : PCM.
 Atomic radii         : SMD-Coulomb.
 Polarization charges : Total charges.
 Charge compensation  : None.
 Solution method      : On-the-fly selection.
 Cavity type          : VdW (van der Waals Surface) (Alpha=1.000).
 Cavity algorithm     : GePol (No added spheres)
                        Default sphere list used, NSphG=   13.
                        Lebedev-Laikov grids with approx.  5.0 points / Ang**2.
                        Smoothing algorithm: York/Karplus (Gamma=1.0000).
                        Polarization charges: spherical gaussians, with
                                              point-specific exponents (IZeta= 3).
                        Self-potential: point-specific (ISelfS= 7).
                        Self-field    : sphere-specific E.n sum rule (ISelfD= 2).
 1st derivatives      : Analytical E(r).r(x)/FMM algorithm (CHGder, D1EAlg=3).
                        Cavity 1st derivative terms included.
 Solvent              : Water, Eps=  78.355300 Eps(inf)=   1.777849
 ------------------------------------------------------------------------------
 Spheres list:
 ISph  on   Nord     Re0    Alpha      Xe            Ye            Ze
    1   O      1    1.5200  1.000     -1.046881      1.075750     -0.421278
    2   C      2    1.8500  1.000     -0.666514      0.012532      0.427077
    3   O      3    1.5200  1.000     -1.062087     -1.177123     -0.192233
    4   C      4    1.8500  1.000      0.825412      0.049414      0.749261
    5   C      5    1.8500  1.000      1.729173     -0.037656     -0.474396
    6   H      6    1.2000  1.000     -0.671996      1.892526     -0.068516
    7   H      7    1.2000  1.000     -1.243551      0.056834      1.368275
    8   H      8    1.2000  1.000     -0.511482     -1.304914     -0.976504
    9   H      9    1.2000  1.000      1.026023      0.982412      1.301526
   10   H     10    1.2000  1.000      1.036757     -0.777651      1.445258
   11   H     11    1.2000  1.000      1.511989      0.772259     -1.186424
   12   H     12    1.2000  1.000      1.608917     -0.996960     -1.003508
   13   H     13    1.2000  1.000      2.786662      0.040738     -0.183664
 ------------------------------------------------------------------------------
 GePol: Number of generator spheres                  =      13
 GePol: Total number of spheres                      =      13
 GePol: Number of exposed spheres                    =      13 (100.00%)
 GePol: Number of points                             =     908
 GePol: Average weight of points                     =       0.12
 GePol: Minimum weight of points                     =   0.33D-08
 GePol: Maximum weight of points                     =    0.21991
 GePol: Number of points with low weight             =      46
 GePol: Fraction of low-weight points (<1% of avg)   =       5.07%
 GePol: Cavity surface area                          =    109.070 Ang**2
 GePol: Cavity volume                                =     81.961 Ang**3
 ------------------------------------------------------------------------------
 Atomic radii for non-electrostatic terms: SMD-CDS.
 ------------------------------------------------------------------------------
 PCM non-electrostatic energy =         0.0044706553 Hartrees.
 Nuclear repulsion after PCM non-electrostatic terms =      197.2047066867 Hartrees.
 Leave Link  301 at Tue Oct 21 19:54:00 2025, MaxMem=  4294967296 cpu:               0.5 elap:               0.1
 (Enter /lrz/sys/applications/gaussian/g16.C.01/x86_64_legacy/exe/l302.exe)
 NPDir=0 NMtPBC=     1 NCelOv=     1 NCel=       1 NClECP=     1 NCelD=      1
         NCelK=      1 NCelE2=     1 NClLst=     1 CellRange=     0.0.
 One-electron integrals computed using PRISM.
 One-electron integral symmetry used in STVInt
   1 Symmetry operations used in ECPInt.
 ECPInt:  NShTT=    1485 NPrTT=    5139 LenC2=    1483 LenP2D=    4466.
 LDataN:  DoStor=T MaxTD1= 4 Len=   56
 NBasis=   110 RedAO= T EigKep=  2.40D-03  NBF=   110
 NBsUse=   110 1.00D-06 EigRej= -1.00D+00 NBFU=   110
 Precomputing XC quadrature grid using
 IXCGrd= 4 IRadAn=           5 IRanWt=          -1 IRanGd=           0 AccXCQ= 0.00D+00.
 Generated NRdTot=       0 NPtTot=           0 NUsed=           0 NTot=          32
 NSgBfM=   115   115   115   115   115 MxSgAt=    13 MxSgA2=    13.
 Leave Link  302 at Tue Oct 21 19:54:00 2025, MaxMem=  4294967296 cpu:               1.2 elap:               0.2
 (Enter /lrz/sys/applications/gaussian/g16.C.01/x86_64_legacy/exe/l303.exe)
 DipDrv:  MaxL=1.
 Leave Link  303 at Tue Oct 21 19:54:00 2025, MaxMem=  4294967296 cpu:               0.3 elap:               0.1
 (Enter /lrz/sys/applications/gaussian/g16.C.01/x86_64_legacy/exe/l401.exe)
 Initial guess from the checkpoint file:  "g16_C3-w_9.chk"
 B after Tr=    -0.000000   -0.000000    0.000000
         Rot=    1.000000   -0.000385    0.000018    0.000220 Ang=  -0.05 deg.
 Guess basis will be translated and rotated to current coordinates.
 JPrj=2 DoOrth=T DoCkMO=T.
 Generating alternative initial guess.
 ExpMin= 1.22D-01 ExpMax= 2.27D+03 ExpMxC= 3.41D+02 IAcc=3 IRadAn=         5 AccDes= 0.00D+00
 Harris functional with IExCor= 4639 and IRadAn=       5 diagonalized for initial guess.
 HarFok:  IExCor= 4639 AccDes= 0.00D+00 IRadAn=         5 IDoV= 1 UseB2=F ITyADJ=14
 ICtDFT=  3500011 ScaDFX=  1.000000  1.000000  1.000000  1.000000
 FoFCou: FMM=F IPFlag=           0 FMFlag=      100000 FMFlg1=           0
         NFxFlg=           0 DoJE=T BraDBF=F KetDBF=T FulRan=T
         wScrn=  0.000000 ICntrl=       500 IOpCl=  0 I1Cent=   200000004 NGrid=           0
         NMat0=    1 NMatS0=      1 NMatT0=    0 NMatD0=    1 NMtDS0=    0 NMtDT0=    0
 Petite list used in FoFCou.
 Harris En= -258.102428090933    
 Leave Link  401 at Tue Oct 21 19:54:01 2025, MaxMem=  4294967296 cpu:               5.6 elap:               0.7
 (Enter /lrz/sys/applications/gaussian/g16.C.01/x86_64_legacy/exe/l502.exe)
 Integral symmetry usage will be decided dynamically.
 Closed shell SCF:
 Using DIIS extrapolation, IDIIS=  1040.
 NGot=  4294967296 LenX=  4294938204 LenY=  4294924538
 Requested convergence on RMS density matrix=1.00D-08 within 128 cycles.
 Requested convergence on MAX density matrix=1.00D-06.
 Requested convergence on             energy=1.00D-06.
 No special actions if energy rises.
 Fock matrices will be formed incrementally for  20 cycles.

 Cycle   1  Pass 1  IDiag  1:
 FoFJK:  IHMeth= 1 ICntrl=       0 DoSepK=T KAlg= 0 I1Cent=           0 FoldK=F
 IRaf=         1 NMat=       1 IRICut=       1 DoRegI=T DoRafI=F ISym2E= 0 IDoP0=0 IntGTp=1.
 FoFCou: FMM=F IPFlag=           0 FMFlag=      100000 FMFlg1=           0
         NFxFlg=           0 DoJE=T BraDBF=F KetDBF=F FulRan=T
         wScrn=  0.000000 ICntrl=       500 IOpCl=  0 I1Cent=           0 NGrid=           0
         NMat0=    1 NMatS0=      1 NMatT0=    0 NMatD0=    1 NMtDS0=    0 NMtDT0=    0
 Symmetry not used in FoFCou.
 Inv3:  Mode=1 IEnd=     2473392.
 Iteration    1 A*A^-1 deviation from unit magnitude is 5.00D-15 for    179.
 Iteration    1 A*A^-1 deviation from orthogonality  is 3.02D-15 for    889    544.
 Iteration    1 A^-1*A deviation from unit magnitude is 4.55D-15 for    322.
 Iteration    1 A^-1*A deviation from orthogonality  is 3.01D-15 for    719     72.
 E= -269.314129516561    
 DIIS: error= 4.08D-04 at cycle   1 NSaved=   1.
 NSaved= 1 IEnMin= 1 EnMin= -269.314129516561     IErMin= 1 ErrMin= 4.08D-04
 ErrMax= 4.08D-04  0.00D+00 EMaxC= 1.00D-01 BMatC= 2.80D-05 BMatP= 2.80D-05
 IDIUse=3 WtCom= 9.96D-01 WtEn= 4.08D-03
 Coeff-Com:  0.100D+01
 Coeff-En:   0.100D+01
 Coeff:      0.100D+01
 Gap=     0.741 Goal=   None    Shift=    0.000
 RMSDP=7.66D-05 MaxDP=2.92D-03              OVMax= 1.84D-03

 Cycle   2  Pass 1  IDiag  1:
 RMSU=  7.66D-05    CP:  1.00D+00
 E= -269.314165612272     Delta-E=       -0.000036095711 Rises=F Damp=F
 DIIS: error= 7.01D-05 at cycle   2 NSaved=   2.
 NSaved= 2 IEnMin= 2 EnMin= -269.314165612272     IErMin= 2 ErrMin= 7.01D-05
 ErrMax= 7.01D-05  0.00D+00 EMaxC= 1.00D-01 BMatC= 8.35D-07 BMatP= 2.80D-05
 IDIUse=1 WtCom= 1.00D+00 WtEn= 0.00D+00
 Coeff-Com: -0.159D+00 0.116D+01
 Coeff:     -0.159D+00 0.116D+01
 Gap=     0.494 Goal=   None    Shift=    0.000
 RMSDP=1.77D-05 MaxDP=6.14D-04 DE=-3.61D-05 OVMax= 6.52D-04

 Cycle   3  Pass 1  IDiag  1:
 RMSU=  8.32D-06    CP:  1.00D+00  1.20D+00
 E= -269.314167336610     Delta-E=       -0.000001724338 Rises=F Damp=F
 DIIS: error= 1.06D-05 at cycle   3 NSaved=   3.
 NSaved= 3 IEnMin= 3 EnMin= -269.314167336610     IErMin= 3 ErrMin= 1.06D-05
 ErrMax= 1.06D-05  0.00D+00 EMaxC= 1.00D-01 BMatC= 2.35D-08 BMatP= 8.35D-07
 IDIUse=1 WtCom= 1.00D+00 WtEn= 0.00D+00
 Coeff-Com:  0.329D-03-0.558D-01 0.106D+01
 Coeff:      0.329D-03-0.558D-01 0.106D+01
 Gap=     0.494 Goal=   None    Shift=    0.000
 RMSDP=3.66D-06 MaxDP=7.54D-05 DE=-1.72D-06 OVMax= 1.47D-04

 Cycle   4  Pass 1  IDiag  1:
 RMSU=  1.99D-06    CP:  1.00D+00  1.23D+00  1.29D+00
 E= -269.314167392789     Delta-E=       -0.000000056179 Rises=F Damp=F
 DIIS: error= 6.19D-06 at cycle   4 NSaved=   4.
 NSaved= 4 IEnMin= 4 EnMin= -269.314167392789     IErMin= 4 ErrMin= 6.19D-06
 ErrMax= 6.19D-06  0.00D+00 EMaxC= 1.00D-01 BMatC= 9.94D-09 BMatP= 2.35D-08
 IDIUse=1 WtCom= 1.00D+00 WtEn= 0.00D+00
 Coeff-Com:  0.110D-01-0.104D+00 0.414D+00 0.679D+00
 Coeff:      0.110D-01-0.104D+00 0.414D+00 0.679D+00
 Gap=     0.494 Goal=   None    Shift=    0.000
 RMSDP=1.16D-06 MaxDP=2.43D-05 DE=-5.62D-08 OVMax= 3.98D-05

 Cycle   5  Pass 1  IDiag  1:
 RMSU=  7.57D-07    CP:  1.00D+00  1.23D+00  1.39D+00  9.30D-01
 E= -269.314167403348     Delta-E=       -0.000000010560 Rises=F Damp=F
 DIIS: error= 1.46D-06 at cycle   5 NSaved=   5.
 NSaved= 5 IEnMin= 5 EnMin= -269.314167403348     IErMin= 5 ErrMin= 1.46D-06
 ErrMax= 1.46D-06  0.00D+00 EMaxC= 1.00D-01 BMatC= 7.23D-10 BMatP= 9.94D-09
 IDIUse=1 WtCom= 1.00D+00 WtEn= 0.00D+00
 Coeff-Com:  0.333D-02-0.267D-01-0.917D-02 0.184D+00 0.848D+00
 Coeff:      0.333D-02-0.267D-01-0.917D-02 0.184D+00 0.848D+00
 Gap=     0.494 Goal=   None    Shift=    0.000
 RMSDP=5.19D-07 MaxDP=1.46D-05 DE=-1.06D-08 OVMax= 2.06D-05

 Cycle   6  Pass 1  IDiag  1:
 RMSU=  2.03D-07    CP:  1.00D+00  1.24D+00  1.43D+00  1.07D+00  1.13D+00
 E= -269.314167404493     Delta-E=       -0.000000001145 Rises=F Damp=F
 DIIS: error= 5.06D-07 at cycle   6 NSaved=   6.
 NSaved= 6 IEnMin= 6 EnMin= -269.314167404493     IErMin= 6 ErrMin= 5.06D-07
 ErrMax= 5.06D-07  0.00D+00 EMaxC= 1.00D-01 BMatC= 7.12D-11 BMatP= 7.23D-10
 IDIUse=1 WtCom= 1.00D+00 WtEn= 0.00D+00
 Coeff-Com: -0.278D-04 0.221D-02-0.401D-01-0.181D-01 0.223D+00 0.833D+00
 Coeff:     -0.278D-04 0.221D-02-0.401D-01-0.181D-01 0.223D+00 0.833D+00
 Gap=     0.494 Goal=   None    Shift=    0.000
 RMSDP=1.73D-07 MaxDP=5.16D-06 DE=-1.14D-09 OVMax= 6.99D-06

 Cycle   7  Pass 1  IDiag  1:
 RMSU=  7.40D-08    CP:  1.00D+00  1.24D+00  1.44D+00  1.12D+00  1.26D+00
                    CP:  9.56D-01
 E= -269.314167404612     Delta-E=       -0.000000000119 Rises=F Damp=F
 DIIS: error= 1.86D-07 at cycle   7 NSaved=   7.
 NSaved= 7 IEnMin= 7 EnMin= -269.314167404612     IErMin= 7 ErrMin= 1.86D-07
 ErrMax= 1.86D-07  0.00D+00 EMaxC= 1.00D-01 BMatC= 7.91D-12 BMatP= 7.12D-11
 IDIUse=1 WtCom= 1.00D+00 WtEn= 0.00D+00
 Coeff-Com: -0.374D-03 0.369D-02-0.727D-02-0.277D-01-0.547D-01 0.231D+00
 Coeff-Com:  0.855D+00
 Coeff:     -0.374D-03 0.369D-02-0.727D-02-0.277D-01-0.547D-01 0.231D+00
 Coeff:      0.855D+00
 Gap=     0.494 Goal=   None    Shift=    0.000
 RMSDP=5.45D-08 MaxDP=1.66D-06 DE=-1.19D-10 OVMax= 2.19D-06

 Cycle   8  Pass 1  IDiag  1:
 RMSU=  1.69D-08    CP:  1.00D+00  1.24D+00  1.44D+00  1.13D+00  1.29D+00
                    CP:  1.11D+00  1.11D+00
 E= -269.314167404621     Delta-E=       -0.000000000009 Rises=F Damp=F
 DIIS: error= 2.49D-08 at cycle   8 NSaved=   8.
 NSaved= 8 IEnMin= 8 EnMin= -269.314167404621     IErMin= 8 ErrMin= 2.49D-08
 ErrMax= 2.49D-08  0.00D+00 EMaxC= 1.00D-01 BMatC= 2.29D-13 BMatP= 7.91D-12
 IDIUse=1 WtCom= 1.00D+00 WtEn= 0.00D+00
 Coeff-Com: -0.310D-04 0.230D-03 0.115D-02-0.255D-02-0.169D-01-0.692D-02
 Coeff-Com:  0.103D+00 0.922D+00
 Coeff:     -0.310D-04 0.230D-03 0.115D-02-0.255D-02-0.169D-01-0.692D-02
 Coeff:      0.103D+00 0.922D+00
 Gap=     0.494 Goal=   None    Shift=    0.000
 RMSDP=1.21D-08 MaxDP=2.56D-07 DE=-9.38D-12 OVMax= 4.45D-07

 Cycle   9  Pass 1  IDiag  1:
 RMSU=  5.41D-09    CP:  1.00D+00  1.24D+00  1.44D+00  1.13D+00  1.30D+00
                    CP:  1.14D+00  1.20D+00  1.17D+00
 E= -269.314167404623     Delta-E=       -0.000000000002 Rises=F Damp=F
 DIIS: error= 1.77D-08 at cycle   9 NSaved=   9.
 NSaved= 9 IEnMin= 9 EnMin= -269.314167404623     IErMin= 9 ErrMin= 1.77D-08
 ErrMax= 1.77D-08  0.00D+00 EMaxC= 1.00D-01 BMatC= 9.10D-14 BMatP= 2.29D-13
 IDIUse=1 WtCom= 1.00D+00 WtEn= 0.00D+00
 Coeff-Com:  0.364D-04-0.397D-03 0.161D-02 0.237D-02-0.145D-02-0.340D-01
 Coeff-Com: -0.629D-01 0.432D+00 0.663D+00
 Coeff:      0.364D-04-0.397D-03 0.161D-02 0.237D-02-0.145D-02-0.340D-01
 Coeff:     -0.629D-01 0.432D+00 0.663D+00
 Gap=     0.494 Goal=   None    Shift=    0.000
 RMSDP=4.11D-09 MaxDP=6.70D-08 DE=-2.05D-12 OVMax= 1.37D-07

 Error on total polarization charges =  0.03196
 SCF Done:  E(RwB97XD) =  -269.314167405     A.U. after    9 cycles
            NFock=  9  Conv=0.41D-08     -V/T= 2.0096
 KE= 2.667520079916D+02 PE=-1.024270287668D+03 EE= 2.909994055854D+02
 SMD-CDS (non-electrostatic) energy       (kcal/mol) =       2.81
 (included in total energy above)
 Leave Link  502 at Tue Oct 21 19:54:14 2025, MaxMem=  4294967296 cpu:             104.2 elap:              13.1
 (Enter /lrz/sys/applications/gaussian/g16.C.01/x86_64_legacy/exe/l701.exe)
 ... and contract with generalized density number  0.
 Compute integral first derivatives.
 R6Disp: Adding Grimme-D2 dispersion energy 1st derivatives to the gradient.
   1 Symmetry operations used in ECPInt.
 ECPInt:  NShTT=    1485 NPrTT=    5139 LenC2=    1483 LenP2D=    4466.
 LDataN:  DoStor=T MaxTD1= 5 Len=  102
 D1PCM: PCM CHGder 1st derivatives, ID1Alg=3 FixD1E=F DoIter=F DoCFld=F I1PDM=0.
 GePol: Maximum number of non-zero 1st derivatives   =     242
 Leave Link  701 at Tue Oct 21 19:54:14 2025, MaxMem=  4294967296 cpu:               4.2 elap:               0.5
 (Enter /lrz/sys/applications/gaussian/g16.C.01/x86_64_legacy/exe/l702.exe)
 L702 exits ... SP integral derivatives will be done elsewhere.
 Leave Link  702 at Tue Oct 21 19:54:15 2025, MaxMem=  4294967296 cpu:               0.2 elap:               0.0
 (Enter /lrz/sys/applications/gaussian/g16.C.01/x86_64_legacy/exe/l703.exe)
 Integral derivatives from FoFJK, PRISM(SPDF).
 Compute integral first derivatives, UseDBF=F ICtDFT=           0.
 Calling FoFJK, ICntrl=      2127 FMM=F ISym2X=0 I1Cent= 0 IOpClX= 0 NMat=1 NMatS=1 NMatT=0.
 FoFJK:  IHMeth= 1 ICntrl=    2127 DoSepK=T KAlg= 0 I1Cent=           0 FoldK=F
 IRaf=         1 NMat=       1 IRICut=       1 DoRegI=T DoRafI=F ISym2E= 0 IDoP0=0 IntGTp=1.
 FoFCou: FMM=F IPFlag=           0 FMFlag=      100000 FMFlg1=         800
         NFxFlg=           0 DoJE=F BraDBF=F KetDBF=F FulRan=T
         wScrn=  0.000000 ICntrl=      2527 IOpCl=  0 I1Cent=           0 NGrid=           0
         NMat0=    1 NMatS0=      1 NMatT0=    0 NMatD0=    1 NMtDS0=    0 NMtDT0=    0
 Symmetry not used in FoFCou.
 Leave Link  703 at Tue Oct 21 19:54:17 2025, MaxMem=  4294967296 cpu:              17.0 elap:               2.1
 (Enter /lrz/sys/applications/gaussian/g16.C.01/x86_64_legacy/exe/l716.exe)
 Dipole        = 1.17354420D+00 6.06527769D-01 3.69543590D-01
 ***** Axes restored to original set *****
 -------------------------------------------------------------------
 Center     Atomic                   Forces (Hartrees/Bohr)
 Number     Number              X              Y              Z
 -------------------------------------------------------------------
      1        8          -0.000003040    0.000044500   -0.000111060
      2        6           0.000122661   -0.000081509    0.000030363
      3        8          -0.000018051    0.000194975    0.000026738
      4        6          -0.000033605   -0.000013039    0.000108776
      5        6          -0.000055608   -0.000005398   -0.000122913
      6        1           0.000053939    0.000001091    0.000013820
      7        1          -0.000014596    0.000022260    0.000037845
      8        1          -0.000061391   -0.000147615    0.000020536
      9        1           0.000005378    0.000033497   -0.000020515
     10        1          -0.000003298    0.000000751   -0.000002938
     11        1           0.000025524   -0.000011233    0.000002400
     12        1           0.000000820   -0.000039827    0.000016406
     13        1          -0.000018733    0.000001547    0.000000541
 -------------------------------------------------------------------
 Cartesian Forces:  Max     0.000194975 RMS     0.000060587
 Leave Link  716 at Tue Oct 21 19:54:17 2025, MaxMem=  4294967296 cpu:               0.2 elap:               0.0
 (Enter /lrz/sys/applications/gaussian/g16.C.01/x86_64_legacy/exe/l103.exe)

 GradGradGradGradGradGradGradGradGradGradGradGradGradGradGradGradGradGrad
 Berny optimization.
 Using GEDIIS/GDIIS optimizer.
 FormGI is forming the generalized inverse of G from B-inverse, IUseBI=4.
 Internal  Forces:  Max     0.000115421 RMS     0.000038114
 Search for a local minimum.
 Step number   8 out of a maximum of   66
 All quantities printed in internal units (Hartrees-Bohrs-Radians)
 RMS Force = .38114D-04 SwitMx=.10000D-02 MixMth= 2
 Mixed Optimization -- En-DIIS/RFO-DIIS
 Swapping is turned off.
 Update second derivatives using D2CorX and points    2    3    4    5    6
                                                      7    8
 DE= -3.53D-06 DEPred=-2.08D-06 R= 1.70D+00
 TightC=F SS=  1.41D+00  RLast= 3.39D-02 DXNew= 1.2905D+00 1.0157D-01
 Trust test= 1.70D+00 RLast= 3.39D-02 DXMaxT set to 7.67D-01
 ITU=  1  0  1  1  1  1  1  0
     Eigenvalues ---    0.00208   0.00260   0.00342   0.00879   0.03459
     Eigenvalues ---    0.04551   0.05486   0.05584   0.06278   0.06916
     Eigenvalues ---    0.08609   0.10140   0.12406   0.15608   0.15956
     Eigenvalues ---    0.16133   0.16601   0.17729   0.19734   0.21194
     Eigenvalues ---    0.22066   0.29605   0.32073   0.33559   0.34628
     Eigenvalues ---    0.34818   0.35046   0.35107   0.38947   0.47648
     Eigenvalues ---    0.49998   0.54733   0.54802
 En-DIIS/RFO-DIIS/Sim-DIIS IScMMF=       -3 using points:     8    7    6    5    4    3    2
 RFO step:  Lambda=-3.01639409D-06.
 NNeg= 0 NGDIIS= 7 SimSw=  2.50D-01 Rises=F DC= -3.53D-06 SmlDif=  1.00D-05
 NRisDI= 0 DoIntr=F SqrtH=F CThrHd= 10.0 CDAdj=  3.0
 RMS Error=  0.3088233419D-02 NUsed= 7 OKEnD=F EnDIS=F
 InvSVX:  RCond= 4.15D-07 Info=           0 Equed=N FErr=  3.85D-12 BErr=  6.18D-17
 DidBck=F Rises=F RFO-DIIS coefs:    1.82324   -0.37537   -0.66397    0.14007    0.09712
                  RFO-DIIS coefs:   -0.06708    0.04599
 Iteration  1 RMS(Cart)=  0.00285403 RMS(Int)=  0.00001468
 Iteration  2 RMS(Cart)=  0.00001361 RMS(Int)=  0.00000143
 Iteration  3 RMS(Cart)=  0.00000000 RMS(Int)=  0.00000143
 ITry= 1 IFail=0 DXMaxC= 1.19D-02 DCOld= 1.00D+10 DXMaxT= 7.67D-01 DXLimC= 3.00D+00 Rises=F
 Variable       Old X    -DE/DX   Delta X   Delta X   Delta X     New X
                                 (Linear)    (Quad)   (Total)
    R1        2.66901  -0.00005  -0.00015  -0.00012  -0.00027   2.66874
    R2        1.82444   0.00000   0.00031  -0.00025   0.00005   1.82450
    R3        2.64244   0.00010   0.00170  -0.00102   0.00067   2.64312
    R4        2.88517  -0.00008  -0.00063   0.00028  -0.00035   2.88481
    R5        2.08795  -0.00002   0.00028  -0.00029  -0.00001   2.08793
    R6        1.82687  -0.00002   0.00013  -0.00014  -0.00001   1.82686
    R7        2.87940  -0.00012   0.00032  -0.00044  -0.00012   2.87928
    R8        2.08361   0.00001   0.00091  -0.00072   0.00020   2.08381
    R9        2.08137  -0.00001   0.00089  -0.00073   0.00016   2.08153
   R10        2.07880   0.00000   0.00111  -0.00080   0.00030   2.07910
   R11        2.08272  -0.00001   0.00076  -0.00069   0.00006   2.08278
   R12        2.07780  -0.00002   0.00100  -0.00084   0.00016   2.07796
    A1        1.88895   0.00003  -0.00072   0.00089   0.00018   1.88913
    A2        1.87364   0.00000   0.00022   0.00005   0.00027   1.87391
    A3        1.95167  -0.00004   0.00120  -0.00087   0.00033   1.95200
    A4        1.91860   0.00002  -0.00101   0.00091  -0.00010   1.91850
    A5        1.97192   0.00007  -0.00091   0.00091   0.00000   1.97192
    A6        1.83760  -0.00003  -0.00052   0.00005  -0.00046   1.83714
    A7        1.90669  -0.00003   0.00086  -0.00094  -0.00008   1.90661
    A8        1.88667  -0.00005   0.00022  -0.00067  -0.00046   1.88621
    A9        1.99188   0.00006   0.00029  -0.00025   0.00004   1.99192
   A10        1.87961  -0.00001   0.00115  -0.00075   0.00039   1.88001
   A11        1.87834  -0.00003  -0.00099   0.00057  -0.00042   1.87792
   A12        1.92056  -0.00002   0.00053  -0.00043   0.00010   1.92066
   A13        1.92917  -0.00000   0.00018   0.00005   0.00024   1.92941
   A14        1.85874  -0.00000  -0.00130   0.00090  -0.00040   1.85835
   A15        1.93974   0.00004  -0.00071   0.00063  -0.00008   1.93966
   A16        1.95041   0.00001  -0.00011  -0.00006  -0.00017   1.95024
   A17        1.93268  -0.00002   0.00175  -0.00144   0.00032   1.93299
   A18        1.88447  -0.00002  -0.00048   0.00044  -0.00004   1.88443
   A19        1.88445  -0.00001  -0.00140   0.00089  -0.00051   1.88394
   A20        1.86914   0.00000   0.00090  -0.00043   0.00048   1.86962
    D1       -3.00493   0.00001   0.00619   0.00087   0.00706  -2.99786
    D2       -0.83278   0.00008   0.00599   0.00148   0.00747  -0.82531
    D3        1.28820   0.00003   0.00719   0.00032   0.00752   1.29571
    D4        1.20203  -0.00008  -0.00852  -0.00186  -0.01038   1.19165
    D5       -0.95779  -0.00008  -0.00961  -0.00139  -0.01099  -0.96878
    D6       -3.03733  -0.00006  -0.00982  -0.00077  -0.01060  -3.04793
    D7       -1.03634  -0.00001  -0.00096   0.00052  -0.00044  -1.03678
    D8        1.10134  -0.00001   0.00075  -0.00075   0.00001   1.10134
    D9        3.09907  -0.00003  -0.00067   0.00021  -0.00046   3.09861
   D10        1.07988   0.00002  -0.00045   0.00060   0.00016   1.08004
   D11       -3.06563   0.00003   0.00127  -0.00067   0.00060  -3.06502
   D12       -1.06789   0.00000  -0.00015   0.00029   0.00013  -1.06776
   D13        3.11901   0.00001  -0.00108   0.00060  -0.00047   3.11854
   D14       -1.02650   0.00001   0.00064  -0.00067  -0.00003  -1.02653
   D15        0.97124  -0.00001  -0.00078   0.00029  -0.00050   0.97074
   D16        1.00110   0.00001  -0.00172   0.00002  -0.00170   0.99940
   D17       -1.10539   0.00000  -0.00054  -0.00094  -0.00148  -1.10687
   D18        3.09558   0.00001  -0.00279   0.00060  -0.00218   3.09339
   D19       -1.11403  -0.00000  -0.00382   0.00150  -0.00232  -1.11635
   D20        3.06266  -0.00001  -0.00264   0.00054  -0.00210   3.06057
   D21        0.98045  -0.00000  -0.00488   0.00208  -0.00280   0.97765
   D22        3.12102   0.00001  -0.00266   0.00062  -0.00204   3.11898
   D23        1.01453   0.00001  -0.00148  -0.00034  -0.00182   1.01271
   D24       -1.06769   0.00001  -0.00372   0.00120  -0.00252  -1.07021
         Item               Value     Threshold  Converged?
 Maximum Force            0.000115     0.000450     YES
 RMS     Force            0.000038     0.000300     YES
 Maximum Displacement     0.011868     0.001800     NO 
 RMS     Displacement     0.002855     0.001200     NO 
 Predicted change in Energy=-1.414724D-06
 Lowest energy point so far.  Saving SCF results.
 GradGradGradGradGradGradGradGradGradGradGradGradGradGradGradGradGradGrad

 Leave Link  103 at Tue Oct 21 19:54:17 2025, MaxMem=  4294967296 cpu:               0.1 elap:               0.0
 (Enter /lrz/sys/applications/gaussian/g16.C.01/x86_64_legacy/exe/l202.exe)
                          Input orientation:                          
 ---------------------------------------------------------------------
 Center     Atomic      Atomic             Coordinates (Angstroms)
 Number     Number       Type             X           Y           Z
 ---------------------------------------------------------------------
      1          8           0       -0.731191   -1.355228   -0.073795
      2          6           0       -0.604400   -0.005691   -0.470140
      3          8           0       -1.261073    0.774127    0.487443
      4          6           0        0.855924    0.394216   -0.664992
      5          6           0        1.717129    0.234448    0.581728
      6          1           0       -0.174842   -1.893237   -0.651012
      7          1           0       -1.157035    0.163650   -1.411783
      8          1           0       -0.758590    0.722941    1.311737
      9          1           0        1.264257   -0.216586   -1.487269
     10          1           0        0.871382    1.438752   -1.014286
     11          1           0        1.690210   -0.801085    0.952421
     12          1           0        1.382082    0.896249    1.396911
     13          1           0        2.764790    0.490238    0.366980
 ---------------------------------------------------------------------
                    Distance matrix (angstroms):
                    1          2          3          4          5
     1  O    0.000000
     2  C    1.412238   0.000000
     3  O    2.264931   1.398678   0.000000
     4  C    2.434955   1.526578   2.440105   0.000000
     5  C    2.991831   2.559998   3.028173   1.523650   0.000000
     6  H    0.965483   1.944239   3.096903   2.509007   3.102619
     7  H    2.068465   1.104886   1.997640   2.159366   3.498559
     8  H    2.497846   1.931259   0.966732   2.573358   2.626922
     9  H    2.697448   2.137968   3.355338   1.102704   2.165473
    10  H    3.355457   2.135520   2.691520   1.101500   2.170921
    11  H    2.687634   2.814528   3.377509   2.177338   1.100212
    12  H    3.420241   2.871496   2.797913   2.186395   1.102162
    13  H    3.977676   3.506873   4.037657   2.172085   1.099609
                    6          7          8          9         10
     6  H    0.000000
     7  H    2.402969   0.000000
     8  H    3.322278   2.808759   0.000000
     9  H    2.362518   2.452128   3.578974   0.000000
    10  H    3.511226   2.428655   2.929092   1.765845   0.000000
    11  H    2.691136   3.824523   2.906610   2.544634   3.091163
    12  H    3.794632   3.856499   2.149365   3.093668   2.523687
    13  H    3.919017   4.318723   3.655259   2.487858   2.528353
                   11         12         13
    11  H    0.000000
    12  H    1.781420   0.000000
    13  H    1.779039   1.771295   0.000000
 Stoichiometry    C3H8O2
 Framework group  C1[X(C3H8O2)]
 Deg. of freedom    33
 Full point group                 C1      NOp   1
 RotChk:  IX=0 Diff= 1.64D-03
 Largest Abelian subgroup         C1      NOp   1
 Largest concise Abelian subgroup C1      NOp   1
                         Standard orientation:                         
 ---------------------------------------------------------------------
 Center     Atomic      Atomic             Coordinates (Angstroms)
 Number     Number       Type             X           Y           Z
 ---------------------------------------------------------------------
      1          8           0       -1.046590    1.076403   -0.420448
      2          6           0       -0.666184    0.012893    0.427286
      3          8           0       -1.062715   -1.176913   -0.191928
      4          6           0        0.825642    0.048889    0.749153
      5          6           0        1.729135   -0.038707   -0.474586
      6          1           0       -0.665806    1.892085   -0.071414
      7          1           0       -1.242934    0.057045    1.368659
      8          1           0       -0.518869   -1.299674   -0.981695
      9          1           0        1.027264    0.981528    1.301863
     10          1           0        1.036194   -0.778469    1.445175
     11          1           0        1.511050    0.770467   -1.187427
     12          1           0        1.609204   -0.998630   -1.002719
     13          1           0        2.786785    0.041272   -0.184556
 ---------------------------------------------------------------------
 Rotational constants (GHZ):           6.8902992           4.0160373           3.3445063
 Leave Link  202 at Tue Oct 21 19:54:17 2025, MaxMem=  4294967296 cpu:               0.0 elap:               0.0
 (Enter /lrz/sys/applications/gaussian/g16.C.01/x86_64_legacy/exe/l301.exe)
 Standard basis: def2SVP (5D, 7F)
 Ernie: Thresh=  0.10000D-02 Tol=  0.10000D-05 Strict=F.
 There are   115 symmetry adapted cartesian basis functions of A   symmetry.
 There are   110 symmetry adapted basis functions of A   symmetry.
   110 basis functions,   181 primitive gaussians,   115 cartesian basis functions
    21 alpha electrons       21 beta electrons
       nuclear repulsion energy       197.2014417220 Hartrees.
 IExCor= 4639 DFT=T Ex+Corr=wB97XD ExCW=0 ScaHFX=  1.000000
 ScaDFX=  1.000000  1.000000  1.000000  1.000000 ScalE2=  1.000000  1.000000
 IRadAn=      5 IRanWt=     -1 IRanGd=            0 ICorTp=0 IEmpDi=121
 HFx  wShort=  0.000000 wLong=  0.200000 cFull=  0.222036 cShort=  0.000000 cLong=  0.777964
 DFx  wShort=  0.000000 wLong=  0.200000 cFull=  0.000000 cShort=  0.000000 cLong=  1.000000
 NAtoms=   13 NActive=   13 NUniq=   13 SFac= 1.00D+00 NAtFMM=   60 NAOKFM=F Big=F
 Integral buffers will be    131072 words long.
 Raffenetti 2 integral format.
 Two-electron integral symmetry is turned on.
 R6Disp:  Grimme-D2 Dispersion energy=       -0.0059729008 Hartrees.
 Nuclear repulsion after empirical dispersion term =      197.1954688213 Hartrees.
 ------------------------------------------------------------------------------
 Polarizable Continuum Model (PCM)
 =================================
 Model                : PCM.
 Atomic radii         : SMD-Coulomb.
 Polarization charges : Total charges.
 Charge compensation  : None.
 Solution method      : On-the-fly selection.
 Cavity type          : VdW (van der Waals Surface) (Alpha=1.000).
 Cavity algorithm     : GePol (No added spheres)
                        Default sphere list used, NSphG=   13.
                        Lebedev-Laikov grids with approx.  5.0 points / Ang**2.
                        Smoothing algorithm: York/Karplus (Gamma=1.0000).
                        Polarization charges: spherical gaussians, with
                                              point-specific exponents (IZeta= 3).
                        Self-potential: point-specific (ISelfS= 7).
                        Self-field    : sphere-specific E.n sum rule (ISelfD= 2).
 1st derivatives      : Analytical E(r).r(x)/FMM algorithm (CHGder, D1EAlg=3).
                        Cavity 1st derivative terms included.
 Solvent              : Water, Eps=  78.355300 Eps(inf)=   1.777849
 ------------------------------------------------------------------------------
 Spheres list:
 ISph  on   Nord     Re0    Alpha      Xe            Ye            Ze
    1   O      1    1.5200  1.000     -1.046590      1.076403     -0.420448
    2   C      2    1.8500  1.000     -0.666184      0.012893      0.427286
    3   O      3    1.5200  1.000     -1.062715     -1.176913     -0.191928
    4   C      4    1.8500  1.000      0.825642      0.048889      0.749153
    5   C      5    1.8500  1.000      1.729135     -0.038707     -0.474586
    6   H      6    1.2000  1.000     -0.665806      1.892085     -0.071414
    7   H      7    1.2000  1.000     -1.242934      0.057045      1.368659
    8   H      8    1.2000  1.000     -0.518869     -1.299674     -0.981695
    9   H      9    1.2000  1.000      1.027264      0.981528      1.301863
   10   H     10    1.2000  1.000      1.036194     -0.778469      1.445175
   11   H     11    1.2000  1.000      1.511050      0.770467     -1.187427
   12   H     12    1.2000  1.000      1.609204     -0.998630     -1.002719
   13   H     13    1.2000  1.000      2.786785      0.041272     -0.184556
 ------------------------------------------------------------------------------
 GePol: Number of generator spheres                  =      13
 GePol: Total number of spheres                      =      13
 GePol: Number of exposed spheres                    =      13 (100.00%)
 GePol: Number of points                             =     906
 GePol: Average weight of points                     =       0.12
 GePol: Minimum weight of points                     =   0.30D-08
 GePol: Maximum weight of points                     =    0.21991
 GePol: Number of points with low weight             =      39
 GePol: Fraction of low-weight points (<1% of avg)   =       4.30%
 GePol: Cavity surface area                          =    109.089 Ang**2
 GePol: Cavity volume                                =     81.970 Ang**3
 ------------------------------------------------------------------------------
 Atomic radii for non-electrostatic terms: SMD-CDS.
 ------------------------------------------------------------------------------
 PCM non-electrostatic energy =         0.0044675875 Hartrees.
 Nuclear repulsion after PCM non-electrostatic terms =      197.1999364087 Hartrees.
 Leave Link  301 at Tue Oct 21 19:54:17 2025, MaxMem=  4294967296 cpu:               0.5 elap:               0.1
 (Enter /lrz/sys/applications/gaussian/g16.C.01/x86_64_legacy/exe/l302.exe)
 NPDir=0 NMtPBC=     1 NCelOv=     1 NCel=       1 NClECP=     1 NCelD=      1
         NCelK=      1 NCelE2=     1 NClLst=     1 CellRange=     0.0.
 One-electron integrals computed using PRISM.
 One-electron integral symmetry used in STVInt
   1 Symmetry operations used in ECPInt.
 ECPInt:  NShTT=    1485 NPrTT=    5139 LenC2=    1483 LenP2D=    4466.
 LDataN:  DoStor=T MaxTD1= 4 Len=   56
 NBasis=   110 RedAO= T EigKep=  2.40D-03  NBF=   110
 NBsUse=   110 1.00D-06 EigRej= -1.00D+00 NBFU=   110
 Precomputing XC quadrature grid using
 IXCGrd= 4 IRadAn=           5 IRanWt=          -1 IRanGd=           0 AccXCQ= 0.00D+00.
 Generated NRdTot=       0 NPtTot=           0 NUsed=           0 NTot=          32
 NSgBfM=   115   115   115   115   115 MxSgAt=    13 MxSgA2=    13.
 Leave Link  302 at Tue Oct 21 19:54:17 2025, MaxMem=  4294967296 cpu:               1.2 elap:               0.2
 (Enter /lrz/sys/applications/gaussian/g16.C.01/x86_64_legacy/exe/l303.exe)
 DipDrv:  MaxL=1.
 Leave Link  303 at Tue Oct 21 19:54:17 2025, MaxMem=  4294967296 cpu:               0.2 elap:               0.0
 (Enter /lrz/sys/applications/gaussian/g16.C.01/x86_64_legacy/exe/l401.exe)
 Initial guess from the checkpoint file:  "g16_C3-w_9.chk"
 B after Tr=    -0.000000    0.000000   -0.000000
         Rot=    1.000000   -0.000097   -0.000147    0.000346 Ang=  -0.04 deg.
 Guess basis will be translated and rotated to current coordinates.
 JPrj=2 DoOrth=T DoCkMO=T.
 Leave Link  401 at Tue Oct 21 19:54:17 2025, MaxMem=  4294967296 cpu:               0.7 elap:               0.1
 (Enter /lrz/sys/applications/gaussian/g16.C.01/x86_64_legacy/exe/l502.exe)
 Integral symmetry usage will be decided dynamically.
 Closed shell SCF:
 Using DIIS extrapolation, IDIIS=  1040.
 NGot=  4294967296 LenX=  4294938204 LenY=  4294924538
 Requested convergence on RMS density matrix=1.00D-08 within 128 cycles.
 Requested convergence on MAX density matrix=1.00D-06.
 Requested convergence on             energy=1.00D-06.
 No special actions if energy rises.
 Fock matrices will be formed incrementally for  20 cycles.

 Cycle   1  Pass 1  IDiag  1:
 FoFJK:  IHMeth= 1 ICntrl=       0 DoSepK=T KAlg= 0 I1Cent=           0 FoldK=F
 IRaf=         1 NMat=       1 IRICut=       1 DoRegI=T DoRafI=F ISym2E= 0 IDoP0=0 IntGTp=1.
 FoFCou: FMM=F IPFlag=           0 FMFlag=      100000 FMFlg1=           0
         NFxFlg=           0 DoJE=T BraDBF=F KetDBF=F FulRan=T
         wScrn=  0.000000 ICntrl=       500 IOpCl=  0 I1Cent=           0 NGrid=           0
         NMat0=    1 NMatS0=      1 NMatT0=    0 NMatD0=    1 NMtDS0=    0 NMtDT0=    0
 Symmetry not used in FoFCou.
 Inv3:  Mode=1 IEnd=     2462508.
 Iteration    1 A*A^-1 deviation from unit magnitude is 4.66D-15 for    235.
 Iteration    1 A*A^-1 deviation from orthogonality  is 2.58D-15 for    737     92.
 Iteration    1 A^-1*A deviation from unit magnitude is 4.66D-15 for    235.
 Iteration    1 A^-1*A deviation from orthogonality  is 2.19D-15 for    564    142.
 E= -269.314149380100    
 DIIS: error= 3.73D-04 at cycle   1 NSaved=   1.
 NSaved= 1 IEnMin= 1 EnMin= -269.314149380100     IErMin= 1 ErrMin= 3.73D-04
 ErrMax= 3.73D-04  0.00D+00 EMaxC= 1.00D-01 BMatC= 1.60D-05 BMatP= 1.60D-05
 IDIUse=3 WtCom= 9.96D-01 WtEn= 3.73D-03
 Coeff-Com:  0.100D+01
 Coeff-En:   0.100D+01
 Coeff:      0.100D+01
 Gap=     0.741 Goal=   None    Shift=    0.000
 RMSDP=6.10D-05 MaxDP=1.48D-03              OVMax= 1.36D-03

 Cycle   2  Pass 1  IDiag  1:
 RMSU=  6.10D-05    CP:  1.00D+00
 E= -269.314169544726     Delta-E=       -0.000020164626 Rises=F Damp=F
 DIIS: error= 5.82D-05 at cycle   2 NSaved=   2.
 NSaved= 2 IEnMin= 2 EnMin= -269.314169544726     IErMin= 2 ErrMin= 5.82D-05
 ErrMax= 5.82D-05  0.00D+00 EMaxC= 1.00D-01 BMatC= 4.62D-07 BMatP= 1.60D-05
 IDIUse=1 WtCom= 1.00D+00 WtEn= 0.00D+00
 Coeff-Com: -0.157D+00 0.116D+01
 Coeff:     -0.157D+00 0.116D+01
 Gap=     0.494 Goal=   None    Shift=    0.000
 RMSDP=1.37D-05 MaxDP=3.10D-04 DE=-2.02D-05 OVMax= 4.54D-04

 Cycle   3  Pass 1  IDiag  1:
 RMSU=  5.48D-06    CP:  1.00D+00  1.21D+00
 E= -269.314170465467     Delta-E=       -0.000000920742 Rises=F Damp=F
 DIIS: error= 6.79D-06 at cycle   3 NSaved=   3.
 NSaved= 3 IEnMin= 3 EnMin= -269.314170465467     IErMin= 3 ErrMin= 6.79D-06
 ErrMax= 6.79D-06  0.00D+00 EMaxC= 1.00D-01 BMatC= 1.09D-08 BMatP= 4.62D-07
 IDIUse=1 WtCom= 1.00D+00 WtEn= 0.00D+00
 Coeff-Com:  0.419D-02-0.815D-01 0.108D+01
 Coeff:      0.419D-02-0.815D-01 0.108D+01
 Gap=     0.494 Goal=   None    Shift=    0.000
 RMSDP=2.57D-06 MaxDP=3.62D-05 DE=-9.21D-07 OVMax= 9.64D-05

 Cycle   4  Pass 1  IDiag  1:
 RMSU=  1.35D-06    CP:  1.00D+00  1.23D+00  1.27D+00
 E= -269.314170493588     Delta-E=       -0.000000028121 Rises=F Damp=F
 DIIS: error= 4.87D-06 at cycle   4 NSaved=   4.
 NSaved= 4 IEnMin= 4 EnMin= -269.314170493588     IErMin= 4 ErrMin= 4.87D-06
 ErrMax= 4.87D-06  0.00D+00 EMaxC= 1.00D-01 BMatC= 4.44D-09 BMatP= 1.09D-08
 IDIUse=1 WtCom= 1.00D+00 WtEn= 0.00D+00
 Coeff-Com:  0.103D-01-0.983D-01 0.415D+00 0.673D+00
 Coeff:      0.103D-01-0.983D-01 0.415D+00 0.673D+00
 Gap=     0.494 Goal=   None    Shift=    0.000
 RMSDP=7.45D-07 MaxDP=1.59D-05 DE=-2.81D-08 OVMax= 2.60D-05

 Cycle   5  Pass 1  IDiag  1:
 RMSU=  5.60D-07    CP:  1.00D+00  1.24D+00  1.35D+00  9.68D-01
 E= -269.314170498054     Delta-E=       -0.000000004466 Rises=F Damp=F
 DIIS: error= 1.55D-06 at cycle   5 NSaved=   5.
 NSaved= 5 IEnMin= 5 EnMin= -269.314170498054     IErMin= 5 ErrMin= 1.55D-06
 ErrMax= 1.55D-06  0.00D+00 EMaxC= 1.00D-01 BMatC= 4.51D-10 BMatP= 4.44D-09
 IDIUse=1 WtCom= 1.00D+00 WtEn= 0.00D+00
 Coeff-Com:  0.312D-02-0.254D-01-0.166D-01 0.221D+00 0.818D+00
 Coeff:      0.312D-02-0.254D-01-0.166D-01 0.221D+00 0.818D+00
 Gap=     0.494 Goal=   None    Shift=    0.000
 RMSDP=3.59D-07 MaxDP=6.52D-06 DE=-4.47D-09 OVMax= 1.24D-05

 Cycle   6  Pass 1  IDiag  1:
 RMSU=  1.39D-07    CP:  1.00D+00  1.24D+00  1.38D+00  1.13D+00  1.09D+00
 E= -269.314170498684     Delta-E=       -0.000000000630 Rises=F Damp=F
 DIIS: error= 2.91D-07 at cycle   6 NSaved=   6.
 NSaved= 6 IEnMin= 6 EnMin= -269.314170498684     IErMin= 6 ErrMin= 2.91D-07
 ErrMax= 2.91D-07  0.00D+00 EMaxC= 1.00D-01 BMatC= 2.29D-11 BMatP= 4.51D-10
 IDIUse=1 WtCom= 1.00D+00 WtEn= 0.00D+00
 Coeff-Com: -0.228D-03 0.366D-02-0.352D-01-0.230D-01 0.125D+00 0.930D+00
 Coeff:     -0.228D-03 0.366D-02-0.352D-01-0.230D-01 0.125D+00 0.930D+00
 Gap=     0.494 Goal=   None    Shift=    0.000
 RMSDP=1.15D-07 MaxDP=2.39D-06 DE=-6.30D-10 OVMax= 4.00D-06

 Cycle   7  Pass 1  IDiag  1:
 RMSU=  4.60D-08    CP:  1.00D+00  1.24D+00  1.39D+00  1.18D+00  1.20D+00
                    CP:  1.06D+00
 E= -269.314170498729     Delta-E=       -0.000000000045 Rises=F Damp=F
 DIIS: error= 1.21D-07 at cycle   7 NSaved=   7.
 NSaved= 7 IEnMin= 7 EnMin= -269.314170498729     IErMin= 7 ErrMin= 1.21D-07
 ErrMax= 1.21D-07  0.00D+00 EMaxC= 1.00D-01 BMatC= 3.96D-12 BMatP= 2.29D-11
 IDIUse=1 WtCom= 1.00D+00 WtEn= 0.00D+00
 Coeff-Com: -0.365D-03 0.367D-02-0.811D-02-0.305D-01-0.509D-01 0.313D+00
 Coeff-Com:  0.773D+00
 Coeff:     -0.365D-03 0.367D-02-0.811D-02-0.305D-01-0.509D-01 0.313D+00
 Coeff:      0.773D+00
 Gap=     0.494 Goal=   None    Shift=    0.000
 RMSDP=3.05D-08 MaxDP=5.83D-07 DE=-4.54D-11 OVMax= 9.56D-07

 Cycle   8  Pass 1  IDiag  1:
 RMSU=  1.10D-08    CP:  1.00D+00  1.24D+00  1.39D+00  1.19D+00  1.23D+00
                    CP:  1.19D+00  9.48D-01
 E= -269.314170498730     Delta-E=       -0.000000000001 Rises=F Damp=F
 DIIS: error= 1.29D-08 at cycle   8 NSaved=   8.
 NSaved= 8 IEnMin= 8 EnMin= -269.314170498730     IErMin= 8 ErrMin= 1.29D-08
 ErrMax= 1.29D-08  0.00D+00 EMaxC= 1.00D-01 BMatC= 5.14D-14 BMatP= 3.96D-12
 IDIUse=1 WtCom= 1.00D+00 WtEn= 0.00D+00
 Coeff-Com:  0.282D-04-0.350D-03 0.213D-02 0.183D-02-0.637D-02-0.517D-01
 Coeff-Com: -0.179D-01 0.107D+01
 Coeff:      0.282D-04-0.350D-03 0.213D-02 0.183D-02-0.637D-02-0.517D-01
 Coeff:     -0.179D-01 0.107D+01
 Gap=     0.494 Goal=   None    Shift=    0.000
 RMSDP=7.45D-09 MaxDP=1.38D-07 DE=-1.14D-12 OVMax= 2.26D-07

 Error on total polarization charges =  0.03196
 SCF Done:  E(RwB97XD) =  -269.314170499     A.U. after    8 cycles
            NFock=  8  Conv=0.74D-08     -V/T= 2.0096
 KE= 2.667512950138D+02 PE=-1.024258929119D+03 EE= 2.909935271975D+02
 SMD-CDS (non-electrostatic) energy       (kcal/mol) =       2.80
 (included in total energy above)
 Leave Link  502 at Tue Oct 21 19:54:29 2025, MaxMem=  4294967296 cpu:              92.3 elap:              11.6
 (Enter /lrz/sys/applications/gaussian/g16.C.01/x86_64_legacy/exe/l701.exe)
 ... and contract with generalized density number  0.
 Compute integral first derivatives.
 R6Disp: Adding Grimme-D2 dispersion energy 1st derivatives to the gradient.
   1 Symmetry operations used in ECPInt.
 ECPInt:  NShTT=    1485 NPrTT=    5139 LenC2=    1483 LenP2D=    4466.
 LDataN:  DoStor=T MaxTD1= 5 Len=  102
 D1PCM: PCM CHGder 1st derivatives, ID1Alg=3 FixD1E=F DoIter=F DoCFld=F I1PDM=0.
 GePol: Maximum number of non-zero 1st derivatives   =     242
 Leave Link  701 at Tue Oct 21 19:54:29 2025, MaxMem=  4294967296 cpu:               4.8 elap:               0.6
 (Enter /lrz/sys/applications/gaussian/g16.C.01/x86_64_legacy/exe/l702.exe)
 L702 exits ... SP integral derivatives will be done elsewhere.
 Leave Link  702 at Tue Oct 21 19:54:29 2025, MaxMem=  4294967296 cpu:               0.2 elap:               0.0
 (Enter /lrz/sys/applications/gaussian/g16.C.01/x86_64_legacy/exe/l703.exe)
 Integral derivatives from FoFJK, PRISM(SPDF).
 Compute integral first derivatives, UseDBF=F ICtDFT=           0.
 Calling FoFJK, ICntrl=      2127 FMM=F ISym2X=0 I1Cent= 0 IOpClX= 0 NMat=1 NMatS=1 NMatT=0.
 FoFJK:  IHMeth= 1 ICntrl=    2127 DoSepK=T KAlg= 0 I1Cent=           0 FoldK=F
 IRaf=         1 NMat=       1 IRICut=       1 DoRegI=T DoRafI=F ISym2E= 0 IDoP0=0 IntGTp=1.
 FoFCou: FMM=F IPFlag=           0 FMFlag=      100000 FMFlg1=         800
         NFxFlg=           0 DoJE=F BraDBF=F KetDBF=F FulRan=T
         wScrn=  0.000000 ICntrl=      2527 IOpCl=  0 I1Cent=           0 NGrid=           0
         NMat0=    1 NMatS0=      1 NMatT0=    0 NMatD0=    1 NMtDS0=    0 NMtDT0=    0
 Symmetry not used in FoFCou.
 Leave Link  703 at Tue Oct 21 19:54:32 2025, MaxMem=  4294967296 cpu:              18.1 elap:               2.3
 (Enter /lrz/sys/applications/gaussian/g16.C.01/x86_64_legacy/exe/l716.exe)
 Dipole        = 1.17289723D+00 6.10085214D-01 3.61778468D-01
 ***** Axes restored to original set *****
 -------------------------------------------------------------------
 Center     Atomic                   Forces (Hartrees/Bohr)
 Number     Number              X              Y              Z
 -------------------------------------------------------------------
      1        8           0.000015651    0.000003948   -0.000056483
      2        6          -0.000079553    0.000054177    0.000061482
      3        8           0.000064747   -0.000028066   -0.000106655
      4        6           0.000074488    0.000061342    0.000023002
      5        6           0.000026862   -0.000092018   -0.000037631
      6        1           0.000023094    0.000023740    0.000026490
      7        1          -0.000004690    0.000056693    0.000025232
      8        1          -0.000053661   -0.000106987    0.000037602
      9        1          -0.000044004    0.000030502    0.000029739
     10        1           0.000022994   -0.000043153    0.000037324
     11        1           0.000015730    0.000070554   -0.000027976
     12        1           0.000020832   -0.000061346   -0.000016520
     13        1          -0.000082490    0.000030613    0.000004395
 -------------------------------------------------------------------
 Cartesian Forces:  Max     0.000106987 RMS     0.000050759
 Leave Link  716 at Tue Oct 21 19:54:32 2025, MaxMem=  4294967296 cpu:               0.2 elap:               0.0
 (Enter /lrz/sys/applications/gaussian/g16.C.01/x86_64_legacy/exe/l103.exe)

 GradGradGradGradGradGradGradGradGradGradGradGradGradGradGradGradGradGrad
 Berny optimization.
 Using GEDIIS/GDIIS optimizer.
 FormGI is forming the generalized inverse of G from B-inverse, IUseBI=4.
 Internal  Forces:  Max     0.000122915 RMS     0.000046062
 Search for a local minimum.
 Step number   9 out of a maximum of   66
 All quantities printed in internal units (Hartrees-Bohrs-Radians)
 RMS Force = .46062D-04 SwitMx=.10000D-02 MixMth= 2
 Mixed Optimization -- En-DIIS/RFO-DIIS
 Swapping is turned off.
 Update second derivatives using D2CorX and points    2    3    4    5    6
                                                      7    8    9
 DE= -3.09D-06 DEPred=-1.41D-06 R= 2.19D+00
 TightC=F SS=  1.41D+00  RLast= 2.34D-02 DXNew= 1.2905D+00 7.0240D-02
 Trust test= 2.19D+00 RLast= 2.34D-02 DXMaxT set to 7.67D-01
 ITU=  1  1  0  1  1  1  1  1  0
     Eigenvalues ---    0.00167   0.00247   0.00312   0.00451   0.03463
     Eigenvalues ---    0.04454   0.05492   0.05698   0.06279   0.07077
     Eigenvalues ---    0.08624   0.10198   0.12623   0.15428   0.15970
     Eigenvalues ---    0.16190   0.16626   0.17852   0.19980   0.21280
     Eigenvalues ---    0.22634   0.29860   0.31769   0.33612   0.34640
     Eigenvalues ---    0.34832   0.35089   0.35295   0.42208   0.47861
     Eigenvalues ---    0.54175   0.54764   0.60058
 En-DIIS/RFO-DIIS/Sim-DIIS IScMMF=       -3 using points:     9    8    7    6    5    4    3    2
 RFO step:  Lambda=-5.50887065D-06.
 NNeg= 0 NGDIIS= 8 SimSw=  2.50D-01 Rises=F DC= -3.09D-06 SmlDif=  1.00D-05
 NRisDI= 0 DoIntr=F SqrtH=F CThrHd= 10.0 CDAdj=  3.0
 RMS Error=  0.6866901368D-02 NUsed= 8 OKEnD=F EnDIS=F
 InvSVX:  RCond= 5.29D-08 Info=           0 Equed=N FErr=  2.80D-11 BErr=  8.96D-17
 DIIS inversion failure, remove point   8.
 InvSVX:  RCond= 6.00D-08 Info=           0 Equed=N FErr=  2.23D-11 BErr=  4.59D-17
 DIIS inversion failure, remove point   7.
 InvSVX:  RCond= 1.55D-07 Info=           0 Equed=N FErr=  1.20D-11 BErr=  2.88D-17
 RFO-DIIS uses    6 points instead of    8
 DidBck=F Rises=F RFO-DIIS coefs:    2.39963   -0.68434   -0.62811   -0.27958    0.28806
                  RFO-DIIS coefs:   -0.09566    0.00000    0.00000
 Iteration  1 RMS(Cart)=  0.00564378 RMS(Int)=  0.00005579
 Iteration  2 RMS(Cart)=  0.00005150 RMS(Int)=  0.00000064
 Iteration  3 RMS(Cart)=  0.00000000 RMS(Int)=  0.00000064
 ITry= 1 IFail=0 DXMaxC= 2.21D-02 DCOld= 1.00D+10 DXMaxT= 7.67D-01 DXLimC= 3.00D+00 Rises=F
 Variable       Old X    -DE/DX   Delta X   Delta X   Delta X     New X
                                 (Linear)    (Quad)   (Total)
    R1        2.66874  -0.00001  -0.00022  -0.00022  -0.00044   2.66830
    R2        1.82450  -0.00004   0.00026  -0.00022   0.00004   1.82454
    R3        2.64312  -0.00012   0.00181  -0.00094   0.00087   2.64399
    R4        2.88481   0.00004  -0.00096   0.00069  -0.00027   2.88455
    R5        2.08793  -0.00001   0.00011  -0.00007   0.00004   2.08798
    R6        1.82686  -0.00000   0.00004  -0.00000   0.00004   1.82689
    R7        2.87928  -0.00008  -0.00010  -0.00001  -0.00011   2.87917
    R8        2.08381  -0.00004   0.00081  -0.00053   0.00029   2.08409
    R9        2.08153  -0.00006   0.00084  -0.00065   0.00019   2.08172
   R10        2.07910  -0.00008   0.00113  -0.00076   0.00037   2.07947
   R11        2.08278  -0.00005   0.00057  -0.00051   0.00006   2.08284
   R12        2.07796  -0.00007   0.00079  -0.00056   0.00023   2.07819
    A1        1.88913   0.00003  -0.00003   0.00026   0.00023   1.88935
    A2        1.87391  -0.00006   0.00030  -0.00030   0.00001   1.87392
    A3        1.95200  -0.00003   0.00159  -0.00099   0.00060   1.95260
    A4        1.91850   0.00006  -0.00029   0.00044   0.00016   1.91866
    A5        1.97192   0.00012  -0.00070   0.00096   0.00026   1.97218
    A6        1.83714  -0.00003  -0.00157   0.00061  -0.00096   1.83617
    A7        1.90661  -0.00005   0.00046  -0.00061  -0.00015   1.90645
    A8        1.88621  -0.00000  -0.00085   0.00039  -0.00046   1.88575
    A9        1.99192   0.00012   0.00045   0.00005   0.00050   1.99242
   A10        1.88001  -0.00006   0.00103  -0.00070   0.00033   1.88033
   A11        1.87792  -0.00002  -0.00098   0.00034  -0.00063   1.87728
   A12        1.92066  -0.00002   0.00038  -0.00021   0.00017   1.92083
   A13        1.92941  -0.00004   0.00061  -0.00045   0.00016   1.92957
   A14        1.85835   0.00002  -0.00167   0.00106  -0.00061   1.85774
   A15        1.93966   0.00004  -0.00030   0.00022  -0.00008   1.93958
   A16        1.95024   0.00001  -0.00014  -0.00024  -0.00037   1.94987
   A17        1.93299  -0.00005   0.00147  -0.00102   0.00045   1.93345
   A18        1.88443  -0.00002  -0.00051   0.00049  -0.00002   1.88441
   A19        1.88394   0.00002  -0.00168   0.00099  -0.00069   1.88325
   A20        1.86962  -0.00000   0.00110  -0.00039   0.00072   1.87034
    D1       -2.99786  -0.00001   0.01482   0.00065   0.01547  -2.98240
    D2       -0.82531   0.00008   0.01519   0.00100   0.01620  -0.80911
    D3        1.29571   0.00003   0.01665  -0.00013   0.01652   1.31223
    D4        1.19165  -0.00006  -0.01880  -0.00077  -0.01957   1.17208
    D5       -0.96878  -0.00006  -0.02059   0.00007  -0.02051  -0.98929
    D6       -3.04793  -0.00004  -0.01976  -0.00010  -0.01986  -3.06779
    D7       -1.03678   0.00001  -0.00029   0.00010  -0.00019  -1.03697
    D8        1.10134   0.00002   0.00126  -0.00066   0.00060   1.10194
    D9        3.09861   0.00000  -0.00066   0.00039  -0.00027   3.09834
   D10        1.08004  -0.00000   0.00078  -0.00033   0.00045   1.08049
   D11       -3.06502   0.00000   0.00232  -0.00108   0.00124  -3.06378
   D12       -1.06776  -0.00001   0.00041  -0.00004   0.00038  -1.06738
   D13        3.11854  -0.00000  -0.00129   0.00061  -0.00068   3.11786
   D14       -1.02653   0.00000   0.00025  -0.00015   0.00011  -1.02642
   D15        0.97074  -0.00001  -0.00166   0.00090  -0.00076   0.96998
   D16        0.99940  -0.00001  -0.00242   0.00016  -0.00226   0.99713
   D17       -1.10687  -0.00002  -0.00147  -0.00046  -0.00193  -1.10880
   D18        3.09339   0.00001  -0.00376   0.00087  -0.00289   3.09051
   D19       -1.11635   0.00001  -0.00437   0.00120  -0.00317  -1.11952
   D20        3.06057  -0.00001  -0.00341   0.00058  -0.00283   3.05774
   D21        0.97765   0.00002  -0.00570   0.00191  -0.00379   0.97386
   D22        3.11898   0.00002  -0.00292   0.00031  -0.00261   3.11637
   D23        1.01271   0.00001  -0.00196  -0.00031  -0.00227   1.01044
   D24       -1.07021   0.00004  -0.00425   0.00102  -0.00324  -1.07345
         Item               Value     Threshold  Converged?
 Maximum Force            0.000123     0.000450     YES
 RMS     Force            0.000046     0.000300     YES
 Maximum Displacement     0.022051     0.001800     NO 
 RMS     Displacement     0.005650     0.001200     NO 
 Predicted change in Energy=-2.546264D-06
 Lowest energy point so far.  Saving SCF results.
 GradGradGradGradGradGradGradGradGradGradGradGradGradGradGradGradGradGrad

 Leave Link  103 at Tue Oct 21 19:54:32 2025, MaxMem=  4294967296 cpu:               0.2 elap:               0.0
 (Enter /lrz/sys/applications/gaussian/g16.C.01/x86_64_legacy/exe/l202.exe)
                          Input orientation:                          
 ---------------------------------------------------------------------
 Center     Atomic      Atomic             Coordinates (Angstroms)
 Number     Number       Type             X           Y           Z
 ---------------------------------------------------------------------
      1          8           0       -0.733641   -1.352747   -0.074535
      2          6           0       -0.604397   -0.003718   -0.470984
      3          8           0       -1.260800    0.777609    0.486226
      4          6           0        0.856271    0.394337   -0.665954
      5          6           0        1.717876    0.234154    0.580361
      6          1           0       -0.166952   -1.890326   -0.642046
      7          1           0       -1.156864    0.166737   -1.412552
      8          1           0       -0.768587    0.711272    1.315643
      9          1           0        1.264001   -0.216536   -1.488682
     10          1           0        0.872282    1.438839   -1.015633
     11          1           0        1.688143   -0.800880    0.952812
     12          1           0        1.384834    0.898214    1.394570
     13          1           0        2.766477    0.485839    0.364718
 ---------------------------------------------------------------------
                    Distance matrix (angstroms):
                    1          2          3          4          5
     1  O    0.000000
     2  C    1.412004   0.000000
     3  O    2.265119   1.399138   0.000000
     4  C    2.435138   1.526437   2.440574   0.000000
     5  C    2.992838   2.560246   3.029310   1.523590   0.000000
     6  H    0.965503   1.944199   3.096348   2.503445   3.091969
     7  H    2.068390   1.104910   1.997329   2.159148   3.498626
     8  H    2.488772   1.931373   0.966751   2.582119   2.636433
     9  H    2.698400   2.138203   3.356070   1.102856   2.165656
    10  H    3.355235   2.134992   2.691253   1.101598   2.171059
    11  H    2.687943   2.813965   3.377216   2.177374   1.100408
    12  H    3.422430   2.872422   2.799824   2.186100   1.102192
    13  H    3.977960   3.507257   4.039660   2.172452   1.099732
                    6          7          8          9         10
     6  H    0.000000
     7  H    2.409380   0.000000
     8  H    3.311015   2.808972   0.000000
     9  H    2.359236   2.452199   3.585593   0.000000
    10  H    3.507551   2.427595   2.942219   1.765640   0.000000
    11  H    2.678029   3.824303   2.907536   2.546026   3.091399
    12  H    3.785736   3.856841   2.162961   3.093608   2.522710
    13  H    3.907012   4.318926   3.667664   2.487139   2.530130
                   11         12         13
    11  H    0.000000
    12  H    1.781590   0.000000
    13  H    1.778849   1.771888   0.000000
 Stoichiometry    C3H8O2
 Framework group  C1[X(C3H8O2)]
 Deg. of freedom    33
 Full point group                 C1      NOp   1
 RotChk:  IX=0 Diff= 4.09D-03
 Largest Abelian subgroup         C1      NOp   1
 Largest concise Abelian subgroup C1      NOp   1
                         Standard orientation:                         
 ---------------------------------------------------------------------
 Center     Atomic      Atomic             Coordinates (Angstroms)
 Number     Number       Type             X           Y           Z
 ---------------------------------------------------------------------
      1          8           0       -1.045817    1.077990   -0.418295
      2          6           0       -0.665665    0.013449    0.427867
      3          8           0       -1.064849   -1.175709   -0.191924
      4          6           0        0.826261    0.046998    0.748871
      5          6           0        1.729498   -0.040711   -0.474974
      6          1           0       -0.651928    1.890839   -0.077234
      7          1           0       -1.241665    0.056847    1.369762
      8          1           0       -0.534322   -1.289097   -0.992106
      9          1           0        1.029777    0.978474    1.303148
     10          1           0        1.035357   -0.781521    1.444105
     11          1           0        1.510821    0.768259   -1.188168
     12          1           0        1.609327   -1.000903   -1.002627
     13          1           0        2.787399    0.040432   -0.185710
 ---------------------------------------------------------------------
 Rotational constants (GHZ):           6.8919601           4.0137718           3.3435908
 Leave Link  202 at Tue Oct 21 19:54:32 2025, MaxMem=  4294967296 cpu:               0.0 elap:               0.0
 (Enter /lrz/sys/applications/gaussian/g16.C.01/x86_64_legacy/exe/l301.exe)
 Standard basis: def2SVP (5D, 7F)
 Ernie: Thresh=  0.10000D-02 Tol=  0.10000D-05 Strict=F.
 There are   115 symmetry adapted cartesian basis functions of A   symmetry.
 There are   110 symmetry adapted basis functions of A   symmetry.
   110 basis functions,   181 primitive gaussians,   115 cartesian basis functions
    21 alpha electrons       21 beta electrons
       nuclear repulsion energy       197.1876561044 Hartrees.
 IExCor= 4639 DFT=T Ex+Corr=wB97XD ExCW=0 ScaHFX=  1.000000
 ScaDFX=  1.000000  1.000000  1.000000  1.000000 ScalE2=  1.000000  1.000000
 IRadAn=      5 IRanWt=     -1 IRanGd=            0 ICorTp=0 IEmpDi=121
 HFx  wShort=  0.000000 wLong=  0.200000 cFull=  0.222036 cShort=  0.000000 cLong=  0.777964
 DFx  wShort=  0.000000 wLong=  0.200000 cFull=  0.000000 cShort=  0.000000 cLong=  1.000000
 NAtoms=   13 NActive=   13 NUniq=   13 SFac= 1.00D+00 NAtFMM=   60 NAOKFM=F Big=F
 Integral buffers will be    131072 words long.
 Raffenetti 2 integral format.
 Two-electron integral symmetry is turned on.
 R6Disp:  Grimme-D2 Dispersion energy=       -0.0059781010 Hartrees.
 Nuclear repulsion after empirical dispersion term =      197.1816780034 Hartrees.
 ------------------------------------------------------------------------------
 Polarizable Continuum Model (PCM)
 =================================
 Model                : PCM.
 Atomic radii         : SMD-Coulomb.
 Polarization charges : Total charges.
 Charge compensation  : None.
 Solution method      : On-the-fly selection.
 Cavity type          : VdW (van der Waals Surface) (Alpha=1.000).
 Cavity algorithm     : GePol (No added spheres)
                        Default sphere list used, NSphG=   13.
                        Lebedev-Laikov grids with approx.  5.0 points / Ang**2.
                        Smoothing algorithm: York/Karplus (Gamma=1.0000).
                        Polarization charges: spherical gaussians, with
                                              point-specific exponents (IZeta= 3).
                        Self-potential: point-specific (ISelfS= 7).
                        Self-field    : sphere-specific E.n sum rule (ISelfD= 2).
 1st derivatives      : Analytical E(r).r(x)/FMM algorithm (CHGder, D1EAlg=3).
                        Cavity 1st derivative terms included.
 Solvent              : Water, Eps=  78.355300 Eps(inf)=   1.777849
 ------------------------------------------------------------------------------
 Spheres list:
 ISph  on   Nord     Re0    Alpha      Xe            Ye            Ze
    1   O      1    1.5200  1.000     -1.045817      1.077990     -0.418295
    2   C      2    1.8500  1.000     -0.665665      0.013449      0.427867
    3   O      3    1.5200  1.000     -1.064849     -1.175709     -0.191924
    4   C      4    1.8500  1.000      0.826261      0.046998      0.748871
    5   C      5    1.8500  1.000      1.729498     -0.040711     -0.474974
    6   H      6    1.2000  1.000     -0.651928      1.890839     -0.077234
    7   H      7    1.2000  1.000     -1.241665      0.056847      1.369762
    8   H      8    1.2000  1.000     -0.534322     -1.289097     -0.992106
    9   H      9    1.2000  1.000      1.029777      0.978474      1.303148
   10   H     10    1.2000  1.000      1.035357     -0.781521      1.444105
   11   H     11    1.2000  1.000      1.510821      0.768259     -1.188168
   12   H     12    1.2000  1.000      1.609327     -1.000903     -1.002627
   13   H     13    1.2000  1.000      2.787399      0.040432     -0.185710
 ------------------------------------------------------------------------------
 GePol: Number of generator spheres                  =      13
 GePol: Total number of spheres                      =      13
 GePol: Number of exposed spheres                    =      13 (100.00%)
 GePol: Number of points                             =     904
 GePol: Average weight of points                     =       0.12
 GePol: Minimum weight of points                     =   0.34D-09
 GePol: Maximum weight of points                     =    0.21991
 GePol: Number of points with low weight             =      39
 GePol: Fraction of low-weight points (<1% of avg)   =       4.31%
 GePol: Cavity surface area                          =    109.159 Ang**2
 GePol: Cavity volume                                =     82.002 Ang**3
 ------------------------------------------------------------------------------
 Atomic radii for non-electrostatic terms: SMD-CDS.
 ------------------------------------------------------------------------------
 PCM non-electrostatic energy =         0.0044639056 Hartrees.
 Nuclear repulsion after PCM non-electrostatic terms =      197.1861419090 Hartrees.
 Leave Link  301 at Tue Oct 21 19:54:32 2025, MaxMem=  4294967296 cpu:               0.5 elap:               0.1
 (Enter /lrz/sys/applications/gaussian/g16.C.01/x86_64_legacy/exe/l302.exe)
 NPDir=0 NMtPBC=     1 NCelOv=     1 NCel=       1 NClECP=     1 NCelD=      1
         NCelK=      1 NCelE2=     1 NClLst=     1 CellRange=     0.0.
 One-electron integrals computed using PRISM.
 One-electron integral symmetry used in STVInt
   1 Symmetry operations used in ECPInt.
 ECPInt:  NShTT=    1485 NPrTT=    5139 LenC2=    1483 LenP2D=    4464.
 LDataN:  DoStor=T MaxTD1= 4 Len=   56
 NBasis=   110 RedAO= T EigKep=  2.39D-03  NBF=   110
 NBsUse=   110 1.00D-06 EigRej= -1.00D+00 NBFU=   110
 Precomputing XC quadrature grid using
 IXCGrd= 4 IRadAn=           5 IRanWt=          -1 IRanGd=           0 AccXCQ= 0.00D+00.
 Generated NRdTot=       0 NPtTot=           0 NUsed=           0 NTot=          32
 NSgBfM=   115   115   115   115   115 MxSgAt=    13 MxSgA2=    13.
 Leave Link  302 at Tue Oct 21 19:54:32 2025, MaxMem=  4294967296 cpu:               1.2 elap:               0.2
 (Enter /lrz/sys/applications/gaussian/g16.C.01/x86_64_legacy/exe/l303.exe)
 DipDrv:  MaxL=1.
 Leave Link  303 at Tue Oct 21 19:54:32 2025, MaxMem=  4294967296 cpu:               0.2 elap:               0.0
 (Enter /lrz/sys/applications/gaussian/g16.C.01/x86_64_legacy/exe/l401.exe)
 Initial guess from the checkpoint file:  "g16_C3-w_9.chk"
 B after Tr=     0.000000   -0.000000    0.000000
         Rot=    0.999999   -0.000495   -0.000287    0.000861 Ang=  -0.12 deg.
 Guess basis will be translated and rotated to current coordinates.
 JPrj=2 DoOrth=T DoCkMO=T.
 Generating alternative initial guess.
 ExpMin= 1.22D-01 ExpMax= 2.27D+03 ExpMxC= 3.41D+02 IAcc=3 IRadAn=         5 AccDes= 0.00D+00
 Harris functional with IExCor= 4639 and IRadAn=       5 diagonalized for initial guess.
 HarFok:  IExCor= 4639 AccDes= 0.00D+00 IRadAn=         5 IDoV= 1 UseB2=F ITyADJ=14
 ICtDFT=  3500011 ScaDFX=  1.000000  1.000000  1.000000  1.000000
 FoFCou: FMM=F IPFlag=           0 FMFlag=      100000 FMFlg1=           0
         NFxFlg=           0 DoJE=T BraDBF=F KetDBF=T FulRan=T
         wScrn=  0.000000 ICntrl=       500 IOpCl=  0 I1Cent=   200000004 NGrid=           0
         NMat0=    1 NMatS0=      1 NMatT0=    0 NMatD0=    1 NMtDS0=    0 NMtDT0=    0
 Petite list used in FoFCou.
 Harris En= -258.102583626745    
 Leave Link  401 at Tue Oct 21 19:54:33 2025, MaxMem=  4294967296 cpu:               5.5 elap:               0.7
 (Enter /lrz/sys/applications/gaussian/g16.C.01/x86_64_legacy/exe/l502.exe)
 Integral symmetry usage will be decided dynamically.
 Closed shell SCF:
 Using DIIS extrapolation, IDIIS=  1040.
 NGot=  4294967296 LenX=  4294938204 LenY=  4294924538
 Requested convergence on RMS density matrix=1.00D-08 within 128 cycles.
 Requested convergence on MAX density matrix=1.00D-06.
 Requested convergence on             energy=1.00D-06.
 No special actions if energy rises.
 Fock matrices will be formed incrementally for  20 cycles.

 Cycle   1  Pass 1  IDiag  1:
 FoFJK:  IHMeth= 1 ICntrl=       0 DoSepK=T KAlg= 0 I1Cent=           0 FoldK=F
 IRaf=         1 NMat=       1 IRICut=       1 DoRegI=T DoRafI=F ISym2E= 0 IDoP0=0 IntGTp=1.
 FoFCou: FMM=F IPFlag=           0 FMFlag=      100000 FMFlg1=           0
         NFxFlg=           0 DoJE=T BraDBF=F KetDBF=F FulRan=T
         wScrn=  0.000000 ICntrl=       500 IOpCl=  0 I1Cent=           0 NGrid=           0
         NMat0=    1 NMatS0=      1 NMatT0=    0 NMatD0=    1 NMtDS0=    0 NMtDT0=    0
 Symmetry not used in FoFCou.
 Inv3:  Mode=1 IEnd=     2451648.
 Iteration    1 A*A^-1 deviation from unit magnitude is 4.44D-15 for    612.
 Iteration    1 A*A^-1 deviation from orthogonality  is 4.74D-15 for    736     92.
 Iteration    1 A^-1*A deviation from unit magnitude is 4.55D-15 for    284.
 Iteration    1 A^-1*A deviation from orthogonality  is 3.27D-15 for    737    736.
 E= -269.314091329420    
 DIIS: error= 7.24D-04 at cycle   1 NSaved=   1.
 NSaved= 1 IEnMin= 1 EnMin= -269.314091329420     IErMin= 1 ErrMin= 7.24D-04
 ErrMax= 7.24D-04  0.00D+00 EMaxC= 1.00D-01 BMatC= 6.30D-05 BMatP= 6.30D-05
 IDIUse=3 WtCom= 9.93D-01 WtEn= 7.24D-03
 Coeff-Com:  0.100D+01
 Coeff-En:   0.100D+01
 Coeff:      0.100D+01
 Gap=     0.741 Goal=   None    Shift=    0.000
 RMSDP=1.21D-04 MaxDP=2.92D-03              OVMax= 2.63D-03

 Cycle   2  Pass 1  IDiag  1:
 RMSU=  1.21D-04    CP:  1.00D+00
 E= -269.314170535896     Delta-E=       -0.000079206476 Rises=F Damp=F
 DIIS: error= 1.12D-04 at cycle   2 NSaved=   2.
 NSaved= 2 IEnMin= 2 EnMin= -269.314170535896     IErMin= 2 ErrMin= 1.12D-04
 ErrMax= 1.12D-04  0.00D+00 EMaxC= 1.00D-01 BMatC= 1.81D-06 BMatP= 6.30D-05
 IDIUse=3 WtCom= 9.99D-01 WtEn= 1.12D-03
 Coeff-Com: -0.156D+00 0.116D+01
 Coeff-En:   0.000D+00 0.100D+01
 Coeff:     -0.156D+00 0.116D+01
 Gap=     0.493 Goal=   None    Shift=    0.000
 RMSDP=2.70D-05 MaxDP=6.10D-04 DE=-7.92D-05 OVMax= 8.78D-04

 Cycle   3  Pass 1  IDiag  1:
 RMSU=  1.08D-05    CP:  1.00D+00  1.20D+00
 E= -269.314174142753     Delta-E=       -0.000003606857 Rises=F Damp=F
 DIIS: error= 1.37D-05 at cycle   3 NSaved=   3.
 NSaved= 3 IEnMin= 3 EnMin= -269.314174142753     IErMin= 3 ErrMin= 1.37D-05
 ErrMax= 1.37D-05  0.00D+00 EMaxC= 1.00D-01 BMatC= 4.05D-08 BMatP= 1.81D-06
 IDIUse=1 WtCom= 1.00D+00 WtEn= 0.00D+00
 Coeff-Com:  0.629D-02-0.968D-01 0.109D+01
 Coeff:      0.629D-02-0.968D-01 0.109D+01
 Gap=     0.493 Goal=   None    Shift=    0.000
 RMSDP=5.06D-06 MaxDP=7.53D-05 DE=-3.61D-06 OVMax= 1.92D-04

 Cycle   4  Pass 1  IDiag  1:
 RMSU=  2.52D-06    CP:  1.00D+00  1.23D+00  1.29D+00
 E= -269.314174254521     Delta-E=       -0.000000111768 Rises=F Damp=F
 DIIS: error= 7.34D-06 at cycle   4 NSaved=   4.
 NSaved= 4 IEnMin= 4 EnMin= -269.314174254521     IErMin= 4 ErrMin= 7.34D-06
 ErrMax= 7.34D-06  0.00D+00 EMaxC= 1.00D-01 BMatC= 1.42D-08 BMatP= 4.05D-08
 IDIUse=1 WtCom= 1.00D+00 WtEn= 0.00D+00
 Coeff-Com:  0.101D-01-0.962D-01 0.392D+00 0.694D+00
 Coeff:      0.101D-01-0.962D-01 0.392D+00 0.694D+00
 Gap=     0.493 Goal=   None    Shift=    0.000
 RMSDP=1.41D-06 MaxDP=3.52D-05 DE=-1.12D-07 OVMax= 4.69D-05

 Cycle   5  Pass 1  IDiag  1:
 RMSU=  1.04D-06    CP:  1.00D+00  1.23D+00  1.36D+00  1.01D+00
 E= -269.314174269383     Delta-E=       -0.000000014862 Rises=F Damp=F
 DIIS: error= 2.25D-06 at cycle   5 NSaved=   5.
 NSaved= 5 IEnMin= 5 EnMin= -269.314174269383     IErMin= 5 ErrMin= 2.25D-06
 ErrMax= 2.25D-06  0.00D+00 EMaxC= 1.00D-01 BMatC= 1.71D-09 BMatP= 1.42D-08
 IDIUse=1 WtCom= 1.00D+00 WtEn= 0.00D+00
 Coeff-Com:  0.290D-02-0.233D-01-0.243D-01 0.236D+00 0.809D+00
 Coeff:      0.290D-02-0.233D-01-0.243D-01 0.236D+00 0.809D+00
 Gap=     0.493 Goal=   None    Shift=    0.000
 RMSDP=6.87D-07 MaxDP=1.31D-05 DE=-1.49D-08 OVMax= 2.38D-05

 Cycle   6  Pass 1  IDiag  1:
 RMSU=  2.57D-07    CP:  1.00D+00  1.24D+00  1.39D+00  1.19D+00  1.06D+00
 E= -269.314174271744     Delta-E=       -0.000000002361 Rises=F Damp=F
 DIIS: error= 5.97D-07 at cycle   6 NSaved=   6.
 NSaved= 6 IEnMin= 6 EnMin= -269.314174271744     IErMin= 6 ErrMin= 5.97D-07
 ErrMax= 5.97D-07  0.00D+00 EMaxC= 1.00D-01 BMatC= 7.53D-11 BMatP= 1.71D-09
 IDIUse=1 WtCom= 1.00D+00 WtEn= 0.00D+00
 Coeff-Com: -0.362D-03 0.476D-02-0.336D-01-0.325D-01 0.955D-01 0.966D+00
 Coeff:     -0.362D-03 0.476D-02-0.336D-01-0.325D-01 0.955D-01 0.966D+00
 Gap=     0.493 Goal=   None    Shift=    0.000
 RMSDP=2.26D-07 MaxDP=4.92D-06 DE=-2.36D-09 OVMax= 7.59D-06

 Cycle   7  Pass 1  IDiag  1:
 RMSU=  8.70D-08    CP:  1.00D+00  1.24D+00  1.40D+00  1.24D+00  1.18D+00
                    CP:  1.09D+00
 E= -269.314174271908     Delta-E=       -0.000000000164 Rises=F Damp=F
 DIIS: error= 2.39D-07 at cycle   7 NSaved=   7.
 NSaved= 7 IEnMin= 7 EnMin= -269.314174271908     IErMin= 7 ErrMin= 2.39D-07
 ErrMax= 2.39D-07  0.00D+00 EMaxC= 1.00D-01 BMatC= 1.47D-11 BMatP= 7.53D-11
 IDIUse=1 WtCom= 1.00D+00 WtEn= 0.00D+00
 Coeff-Com: -0.361D-03 0.363D-02-0.826D-02-0.330D-01-0.449D-01 0.349D+00
 Coeff-Com:  0.734D+00
 Coeff:     -0.361D-03 0.363D-02-0.826D-02-0.330D-01-0.449D-01 0.349D+00
 Coeff:      0.734D+00
 Gap=     0.493 Goal=   None    Shift=    0.000
 RMSDP=5.33D-08 MaxDP=1.05D-06 DE=-1.64D-10 OVMax= 1.55D-06

 Cycle   8  Pass 1  IDiag  1:
 RMSU=  2.19D-08    CP:  1.00D+00  1.24D+00  1.40D+00  1.25D+00  1.20D+00
                    CP:  1.21D+00  9.20D-01
 E= -269.314174271924     Delta-E=       -0.000000000015 Rises=F Damp=F
 DIIS: error= 3.47D-08 at cycle   8 NSaved=   8.
 NSaved= 8 IEnMin= 8 EnMin= -269.314174271924     IErMin= 8 ErrMin= 3.47D-08
 ErrMax= 3.47D-08  0.00D+00 EMaxC= 1.00D-01 BMatC= 3.67D-13 BMatP= 1.47D-11
 IDIUse=1 WtCom= 1.00D+00 WtEn= 0.00D+00
 Coeff-Com: -0.144D-04 0.834D-04 0.120D-02-0.224D-02-0.122D-01-0.123D-01
 Coeff-Com:  0.875D-01 0.938D+00
 Coeff:     -0.144D-04 0.834D-04 0.120D-02-0.224D-02-0.122D-01-0.123D-01
 Coeff:      0.875D-01 0.938D+00
 Gap=     0.493 Goal=   None    Shift=    0.000
 RMSDP=1.41D-08 MaxDP=2.61D-07 DE=-1.53D-11 OVMax= 4.31D-07

 Cycle   9  Pass 1  IDiag  1:
 RMSU=  6.55D-09    CP:  1.00D+00  1.24D+00  1.40D+00  1.25D+00  1.21D+00
                    CP:  1.24D+00  1.00D+00  1.18D+00
 E= -269.314174271928     Delta-E=       -0.000000000004 Rises=F Damp=F
 DIIS: error= 2.14D-08 at cycle   9 NSaved=   9.
 NSaved= 9 IEnMin= 9 EnMin= -269.314174271928     IErMin= 9 ErrMin= 2.14D-08
 ErrMax= 2.14D-08  0.00D+00 EMaxC= 1.00D-01 BMatC= 1.36D-13 BMatP= 3.67D-13
 IDIUse=1 WtCom= 1.00D+00 WtEn= 0.00D+00
 Coeff-Com:  0.285D-04-0.320D-03 0.142D-02 0.204D-02-0.186D-02-0.396D-01
 Coeff-Com: -0.285D-01 0.446D+00 0.621D+00
 Coeff:      0.285D-04-0.320D-03 0.142D-02 0.204D-02-0.186D-02-0.396D-01
 Coeff:     -0.285D-01 0.446D+00 0.621D+00
 Gap=     0.493 Goal=   None    Shift=    0.000
 RMSDP=4.06D-09 MaxDP=7.64D-08 DE=-3.98D-12 OVMax= 1.17D-07

 Error on total polarization charges =  0.03198
 SCF Done:  E(RwB97XD) =  -269.314174272     A.U. after    9 cycles
            NFock=  9  Conv=0.41D-08     -V/T= 2.0096
 KE= 2.667502427782D+02 PE=-1.024227917624D+03 EE= 2.909773586646D+02
 SMD-CDS (non-electrostatic) energy       (kcal/mol) =       2.80
 (included in total energy above)
 Leave Link  502 at Tue Oct 21 19:54:46 2025, MaxMem=  4294967296 cpu:             105.2 elap:              13.2
 (Enter /lrz/sys/applications/gaussian/g16.C.01/x86_64_legacy/exe/l701.exe)
 ... and contract with generalized density number  0.
 Compute integral first derivatives.
 R6Disp: Adding Grimme-D2 dispersion energy 1st derivatives to the gradient.
   1 Symmetry operations used in ECPInt.
 ECPInt:  NShTT=    1485 NPrTT=    5139 LenC2=    1483 LenP2D=    4464.
 LDataN:  DoStor=T MaxTD1= 5 Len=  102
 D1PCM: PCM CHGder 1st derivatives, ID1Alg=3 FixD1E=F DoIter=F DoCFld=F I1PDM=0.
 GePol: Maximum number of non-zero 1st derivatives   =     242
 Leave Link  701 at Tue Oct 21 19:54:47 2025, MaxMem=  4294967296 cpu:               4.2 elap:               0.5
 (Enter /lrz/sys/applications/gaussian/g16.C.01/x86_64_legacy/exe/l702.exe)
 L702 exits ... SP integral derivatives will be done elsewhere.
 Leave Link  702 at Tue Oct 21 19:54:47 2025, MaxMem=  4294967296 cpu:               0.2 elap:               0.0
 (Enter /lrz/sys/applications/gaussian/g16.C.01/x86_64_legacy/exe/l703.exe)
 Integral derivatives from FoFJK, PRISM(SPDF).
 Compute integral first derivatives, UseDBF=F ICtDFT=           0.
 Calling FoFJK, ICntrl=      2127 FMM=F ISym2X=0 I1Cent= 0 IOpClX= 0 NMat=1 NMatS=1 NMatT=0.
 FoFJK:  IHMeth= 1 ICntrl=    2127 DoSepK=T KAlg= 0 I1Cent=           0 FoldK=F
 IRaf=         1 NMat=       1 IRICut=       1 DoRegI=T DoRafI=F ISym2E= 0 IDoP0=0 IntGTp=1.
 FoFCou: FMM=F IPFlag=           0 FMFlag=      100000 FMFlg1=         800
         NFxFlg=           0 DoJE=F BraDBF=F KetDBF=F FulRan=T
         wScrn=  0.000000 ICntrl=      2527 IOpCl=  0 I1Cent=           0 NGrid=           0
         NMat0=    1 NMatS0=      1 NMatT0=    0 NMatD0=    1 NMtDS0=    0 NMtDT0=    0
 Symmetry not used in FoFCou.
 Leave Link  703 at Tue Oct 21 19:54:49 2025, MaxMem=  4294967296 cpu:              17.7 elap:               2.2
 (Enter /lrz/sys/applications/gaussian/g16.C.01/x86_64_legacy/exe/l716.exe)
 Dipole        = 1.17323021D+00 6.15060945D-01 3.46309825D-01
 ***** Axes restored to original set *****
 -------------------------------------------------------------------
 Center     Atomic                   Forces (Hartrees/Bohr)
 Number     Number              X              Y              Z
 -------------------------------------------------------------------
      1        8           0.000088090   -0.000061943   -0.000040432
      2        6          -0.000328532    0.000244261    0.000178687
      3        8           0.000133127   -0.000245970   -0.000230601
      4        6           0.000199931    0.000142724   -0.000109822
      5        6           0.000108895   -0.000199421    0.000074910
      6        1          -0.000023377    0.000020535    0.000032669
      7        1           0.000040984    0.000078855    0.000004599
      8        1          -0.000024643   -0.000033308    0.000028238
      9        1          -0.000099628    0.000027774    0.000096583
     10        1           0.000044185   -0.000095841    0.000082376
     11        1           0.000006618    0.000163457   -0.000056687
     12        1           0.000029521   -0.000105968   -0.000061764
     13        1          -0.000175170    0.000064845    0.000001243
 -------------------------------------------------------------------
 Cartesian Forces:  Max     0.000328532 RMS     0.000124550
 Leave Link  716 at Tue Oct 21 19:54:49 2025, MaxMem=  4294967296 cpu:               0.2 elap:               0.0
 (Enter /lrz/sys/applications/gaussian/g16.C.01/x86_64_legacy/exe/l103.exe)

 GradGradGradGradGradGradGradGradGradGradGradGradGradGradGradGradGradGrad
 Berny optimization.
 Using GEDIIS/GDIIS optimizer.
 FormGI is forming the generalized inverse of G from B-inverse, IUseBI=4.
 Internal  Forces:  Max     0.000338802 RMS     0.000077742
 Search for a local minimum.
 Step number  10 out of a maximum of   66
 All quantities printed in internal units (Hartrees-Bohrs-Radians)
 RMS Force = .77742D-04 SwitMx=.10000D-02 MixMth= 2
 Mixed Optimization -- En-DIIS/RFO-DIIS
 Swapping is turned off.
 Update second derivatives using D2CorX and points    2    3    4    5    6
                                                      7    8    9   10
 DE= -3.77D-06 DEPred=-2.55D-06 R= 1.48D+00
 TightC=F SS=  1.41D+00  RLast= 4.53D-02 DXNew= 1.2905D+00 1.3595D-01
 Trust test= 1.48D+00 RLast= 4.53D-02 DXMaxT set to 7.67D-01
 ITU=  1  1  1  0  1  1  1  1  1  0
     Eigenvalues ---    0.00172   0.00246   0.00342   0.00351   0.03408
     Eigenvalues ---    0.04392   0.05498   0.05712   0.06189   0.07085
     Eigenvalues ---    0.08637   0.10300   0.12638   0.15156   0.15968
     Eigenvalues ---    0.16187   0.16760   0.17630   0.19629   0.21210
     Eigenvalues ---    0.21793   0.29696   0.31736   0.33612   0.34644
     Eigenvalues ---    0.34832   0.35087   0.35338   0.42979   0.48022
     Eigenvalues ---    0.54243   0.54715   0.60838
 En-DIIS/RFO-DIIS/Sim-DIIS IScMMF=       -3 using points:    10    9    8    7    6    5    4    3    2
 RFO step:  Lambda=-1.85825106D-06.
 NNeg= 0 NGDIIS= 9 SimSw=  2.50D-01 Rises=F DC= -3.77D-06 SmlDif=  1.00D-05
 NRisDI= 0 DoIntr=F SqrtH=F CThrHd= 10.0 CDAdj=  3.0
 RMS Error=  0.2694648869D-02 NUsed= 9 OKEnD=F EnDIS=F
 InvSVX:  RCond= 1.41D-08 Info=           0 Equed=N FErr=  6.68D-11 BErr=  5.47D-17
 DIIS inversion failure, remove point   9.
 InvSVX:  RCond= 2.12D-08 Info=           0 Equed=N FErr=  5.32D-11 BErr=  7.12D-17
 DIIS inversion failure, remove point   8.
 InvSVX:  RCond= 2.96D-08 Info=           0 Equed=N FErr=  5.00D-11 BErr=  5.78D-17
 DIIS inversion failure, remove point   7.
 InvSVX:  RCond= 7.17D-08 Info=           0 Equed=N FErr=  3.68D-11 BErr=  5.09D-17
 DIIS inversion failure, remove point   6.
 InvSVX:  RCond= 8.63D-08 Info=           0 Equed=N FErr=  2.37D-11 BErr=  7.61D-17
 DIIS inversion failure, remove point   5.
 InvSVX:  RCond= 2.00D-07 Info=           0 Equed=N FErr=  5.60D-12 BErr=  2.39D-17
 Old DIIS coefficients:     -1.24978      7.55131     -5.37184      0.07031      0.00000
 Old DIIS coefficients:      0.00000      0.00000      0.00000      0.00000
 RFO-DIIS uses    4 points instead of    9
 DidBck=T Rises=F RFO-DIIS coefs:   -0.46055    3.00000   -1.56536    0.02591    0.00000
                  RFO-DIIS coefs:    0.00000    0.00000    0.00000    0.00000
 Iteration  1 RMS(Cart)=  0.00281645 RMS(Int)=  0.00000648
 Iteration  2 RMS(Cart)=  0.00000597 RMS(Int)=  0.00000010
 Iteration  3 RMS(Cart)=  0.00000000 RMS(Int)=  0.00000010
 ITry= 1 IFail=0 DXMaxC= 1.01D-02 DCOld= 1.00D+10 DXMaxT= 7.67D-01 DXLimC= 3.00D+00 Rises=F
 Variable       Old X    -DE/DX   Delta X   Delta X   Delta X     New X
                                 (Linear)    (Quad)   (Total)
    R1        2.66830   0.00006   0.00024  -0.00027  -0.00003   2.66827
    R2        1.82454  -0.00007   0.00003  -0.00003  -0.00000   1.82453
    R3        2.64399  -0.00034  -0.00025   0.00026   0.00001   2.64400
    R4        2.88455   0.00011  -0.00014  -0.00003  -0.00017   2.88438
    R5        2.08798  -0.00001  -0.00009   0.00011   0.00002   2.08800
    R6        1.82689   0.00000  -0.00007   0.00008   0.00002   1.82691
    R7        2.87917  -0.00006  -0.00003  -0.00041  -0.00044   2.87873
    R8        2.08409  -0.00011  -0.00013   0.00022   0.00009   2.08418
    R9        2.08172  -0.00013  -0.00003   0.00006   0.00003   2.08174
   R10        2.07947  -0.00018  -0.00009   0.00008  -0.00001   2.07946
   R11        2.08284  -0.00012   0.00001   0.00002   0.00002   2.08287
   R12        2.07819  -0.00015  -0.00011   0.00011   0.00000   2.07819
    A1        1.88935   0.00006  -0.00005   0.00004  -0.00002   1.88934
    A2        1.87392  -0.00005   0.00041  -0.00079  -0.00039   1.87353
    A3        1.95260  -0.00007  -0.00038   0.00058   0.00020   1.95280
    A4        1.91866   0.00009  -0.00038   0.00096   0.00058   1.91923
    A5        1.97218   0.00014  -0.00036   0.00089   0.00053   1.97271
    A6        1.83617  -0.00003   0.00070  -0.00139  -0.00069   1.83548
    A7        1.90645  -0.00006   0.00007  -0.00033  -0.00026   1.90619
    A8        1.88575   0.00004  -0.00004  -0.00004  -0.00008   1.88567
    A9        1.99242   0.00011  -0.00066   0.00168   0.00101   1.99344
   A10        1.88033  -0.00008   0.00011  -0.00052  -0.00041   1.87992
   A11        1.87728   0.00000   0.00029  -0.00030  -0.00001   1.87728
   A12        1.92083  -0.00001  -0.00010  -0.00003  -0.00013   1.92070
   A13        1.92957  -0.00006   0.00013  -0.00011   0.00002   1.92959
   A14        1.85774   0.00003   0.00030  -0.00090  -0.00060   1.85713
   A15        1.93958   0.00005   0.00001   0.00043   0.00044   1.94002
   A16        1.94987   0.00001   0.00029  -0.00026   0.00003   1.94990
   A17        1.93345  -0.00010  -0.00019   0.00015  -0.00005   1.93340
   A18        1.88441  -0.00002  -0.00003  -0.00024  -0.00027   1.88414
   A19        1.88325   0.00005   0.00025  -0.00033  -0.00008   1.88317
   A20        1.87034   0.00001  -0.00033   0.00023  -0.00010   1.87024
    D1       -2.98240  -0.00002  -0.01217   0.01692   0.00475  -2.97765
    D2       -0.80911   0.00007  -0.01259   0.01786   0.00527  -0.80384
    D3        1.31223  -0.00000  -0.01302   0.01849   0.00548   1.31770
    D4        1.17208  -0.00004   0.01258  -0.01837  -0.00579   1.16629
    D5       -0.98929  -0.00000   0.01301  -0.01913  -0.00612  -0.99541
    D6       -3.06779   0.00001   0.01267  -0.01832  -0.00565  -3.07344
    D7       -1.03697   0.00002  -0.00041   0.00242   0.00202  -1.03496
    D8        1.10194   0.00002  -0.00089   0.00311   0.00223   1.10416
    D9        3.09834   0.00002  -0.00034   0.00166   0.00132   3.09966
   D10        1.08049  -0.00001  -0.00042   0.00246   0.00204   1.08254
   D11       -3.06378  -0.00001  -0.00090   0.00315   0.00225  -3.06153
   D12       -1.06738  -0.00001  -0.00036   0.00170   0.00135  -1.06604
   D13        3.11786   0.00000   0.00028   0.00106   0.00133   3.11919
   D14       -1.02642   0.00000  -0.00020   0.00175   0.00154  -1.02487
   D15        0.96998   0.00000   0.00034   0.00030   0.00064   0.97062
   D16        0.99713  -0.00001   0.00080   0.00230   0.00311   1.00024
   D17       -1.10880  -0.00002   0.00064   0.00249   0.00313  -1.10567
   D18        3.09051   0.00002   0.00099   0.00227   0.00326   3.09377
   D19       -1.11952   0.00002   0.00119   0.00184   0.00303  -1.11649
   D20        3.05774   0.00001   0.00103   0.00202   0.00305   3.06079
   D21        0.97386   0.00006   0.00138   0.00180   0.00318   0.97704
   D22        3.11637   0.00002   0.00081   0.00303   0.00383   3.12020
   D23        1.01044   0.00001   0.00064   0.00321   0.00386   1.01429
   D24       -1.07345   0.00006   0.00100   0.00299   0.00399  -1.06946
         Item               Value     Threshold  Converged?
 Maximum Force            0.000339     0.000450     YES
 RMS     Force            0.000078     0.000300     YES
 Maximum Displacement     0.010124     0.001800     NO 
 RMS     Displacement     0.002818     0.001200     NO 
 Predicted change in Energy=-7.954078D-07
 Lowest energy point so far.  Saving SCF results.
 GradGradGradGradGradGradGradGradGradGradGradGradGradGradGradGradGradGrad

 Leave Link  103 at Tue Oct 21 19:54:49 2025, MaxMem=  4294967296 cpu:               0.2 elap:               0.0
 (Enter /lrz/sys/applications/gaussian/g16.C.01/x86_64_legacy/exe/l202.exe)
                          Input orientation:                          
 ---------------------------------------------------------------------
 Center     Atomic      Atomic             Coordinates (Angstroms)
 Number     Number       Type             X           Y           Z
 ---------------------------------------------------------------------
      1          8           0       -0.734965   -1.351284   -0.073362
      2          6           0       -0.604564   -0.002837   -0.471349
      3          8           0       -1.261891    0.779582    0.484343
      4          6           0        0.856329    0.394296   -0.665805
      5          6           0        1.718733    0.233135    0.579548
      6          1           0       -0.164563   -1.889334   -0.636688
      7          1           0       -1.156237    0.167495   -1.413419
      8          1           0       -0.773599    0.709630    1.315790
      9          1           0        1.263300   -0.216346   -1.489143
     10          1           0        0.873098    1.438821   -1.015422
     11          1           0        1.691654   -0.802672    0.950034
     12          1           0        1.384690    0.894631    1.395450
     13          1           0        2.766658    0.487677    0.363967
 ---------------------------------------------------------------------
                    Distance matrix (angstroms):
                    1          2          3          4          5
     1  O    0.000000
     2  C    1.411987   0.000000
     3  O    2.264790   1.399144   0.000000
     4  C    2.435211   1.526347   2.440930   0.000000
     5  C    2.992877   2.560816   3.031796   1.523357   0.000000
     6  H    0.965501   1.944173   3.095796   2.501605   3.087217
     7  H    2.068795   1.104921   1.996826   2.158885   3.498811
     8  H    2.485680   1.931333   0.966760   2.585115   2.642124
     9  H    2.699181   2.137851   3.356055   1.102903   2.165395
    10  H    3.355299   2.134919   2.691109   1.101611   2.170877
    11  H    2.690129   2.816502   3.382872   2.177484   1.100405
    12  H    3.419719   2.871850   2.801382   2.185925   1.102205
    13  H    3.979246   3.507634   4.040903   2.172212   1.099733
                    6          7          8          9         10
     6  H    0.000000
     7  H    2.411902   0.000000
     8  H    3.307221   2.808719   0.000000
     9  H    2.358888   2.450964   3.588041   0.000000
    10  H    3.506678   2.427524   2.945824   1.765290   0.000000
    11  H    2.672838   3.825914   2.915186   2.544966   3.091495
    12  H    3.778919   3.856784   2.167668   3.093522   2.523920
    13  H    3.904298   4.318648   3.672690   2.487921   2.528430
                   11         12         13
    11  H    0.000000
    12  H    1.781420   0.000000
    13  H    1.778794   1.771836   0.000000
 Stoichiometry    C3H8O2
 Framework group  C1[X(C3H8O2)]
 Deg. of freedom    33
 Full point group                 C1      NOp   1
 RotChk:  IX=0 Diff= 5.20D-03
 Largest Abelian subgroup         C1      NOp   1
 Largest concise Abelian subgroup C1      NOp   1
                         Standard orientation:                         
 ---------------------------------------------------------------------
 Center     Atomic      Atomic             Coordinates (Angstroms)
 Number     Number       Type             X           Y           Z
 ---------------------------------------------------------------------
      1          8           0       -1.044104    1.079972   -0.416187
      2          6           0       -0.665464    0.013420    0.428092
      3          8           0       -1.067998   -1.173711   -0.193431
      4          6           0        0.826575    0.043465    0.748489
      5          6           0        1.730207   -0.041211   -0.474988
      6          1           0       -0.644611    1.890777   -0.076786
      7          1           0       -1.240727    0.055762    1.370499
      8          1           0       -0.542084   -1.284167   -0.997072
      9          1           0        1.031353    0.972680    1.306181
     10          1           0        1.034551   -0.787433    1.441238
     11          1           0        1.515630    0.772308   -1.184236
     12          1           0        1.606588   -0.998035   -1.007964
     13          1           0        2.788206    0.033975   -0.184474
 ---------------------------------------------------------------------
 Rotational constants (GHZ):           6.8952428           4.0112101           3.3421775
 Leave Link  202 at Tue Oct 21 19:54:49 2025, MaxMem=  4294967296 cpu:               0.0 elap:               0.0
 (Enter /lrz/sys/applications/gaussian/g16.C.01/x86_64_legacy/exe/l301.exe)
 Standard basis: def2SVP (5D, 7F)
 Ernie: Thresh=  0.10000D-02 Tol=  0.10000D-05 Strict=F.
 There are   115 symmetry adapted cartesian basis functions of A   symmetry.
 There are   110 symmetry adapted basis functions of A   symmetry.
   110 basis functions,   181 primitive gaussians,   115 cartesian basis functions
    21 alpha electrons       21 beta electrons
       nuclear repulsion energy       197.1781408378 Hartrees.
 IExCor= 4639 DFT=T Ex+Corr=wB97XD ExCW=0 ScaHFX=  1.000000
 ScaDFX=  1.000000  1.000000  1.000000  1.000000 ScalE2=  1.000000  1.000000
 IRadAn=      5 IRanWt=     -1 IRanGd=            0 ICorTp=0 IEmpDi=121
 HFx  wShort=  0.000000 wLong=  0.200000 cFull=  0.222036 cShort=  0.000000 cLong=  0.777964
 DFx  wShort=  0.000000 wLong=  0.200000 cFull=  0.000000 cShort=  0.000000 cLong=  1.000000
 NAtoms=   13 NActive=   13 NUniq=   13 SFac= 1.00D+00 NAtFMM=   60 NAOKFM=F Big=F
 Integral buffers will be    131072 words long.
 Raffenetti 2 integral format.
 Two-electron integral symmetry is turned on.
 R6Disp:  Grimme-D2 Dispersion energy=       -0.0059795503 Hartrees.
 Nuclear repulsion after empirical dispersion term =      197.1721612876 Hartrees.
 ------------------------------------------------------------------------------
 Polarizable Continuum Model (PCM)
 =================================
 Model                : PCM.
 Atomic radii         : SMD-Coulomb.
 Polarization charges : Total charges.
 Charge compensation  : None.
 Solution method      : On-the-fly selection.
 Cavity type          : VdW (van der Waals Surface) (Alpha=1.000).
 Cavity algorithm     : GePol (No added spheres)
                        Default sphere list used, NSphG=   13.
                        Lebedev-Laikov grids with approx.  5.0 points / Ang**2.
                        Smoothing algorithm: York/Karplus (Gamma=1.0000).
                        Polarization charges: spherical gaussians, with
                                              point-specific exponents (IZeta= 3).
                        Self-potential: point-specific (ISelfS= 7).
                        Self-field    : sphere-specific E.n sum rule (ISelfD= 2).
 1st derivatives      : Analytical E(r).r(x)/FMM algorithm (CHGder, D1EAlg=3).
                        Cavity 1st derivative terms included.
 Solvent              : Water, Eps=  78.355300 Eps(inf)=   1.777849
 ------------------------------------------------------------------------------
 Spheres list:
 ISph  on   Nord     Re0    Alpha      Xe            Ye            Ze
    1   O      1    1.5200  1.000     -1.044104      1.079972     -0.416187
    2   C      2    1.8500  1.000     -0.665464      0.013420      0.428092
    3   O      3    1.5200  1.000     -1.067998     -1.173711     -0.193431
    4   C      4    1.8500  1.000      0.826575      0.043465      0.748489
    5   C      5    1.8500  1.000      1.730207     -0.041211     -0.474988
    6   H      6    1.2000  1.000     -0.644611      1.890777     -0.076786
    7   H      7    1.2000  1.000     -1.240727      0.055762      1.370499
    8   H      8    1.2000  1.000     -0.542084     -1.284167     -0.997072
    9   H      9    1.2000  1.000      1.031353      0.972680      1.306181
   10   H     10    1.2000  1.000      1.034551     -0.787433      1.441238
   11   H     11    1.2000  1.000      1.515630      0.772308     -1.184236
   12   H     12    1.2000  1.000      1.606588     -0.998035     -1.007964
   13   H     13    1.2000  1.000      2.788206      0.033975     -0.184474
 ------------------------------------------------------------------------------
 GePol: Number of generator spheres                  =      13
 GePol: Total number of spheres                      =      13
 GePol: Number of exposed spheres                    =      13 (100.00%)
 GePol: Number of points                             =     904
 GePol: Average weight of points                     =       0.12
 GePol: Minimum weight of points                     =   0.43D-07
 GePol: Maximum weight of points                     =    0.21991
 GePol: Number of points with low weight             =      44
 GePol: Fraction of low-weight points (<1% of avg)   =       4.87%
 GePol: Cavity surface area                          =    109.192 Ang**2
 GePol: Cavity volume                                =     82.015 Ang**3
 ------------------------------------------------------------------------------
 Atomic radii for non-electrostatic terms: SMD-CDS.
 ------------------------------------------------------------------------------
 PCM non-electrostatic energy =         0.0044637606 Hartrees.
 Nuclear repulsion after PCM non-electrostatic terms =      197.1766250481 Hartrees.
 Leave Link  301 at Tue Oct 21 19:54:49 2025, MaxMem=  4294967296 cpu:               0.5 elap:               0.1
 (Enter /lrz/sys/applications/gaussian/g16.C.01/x86_64_legacy/exe/l302.exe)
 NPDir=0 NMtPBC=     1 NCelOv=     1 NCel=       1 NClECP=     1 NCelD=      1
         NCelK=      1 NCelE2=     1 NClLst=     1 CellRange=     0.0.
 One-electron integrals computed using PRISM.
 One-electron integral symmetry used in STVInt
   1 Symmetry operations used in ECPInt.
 ECPInt:  NShTT=    1485 NPrTT=    5139 LenC2=    1483 LenP2D=    4464.
 LDataN:  DoStor=T MaxTD1= 4 Len=   56
 NBasis=   110 RedAO= T EigKep=  2.39D-03  NBF=   110
 NBsUse=   110 1.00D-06 EigRej= -1.00D+00 NBFU=   110
 Precomputing XC quadrature grid using
 IXCGrd= 4 IRadAn=           5 IRanWt=          -1 IRanGd=           0 AccXCQ= 0.00D+00.
 Generated NRdTot=       0 NPtTot=           0 NUsed=           0 NTot=          32
 NSgBfM=   115   115   115   115   115 MxSgAt=    13 MxSgA2=    13.
 Leave Link  302 at Tue Oct 21 19:54:49 2025, MaxMem=  4294967296 cpu:               1.2 elap:               0.2
 (Enter /lrz/sys/applications/gaussian/g16.C.01/x86_64_legacy/exe/l303.exe)
 DipDrv:  MaxL=1.
 Leave Link  303 at Tue Oct 21 19:54:49 2025, MaxMem=  4294967296 cpu:               0.2 elap:               0.0
 (Enter /lrz/sys/applications/gaussian/g16.C.01/x86_64_legacy/exe/l401.exe)
 Initial guess from the checkpoint file:  "g16_C3-w_9.chk"
 B after Tr=     0.000000    0.000000   -0.000000
         Rot=    0.999999   -0.001172   -0.000069    0.000870 Ang=  -0.17 deg.
 Guess basis will be translated and rotated to current coordinates.
 JPrj=2 DoOrth=T DoCkMO=T.
 Leave Link  401 at Tue Oct 21 19:54:50 2025, MaxMem=  4294967296 cpu:               0.8 elap:               0.3
 (Enter /lrz/sys/applications/gaussian/g16.C.01/x86_64_legacy/exe/l502.exe)
 Integral symmetry usage will be decided dynamically.
 Closed shell SCF:
 Using DIIS extrapolation, IDIIS=  1040.
 NGot=  4294967296 LenX=  4294938204 LenY=  4294924538
 Requested convergence on RMS density matrix=1.00D-08 within 128 cycles.
 Requested convergence on MAX density matrix=1.00D-06.
 Requested convergence on             energy=1.00D-06.
 No special actions if energy rises.
 Fock matrices will be formed incrementally for  20 cycles.

 Cycle   1  Pass 1  IDiag  1:
 FoFJK:  IHMeth= 1 ICntrl=       0 DoSepK=T KAlg= 0 I1Cent=           0 FoldK=F
 IRaf=         1 NMat=       1 IRICut=       1 DoRegI=T DoRafI=F ISym2E= 0 IDoP0=0 IntGTp=1.
 FoFCou: FMM=F IPFlag=           0 FMFlag=      100000 FMFlg1=           0
         NFxFlg=           0 DoJE=T BraDBF=F KetDBF=F FulRan=T
         wScrn=  0.000000 ICntrl=       500 IOpCl=  0 I1Cent=           0 NGrid=           0
         NMat0=    1 NMatS0=      1 NMatT0=    0 NMatD0=    1 NMtDS0=    0 NMtDT0=    0
 Symmetry not used in FoFCou.
 Inv3:  Mode=1 IEnd=     2451648.
 Iteration    1 A*A^-1 deviation from unit magnitude is 4.22D-15 for    251.
 Iteration    1 A*A^-1 deviation from orthogonality  is 3.22D-15 for    676    144.
 Iteration    1 A^-1*A deviation from unit magnitude is 4.44D-15 for    603.
 Iteration    1 A^-1*A deviation from orthogonality  is 2.53D-15 for    867    289.
 E= -269.314164451569    
 DIIS: error= 2.21D-04 at cycle   1 NSaved=   1.
 NSaved= 1 IEnMin= 1 EnMin= -269.314164451569     IErMin= 1 ErrMin= 2.21D-04
 ErrMax= 2.21D-04  0.00D+00 EMaxC= 1.00D-01 BMatC= 9.19D-06 BMatP= 9.19D-06
 IDIUse=3 WtCom= 9.98D-01 WtEn= 2.21D-03
 Coeff-Com:  0.100D+01
 Coeff-En:   0.100D+01
 Coeff:      0.100D+01
 Gap=     0.740 Goal=   None    Shift=    0.000
 RMSDP=4.45D-05 MaxDP=9.90D-04              OVMax= 8.81D-04

 Cycle   2  Pass 1  IDiag  1:
 RMSU=  4.45D-05    CP:  1.00D+00
 E= -269.314176936704     Delta-E=       -0.000012485135 Rises=F Damp=F
 DIIS: error= 3.49D-05 at cycle   2 NSaved=   2.
 NSaved= 2 IEnMin= 2 EnMin= -269.314176936704     IErMin= 2 ErrMin= 3.49D-05
 ErrMax= 3.49D-05  0.00D+00 EMaxC= 1.00D-01 BMatC= 2.89D-07 BMatP= 9.19D-06
 IDIUse=1 WtCom= 1.00D+00 WtEn= 0.00D+00
 Coeff-Com: -0.165D+00 0.116D+01
 Coeff:     -0.165D+00 0.116D+01
 Gap=     0.493 Goal=   None    Shift=    0.000
 RMSDP=1.07D-05 MaxDP=2.08D-04 DE=-1.25D-05 OVMax= 2.91D-04

 Cycle   3  Pass 1  IDiag  1:
 RMSU=  4.65D-06    CP:  1.00D+00  1.22D+00
 E= -269.314177553705     Delta-E=       -0.000000617001 Rises=F Damp=F
 DIIS: error= 6.26D-06 at cycle   3 NSaved=   3.
 NSaved= 3 IEnMin= 3 EnMin= -269.314177553705     IErMin= 3 ErrMin= 6.26D-06
 ErrMax= 6.26D-06  0.00D+00 EMaxC= 1.00D-01 BMatC= 1.56D-08 BMatP= 2.89D-07
 IDIUse=1 WtCom= 1.00D+00 WtEn= 0.00D+00
 Coeff-Com: -0.237D-01 0.109D+00 0.915D+00
 Coeff:     -0.237D-01 0.109D+00 0.915D+00
 Gap=     0.493 Goal=   None    Shift=    0.000
 RMSDP=2.09D-06 MaxDP=3.41D-05 DE=-6.17D-07 OVMax= 5.87D-05

 Cycle   4  Pass 1  IDiag  1:
 RMSU=  1.60D-06    CP:  1.00D+00  1.24D+00  1.19D+00
 E= -269.314177571703     Delta-E=       -0.000000017998 Rises=F Damp=F
 DIIS: error= 5.39D-06 at cycle   4 NSaved=   4.
 NSaved= 4 IEnMin= 4 EnMin= -269.314177571703     IErMin= 4 ErrMin= 5.39D-06
 ErrMax= 5.39D-06  0.00D+00 EMaxC= 1.00D-01 BMatC= 8.79D-09 BMatP= 1.56D-08
 IDIUse=1 WtCom= 1.00D+00 WtEn= 0.00D+00
 Coeff-Com:  0.124D-01-0.118D+00 0.442D+00 0.663D+00
 Coeff:      0.124D-01-0.118D+00 0.442D+00 0.663D+00
 Gap=     0.493 Goal=   None    Shift=    0.000
 RMSDP=8.94D-07 MaxDP=1.66D-05 DE=-1.80D-08 OVMax= 2.22D-05

 Cycle   5  Pass 1  IDiag  1:
 RMSU=  4.42D-07    CP:  1.00D+00  1.25D+00  1.33D+00  8.14D-01
 E= -269.314177579623     Delta-E=       -0.000000007920 Rises=F Damp=F
 DIIS: error= 6.84D-07 at cycle   5 NSaved=   5.
 NSaved= 5 IEnMin= 5 EnMin= -269.314177579623     IErMin= 5 ErrMin= 6.84D-07
 ErrMax= 6.84D-07  0.00D+00 EMaxC= 1.00D-01 BMatC= 1.16D-10 BMatP= 8.79D-09
 IDIUse=1 WtCom= 1.00D+00 WtEn= 0.00D+00
 Coeff-Com:  0.286D-02-0.219D-01-0.858D-02 0.646D-01 0.963D+00
 Coeff:      0.286D-02-0.219D-01-0.858D-02 0.646D-01 0.963D+00
 Gap=     0.493 Goal=   None    Shift=    0.000
 RMSDP=2.75D-07 MaxDP=5.20D-06 DE=-7.92D-09 OVMax= 8.34D-06

 Cycle   6  Pass 1  IDiag  1:
 RMSU=  1.04D-07    CP:  1.00D+00  1.25D+00  1.37D+00  8.88D-01  1.26D+00
 E= -269.314177579886     Delta-E=       -0.000000000263 Rises=F Damp=F
 DIIS: error= 2.58D-07 at cycle   6 NSaved=   6.
 NSaved= 6 IEnMin= 6 EnMin= -269.314177579886     IErMin= 6 ErrMin= 2.58D-07
 ErrMax= 2.58D-07  0.00D+00 EMaxC= 1.00D-01 BMatC= 1.00D-11 BMatP= 1.16D-10
 IDIUse=1 WtCom= 1.00D+00 WtEn= 0.00D+00
 Coeff-Com: -0.277D-03 0.400D-02-0.289D-01-0.319D-01 0.129D+00 0.928D+00
 Coeff:     -0.277D-03 0.400D-02-0.289D-01-0.319D-01 0.129D+00 0.928D+00
 Gap=     0.493 Goal=   None    Shift=    0.000
 RMSDP=7.83D-08 MaxDP=1.71D-06 DE=-2.63D-10 OVMax= 2.33D-06

 Cycle   7  Pass 1  IDiag  1:
 RMSU=  3.51D-08    CP:  1.00D+00  1.25D+00  1.37D+00  9.06D-01  1.38D+00
                    CP:  1.06D+00
 E= -269.314177579906     Delta-E=       -0.000000000020 Rises=F Damp=F
 DIIS: error= 6.56D-08 at cycle   7 NSaved=   7.
 NSaved= 7 IEnMin= 7 EnMin= -269.314177579906     IErMin= 7 ErrMin= 6.56D-08
 ErrMax= 6.56D-08  0.00D+00 EMaxC= 1.00D-01 BMatC= 1.56D-12 BMatP= 1.00D-11
 IDIUse=1 WtCom= 1.00D+00 WtEn= 0.00D+00
 Coeff-Com: -0.321D-03 0.306D-02-0.597D-02-0.144D-01-0.670D-01 0.272D+00
 Coeff-Com:  0.813D+00
 Coeff:     -0.321D-03 0.306D-02-0.597D-02-0.144D-01-0.670D-01 0.272D+00
 Coeff:      0.813D+00
 Gap=     0.493 Goal=   None    Shift=    0.000
 RMSDP=2.28D-08 MaxDP=5.12D-07 DE=-2.02D-11 OVMax= 7.23D-07

 Cycle   8  Pass 1  IDiag  1:
 RMSU=  8.21D-09    CP:  1.00D+00  1.25D+00  1.37D+00  9.08D-01  1.41D+00
                    CP:  1.20D+00  1.02D+00
 E= -269.314177579910     Delta-E=       -0.000000000004 Rises=F Damp=F
 DIIS: error= 1.29D-08 at cycle   8 NSaved=   8.
 NSaved= 8 IEnMin= 8 EnMin= -269.314177579910     IErMin= 8 ErrMin= 1.29D-08
 ErrMax= 1.29D-08  0.00D+00 EMaxC= 1.00D-01 BMatC= 3.36D-14 BMatP= 1.56D-12
 IDIUse=1 WtCom= 1.00D+00 WtEn= 0.00D+00
 Coeff-Com:  0.453D-04-0.511D-03 0.241D-02 0.304D-02-0.727D-02-0.680D-01
 Coeff-Com: -0.350D-01 0.111D+01
 Coeff:      0.453D-04-0.511D-03 0.241D-02 0.304D-02-0.727D-02-0.680D-01
 Coeff:     -0.350D-01 0.111D+01
 Gap=     0.493 Goal=   None    Shift=    0.000
 RMSDP=6.56D-09 MaxDP=1.39D-07 DE=-3.69D-12 OVMax= 2.15D-07

 Error on total polarization charges =  0.03198
 SCF Done:  E(RwB97XD) =  -269.314177580     A.U. after    8 cycles
            NFock=  8  Conv=0.66D-08     -V/T= 2.0096
 KE= 2.667506362013D+02 PE=-1.024208354935D+03 EE= 2.909669161057D+02
 SMD-CDS (non-electrostatic) energy       (kcal/mol) =       2.80
 (included in total energy above)
 Leave Link  502 at Tue Oct 21 19:55:01 2025, MaxMem=  4294967296 cpu:              91.4 elap:              11.5
 (Enter /lrz/sys/applications/gaussian/g16.C.01/x86_64_legacy/exe/l701.exe)
 ... and contract with generalized density number  0.
 Compute integral first derivatives.
 R6Disp: Adding Grimme-D2 dispersion energy 1st derivatives to the gradient.
   1 Symmetry operations used in ECPInt.
 ECPInt:  NShTT=    1485 NPrTT=    5139 LenC2=    1483 LenP2D=    4464.
 LDataN:  DoStor=T MaxTD1= 5 Len=  102
 D1PCM: PCM CHGder 1st derivatives, ID1Alg=3 FixD1E=F DoIter=F DoCFld=F I1PDM=0.
 GePol: Maximum number of non-zero 1st derivatives   =     242
 Leave Link  701 at Tue Oct 21 19:55:02 2025, MaxMem=  4294967296 cpu:               4.3 elap:               0.6
 (Enter /lrz/sys/applications/gaussian/g16.C.01/x86_64_legacy/exe/l702.exe)
 L702 exits ... SP integral derivatives will be done elsewhere.
 Leave Link  702 at Tue Oct 21 19:55:02 2025, MaxMem=  4294967296 cpu:               0.2 elap:               0.0
 (Enter /lrz/sys/applications/gaussian/g16.C.01/x86_64_legacy/exe/l703.exe)
 Integral derivatives from FoFJK, PRISM(SPDF).
 Compute integral first derivatives, UseDBF=F ICtDFT=           0.
 Calling FoFJK, ICntrl=      2127 FMM=F ISym2X=0 I1Cent= 0 IOpClX= 0 NMat=1 NMatS=1 NMatT=0.
 FoFJK:  IHMeth= 1 ICntrl=    2127 DoSepK=T KAlg= 0 I1Cent=           0 FoldK=F
 IRaf=         1 NMat=       1 IRICut=       1 DoRegI=T DoRafI=F ISym2E= 0 IDoP0=0 IntGTp=1.
 FoFCou: FMM=F IPFlag=           0 FMFlag=      100000 FMFlg1=         800
         NFxFlg=           0 DoJE=F BraDBF=F KetDBF=F FulRan=T
         wScrn=  0.000000 ICntrl=      2527 IOpCl=  0 I1Cent=           0 NGrid=           0
         NMat0=    1 NMatS0=      1 NMatT0=    0 NMatD0=    1 NMtDS0=    0 NMtDT0=    0
 Symmetry not used in FoFCou.
 Leave Link  703 at Tue Oct 21 19:55:04 2025, MaxMem=  4294967296 cpu:              17.0 elap:               2.1
 (Enter /lrz/sys/applications/gaussian/g16.C.01/x86_64_legacy/exe/l716.exe)
 Dipole        = 1.17490175D+00 6.13690511D-01 3.41994893D-01
 ***** Axes restored to original set *****
 -------------------------------------------------------------------
 Center     Atomic                   Forces (Hartrees/Bohr)
 Number     Number              X              Y              Z
 -------------------------------------------------------------------
      1        8           0.000136203   -0.000049614   -0.000130751
      2        6          -0.000425657    0.000241303    0.000264020
      3        8           0.000143773   -0.000185291   -0.000156601
      4        6           0.000236016    0.000143920   -0.000309721
      5        6           0.000143256   -0.000193970    0.000225762
      6        1          -0.000031189   -0.000000424    0.000035501
      7        1           0.000065066    0.000011529   -0.000023866
      8        1          -0.000017741   -0.000004497    0.000028559
      9        1          -0.000087317    0.000024519    0.000113557
     10        1           0.000009760   -0.000089306    0.000115796
     11        1          -0.000013040    0.000152901   -0.000066544
     12        1           0.000011369   -0.000101670   -0.000082764
     13        1          -0.000170499    0.000050598   -0.000012947
 -------------------------------------------------------------------
 Cartesian Forces:  Max     0.000425657 RMS     0.000146430
 Leave Link  716 at Tue Oct 21 19:55:04 2025, MaxMem=  4294967296 cpu:               0.2 elap:               0.0
 (Enter /lrz/sys/applications/gaussian/g16.C.01/x86_64_legacy/exe/l103.exe)

 GradGradGradGradGradGradGradGradGradGradGradGradGradGradGradGradGradGrad
 Berny optimization.
 Using GEDIIS/GDIIS optimizer.
 FormGI is forming the generalized inverse of G from B-inverse, IUseBI=4.
 Internal  Forces:  Max     0.000246101 RMS     0.000067341
 Search for a local minimum.
 Step number  11 out of a maximum of   66
 All quantities printed in internal units (Hartrees-Bohrs-Radians)
 RMS Force = .67341D-04 SwitMx=.10000D-02 MixMth= 2
 Mixed Optimization -- En-DIIS/RFO-DIIS
 Swapping is turned off.
 Update second derivatives using D2CorX and points    2    3    4    5    6
                                                      7    8    9   10   11
 DE= -3.31D-06 DEPred=-7.95D-07 R= 4.16D+00
 TightC=F SS=  1.41D+00  RLast= 1.78D-02 DXNew= 1.2905D+00 5.3425D-02
 Trust test= 4.16D+00 RLast= 1.78D-02 DXMaxT set to 7.67D-01
 ITU=  1  1  1  1  0  1  1  1  1  1  0
     Eigenvalues ---    0.00153   0.00229   0.00300   0.00351   0.03412
     Eigenvalues ---    0.04778   0.05497   0.05644   0.06579   0.07115
     Eigenvalues ---    0.08649   0.10455   0.12585   0.15578   0.15977
     Eigenvalues ---    0.16167   0.17047   0.17790   0.20458   0.21144
     Eigenvalues ---    0.22290   0.29715   0.32350   0.33663   0.34649
     Eigenvalues ---    0.34833   0.35087   0.35418   0.43097   0.48066
     Eigenvalues ---    0.53597   0.54710   0.56385
 En-DIIS/RFO-DIIS/Sim-DIIS IScMMF=       -3 using points:    11   10    9    8    7    6    5    4    3    2
 RFO step:  Lambda=-1.50039421D-06.
 NNeg= 0 NGDIIS=10 SimSw=  2.50D-01 Rises=F DC= -3.31D-06 SmlDif=  1.00D-05
 NRisDI= 0 DoIntr=F SqrtH=F CThrHd= 10.0 CDAdj=  3.0
 RMS Error=  0.2544760370D-02 NUsed=10 OKEnD=F EnDIS=F
 InvSVX:  RCond= 1.50D-09 Info=           0 Equed=N FErr=  7.22D-10 BErr=  7.57D-17
 DIIS inversion failure, remove point  10.
 InvSVX:  RCond= 1.11D-08 Info=           0 Equed=N FErr=  1.31D-10 BErr=  7.05D-17
 DIIS inversion failure, remove point   9.
 InvSVX:  RCond= 2.41D-08 Info=           0 Equed=N FErr=  7.41D-11 BErr=  6.01D-17
 DIIS inversion failure, remove point   8.
 InvSVX:  RCond= 3.78D-08 Info=           0 Equed=N FErr=  4.48D-11 BErr=  8.16D-17
 DIIS inversion failure, remove point   7.
 InvSVX:  RCond= 5.53D-08 Info=           0 Equed=N FErr=  2.75D-11 BErr=  7.52D-17
 DIIS inversion failure, remove point   6.
 InvSVX:  RCond= 1.41D-07 Info=           0 Equed=N FErr=  6.66D-12 BErr=  5.50D-17
 Old DIIS coefficients:      2.39886     -2.08154      1.20015     -0.19020     -0.32726
 Old DIIS coefficients:      0.00000      0.00000      0.00000      0.00000      0.00000
 RFO-DIIS uses    5 points instead of   10
 DidBck=F Rises=F RFO-DIIS coefs:    2.33538   -2.00000    1.16839   -0.18517   -0.31860
                  RFO-DIIS coefs:    0.00000    0.00000    0.00000    0.00000    0.00000
 Iteration  1 RMS(Cart)=  0.00293227 RMS(Int)=  0.00000649
 Iteration  2 RMS(Cart)=  0.00000637 RMS(Int)=  0.00000018
 Iteration  3 RMS(Cart)=  0.00000000 RMS(Int)=  0.00000018
 ITry= 1 IFail=0 DXMaxC= 9.97D-03 DCOld= 1.00D+10 DXMaxT= 7.67D-01 DXLimC= 3.00D+00 Rises=F
 Variable       Old X    -DE/DX   Delta X   Delta X   Delta X     New X
                                 (Linear)    (Quad)   (Total)
    R1        2.66827   0.00004   0.00008   0.00001   0.00009   2.66836
    R2        1.82453  -0.00006   0.00003  -0.00008  -0.00005   1.82449
    R3        2.64400  -0.00025  -0.00004  -0.00018  -0.00023   2.64377
    R4        2.88438   0.00013  -0.00040   0.00040   0.00000   2.88438
    R5        2.08800  -0.00001   0.00004  -0.00005  -0.00001   2.08799
    R6        1.82691   0.00001   0.00001  -0.00002  -0.00000   1.82691
    R7        2.87873   0.00003  -0.00045   0.00026  -0.00018   2.87854
    R8        2.08418  -0.00012   0.00014  -0.00026  -0.00012   2.08406
    R9        2.08174  -0.00013   0.00012  -0.00029  -0.00017   2.08157
   R10        2.07946  -0.00018   0.00009  -0.00033  -0.00024   2.07922
   R11        2.08287  -0.00012   0.00013  -0.00027  -0.00014   2.08272
   R12        2.07819  -0.00014   0.00007  -0.00027  -0.00020   2.07800
    A1        1.88934   0.00010  -0.00022   0.00067   0.00044   1.88978
    A2        1.87353   0.00004  -0.00047   0.00076   0.00029   1.87382
    A3        1.95280  -0.00011   0.00019  -0.00058  -0.00040   1.95240
    A4        1.91923   0.00005   0.00060  -0.00045   0.00015   1.91938
    A5        1.97271   0.00006   0.00023   0.00012   0.00034   1.97306
    A6        1.83548   0.00001  -0.00061   0.00065   0.00005   1.83553
    A7        1.90619  -0.00004   0.00004  -0.00042  -0.00039   1.90580
    A8        1.88567   0.00006  -0.00004   0.00014   0.00011   1.88578
    A9        1.99344  -0.00002   0.00088  -0.00077   0.00011   1.99355
   A10        1.87992  -0.00002  -0.00035   0.00009  -0.00026   1.87966
   A11        1.87728   0.00002   0.00008  -0.00002   0.00006   1.87733
   A12        1.92070   0.00002  -0.00014   0.00015   0.00001   1.92071
   A13        1.92959  -0.00002   0.00013  -0.00017  -0.00004   1.92955
   A14        1.85713   0.00003  -0.00071   0.00084   0.00012   1.85725
   A15        1.94002   0.00002   0.00042   0.00000   0.00043   1.94044
   A16        1.94990  -0.00002   0.00019  -0.00033  -0.00014   1.94976
   A17        1.93340  -0.00010   0.00007  -0.00048  -0.00041   1.93298
   A18        1.88414   0.00000  -0.00037   0.00022  -0.00015   1.88399
   A19        1.88317   0.00007  -0.00016   0.00053   0.00037   1.88354
   A20        1.87024   0.00003  -0.00020   0.00012  -0.00008   1.87016
    D1       -2.97765   0.00002   0.00518   0.00082   0.00600  -2.97165
    D2       -0.80384   0.00005   0.00526   0.00112   0.00638  -0.79746
    D3        1.31770  -0.00004   0.00584  -0.00013   0.00572   1.32342
    D4        1.16629  -0.00005   0.00036  -0.00012   0.00025   1.16654
    D5       -0.99541   0.00003   0.00032  -0.00000   0.00031  -0.99510
    D6       -3.07344   0.00003   0.00054   0.00003   0.00057  -3.07286
    D7       -1.03496  -0.00002   0.00280  -0.00096   0.00183  -1.03312
    D8        1.10416  -0.00003   0.00294  -0.00122   0.00172   1.10588
    D9        3.09966   0.00001   0.00198  -0.00022   0.00176   3.10142
   D10        1.08254  -0.00001   0.00248  -0.00032   0.00217   1.08470
   D11       -3.06153  -0.00002   0.00263  -0.00057   0.00206  -3.05947
   D12       -1.06604   0.00002   0.00167   0.00043   0.00210  -1.06394
   D13        3.11919   0.00002   0.00189   0.00029   0.00218   3.12137
   D14       -1.02487   0.00001   0.00203   0.00003   0.00207  -1.02281
   D15        0.97062   0.00004   0.00107   0.00104   0.00211   0.97273
   D16        1.00024  -0.00001   0.00336   0.00053   0.00389   1.00413
   D17       -1.10567  -0.00001   0.00341   0.00048   0.00389  -1.10178
   D18        3.09377   0.00003   0.00349   0.00088   0.00436   3.09813
   D19       -1.11649   0.00003   0.00330   0.00085   0.00415  -1.11234
   D20        3.06079   0.00002   0.00335   0.00079   0.00414   3.06493
   D21        0.97704   0.00006   0.00343   0.00119   0.00462   0.98166
   D22        3.12020  -0.00001   0.00419  -0.00017   0.00402   3.12422
   D23        1.01429  -0.00001   0.00424  -0.00022   0.00401   1.01831
   D24       -1.06946   0.00003   0.00432   0.00017   0.00449  -1.06497
         Item               Value     Threshold  Converged?
 Maximum Force            0.000246     0.000450     YES
 RMS     Force            0.000067     0.000300     YES
 Maximum Displacement     0.009970     0.001800     NO 
 RMS     Displacement     0.002933     0.001200     NO 
 Predicted change in Energy=-7.262339D-07
 Lowest energy point so far.  Saving SCF results.
 GradGradGradGradGradGradGradGradGradGradGradGradGradGradGradGradGradGrad

 Leave Link  103 at Tue Oct 21 19:55:04 2025, MaxMem=  4294967296 cpu:               0.2 elap:               0.0
 (Enter /lrz/sys/applications/gaussian/g16.C.01/x86_64_legacy/exe/l202.exe)
                          Input orientation:                          
 ---------------------------------------------------------------------
 Center     Atomic      Atomic             Coordinates (Angstroms)
 Number     Number       Type             X           Y           Z
 ---------------------------------------------------------------------
      1          8           0       -0.735429   -1.350404   -0.072575
      2          6           0       -0.605034   -0.002189   -0.471513
      3          8           0       -1.262806    0.781105    0.482978
      4          6           0        0.856041    0.394318   -0.665891
      5          6           0        1.718712    0.231464    0.578937
      6          1           0       -0.160676   -1.888460   -0.631412
      7          1           0       -1.155972    0.167441   -1.414135
      8          1           0       -0.774892    0.712221    1.314733
      9          1           0        1.262234   -0.215888   -1.489851
     10          1           0        0.873381    1.439080   -1.014485
     11          1           0        1.694637   -0.805357    0.946408
     12          1           0        1.382768    0.889470    1.396773
     13          1           0        2.765678    0.489994    0.363975
 ---------------------------------------------------------------------
                    Distance matrix (angstroms):
                    1          2          3          4          5
     1  O    0.000000
     2  C    1.412033   0.000000
     3  O    2.264972   1.399024   0.000000
     4  C    2.434924   1.526348   2.441110   0.000000
     5  C    2.991585   2.560827   3.033277   1.523260   0.000000
     6  H    0.965477   1.944490   3.095664   2.499196   3.080767
     7  H    2.068935   1.104918   1.996756   2.158596   3.498606
     8  H    2.486081   1.931297   0.966759   2.585319   2.643972
     9  H    2.699343   2.137608   3.355873   1.102840   2.165266
    10  H    3.355098   2.134897   2.690469   1.101519   2.170694
    11  H    2.690840   2.818522   3.387935   2.177607   1.100278
    12  H    3.415080   2.870001   2.801041   2.185680   1.102128
    13  H    3.979370   3.507418   4.040741   2.171748   1.099628
                    6          7          8          9         10
     6  H    0.000000
     7  H    2.414539   0.000000
     8  H    3.305796   2.808688   0.000000
     9  H    2.357772   2.449571   3.588449   0.000000
    10  H    3.505502   2.427975   2.944552   1.765248   0.000000
    11  H    2.665487   3.826810   2.921863   2.543581   3.091449
    12  H    3.769967   3.855870   2.166482   3.093371   2.525017
    13  H    3.900178   4.317992   3.672732   2.489033   2.526202
                   11         12         13
    11  H    0.000000
    12  H    1.781160   0.000000
    13  H    1.778845   1.771635   0.000000
 Stoichiometry    C3H8O2
 Framework group  C1[X(C3H8O2)]
 Deg. of freedom    33
 Full point group                 C1      NOp   1
 RotChk:  IX=0 Diff= 4.90D-03
 Largest Abelian subgroup         C1      NOp   1
 Largest concise Abelian subgroup C1      NOp   1
                         Standard orientation:                         
 ---------------------------------------------------------------------
 Center     Atomic      Atomic             Coordinates (Angstroms)
 Number     Number       Type             X           Y           Z
 ---------------------------------------------------------------------
      1          8           0       -1.041704    1.082370   -0.414146
      2          6           0       -0.665594    0.013240    0.428078
      3          8           0       -1.070801   -1.171824   -0.195380
      4          6           0        0.826485    0.039888    0.748590
      5          6           0        1.730081   -0.041500   -0.475015
      6          1           0       -0.636017    1.890855   -0.076631
      7          1           0       -1.240452    0.055165    1.370746
      8          1           0       -0.545060   -1.282317   -0.999127
      9          1           0        1.032351    0.966772    1.309625
     10          1           0        1.033266   -0.793786    1.438210
     11          1           0        1.519838    0.777031   -1.179584
     12          1           0        1.602166   -0.994474   -1.013685
     13          1           0        2.788109    0.026617   -0.183261
 ---------------------------------------------------------------------
 Rotational constants (GHZ):           6.8956732           4.0114595           3.3421679
 Leave Link  202 at Tue Oct 21 19:55:04 2025, MaxMem=  4294967296 cpu:               0.1 elap:               0.0
 (Enter /lrz/sys/applications/gaussian/g16.C.01/x86_64_legacy/exe/l301.exe)
 Standard basis: def2SVP (5D, 7F)
 Ernie: Thresh=  0.10000D-02 Tol=  0.10000D-05 Strict=F.
 There are   115 symmetry adapted cartesian basis functions of A   symmetry.
 There are   110 symmetry adapted basis functions of A   symmetry.
   110 basis functions,   181 primitive gaussians,   115 cartesian basis functions
    21 alpha electrons       21 beta electrons
       nuclear repulsion energy       197.1840718668 Hartrees.
 IExCor= 4639 DFT=T Ex+Corr=wB97XD ExCW=0 ScaHFX=  1.000000
 ScaDFX=  1.000000  1.000000  1.000000  1.000000 ScalE2=  1.000000  1.000000
 IRadAn=      5 IRanWt=     -1 IRanGd=            0 ICorTp=0 IEmpDi=121
 HFx  wShort=  0.000000 wLong=  0.200000 cFull=  0.222036 cShort=  0.000000 cLong=  0.777964
 DFx  wShort=  0.000000 wLong=  0.200000 cFull=  0.000000 cShort=  0.000000 cLong=  1.000000
 NAtoms=   13 NActive=   13 NUniq=   13 SFac= 1.00D+00 NAtFMM=   60 NAOKFM=F Big=F
 Integral buffers will be    131072 words long.
 Raffenetti 2 integral format.
 Two-electron integral symmetry is turned on.
 R6Disp:  Grimme-D2 Dispersion energy=       -0.0059812782 Hartrees.
 Nuclear repulsion after empirical dispersion term =      197.1780905886 Hartrees.
 ------------------------------------------------------------------------------
 Polarizable Continuum Model (PCM)
 =================================
 Model                : PCM.
 Atomic radii         : SMD-Coulomb.
 Polarization charges : Total charges.
 Charge compensation  : None.
 Solution method      : On-the-fly selection.
 Cavity type          : VdW (van der Waals Surface) (Alpha=1.000).
 Cavity algorithm     : GePol (No added spheres)
                        Default sphere list used, NSphG=   13.
                        Lebedev-Laikov grids with approx.  5.0 points / Ang**2.
                        Smoothing algorithm: York/Karplus (Gamma=1.0000).
                        Polarization charges: spherical gaussians, with
                                              point-specific exponents (IZeta= 3).
                        Self-potential: point-specific (ISelfS= 7).
                        Self-field    : sphere-specific E.n sum rule (ISelfD= 2).
 1st derivatives      : Analytical E(r).r(x)/FMM algorithm (CHGder, D1EAlg=3).
                        Cavity 1st derivative terms included.
 Solvent              : Water, Eps=  78.355300 Eps(inf)=   1.777849
 ------------------------------------------------------------------------------
 Spheres list:
 ISph  on   Nord     Re0    Alpha      Xe            Ye            Ze
    1   O      1    1.5200  1.000     -1.041704      1.082370     -0.414146
    2   C      2    1.8500  1.000     -0.665594      0.013240      0.428078
    3   O      3    1.5200  1.000     -1.070801     -1.171824     -0.195380
    4   C      4    1.8500  1.000      0.826485      0.039888      0.748590
    5   C      5    1.8500  1.000      1.730081     -0.041500     -0.475015
    6   H      6    1.2000  1.000     -0.636017      1.890855     -0.076631
    7   H      7    1.2000  1.000     -1.240452      0.055165      1.370746
    8   H      8    1.2000  1.000     -0.545060     -1.282317     -0.999127
    9   H      9    1.2000  1.000      1.032351      0.966772      1.309625
   10   H     10    1.2000  1.000      1.033266     -0.793786      1.438210
   11   H     11    1.2000  1.000      1.519838      0.777031     -1.179584
   12   H     12    1.2000  1.000      1.602166     -0.994474     -1.013685
   13   H     13    1.2000  1.000      2.788109      0.026617     -0.183261
 ------------------------------------------------------------------------------
 GePol: Number of generator spheres                  =      13
 GePol: Total number of spheres                      =      13
 GePol: Number of exposed spheres                    =      13 (100.00%)
 GePol: Number of points                             =     906
 GePol: Average weight of points                     =       0.12
 GePol: Minimum weight of points                     =   0.34D-10
 GePol: Maximum weight of points                     =    0.21991
 GePol: Number of points with low weight             =      50
 GePol: Fraction of low-weight points (<1% of avg)   =       5.52%
 GePol: Cavity surface area                          =    109.199 Ang**2
 GePol: Cavity volume                                =     82.021 Ang**3
 ------------------------------------------------------------------------------
 Atomic radii for non-electrostatic terms: SMD-CDS.
 ------------------------------------------------------------------------------
 PCM non-electrostatic energy =         0.0044632287 Hartrees.
 Nuclear repulsion after PCM non-electrostatic terms =      197.1825538173 Hartrees.
 Leave Link  301 at Tue Oct 21 19:55:04 2025, MaxMem=  4294967296 cpu:               0.6 elap:               0.1
 (Enter /lrz/sys/applications/gaussian/g16.C.01/x86_64_legacy/exe/l302.exe)
 NPDir=0 NMtPBC=     1 NCelOv=     1 NCel=       1 NClECP=     1 NCelD=      1
         NCelK=      1 NCelE2=     1 NClLst=     1 CellRange=     0.0.
 One-electron integrals computed using PRISM.
 One-electron integral symmetry used in STVInt
   1 Symmetry operations used in ECPInt.
 ECPInt:  NShTT=    1485 NPrTT=    5139 LenC2=    1483 LenP2D=    4464.
 LDataN:  DoStor=T MaxTD1= 4 Len=   56
 NBasis=   110 RedAO= T EigKep=  2.39D-03  NBF=   110
 NBsUse=   110 1.00D-06 EigRej= -1.00D+00 NBFU=   110
 Precomputing XC quadrature grid using
 IXCGrd= 4 IRadAn=           5 IRanWt=          -1 IRanGd=           0 AccXCQ= 0.00D+00.
 Generated NRdTot=       0 NPtTot=           0 NUsed=           0 NTot=          32
 NSgBfM=   115   115   115   115   115 MxSgAt=    13 MxSgA2=    13.
 Leave Link  302 at Tue Oct 21 19:55:04 2025, MaxMem=  4294967296 cpu:               1.2 elap:               0.2
 (Enter /lrz/sys/applications/gaussian/g16.C.01/x86_64_legacy/exe/l303.exe)
 DipDrv:  MaxL=1.
 Leave Link  303 at Tue Oct 21 19:55:04 2025, MaxMem=  4294967296 cpu:               0.2 elap:               0.0
 (Enter /lrz/sys/applications/gaussian/g16.C.01/x86_64_legacy/exe/l401.exe)
 Initial guess from the checkpoint file:  "g16_C3-w_9.chk"
 B after Tr=    -0.000000   -0.000000   -0.000000
         Rot=    0.999999   -0.001190    0.000031    0.000869 Ang=  -0.17 deg.
 Guess basis will be translated and rotated to current coordinates.
 JPrj=2 DoOrth=T DoCkMO=T.
 Leave Link  401 at Tue Oct 21 19:55:04 2025, MaxMem=  4294967296 cpu:               0.7 elap:               0.1
 (Enter /lrz/sys/applications/gaussian/g16.C.01/x86_64_legacy/exe/l502.exe)
 Integral symmetry usage will be decided dynamically.
 Closed shell SCF:
 Using DIIS extrapolation, IDIIS=  1040.
 NGot=  4294967296 LenX=  4294938204 LenY=  4294924538
 Requested convergence on RMS density matrix=1.00D-08 within 128 cycles.
 Requested convergence on MAX density matrix=1.00D-06.
 Requested convergence on             energy=1.00D-06.
 No special actions if energy rises.
 Fock matrices will be formed incrementally for  20 cycles.

 Cycle   1  Pass 1  IDiag  1:
 FoFJK:  IHMeth= 1 ICntrl=       0 DoSepK=T KAlg= 0 I1Cent=           0 FoldK=F
 IRaf=         1 NMat=       1 IRICut=       1 DoRegI=T DoRafI=F ISym2E= 0 IDoP0=0 IntGTp=1.
 FoFCou: FMM=F IPFlag=           0 FMFlag=      100000 FMFlg1=           0
         NFxFlg=           0 DoJE=T BraDBF=F KetDBF=F FulRan=T
         wScrn=  0.000000 ICntrl=       500 IOpCl=  0 I1Cent=           0 NGrid=           0
         NMat0=    1 NMatS0=      1 NMatT0=    0 NMatD0=    1 NMtDS0=    0 NMtDT0=    0
 Symmetry not used in FoFCou.
 Inv3:  Mode=1 IEnd=     2462508.
 Iteration    1 A*A^-1 deviation from unit magnitude is 4.77D-15 for    386.
 Iteration    1 A*A^-1 deviation from orthogonality  is 2.52D-15 for    814    300.
 Iteration    1 A^-1*A deviation from unit magnitude is 4.66D-15 for    316.
 Iteration    1 A^-1*A deviation from orthogonality  is 2.89D-15 for    770    737.
 E= -269.314169464096    
 DIIS: error= 1.70D-04 at cycle   1 NSaved=   1.
 NSaved= 1 IEnMin= 1 EnMin= -269.314169464096     IErMin= 1 ErrMin= 1.70D-04
 ErrMax= 1.70D-04  0.00D+00 EMaxC= 1.00D-01 BMatC= 7.33D-06 BMatP= 7.33D-06
 IDIUse=3 WtCom= 9.98D-01 WtEn= 1.70D-03
 Coeff-Com:  0.100D+01
 Coeff-En:   0.100D+01
 Coeff:      0.100D+01
 Gap=     0.740 Goal=   None    Shift=    0.000
 RMSDP=3.93D-05 MaxDP=1.13D-03              OVMax= 7.47D-04

 Cycle   2  Pass 1  IDiag  1:
 RMSU=  3.93D-05    CP:  1.00D+00
 E= -269.314180030247     Delta-E=       -0.000010566151 Rises=F Damp=F
 DIIS: error= 3.37D-05 at cycle   2 NSaved=   2.
 NSaved= 2 IEnMin= 2 EnMin= -269.314180030247     IErMin= 2 ErrMin= 3.37D-05
 ErrMax= 3.37D-05  0.00D+00 EMaxC= 1.00D-01 BMatC= 2.43D-07 BMatP= 7.33D-06
 IDIUse=1 WtCom= 1.00D+00 WtEn= 0.00D+00
 Coeff-Com: -0.175D+00 0.117D+01
 Coeff:     -0.175D+00 0.117D+01
 Gap=     0.493 Goal=   None    Shift=    0.000
 RMSDP=9.95D-06 MaxDP=2.45D-04 DE=-1.06D-05 OVMax= 2.65D-04

 Cycle   3  Pass 1  IDiag  1:
 RMSU=  4.53D-06    CP:  1.00D+00  1.23D+00
 E= -269.314180590366     Delta-E=       -0.000000560119 Rises=F Damp=F
 DIIS: error= 5.11D-06 at cycle   3 NSaved=   3.
 NSaved= 3 IEnMin= 3 EnMin= -269.314180590366     IErMin= 3 ErrMin= 5.11D-06
 ErrMax= 5.11D-06  0.00D+00 EMaxC= 1.00D-01 BMatC= 6.79D-09 BMatP= 2.43D-07
 IDIUse=1 WtCom= 1.00D+00 WtEn= 0.00D+00
 Coeff-Com:  0.851D-03-0.661D-01 0.107D+01
 Coeff:      0.851D-03-0.661D-01 0.107D+01
 Gap=     0.493 Goal=   None    Shift=    0.000
 RMSDP=2.01D-06 MaxDP=2.74D-05 DE=-5.60D-07 OVMax= 5.53D-05

 Cycle   4  Pass 1  IDiag  1:
 RMSU=  1.07D-06    CP:  1.00D+00  1.25D+00  1.31D+00
 E= -269.314180604449     Delta-E=       -0.000000014083 Rises=F Damp=F
 DIIS: error= 4.62D-06 at cycle   4 NSaved=   4.
 NSaved= 4 IEnMin= 4 EnMin= -269.314180604449     IErMin= 4 ErrMin= 4.62D-06
 ErrMax= 4.62D-06  0.00D+00 EMaxC= 1.00D-01 BMatC= 3.85D-09 BMatP= 6.79D-09
 IDIUse=1 WtCom= 1.00D+00 WtEn= 0.00D+00
 Coeff-Com:  0.131D-01-0.118D+00 0.491D+00 0.614D+00
 Coeff:      0.131D-01-0.118D+00 0.491D+00 0.614D+00
 Gap=     0.493 Goal=   None    Shift=    0.000
 RMSDP=6.00D-07 MaxDP=1.26D-05 DE=-1.41D-08 OVMax= 1.58D-05

 Cycle   5  Pass 1  IDiag  1:
 RMSU=  3.71D-07    CP:  1.00D+00  1.25D+00  1.39D+00  7.96D-01
 E= -269.314180607815     Delta-E=       -0.000000003366 Rises=F Damp=F
 DIIS: error= 8.08D-07 at cycle   5 NSaved=   5.
 NSaved= 5 IEnMin= 5 EnMin= -269.314180607815     IErMin= 5 ErrMin= 8.08D-07
 ErrMax= 8.08D-07  0.00D+00 EMaxC= 1.00D-01 BMatC= 1.34D-10 BMatP= 3.85D-09
 IDIUse=1 WtCom= 1.00D+00 WtEn= 0.00D+00
 Coeff-Com:  0.310D-02-0.229D-01 0.422D-02 0.137D+00 0.878D+00
 Coeff:      0.310D-02-0.229D-01 0.422D-02 0.137D+00 0.878D+00
 Gap=     0.493 Goal=   None    Shift=    0.000
 RMSDP=2.32D-07 MaxDP=5.29D-06 DE=-3.37D-09 OVMax= 7.39D-06

 Cycle   6  Pass 1  IDiag  1:
 RMSU=  9.43D-08    CP:  1.00D+00  1.26D+00  1.43D+00  8.97D-01  1.15D+00
 E= -269.314180608031     Delta-E=       -0.000000000216 Rises=F Damp=F
 DIIS: error= 2.10D-07 at cycle   6 NSaved=   6.
 NSaved= 6 IEnMin= 6 EnMin= -269.314180608031     IErMin= 6 ErrMin= 2.10D-07
 ErrMax= 2.10D-07  0.00D+00 EMaxC= 1.00D-01 BMatC= 1.08D-11 BMatP= 1.34D-10
 IDIUse=1 WtCom= 1.00D+00 WtEn= 0.00D+00
 Coeff-Com: -0.153D-03 0.293D-02-0.335D-01-0.154D-01 0.186D+00 0.860D+00
 Coeff:     -0.153D-03 0.293D-02-0.335D-01-0.154D-01 0.186D+00 0.860D+00
 Gap=     0.493 Goal=   None    Shift=    0.000
 RMSDP=7.00D-08 MaxDP=1.87D-06 DE=-2.16D-10 OVMax= 2.42D-06

 Cycle   7  Pass 1  IDiag  1:
 RMSU=  3.27D-08    CP:  1.00D+00  1.26D+00  1.44D+00  9.23D-01  1.27D+00
                    CP:  1.04D+00
 E= -269.314180608047     Delta-E=       -0.000000000016 Rises=F Damp=F
 DIIS: error= 8.26D-08 at cycle   7 NSaved=   7.
 NSaved= 7 IEnMin= 7 EnMin= -269.314180608047     IErMin= 7 ErrMin= 8.26D-08
 ErrMax= 8.26D-08  0.00D+00 EMaxC= 1.00D-01 BMatC= 1.39D-12 BMatP= 1.08D-11
 IDIUse=1 WtCom= 1.00D+00 WtEn= 0.00D+00
 Coeff-Com: -0.345D-03 0.310D-02-0.772D-02-0.195D-01-0.574D-01 0.236D+00
 Coeff-Com:  0.846D+00
 Coeff:     -0.345D-03 0.310D-02-0.772D-02-0.195D-01-0.574D-01 0.236D+00
 Coeff:      0.846D+00
 Gap=     0.493 Goal=   None    Shift=    0.000
 RMSDP=2.40D-08 MaxDP=6.83D-07 DE=-1.64D-11 OVMax= 9.46D-07

 Cycle   8  Pass 1  IDiag  1:
 RMSU=  8.51D-09    CP:  1.00D+00  1.26D+00  1.44D+00  9.29D-01  1.30D+00
                    CP:  1.21D+00  1.09D+00
 E= -269.314180608054     Delta-E=       -0.000000000006 Rises=F Damp=F
 DIIS: error= 1.72D-08 at cycle   8 NSaved=   8.
 NSaved= 8 IEnMin= 8 EnMin= -269.314180608054     IErMin= 8 ErrMin= 1.72D-08
 ErrMax= 1.72D-08  0.00D+00 EMaxC= 1.00D-01 BMatC= 5.15D-14 BMatP= 1.39D-12
 IDIUse=1 WtCom= 1.00D+00 WtEn= 0.00D+00
 Coeff-Com:  0.123D-04-0.195D-03 0.227D-02 0.108D-03-0.162D-01-0.404D-01
 Coeff-Com:  0.459D-01 0.101D+01
 Coeff:      0.123D-04-0.195D-03 0.227D-02 0.108D-03-0.162D-01-0.404D-01
 Coeff:      0.459D-01 0.101D+01
 Gap=     0.493 Goal=   None    Shift=    0.000
 RMSDP=6.87D-09 MaxDP=1.71D-07 DE=-6.31D-12 OVMax= 2.67D-07

 Error on total polarization charges =  0.03199
 SCF Done:  E(RwB97XD) =  -269.314180608     A.U. after    8 cycles
            NFock=  8  Conv=0.69D-08     -V/T= 2.0096
 KE= 2.667514493617D+02 PE=-1.024219450377D+03 EE= 2.909712665899D+02
 SMD-CDS (non-electrostatic) energy       (kcal/mol) =       2.80
 (included in total energy above)
 Leave Link  502 at Tue Oct 21 19:55:16 2025, MaxMem=  4294967296 cpu:              93.8 elap:              11.8
 (Enter /lrz/sys/applications/gaussian/g16.C.01/x86_64_legacy/exe/l701.exe)
 ... and contract with generalized density number  0.
 Compute integral first derivatives.
 R6Disp: Adding Grimme-D2 dispersion energy 1st derivatives to the gradient.
   1 Symmetry operations used in ECPInt.
 ECPInt:  NShTT=    1485 NPrTT=    5139 LenC2=    1483 LenP2D=    4464.
 LDataN:  DoStor=T MaxTD1= 5 Len=  102
 D1PCM: PCM CHGder 1st derivatives, ID1Alg=3 FixD1E=F DoIter=F DoCFld=F I1PDM=0.
 GePol: Maximum number of non-zero 1st derivatives   =     245
 Leave Link  701 at Tue Oct 21 19:55:17 2025, MaxMem=  4294967296 cpu:               4.3 elap:               0.6
 (Enter /lrz/sys/applications/gaussian/g16.C.01/x86_64_legacy/exe/l702.exe)
 L702 exits ... SP integral derivatives will be done elsewhere.
 Leave Link  702 at Tue Oct 21 19:55:17 2025, MaxMem=  4294967296 cpu:               0.2 elap:               0.0
 (Enter /lrz/sys/applications/gaussian/g16.C.01/x86_64_legacy/exe/l703.exe)
 Integral derivatives from FoFJK, PRISM(SPDF).
 Compute integral first derivatives, UseDBF=F ICtDFT=           0.
 Calling FoFJK, ICntrl=      2127 FMM=F ISym2X=0 I1Cent= 0 IOpClX= 0 NMat=1 NMatS=1 NMatT=0.
 FoFJK:  IHMeth= 1 ICntrl=    2127 DoSepK=T KAlg= 0 I1Cent=           0 FoldK=F
 IRaf=         1 NMat=       1 IRICut=       1 DoRegI=T DoRafI=F ISym2E= 0 IDoP0=0 IntGTp=1.
 FoFCou: FMM=F IPFlag=           0 FMFlag=      100000 FMFlg1=         800
         NFxFlg=           0 DoJE=F BraDBF=F KetDBF=F FulRan=T
         wScrn=  0.000000 ICntrl=      2527 IOpCl=  0 I1Cent=           0 NGrid=           0
         NMat0=    1 NMatS0=      1 NMatT0=    0 NMatD0=    1 NMtDS0=    0 NMtDT0=    0
 Symmetry not used in FoFCou.
 Leave Link  703 at Tue Oct 21 19:55:19 2025, MaxMem=  4294967296 cpu:              17.2 elap:               2.2
 (Enter /lrz/sys/applications/gaussian/g16.C.01/x86_64_legacy/exe/l716.exe)
 Dipole        = 1.18016382D+00 6.09138566D-01 3.40291168D-01
 ***** Axes restored to original set *****
 -------------------------------------------------------------------
 Center     Atomic                   Forces (Hartrees/Bohr)
 Number     Number              X              Y              Z
 -------------------------------------------------------------------
      1        8           0.000059940   -0.000013243   -0.000084047
      2        6          -0.000298756    0.000129147    0.000155690
      3        8           0.000105682   -0.000153643   -0.000101957
      4        6           0.000172701    0.000113282   -0.000280545
      5        6           0.000131097   -0.000126022    0.000203253
      6        1          -0.000025613    0.000016428    0.000006735
      7        1           0.000022576    0.000000602   -0.000008276
      8        1          -0.000023215   -0.000011062    0.000033676
      9        1          -0.000046118    0.000021861    0.000078392
     10        1           0.000000336   -0.000038712    0.000094773
     11        1          -0.000014379    0.000084326   -0.000052742
     12        1           0.000004376   -0.000052953   -0.000043422
     13        1          -0.000088628    0.000029990   -0.000001530
 -------------------------------------------------------------------
 Cartesian Forces:  Max     0.000298756 RMS     0.000104766
 Leave Link  716 at Tue Oct 21 19:55:19 2025, MaxMem=  4294967296 cpu:               0.2 elap:               0.0
 (Enter /lrz/sys/applications/gaussian/g16.C.01/x86_64_legacy/exe/l103.exe)

 GradGradGradGradGradGradGradGradGradGradGradGradGradGradGradGradGradGrad
 Berny optimization.
 Using GEDIIS/GDIIS optimizer.
 FormGI is forming the generalized inverse of G from B-inverse, IUseBI=4.
 Internal  Forces:  Max     0.000170806 RMS     0.000046690
 Search for a local minimum.
 Step number  12 out of a maximum of   66
 All quantities printed in internal units (Hartrees-Bohrs-Radians)
 RMS Force = .46690D-04 SwitMx=.10000D-02 MixMth= 2
 Mixed Optimization -- En-DIIS/RFO-DIIS
 Swapping is turned off.
 Update second derivatives using D2CorX and points    2    3    4    5    6
                                                      7    8    9   10   11
                                                     12
 DE= -3.03D-06 DEPred=-7.26D-07 R= 4.17D+00
 TightC=F SS=  1.41D+00  RLast= 1.75D-02 DXNew= 1.2905D+00 5.2399D-02
 Trust test= 4.17D+00 RLast= 1.75D-02 DXMaxT set to 7.67D-01
 ITU=  1  1  1  1  1  0  1  1  1  1  1  0
     Eigenvalues ---    0.00130   0.00241   0.00281   0.00366   0.03448
     Eigenvalues ---    0.04779   0.05491   0.05540   0.06584   0.07144
     Eigenvalues ---    0.08659   0.10455   0.12556   0.15780   0.15969
     Eigenvalues ---    0.16057   0.16711   0.17964   0.20568   0.21268
     Eigenvalues ---    0.22303   0.29733   0.33510   0.34320   0.34657
     Eigenvalues ---    0.34825   0.35107   0.35902   0.39174   0.47998
     Eigenvalues ---    0.51486   0.54742   0.54881
 En-DIIS/RFO-DIIS/Sim-DIIS IScMMF=       -3 using points:    12   11   10    9    8    7    6    5    4    3
 RFO step:  Lambda=-6.46043868D-07.
 NNeg= 0 NGDIIS=10 SimSw=  2.50D-01 Rises=F DC= -3.03D-06 SmlDif=  1.00D-05
 NRisDI= 0 DoIntr=F SqrtH=F CThrHd= 10.0 CDAdj=  3.0
 RMS Error=  0.1510451721D-02 NUsed=10 OKEnD=F EnDIS=F
 InvSVX:  RCond= 3.73D-09 Info=           0 Equed=N FErr=  4.12D-10 BErr=  4.79D-17
 DIIS inversion failure, remove point  10.
 InvSVX:  RCond= 4.44D-09 Info=           0 Equed=N FErr=  3.56D-10 BErr=  4.91D-17
 DIIS inversion failure, remove point   9.
 InvSVX:  RCond= 4.92D-09 Info=           0 Equed=N FErr=  3.22D-10 BErr=  5.14D-17
 DIIS inversion failure, remove point   8.
 InvSVX:  RCond= 1.87D-08 Info=           0 Equed=N FErr=  8.57D-11 BErr=  4.15D-17
 DIIS inversion failure, remove point   7.
 InvSVX:  RCond= 7.55D-08 Info=           0 Equed=N FErr=  2.24D-11 BErr=  5.78D-17
 DIIS inversion failure, remove point   6.
 InvSVX:  RCond= 1.67D-07 Info=           0 Equed=N FErr=  1.19D-11 BErr=  7.04D-17
 RFO-DIIS uses    5 points instead of   10
 DidBck=F Rises=F RFO-DIIS coefs:    1.44028   -0.36363    0.45807   -1.69372    1.15901
                  RFO-DIIS coefs:    0.00000    0.00000    0.00000    0.00000    0.00000
 Iteration  1 RMS(Cart)=  0.00181251 RMS(Int)=  0.00000242
 Iteration  2 RMS(Cart)=  0.00000246 RMS(Int)=  0.00000014
 Iteration  3 RMS(Cart)=  0.00000000 RMS(Int)=  0.00000014
 ITry= 1 IFail=0 DXMaxC= 6.30D-03 DCOld= 1.00D+10 DXMaxT= 7.67D-01 DXLimC= 3.00D+00 Rises=F
 Variable       Old X    -DE/DX   Delta X   Delta X   Delta X     New X
                                 (Linear)    (Quad)   (Total)
    R1        2.66836  -0.00000   0.00011  -0.00007   0.00004   2.66840
    R2        1.82449  -0.00005  -0.00006  -0.00003  -0.00009   1.82440
    R3        2.64377  -0.00017  -0.00041  -0.00004  -0.00046   2.64331
    R4        2.88438   0.00017   0.00025   0.00025   0.00050   2.88488
    R5        2.08799  -0.00001   0.00004  -0.00006  -0.00002   2.08797
    R6        1.82691   0.00001   0.00003  -0.00002   0.00000   1.82691
    R7        2.87854   0.00010  -0.00004   0.00027   0.00023   2.87878
    R8        2.08406  -0.00008  -0.00012  -0.00010  -0.00022   2.08385
    R9        2.08157  -0.00008  -0.00016  -0.00006  -0.00023   2.08134
   R10        2.07922  -0.00011  -0.00026  -0.00006  -0.00032   2.07891
   R11        2.08272  -0.00006  -0.00010  -0.00007  -0.00017   2.08255
   R12        2.07800  -0.00007  -0.00015  -0.00007  -0.00021   2.07778
    A1        1.88978   0.00004   0.00011   0.00022   0.00034   1.89012
    A2        1.87382  -0.00001  -0.00021   0.00030   0.00009   1.87391
    A3        1.95240  -0.00003  -0.00022  -0.00007  -0.00029   1.95211
    A4        1.91938   0.00001   0.00031  -0.00036  -0.00005   1.91933
    A5        1.97306   0.00004   0.00033  -0.00001   0.00032   1.97338
    A6        1.83553   0.00001  -0.00001   0.00019   0.00018   1.83571
    A7        1.90580  -0.00002  -0.00018  -0.00004  -0.00022   1.90559
    A8        1.88578   0.00006   0.00033   0.00005   0.00037   1.88615
    A9        1.99355  -0.00000   0.00035  -0.00047  -0.00012   1.99343
   A10        1.87966  -0.00001  -0.00043   0.00021  -0.00022   1.87944
   A11        1.87733   0.00001   0.00017  -0.00009   0.00008   1.87741
   A12        1.92071   0.00000  -0.00003   0.00003  -0.00001   1.92070
   A13        1.92955  -0.00002  -0.00021  -0.00002  -0.00023   1.92932
   A14        1.85725   0.00003   0.00014   0.00041   0.00055   1.85780
   A15        1.94044   0.00000   0.00027  -0.00003   0.00024   1.94068
   A16        1.94976  -0.00002  -0.00006  -0.00021  -0.00027   1.94949
   A17        1.93298  -0.00005  -0.00031  -0.00010  -0.00042   1.93257
   A18        1.88399   0.00001  -0.00005   0.00009   0.00004   1.88403
   A19        1.88354   0.00004   0.00037   0.00015   0.00053   1.88407
   A20        1.87016   0.00002  -0.00021   0.00012  -0.00009   1.87007
    D1       -2.97165  -0.00000   0.00309  -0.00010   0.00299  -2.96867
    D2       -0.79746   0.00002   0.00322   0.00005   0.00327  -0.79420
    D3        1.32342  -0.00001   0.00306  -0.00030   0.00276   1.32617
    D4        1.16654  -0.00001   0.00123  -0.00006   0.00117   1.16770
    D5       -0.99510   0.00001   0.00144  -0.00018   0.00126  -0.99384
    D6       -3.07286  -0.00000   0.00148  -0.00025   0.00123  -3.07163
    D7       -1.03312  -0.00001   0.00136  -0.00055   0.00082  -1.03231
    D8        1.10588  -0.00002   0.00124  -0.00067   0.00057   1.10645
    D9        3.10142   0.00001   0.00127  -0.00013   0.00114   3.10256
   D10        1.08470  -0.00002   0.00117  -0.00022   0.00096   1.08566
   D11       -3.05947  -0.00002   0.00104  -0.00034   0.00071  -3.05877
   D12       -1.06394   0.00001   0.00108   0.00020   0.00128  -1.06266
   D13        3.12137   0.00001   0.00125  -0.00002   0.00123   3.12260
   D14       -1.02281   0.00000   0.00112  -0.00014   0.00098  -1.02183
   D15        0.97273   0.00003   0.00115   0.00040   0.00155   0.97428
   D16        1.00413  -0.00000   0.00272   0.00022   0.00293   1.00706
   D17       -1.10178  -0.00001   0.00264   0.00027   0.00291  -1.09888
   D18        3.09813   0.00002   0.00316   0.00032   0.00348   3.10161
   D19       -1.11234   0.00001   0.00305   0.00025   0.00330  -1.10904
   D20        3.06493   0.00001   0.00298   0.00030   0.00328   3.06821
   D21        0.98166   0.00003   0.00350   0.00035   0.00385   0.98551
   D22        3.12422  -0.00001   0.00303  -0.00026   0.00277   3.12699
   D23        1.01831  -0.00001   0.00295  -0.00021   0.00275   1.02105
   D24       -1.06497   0.00001   0.00347  -0.00016   0.00332  -1.06165
         Item               Value     Threshold  Converged?
 Maximum Force            0.000171     0.000450     YES
 RMS     Force            0.000047     0.000300     YES
 Maximum Displacement     0.006296     0.001800     NO 
 RMS     Displacement     0.001813     0.001200     NO 
 Predicted change in Energy=-2.856733D-07
 Lowest energy point so far.  Saving SCF results.
 GradGradGradGradGradGradGradGradGradGradGradGradGradGradGradGradGradGrad

 Leave Link  103 at Tue Oct 21 19:55:19 2025, MaxMem=  4294967296 cpu:               0.1 elap:               0.0
 (Enter /lrz/sys/applications/gaussian/g16.C.01/x86_64_legacy/exe/l202.exe)
                          Input orientation:                          
 ---------------------------------------------------------------------
 Center     Atomic      Atomic             Coordinates (Angstroms)
 Number     Number       Type             X           Y           Z
 ---------------------------------------------------------------------
      1          8           0       -0.735791   -1.349925   -0.072164
      2          6           0       -0.605417   -0.001821   -0.471564
      3          8           0       -1.263297    0.781736    0.482283
      4          6           0        0.856027    0.394271   -0.666086
      5          6           0        1.718800    0.230464    0.578696
      6          1           0       -0.158965   -1.888043   -0.628717
      7          1           0       -1.155992    0.167315   -1.414475
      8          1           0       -0.775193    0.714291    1.314047
      9          1           0        1.261642   -0.215961   -1.490158
     10          1           0        0.873804    1.439168   -1.013874
     11          1           0        1.696852   -0.806957    0.944100
     12          1           0        1.381193    0.886138    1.397595
     13          1           0        2.764979    0.492116    0.364260
 ---------------------------------------------------------------------
                    Distance matrix (angstroms):
                    1          2          3          4          5
     1  O    0.000000
     2  C    1.412056   0.000000
     3  O    2.264873   1.398782   0.000000
     4  C    2.434923   1.526612   2.441396   0.000000
     5  C    2.991031   2.561052   3.034155   1.523382   0.000000
     6  H    0.965428   1.944698   3.095414   2.498112   3.077648
     7  H    2.068908   1.104908   1.996676   2.158660   3.498735
     8  H    2.486789   1.931333   0.966761   2.585386   2.644774
     9  H    2.699319   2.137591   3.355776   1.102724   2.165282
    10  H    3.355094   2.135099   2.690335   1.101400   2.170544
    11  H    2.691721   2.820069   3.391121   2.177759   1.100111
    12  H    3.412007   2.868597   2.800362   2.185524   1.102036
    13  H    3.979821   3.507441   4.040398   2.171471   1.099516
                    6          7          8          9         10
     6  H    0.000000
     7  H    2.415776   0.000000
     8  H    3.305482   2.808740   0.000000
     9  H    2.357130   2.448996   3.588542   0.000000
    10  H    3.505038   2.428614   2.943443   1.765422   0.000000
    11  H    2.662059   3.827636   2.926101   2.542498   3.091302
    12  H    3.764852   3.855094   2.164836   3.093224   2.525563
    13  H    3.898795   4.317801   3.672094   2.490032   2.524422
                   11         12         13
    11  H    0.000000
    12  H    1.780974   0.000000
    13  H    1.778960   1.771412   0.000000
 Stoichiometry    C3H8O2
 Framework group  C1[X(C3H8O2)]
 Deg. of freedom    33
 Full point group                 C1      NOp   1
 RotChk:  IX=0 Diff= 2.43D-03
 Largest Abelian subgroup         C1      NOp   1
 Largest concise Abelian subgroup C1      NOp   1
                         Standard orientation:                         
 ---------------------------------------------------------------------
 Center     Atomic      Atomic             Coordinates (Angstroms)
 Number     Number       Type             X           Y           Z
 ---------------------------------------------------------------------
      1          8           0       -1.040559    1.083479   -0.413174
      2          6           0       -0.665773    0.013070    0.428053
      3          8           0       -1.072267   -1.170769   -0.196350
      4          6           0        0.826557    0.038205    0.748777
      5          6           0        1.730117   -0.041593   -0.475113
      6          1           0       -0.631865    1.890819   -0.076686
      7          1           0       -1.240472    0.054971    1.370808
      8          1           0       -0.546062   -1.282021   -0.999691
      9          1           0        1.032765    0.964047    1.311177
     10          1           0        1.032880   -0.796915    1.436591
     11          1           0        1.522627    0.779823   -1.176873
     12          1           0        1.599230   -0.992296   -1.016885
     13          1           0        2.788098    0.021796   -0.182552
 ---------------------------------------------------------------------
 Rotational constants (GHZ):           6.8962220           4.0111148           3.3419964
 Leave Link  202 at Tue Oct 21 19:55:19 2025, MaxMem=  4294967296 cpu:               0.2 elap:               0.0
 (Enter /lrz/sys/applications/gaussian/g16.C.01/x86_64_legacy/exe/l301.exe)
 Standard basis: def2SVP (5D, 7F)
 Ernie: Thresh=  0.10000D-02 Tol=  0.10000D-05 Strict=F.
 There are   115 symmetry adapted cartesian basis functions of A   symmetry.
 There are   110 symmetry adapted basis functions of A   symmetry.
   110 basis functions,   181 primitive gaussians,   115 cartesian basis functions
    21 alpha electrons       21 beta electrons
       nuclear repulsion energy       197.1847661547 Hartrees.
 IExCor= 4639 DFT=T Ex+Corr=wB97XD ExCW=0 ScaHFX=  1.000000
 ScaDFX=  1.000000  1.000000  1.000000  1.000000 ScalE2=  1.000000  1.000000
 IRadAn=      5 IRanWt=     -1 IRanGd=            0 ICorTp=0 IEmpDi=121
 HFx  wShort=  0.000000 wLong=  0.200000 cFull=  0.222036 cShort=  0.000000 cLong=  0.777964
 DFx  wShort=  0.000000 wLong=  0.200000 cFull=  0.000000 cShort=  0.000000 cLong=  1.000000
 NAtoms=   13 NActive=   13 NUniq=   13 SFac= 1.00D+00 NAtFMM=   60 NAOKFM=F Big=F
 Integral buffers will be    131072 words long.
 Raffenetti 2 integral format.
 Two-electron integral symmetry is turned on.
 R6Disp:  Grimme-D2 Dispersion energy=       -0.0059822077 Hartrees.
 Nuclear repulsion after empirical dispersion term =      197.1787839470 Hartrees.
 ------------------------------------------------------------------------------
 Polarizable Continuum Model (PCM)
 =================================
 Model                : PCM.
 Atomic radii         : SMD-Coulomb.
 Polarization charges : Total charges.
 Charge compensation  : None.
 Solution method      : On-the-fly selection.
 Cavity type          : VdW (van der Waals Surface) (Alpha=1.000).
 Cavity algorithm     : GePol (No added spheres)
                        Default sphere list used, NSphG=   13.
                        Lebedev-Laikov grids with approx.  5.0 points / Ang**2.
                        Smoothing algorithm: York/Karplus (Gamma=1.0000).
                        Polarization charges: spherical gaussians, with
                                              point-specific exponents (IZeta= 3).
                        Self-potential: point-specific (ISelfS= 7).
                        Self-field    : sphere-specific E.n sum rule (ISelfD= 2).
 1st derivatives      : Analytical E(r).r(x)/FMM algorithm (CHGder, D1EAlg=3).
                        Cavity 1st derivative terms included.
 Solvent              : Water, Eps=  78.355300 Eps(inf)=   1.777849
 ------------------------------------------------------------------------------
 Spheres list:
 ISph  on   Nord     Re0    Alpha      Xe            Ye            Ze
    1   O      1    1.5200  1.000     -1.040559      1.083479     -0.413174
    2   C      2    1.8500  1.000     -0.665773      0.013070      0.428053
    3   O      3    1.5200  1.000     -1.072267     -1.170769     -0.196350
    4   C      4    1.8500  1.000      0.826557      0.038205      0.748777
    5   C      5    1.8500  1.000      1.730117     -0.041593     -0.475113
    6   H      6    1.2000  1.000     -0.631865      1.890819     -0.076686
    7   H      7    1.2000  1.000     -1.240472      0.054971      1.370808
    8   H      8    1.2000  1.000     -0.546062     -1.282021     -0.999691
    9   H      9    1.2000  1.000      1.032765      0.964047      1.311177
   10   H     10    1.2000  1.000      1.032880     -0.796915      1.436591
   11   H     11    1.2000  1.000      1.522627      0.779823     -1.176873
   12   H     12    1.2000  1.000      1.599230     -0.992296     -1.016885
   13   H     13    1.2000  1.000      2.788098      0.021796     -0.182552
 ------------------------------------------------------------------------------
 GePol: Number of generator spheres                  =      13
 GePol: Total number of spheres                      =      13
 GePol: Number of exposed spheres                    =      13 (100.00%)
 GePol: Number of points                             =     905
 GePol: Average weight of points                     =       0.12
 GePol: Minimum weight of points                     =   0.46D-08
 GePol: Maximum weight of points                     =    0.21991
 GePol: Number of points with low weight             =      49
 GePol: Fraction of low-weight points (<1% of avg)   =       5.41%
 GePol: Cavity surface area                          =    109.203 Ang**2
 GePol: Cavity volume                                =     82.026 Ang**3
 ------------------------------------------------------------------------------
 Atomic radii for non-electrostatic terms: SMD-CDS.
 ------------------------------------------------------------------------------
 PCM non-electrostatic energy =         0.0044650260 Hartrees.
 Nuclear repulsion after PCM non-electrostatic terms =      197.1832489729 Hartrees.
 Leave Link  301 at Tue Oct 21 19:55:19 2025, MaxMem=  4294967296 cpu:               0.6 elap:               0.1
 (Enter /lrz/sys/applications/gaussian/g16.C.01/x86_64_legacy/exe/l302.exe)
 NPDir=0 NMtPBC=     1 NCelOv=     1 NCel=       1 NClECP=     1 NCelD=      1
         NCelK=      1 NCelE2=     1 NClLst=     1 CellRange=     0.0.
 One-electron integrals computed using PRISM.
 One-electron integral symmetry used in STVInt
   1 Symmetry operations used in ECPInt.
 ECPInt:  NShTT=    1485 NPrTT=    5139 LenC2=    1483 LenP2D=    4465.
 LDataN:  DoStor=T MaxTD1= 4 Len=   56
 NBasis=   110 RedAO= T EigKep=  2.40D-03  NBF=   110
 NBsUse=   110 1.00D-06 EigRej= -1.00D+00 NBFU=   110
 Precomputing XC quadrature grid using
 IXCGrd= 4 IRadAn=           5 IRanWt=          -1 IRanGd=           0 AccXCQ= 0.00D+00.
 Generated NRdTot=       0 NPtTot=           0 NUsed=           0 NTot=          32
 NSgBfM=   115   115   115   115   115 MxSgAt=    13 MxSgA2=    13.
 Leave Link  302 at Tue Oct 21 19:55:19 2025, MaxMem=  4294967296 cpu:               1.2 elap:               0.2
 (Enter /lrz/sys/applications/gaussian/g16.C.01/x86_64_legacy/exe/l303.exe)
 DipDrv:  MaxL=1.
 Leave Link  303 at Tue Oct 21 19:55:19 2025, MaxMem=  4294967296 cpu:               0.2 elap:               0.0
 (Enter /lrz/sys/applications/gaussian/g16.C.01/x86_64_legacy/exe/l401.exe)
 Initial guess from the checkpoint file:  "g16_C3-w_9.chk"
 B after Tr=     0.000000    0.000000    0.000000
         Rot=    1.000000   -0.000580    0.000018    0.000437 Ang=  -0.08 deg.
 Guess basis will be translated and rotated to current coordinates.
 JPrj=2 DoOrth=T DoCkMO=T.
 Leave Link  401 at Tue Oct 21 19:55:20 2025, MaxMem=  4294967296 cpu:               0.8 elap:               0.1
 (Enter /lrz/sys/applications/gaussian/g16.C.01/x86_64_legacy/exe/l502.exe)
 Integral symmetry usage will be decided dynamically.
 Closed shell SCF:
 Using DIIS extrapolation, IDIIS=  1040.
 NGot=  4294967296 LenX=  4294938204 LenY=  4294924538
 Requested convergence on RMS density matrix=1.00D-08 within 128 cycles.
 Requested convergence on MAX density matrix=1.00D-06.
 Requested convergence on             energy=1.00D-06.
 No special actions if energy rises.
 Fock matrices will be formed incrementally for  20 cycles.

 Cycle   1  Pass 1  IDiag  1:
 FoFJK:  IHMeth= 1 ICntrl=       0 DoSepK=T KAlg= 0 I1Cent=           0 FoldK=F
 IRaf=         1 NMat=       1 IRICut=       1 DoRegI=T DoRafI=F ISym2E= 0 IDoP0=0 IntGTp=1.
 FoFCou: FMM=F IPFlag=           0 FMFlag=      100000 FMFlg1=           0
         NFxFlg=           0 DoJE=T BraDBF=F KetDBF=F FulRan=T
         wScrn=  0.000000 ICntrl=       500 IOpCl=  0 I1Cent=           0 NGrid=           0
         NMat0=    1 NMatS0=      1 NMatT0=    0 NMatD0=    1 NMtDS0=    0 NMtDT0=    0
 Symmetry not used in FoFCou.
 Inv3:  Mode=1 IEnd=     2457075.
 Iteration    1 A*A^-1 deviation from unit magnitude is 4.66D-15 for    146.
 Iteration    1 A*A^-1 deviation from orthogonality  is 3.41D-15 for    705    114.
 Iteration    1 A^-1*A deviation from unit magnitude is 4.66D-15 for    266.
 Iteration    1 A^-1*A deviation from orthogonality  is 2.13D-15 for    512    225.
 E= -269.314177868679    
 DIIS: error= 8.75D-05 at cycle   1 NSaved=   1.
 NSaved= 1 IEnMin= 1 EnMin= -269.314177868679     IErMin= 1 ErrMin= 8.75D-05
 ErrMax= 8.75D-05  0.00D+00 EMaxC= 1.00D-01 BMatC= 2.60D-06 BMatP= 2.60D-06
 IDIUse=1 WtCom= 1.00D+00 WtEn= 0.00D+00
 Coeff-Com:  0.100D+01
 Coeff:      0.100D+01
 Gap=     0.740 Goal=   None    Shift=    0.000
 RMSDP=2.33D-05 MaxDP=5.49D-04              OVMax= 4.02D-04

 Cycle   2  Pass 1  IDiag  1:
 RMSU=  2.33D-05    CP:  1.00D+00
 E= -269.314181736855     Delta-E=       -0.000003868175 Rises=F Damp=F
 DIIS: error= 2.42D-05 at cycle   2 NSaved=   2.
 NSaved= 2 IEnMin= 2 EnMin= -269.314181736855     IErMin= 2 ErrMin= 2.42D-05
 ErrMax= 2.42D-05  0.00D+00 EMaxC= 1.00D-01 BMatC= 9.14D-08 BMatP= 2.60D-06
 IDIUse=1 WtCom= 1.00D+00 WtEn= 0.00D+00
 Coeff-Com: -0.176D+00 0.118D+01
 Coeff:     -0.176D+00 0.118D+01
 Gap=     0.493 Goal=   None    Shift=    0.000
 RMSDP=6.03D-06 MaxDP=1.19D-04 DE=-3.87D-06 OVMax= 1.38D-04

 Cycle   3  Pass 1  IDiag  1:
 RMSU=  2.87D-06    CP:  1.00D+00  1.23D+00
 E= -269.314181947084     Delta-E=       -0.000000210229 Rises=F Damp=F
 DIIS: error= 5.74D-06 at cycle   3 NSaved=   3.
 NSaved= 3 IEnMin= 3 EnMin= -269.314181947084     IErMin= 3 ErrMin= 5.74D-06
 ErrMax= 5.74D-06  0.00D+00 EMaxC= 1.00D-01 BMatC= 6.69D-09 BMatP= 9.14D-08
 IDIUse=1 WtCom= 1.00D+00 WtEn= 0.00D+00
 Coeff-Com: -0.402D-01 0.200D+00 0.840D+00
 Coeff:     -0.402D-01 0.200D+00 0.840D+00
 Gap=     0.493 Goal=   None    Shift=    0.000
 RMSDP=1.22D-06 MaxDP=2.21D-05 DE=-2.10D-07 OVMax= 2.68D-05

 Cycle   4  Pass 1  IDiag  1:
 RMSU=  9.67D-07    CP:  1.00D+00  1.25D+00  1.18D+00
 E= -269.314181953848     Delta-E=       -0.000000006764 Rises=F Damp=F
 DIIS: error= 3.97D-06 at cycle   4 NSaved=   4.
 NSaved= 4 IEnMin= 4 EnMin= -269.314181953848     IErMin= 4 ErrMin= 3.97D-06
 ErrMax= 3.97D-06  0.00D+00 EMaxC= 1.00D-01 BMatC= 2.90D-09 BMatP= 6.69D-09
 IDIUse=1 WtCom= 1.00D+00 WtEn= 0.00D+00
 Coeff-Com:  0.131D-01-0.120D+00 0.393D+00 0.713D+00
 Coeff:      0.131D-01-0.120D+00 0.393D+00 0.713D+00
 Gap=     0.493 Goal=   None    Shift=    0.000
 RMSDP=5.68D-07 MaxDP=1.07D-05 DE=-6.76D-09 OVMax= 1.28D-05

 Cycle   5  Pass 1  IDiag  1:
 RMSU=  2.42D-07    CP:  1.00D+00  1.26D+00  1.34D+00  8.34D-01
 E= -269.314181956524     Delta-E=       -0.000000002677 Rises=F Damp=F
 DIIS: error= 3.66D-07 at cycle   5 NSaved=   5.
 NSaved= 5 IEnMin= 5 EnMin= -269.314181956524     IErMin= 5 ErrMin= 3.66D-07
 ErrMax= 3.66D-07  0.00D+00 EMaxC= 1.00D-01 BMatC= 4.85D-11 BMatP= 2.90D-09
 IDIUse=1 WtCom= 1.00D+00 WtEn= 0.00D+00
 Coeff-Com:  0.453D-02-0.348D-01 0.353D-01 0.138D+00 0.857D+00
 Coeff:      0.453D-02-0.348D-01 0.353D-01 0.138D+00 0.857D+00
 Gap=     0.493 Goal=   None    Shift=    0.000
 RMSDP=1.41D-07 MaxDP=2.49D-06 DE=-2.68D-09 OVMax= 3.76D-06

 Cycle   6  Pass 1  IDiag  1:
 RMSU=  7.12D-08    CP:  1.00D+00  1.26D+00  1.37D+00  8.88D-01  1.14D+00
 E= -269.314181956597     Delta-E=       -0.000000000073 Rises=F Damp=F
 DIIS: error= 1.53D-07 at cycle   6 NSaved=   6.
 NSaved= 6 IEnMin= 6 EnMin= -269.314181956597     IErMin= 6 ErrMin= 1.53D-07
 ErrMax= 1.53D-07  0.00D+00 EMaxC= 1.00D-01 BMatC= 6.46D-12 BMatP= 4.85D-11
 IDIUse=1 WtCom= 1.00D+00 WtEn= 0.00D+00
 Coeff-Com:  0.216D-03 0.175D-03-0.245D-01-0.238D-01 0.238D+00 0.810D+00
 Coeff:      0.216D-03 0.175D-03-0.245D-01-0.238D-01 0.238D+00 0.810D+00
 Gap=     0.493 Goal=   None    Shift=    0.000
 RMSDP=4.75D-08 MaxDP=1.02D-06 DE=-7.33D-11 OVMax= 1.52D-06

 Cycle   7  Pass 1  IDiag  1:
 RMSU=  2.17D-08    CP:  1.00D+00  1.26D+00  1.38D+00  9.04D-01  1.26D+00
                    CP:  9.98D-01
 E= -269.314181956611     Delta-E=       -0.000000000013 Rises=F Damp=F
 DIIS: error= 3.72D-08 at cycle   7 NSaved=   7.
 NSaved= 7 IEnMin= 7 EnMin= -269.314181956611     IErMin= 7 ErrMin= 3.72D-08
 ErrMax= 3.72D-08  0.00D+00 EMaxC= 1.00D-01 BMatC= 4.24D-13 BMatP= 6.46D-12
 IDIUse=1 WtCom= 1.00D+00 WtEn= 0.00D+00
 Coeff-Com: -0.351D-03 0.314D-02-0.649D-02-0.162D-01-0.501D-01 0.142D+00
 Coeff-Com:  0.928D+00
 Coeff:     -0.351D-03 0.314D-02-0.649D-02-0.162D-01-0.501D-01 0.142D+00
 Coeff:      0.928D+00
 Gap=     0.493 Goal=   None    Shift=    0.000
 RMSDP=1.59D-08 MaxDP=4.20D-07 DE=-1.34D-11 OVMax= 6.05D-07

 Cycle   8  Pass 1  IDiag  1:
 RMSU=  5.97D-09    CP:  1.00D+00  1.26D+00  1.38D+00  9.07D-01  1.30D+00
                    CP:  1.13D+00  1.17D+00
 E= -269.314181956614     Delta-E=       -0.000000000004 Rises=F Damp=F
 DIIS: error= 1.25D-08 at cycle   8 NSaved=   8.
 NSaved= 8 IEnMin= 8 EnMin= -269.314181956614     IErMin= 8 ErrMin= 1.25D-08
 ErrMax= 1.25D-08  0.00D+00 EMaxC= 1.00D-01 BMatC= 4.79D-14 BMatP= 4.24D-13
 IDIUse=1 WtCom= 1.00D+00 WtEn= 0.00D+00
 Coeff-Com: -0.960D-04 0.763D-03-0.251D-03-0.287D-02-0.275D-01-0.399D-02
 Coeff-Com:  0.270D+00 0.764D+00
 Coeff:     -0.960D-04 0.763D-03-0.251D-03-0.287D-02-0.275D-01-0.399D-02
 Coeff:      0.270D+00 0.764D+00
 Gap=     0.493 Goal=   None    Shift=    0.000
 RMSDP=3.82D-09 MaxDP=8.21D-08 DE=-3.69D-12 OVMax= 1.38D-07

 Error on total polarization charges =  0.03198
 SCF Done:  E(RwB97XD) =  -269.314181957     A.U. after    8 cycles
            NFock=  8  Conv=0.38D-08     -V/T= 2.0096
 KE= 2.667520154511D+02 PE=-1.024220633933D+03 EE= 2.909711875520D+02
 SMD-CDS (non-electrostatic) energy       (kcal/mol) =       2.80
 (included in total energy above)
 Leave Link  502 at Tue Oct 21 19:55:32 2025, MaxMem=  4294967296 cpu:              94.8 elap:              11.9
 (Enter /lrz/sys/applications/gaussian/g16.C.01/x86_64_legacy/exe/l701.exe)
 ... and contract with generalized density number  0.
 Compute integral first derivatives.
 R6Disp: Adding Grimme-D2 dispersion energy 1st derivatives to the gradient.
   1 Symmetry operations used in ECPInt.
 ECPInt:  NShTT=    1485 NPrTT=    5139 LenC2=    1483 LenP2D=    4465.
 LDataN:  DoStor=T MaxTD1= 5 Len=  102
 D1PCM: PCM CHGder 1st derivatives, ID1Alg=3 FixD1E=F DoIter=F DoCFld=F I1PDM=0.
 GePol: Maximum number of non-zero 1st derivatives   =     244
 Leave Link  701 at Tue Oct 21 19:55:32 2025, MaxMem=  4294967296 cpu:               4.0 elap:               0.5
 (Enter /lrz/sys/applications/gaussian/g16.C.01/x86_64_legacy/exe/l702.exe)
 L702 exits ... SP integral derivatives will be done elsewhere.
 Leave Link  702 at Tue Oct 21 19:55:32 2025, MaxMem=  4294967296 cpu:               0.2 elap:               0.0
 (Enter /lrz/sys/applications/gaussian/g16.C.01/x86_64_legacy/exe/l703.exe)
 Integral derivatives from FoFJK, PRISM(SPDF).
 Compute integral first derivatives, UseDBF=F ICtDFT=           0.
 Calling FoFJK, ICntrl=      2127 FMM=F ISym2X=0 I1Cent= 0 IOpClX= 0 NMat=1 NMatS=1 NMatT=0.
 FoFJK:  IHMeth= 1 ICntrl=    2127 DoSepK=T KAlg= 0 I1Cent=           0 FoldK=F
 IRaf=         1 NMat=       1 IRICut=       1 DoRegI=T DoRafI=F ISym2E= 0 IDoP0=0 IntGTp=1.
 FoFCou: FMM=F IPFlag=           0 FMFlag=      100000 FMFlg1=         800
         NFxFlg=           0 DoJE=F BraDBF=F KetDBF=F FulRan=T
         wScrn=  0.000000 ICntrl=      2527 IOpCl=  0 I1Cent=           0 NGrid=           0
         NMat0=    1 NMatS0=      1 NMatT0=    0 NMatD0=    1 NMtDS0=    0 NMtDT0=    0
 Symmetry not used in FoFCou.
 Leave Link  703 at Tue Oct 21 19:55:34 2025, MaxMem=  4294967296 cpu:              17.2 elap:               2.2
 (Enter /lrz/sys/applications/gaussian/g16.C.01/x86_64_legacy/exe/l716.exe)
 Dipole        = 1.18308940D+00 6.05935968D-01 3.39590633D-01
 ***** Axes restored to original set *****
 -------------------------------------------------------------------
 Center     Atomic                   Forces (Hartrees/Bohr)
 Number     Number              X              Y              Z
 -------------------------------------------------------------------
      1        8           0.000010953   -0.000005877   -0.000031943
      2        6          -0.000061770    0.000012724    0.000019888
      3        8           0.000025859   -0.000027626   -0.000006258
      4        6           0.000029284    0.000033175   -0.000082154
      5        6           0.000033871   -0.000028499    0.000063107
      6        1          -0.000001023    0.000011380   -0.000031539
      7        1          -0.000001008    0.000013128   -0.000003590
      8        1          -0.000018104   -0.000034050    0.000021259
      9        1          -0.000000818    0.000021303    0.000012242
     10        1          -0.000006533    0.000016530    0.000042183
     11        1          -0.000004778   -0.000005897   -0.000022723
     12        1          -0.000002845   -0.000011090    0.000011608
     13        1          -0.000003089    0.000004800    0.000007921
 -------------------------------------------------------------------
 Cartesian Forces:  Max     0.000082154 RMS     0.000027058
 Leave Link  716 at Tue Oct 21 19:55:34 2025, MaxMem=  4294967296 cpu:               0.3 elap:               0.1
 (Enter /lrz/sys/applications/gaussian/g16.C.01/x86_64_legacy/exe/l103.exe)

 GradGradGradGradGradGradGradGradGradGradGradGradGradGradGradGradGradGrad
 Berny optimization.
 Using GEDIIS/GDIIS optimizer.
 FormGI is forming the generalized inverse of G from B-inverse, IUseBI=4.
 Internal  Forces:  Max     0.000055236 RMS     0.000012097
 Search for a local minimum.
 Step number  13 out of a maximum of   66
 All quantities printed in internal units (Hartrees-Bohrs-Radians)
 RMS Force = .12097D-04 SwitMx=.10000D-02 MixMth= 2
 Mixed Optimization -- En-DIIS/RFO-DIIS
 Swapping is turned off.
 Update second derivatives using D2CorX and points    2    3    4    5    6
                                                      7    8    9   10   11
                                                     12   13
 DE= -1.35D-06 DEPred=-2.86D-07 R= 4.72D+00
 TightC=F SS=  1.41D+00  RLast= 1.17D-02 DXNew= 1.2905D+00 3.4992D-02
 Trust test= 4.72D+00 RLast= 1.17D-02 DXMaxT set to 7.67D-01
 ITU=  1  1  1  1  1  1  0  1  1  1  1  1  0
     Eigenvalues ---    0.00136   0.00238   0.00279   0.00382   0.03444
     Eigenvalues ---    0.04379   0.05464   0.05512   0.06393   0.07150
     Eigenvalues ---    0.08652   0.10400   0.12531   0.15364   0.15876
     Eigenvalues ---    0.16060   0.16502   0.17812   0.20478   0.21056
     Eigenvalues ---    0.21881   0.29810   0.31200   0.33579   0.34640
     Eigenvalues ---    0.34823   0.35025   0.35133   0.39917   0.48214
     Eigenvalues ---    0.51131   0.54745   0.54826
 En-DIIS/RFO-DIIS/Sim-DIIS IScMMF=       -3 using points:    13   12   11   10    9    8    7    6    5    4
 RFO step:  Lambda=-1.29244584D-07.
 NNeg= 0 NGDIIS=10 SimSw=  2.50D-01 Rises=F DC= -1.35D-06 SmlDif=  1.00D-05
 NRisDI= 0 DoIntr=F SqrtH=F CThrHd= 10.0 CDAdj=  3.0
 RMS Error=  0.7026092098D-03 NUsed=10 OKEnD=F EnDIS=F
 InvSVX:  RCond= 1.66D-09 Info=           0 Equed=N FErr=  6.20D-10 BErr=  6.48D-17
 DIIS inversion failure, remove point  10.
 InvSVX:  RCond= 1.87D-09 Info=           0 Equed=N FErr=  5.58D-10 BErr=  8.93D-17
 DIIS inversion failure, remove point   9.
 InvSVX:  RCond= 4.68D-09 Info=           0 Equed=N FErr=  1.63D-10 BErr=  1.08D-16
 DIIS inversion failure, remove point   8.
 InvSVX:  RCond= 5.80D-09 Info=           0 Equed=N FErr=  1.29D-10 BErr=  7.54D-17
 DIIS inversion failure, remove point   7.
 InvSVX:  RCond= 1.48D-08 Info=           0 Equed=N FErr=  1.04D-11 BErr=  5.05D-17
 DIIS inversion failure, remove point   6.
 InvSVX:  RCond= 8.40D-08 Info=           0 Equed=N FErr=  8.18D-13 BErr=  9.90D-17
 DIIS inversion failure, remove point   5.
 InvSVX:  RCond= 1.39D-07 Info=           0 Equed=N FErr=  7.95D-13 BErr=  6.99D-17
 RFO-DIIS uses    4 points instead of   10
 DidBck=F Rises=F RFO-DIIS coefs:    1.46092   -1.27776    1.27975   -0.46292    0.00000
                  RFO-DIIS coefs:    0.00000    0.00000    0.00000    0.00000    0.00000
 Iteration  1 RMS(Cart)=  0.00088435 RMS(Int)=  0.00000084
 Iteration  2 RMS(Cart)=  0.00000079 RMS(Int)=  0.00000009
 ITry= 1 IFail=0 DXMaxC= 3.78D-03 DCOld= 1.00D+10 DXMaxT= 7.67D-01 DXLimC= 3.00D+00 Rises=F
 Variable       Old X    -DE/DX   Delta X   Delta X   Delta X     New X
                                 (Linear)    (Quad)   (Total)
    R1        2.66840  -0.00000  -0.00007   0.00007   0.00000   2.66840
    R2        1.82440  -0.00001  -0.00001  -0.00001  -0.00001   1.82438
    R3        2.64331  -0.00002  -0.00002  -0.00004  -0.00006   2.64326
    R4        2.88488   0.00006   0.00015   0.00001   0.00016   2.88504
    R5        2.08797   0.00000   0.00001   0.00001   0.00001   2.08799
    R6        1.82691   0.00000   0.00001  -0.00000   0.00001   1.82692
    R7        2.87878   0.00005   0.00005   0.00011   0.00017   2.87894
    R8        2.08385  -0.00001   0.00004  -0.00008  -0.00004   2.08380
    R9        2.08134  -0.00001   0.00005  -0.00009  -0.00004   2.08131
   R10        2.07891  -0.00001   0.00005  -0.00008  -0.00004   2.07887
   R11        2.08255   0.00000   0.00005  -0.00007  -0.00002   2.08252
   R12        2.07778   0.00000   0.00006  -0.00008  -0.00002   2.07777
    A1        1.89012   0.00000  -0.00021   0.00030   0.00008   1.89020
    A2        1.87391  -0.00001  -0.00037   0.00041   0.00004   1.87395
    A3        1.95211   0.00000   0.00028  -0.00034  -0.00006   1.95204
    A4        1.91933  -0.00000   0.00012  -0.00006   0.00006   1.91939
    A5        1.97338   0.00001   0.00011  -0.00010   0.00002   1.97339
    A6        1.83571   0.00000  -0.00028   0.00034   0.00006   1.83577
    A7        1.90559  -0.00000   0.00010  -0.00020  -0.00010   1.90548
    A8        1.88615   0.00002   0.00005   0.00004   0.00009   1.88624
    A9        1.99343   0.00001   0.00032  -0.00040  -0.00008   1.99334
   A10        1.87944  -0.00000  -0.00008   0.00002  -0.00005   1.87939
   A11        1.87741   0.00000  -0.00002  -0.00001  -0.00003   1.87739
   A12        1.92070  -0.00000  -0.00007   0.00009   0.00003   1.92073
   A13        1.92932  -0.00001  -0.00007  -0.00002  -0.00008   1.92924
   A14        1.85780   0.00001  -0.00013   0.00037   0.00024   1.85805
   A15        1.94068  -0.00001  -0.00003  -0.00004  -0.00007   1.94061
   A16        1.94949  -0.00001   0.00000  -0.00013  -0.00013   1.94936
   A17        1.93257  -0.00000   0.00012  -0.00019  -0.00006   1.93251
   A18        1.88403   0.00001   0.00001   0.00012   0.00013   1.88416
   A19        1.88407   0.00001  -0.00010   0.00019   0.00009   1.88416
   A20        1.87007   0.00000  -0.00002   0.00007   0.00006   1.87012
    D1       -2.96867  -0.00000  -0.00133   0.00082  -0.00051  -2.96917
    D2       -0.79420   0.00000  -0.00126   0.00076  -0.00050  -0.79470
    D3        1.32617  -0.00000  -0.00086   0.00023  -0.00063   1.32554
    D4        1.16770  -0.00001  -0.00235  -0.00020  -0.00255   1.16516
    D5       -0.99384  -0.00001  -0.00251   0.00000  -0.00250  -0.99634
    D6       -3.07163  -0.00001  -0.00251   0.00009  -0.00243  -3.07406
    D7       -1.03231  -0.00001  -0.00019  -0.00064  -0.00082  -1.03313
    D8        1.10645  -0.00001  -0.00011  -0.00077  -0.00088   1.10557
    D9        3.10256   0.00000  -0.00031  -0.00034  -0.00064   3.10192
   D10        1.08566  -0.00001  -0.00038  -0.00043  -0.00081   1.08485
   D11       -3.05877  -0.00001  -0.00031  -0.00056  -0.00087  -3.05964
   D12       -1.06266   0.00000  -0.00050  -0.00013  -0.00063  -1.06329
   D13        3.12260  -0.00000  -0.00060  -0.00019  -0.00079   3.12181
   D14       -1.02183  -0.00000  -0.00052  -0.00033  -0.00085  -1.02268
   D15        0.97428   0.00001  -0.00071   0.00011  -0.00061   0.97367
   D16        1.00706  -0.00000  -0.00039  -0.00012  -0.00051   1.00655
   D17       -1.09888  -0.00000  -0.00039  -0.00015  -0.00054  -1.09942
   D18        3.10161   0.00000  -0.00045  -0.00003  -0.00048   3.10112
   D19       -1.10904   0.00000  -0.00047   0.00006  -0.00040  -1.10944
   D20        3.06821  -0.00000  -0.00046   0.00003  -0.00043   3.06778
   D21        0.98551   0.00000  -0.00053   0.00015  -0.00038   0.98513
   D22        3.12699  -0.00000  -0.00023  -0.00044  -0.00067   3.12633
   D23        1.02105  -0.00001  -0.00023  -0.00047  -0.00069   1.02036
   D24       -1.06165  -0.00000  -0.00029  -0.00035  -0.00064  -1.06229
         Item               Value     Threshold  Converged?
 Maximum Force            0.000055     0.000450     YES
 RMS     Force            0.000012     0.000300     YES
 Maximum Displacement     0.003778     0.001800     NO 
 RMS     Displacement     0.000884     0.001200     YES
 Predicted change in Energy=-5.832777D-08
 Lowest energy point so far.  Saving SCF results.
 GradGradGradGradGradGradGradGradGradGradGradGradGradGradGradGradGradGrad

 Leave Link  103 at Tue Oct 21 19:55:34 2025, MaxMem=  4294967296 cpu:               0.1 elap:               0.0
 (Enter /lrz/sys/applications/gaussian/g16.C.01/x86_64_legacy/exe/l202.exe)
                          Input orientation:                          
 ---------------------------------------------------------------------
 Center     Atomic      Atomic             Coordinates (Angstroms)
 Number     Number       Type             X           Y           Z
 ---------------------------------------------------------------------
      1          8           0       -0.735849   -1.349842   -0.072432
      2          6           0       -0.605334   -0.001660   -0.471527
      3          8           0       -1.262857    0.781797    0.482604
      4          6           0        0.856242    0.394169   -0.666251
      5          6           0        1.718926    0.230882    0.578769
      6          1           0       -0.159602   -1.888036   -0.629499
      7          1           0       -1.155957    0.167837   -1.414354
      8          1           0       -0.775955    0.712292    1.314908
      9          1           0        1.261753   -0.216618   -1.489932
     10          1           0        0.874131    1.438917   -1.014419
     11          1           0        1.696336   -0.806228    0.944954
     12          1           0        1.381577    0.887476    1.397020
     13          1           0        2.765231    0.491808    0.364103
 ---------------------------------------------------------------------
                    Distance matrix (angstroms):
                    1          2          3          4          5
     1  O    0.000000
     2  C    1.412058   0.000000
     3  O    2.264881   1.398752   0.000000
     4  C    2.434944   1.526696   2.441456   0.000000
     5  C    2.991434   2.561129   3.033775   1.523471   0.000000
     6  H    0.965421   1.944749   3.095473   2.498349   3.078733
     7  H    2.068960   1.104916   1.996703   2.158663   3.498781
     8  H    2.485703   1.931369   0.966765   2.586554   2.645390
     9  H    2.698873   2.137608   3.355799   1.102701   2.165361
    10  H    3.355079   2.135137   2.690652   1.101380   2.170547
    11  H    2.691861   2.819828   3.390046   2.177772   1.100090
    12  H    3.412972   2.868770   2.800064   2.185501   1.102023
    13  H    3.979924   3.507491   4.040251   2.171498   1.099507
                    6          7          8          9         10
     6  H    0.000000
     7  H    2.415644   0.000000
     8  H    3.304893   2.808861   0.000000
     9  H    2.356742   2.449252   3.589186   0.000000
    10  H    3.505051   2.428343   2.945595   1.765548   0.000000
    11  H    2.663403   3.827625   2.924891   2.542670   3.091251
    12  H    3.766361   3.854968   2.166189   3.093198   2.525198
    13  H    3.899429   4.317821   3.673233   2.489932   2.524598
                   11         12         13
    11  H    0.000000
    12  H    1.781030   0.000000
    13  H    1.778994   1.771431   0.000000
 Stoichiometry    C3H8O2
 Framework group  C1[X(C3H8O2)]
 Deg. of freedom    33
 Full point group                 C1      NOp   1
 RotChk:  IX=0 Diff= 1.17D-03
 Largest Abelian subgroup         C1      NOp   1
 Largest concise Abelian subgroup C1      NOp   1
                         Standard orientation:                         
 ---------------------------------------------------------------------
 Center     Atomic      Atomic             Coordinates (Angstroms)
 Number     Number       Type             X           Y           Z
 ---------------------------------------------------------------------
      1          8           0       -1.041092    1.082915   -0.413664
      2          6           0       -0.665750    0.013119    0.428097
      3          8           0       -1.071612   -1.171243   -0.195656
      4          6           0        0.826660    0.039265    0.748767
      5          6           0        1.730173   -0.041797   -0.475184
      6          1           0       -0.633220    1.890746   -0.077381
      7          1           0       -1.240343    0.055215    1.370917
      8          1           0       -0.547003   -1.281529   -1.000179
      9          1           0        1.032467    0.965953    1.309875
     10          1           0        1.033331   -0.794974    1.437513
     11          1           0        1.521884    0.778328   -1.178184
     12          1           0        1.599901   -0.993520   -1.015282
     13          1           0        2.788117    0.022889   -0.182802
 ---------------------------------------------------------------------
 Rotational constants (GHZ):           6.8959889           4.0109267           3.3419684
 Leave Link  202 at Tue Oct 21 19:55:34 2025, MaxMem=  4294967296 cpu:               0.0 elap:               0.0
 (Enter /lrz/sys/applications/gaussian/g16.C.01/x86_64_legacy/exe/l301.exe)
 Standard basis: def2SVP (5D, 7F)
 Ernie: Thresh=  0.10000D-02 Tol=  0.10000D-05 Strict=F.
 There are   115 symmetry adapted cartesian basis functions of A   symmetry.
 There are   110 symmetry adapted basis functions of A   symmetry.
   110 basis functions,   181 primitive gaussians,   115 cartesian basis functions
    21 alpha electrons       21 beta electrons
       nuclear repulsion energy       197.1821554612 Hartrees.
 IExCor= 4639 DFT=T Ex+Corr=wB97XD ExCW=0 ScaHFX=  1.000000
 ScaDFX=  1.000000  1.000000  1.000000  1.000000 ScalE2=  1.000000  1.000000
 IRadAn=      5 IRanWt=     -1 IRanGd=            0 ICorTp=0 IEmpDi=121
 HFx  wShort=  0.000000 wLong=  0.200000 cFull=  0.222036 cShort=  0.000000 cLong=  0.777964
 DFx  wShort=  0.000000 wLong=  0.200000 cFull=  0.000000 cShort=  0.000000 cLong=  1.000000
 NAtoms=   13 NActive=   13 NUniq=   13 SFac= 1.00D+00 NAtFMM=   60 NAOKFM=F Big=F
 Integral buffers will be    131072 words long.
 Raffenetti 2 integral format.
 Two-electron integral symmetry is turned on.
 R6Disp:  Grimme-D2 Dispersion energy=       -0.0059821886 Hartrees.
 Nuclear repulsion after empirical dispersion term =      197.1761732726 Hartrees.
 ------------------------------------------------------------------------------
 Polarizable Continuum Model (PCM)
 =================================
 Model                : PCM.
 Atomic radii         : SMD-Coulomb.
 Polarization charges : Total charges.
 Charge compensation  : None.
 Solution method      : On-the-fly selection.
 Cavity type          : VdW (van der Waals Surface) (Alpha=1.000).
 Cavity algorithm     : GePol (No added spheres)
                        Default sphere list used, NSphG=   13.
                        Lebedev-Laikov grids with approx.  5.0 points / Ang**2.
                        Smoothing algorithm: York/Karplus (Gamma=1.0000).
                        Polarization charges: spherical gaussians, with
                                              point-specific exponents (IZeta= 3).
                        Self-potential: point-specific (ISelfS= 7).
                        Self-field    : sphere-specific E.n sum rule (ISelfD= 2).
 1st derivatives      : Analytical E(r).r(x)/FMM algorithm (CHGder, D1EAlg=3).
                        Cavity 1st derivative terms included.
 Solvent              : Water, Eps=  78.355300 Eps(inf)=   1.777849
 ------------------------------------------------------------------------------
 Spheres list:
 ISph  on   Nord     Re0    Alpha      Xe            Ye            Ze
    1   O      1    1.5200  1.000     -1.041092      1.082915     -0.413664
    2   C      2    1.8500  1.000     -0.665750      0.013119      0.428097
    3   O      3    1.5200  1.000     -1.071612     -1.171243     -0.195656
    4   C      4    1.8500  1.000      0.826660      0.039265      0.748767
    5   C      5    1.8500  1.000      1.730173     -0.041797     -0.475184
    6   H      6    1.2000  1.000     -0.633220      1.890746     -0.077381
    7   H      7    1.2000  1.000     -1.240343      0.055215      1.370917
    8   H      8    1.2000  1.000     -0.547003     -1.281529     -1.000179
    9   H      9    1.2000  1.000      1.032467      0.965953      1.309875
   10   H     10    1.2000  1.000      1.033331     -0.794974      1.437513
   11   H     11    1.2000  1.000      1.521884      0.778328     -1.178184
   12   H     12    1.2000  1.000      1.599901     -0.993520     -1.015282
   13   H     13    1.2000  1.000      2.788117      0.022889     -0.182802
 ------------------------------------------------------------------------------
 GePol: Number of generator spheres                  =      13
 GePol: Total number of spheres                      =      13
 GePol: Number of exposed spheres                    =      13 (100.00%)
 GePol: Number of points                             =     904
 GePol: Average weight of points                     =       0.12
 GePol: Minimum weight of points                     =   0.70D-07
 GePol: Maximum weight of points                     =    0.21991
 GePol: Number of points with low weight             =      48
 GePol: Fraction of low-weight points (<1% of avg)   =       5.31%
 GePol: Cavity surface area                          =    109.210 Ang**2
 GePol: Cavity volume                                =     82.028 Ang**3
 ------------------------------------------------------------------------------
 Atomic radii for non-electrostatic terms: SMD-CDS.
 ------------------------------------------------------------------------------
 PCM non-electrostatic energy =         0.0044660978 Hartrees.
 Nuclear repulsion after PCM non-electrostatic terms =      197.1806393704 Hartrees.
 Leave Link  301 at Tue Oct 21 19:55:35 2025, MaxMem=  4294967296 cpu:               0.6 elap:               0.1
 (Enter /lrz/sys/applications/gaussian/g16.C.01/x86_64_legacy/exe/l302.exe)
 NPDir=0 NMtPBC=     1 NCelOv=     1 NCel=       1 NClECP=     1 NCelD=      1
         NCelK=      1 NCelE2=     1 NClLst=     1 CellRange=     0.0.
 One-electron integrals computed using PRISM.
 One-electron integral symmetry used in STVInt
   1 Symmetry operations used in ECPInt.
 ECPInt:  NShTT=    1485 NPrTT=    5139 LenC2=    1483 LenP2D=    4465.
 LDataN:  DoStor=T MaxTD1= 4 Len=   56
 NBasis=   110 RedAO= T EigKep=  2.40D-03  NBF=   110
 NBsUse=   110 1.00D-06 EigRej= -1.00D+00 NBFU=   110
 Precomputing XC quadrature grid using
 IXCGrd= 4 IRadAn=           5 IRanWt=          -1 IRanGd=           0 AccXCQ= 0.00D+00.
 Generated NRdTot=       0 NPtTot=           0 NUsed=           0 NTot=          32
 NSgBfM=   115   115   115   115   115 MxSgAt=    13 MxSgA2=    13.
 Leave Link  302 at Tue Oct 21 19:55:35 2025, MaxMem=  4294967296 cpu:               1.2 elap:               0.2
 (Enter /lrz/sys/applications/gaussian/g16.C.01/x86_64_legacy/exe/l303.exe)
 DipDrv:  MaxL=1.
 Leave Link  303 at Tue Oct 21 19:55:35 2025, MaxMem=  4294967296 cpu:               0.2 elap:               0.0
 (Enter /lrz/sys/applications/gaussian/g16.C.01/x86_64_legacy/exe/l401.exe)
 Initial guess from the checkpoint file:  "g16_C3-w_9.chk"
 B after Tr=     0.000000   -0.000000    0.000000
         Rot=    1.000000    0.000353   -0.000036   -0.000158 Ang=   0.04 deg.
 Guess basis will be translated and rotated to current coordinates.
 JPrj=2 DoOrth=T DoCkMO=T.
 Leave Link  401 at Tue Oct 21 19:55:35 2025, MaxMem=  4294967296 cpu:               0.7 elap:               0.1
 (Enter /lrz/sys/applications/gaussian/g16.C.01/x86_64_legacy/exe/l502.exe)
 Integral symmetry usage will be decided dynamically.
 Closed shell SCF:
 Using DIIS extrapolation, IDIIS=  1040.
 NGot=  4294967296 LenX=  4294938204 LenY=  4294924538
 Requested convergence on RMS density matrix=1.00D-08 within 128 cycles.
 Requested convergence on MAX density matrix=1.00D-06.
 Requested convergence on             energy=1.00D-06.
 No special actions if energy rises.
 Fock matrices will be formed incrementally for  20 cycles.

 Cycle   1  Pass 1  IDiag  1:
 FoFJK:  IHMeth= 1 ICntrl=       0 DoSepK=T KAlg= 0 I1Cent=           0 FoldK=F
 IRaf=         1 NMat=       1 IRICut=       1 DoRegI=T DoRafI=F ISym2E= 0 IDoP0=0 IntGTp=1.
 FoFCou: FMM=F IPFlag=           0 FMFlag=      100000 FMFlg1=           0
         NFxFlg=           0 DoJE=T BraDBF=F KetDBF=F FulRan=T
         wScrn=  0.000000 ICntrl=       500 IOpCl=  0 I1Cent=           0 NGrid=           0
         NMat0=    1 NMatS0=      1 NMatT0=    0 NMatD0=    1 NMtDS0=    0 NMtDT0=    0
 Symmetry not used in FoFCou.
 Inv3:  Mode=1 IEnd=     2451648.
 Iteration    1 A*A^-1 deviation from unit magnitude is 4.66D-15 for    483.
 Iteration    1 A*A^-1 deviation from orthogonality  is 4.09D-15 for    812    299.
 Iteration    1 A^-1*A deviation from unit magnitude is 4.66D-15 for    483.
 Iteration    1 A^-1*A deviation from orthogonality  is 3.12D-15 for    779    361.
 E= -269.314180218953    
 DIIS: error= 7.25D-05 at cycle   1 NSaved=   1.
 NSaved= 1 IEnMin= 1 EnMin= -269.314180218953     IErMin= 1 ErrMin= 7.25D-05
 ErrMax= 7.25D-05  0.00D+00 EMaxC= 1.00D-01 BMatC= 8.98D-07 BMatP= 8.98D-07
 IDIUse=1 WtCom= 1.00D+00 WtEn= 0.00D+00
 Coeff-Com:  0.100D+01
 Coeff:      0.100D+01
 Gap=     0.740 Goal=   None    Shift=    0.000
 RMSDP=1.48D-05 MaxDP=3.58D-04              OVMax= 3.09D-04

 Cycle   2  Pass 1  IDiag  1:
 RMSU=  1.48D-05    CP:  1.00D+00
 E= -269.314181422101     Delta-E=       -0.000001203149 Rises=F Damp=F
 DIIS: error= 1.11D-05 at cycle   2 NSaved=   2.
 NSaved= 2 IEnMin= 2 EnMin= -269.314181422101     IErMin= 2 ErrMin= 1.11D-05
 ErrMax= 1.11D-05  0.00D+00 EMaxC= 1.00D-01 BMatC= 2.78D-08 BMatP= 8.98D-07
 IDIUse=1 WtCom= 1.00D+00 WtEn= 0.00D+00
 Coeff-Com: -0.162D+00 0.116D+01
 Coeff:     -0.162D+00 0.116D+01
 Gap=     0.493 Goal=   None    Shift=    0.000
 RMSDP=3.50D-06 MaxDP=7.50D-05 DE=-1.20D-06 OVMax= 1.03D-04

 Cycle   3  Pass 1  IDiag  1:
 RMSU=  1.54D-06    CP:  1.00D+00  1.21D+00
 E= -269.314181479467     Delta-E=       -0.000000057366 Rises=F Damp=F
 DIIS: error= 2.82D-06 at cycle   3 NSaved=   3.
 NSaved= 3 IEnMin= 3 EnMin= -269.314181479467     IErMin= 3 ErrMin= 2.82D-06
 ErrMax= 2.82D-06  0.00D+00 EMaxC= 1.00D-01 BMatC= 2.02D-09 BMatP= 2.78D-08
 IDIUse=1 WtCom= 1.00D+00 WtEn= 0.00D+00
 Coeff-Com: -0.348D-01 0.190D+00 0.845D+00
 Coeff:     -0.348D-01 0.190D+00 0.845D+00
 Gap=     0.493 Goal=   None    Shift=    0.000
 RMSDP=6.27D-07 MaxDP=1.59D-05 DE=-5.74D-08 OVMax= 1.95D-05

 Cycle   4  Pass 1  IDiag  1:
 RMSU=  5.34D-07    CP:  1.00D+00  1.23D+00  1.09D+00
 E= -269.314181481457     Delta-E=       -0.000000001990 Rises=F Damp=F
 DIIS: error= 1.98D-06 at cycle   4 NSaved=   4.
 NSaved= 4 IEnMin= 4 EnMin= -269.314181481457     IErMin= 4 ErrMin= 1.98D-06
 ErrMax= 1.98D-06  0.00D+00 EMaxC= 1.00D-01 BMatC= 9.19D-10 BMatP= 2.02D-09
 IDIUse=1 WtCom= 1.00D+00 WtEn= 0.00D+00
 Coeff-Com:  0.128D-01-0.120D+00 0.398D+00 0.709D+00
 Coeff:      0.128D-01-0.120D+00 0.398D+00 0.709D+00
 Gap=     0.493 Goal=   None    Shift=    0.000
 RMSDP=3.15D-07 MaxDP=7.55D-06 DE=-1.99D-09 OVMax= 9.46D-06

 Cycle   5  Pass 1  IDiag  1:
 RMSU=  1.48D-07    CP:  1.00D+00  1.24D+00  1.24D+00  8.71D-01
 E= -269.314181482306     Delta-E=       -0.000000000849 Rises=F Damp=F
 DIIS: error= 2.73D-07 at cycle   5 NSaved=   5.
 NSaved= 5 IEnMin= 5 EnMin= -269.314181482306     IErMin= 5 ErrMin= 2.73D-07
 ErrMax= 2.73D-07  0.00D+00 EMaxC= 1.00D-01 BMatC= 1.18D-11 BMatP= 9.19D-10
 IDIUse=1 WtCom= 1.00D+00 WtEn= 0.00D+00
 Coeff-Com:  0.324D-02-0.256D-01 0.410D-02 0.755D-01 0.943D+00
 Coeff:      0.324D-02-0.256D-01 0.410D-02 0.755D-01 0.943D+00
 Gap=     0.493 Goal=   None    Shift=    0.000
 RMSDP=8.28D-08 MaxDP=1.89D-06 DE=-8.49D-10 OVMax= 2.87D-06

 Cycle   6  Pass 1  IDiag  1:
 RMSU=  3.60D-08    CP:  1.00D+00  1.24D+00  1.27D+00  9.37D-01  1.26D+00
 E= -269.314181482335     Delta-E=       -0.000000000029 Rises=F Damp=F
 DIIS: error= 7.68D-08 at cycle   6 NSaved=   6.
 NSaved= 6 IEnMin= 6 EnMin= -269.314181482335     IErMin= 6 ErrMin= 7.68D-08
 ErrMax= 7.68D-08  0.00D+00 EMaxC= 1.00D-01 BMatC= 1.62D-12 BMatP= 1.18D-11
 IDIUse=1 WtCom= 1.00D+00 WtEn= 0.00D+00
 Coeff-Com: -0.147D-03 0.297D-02-0.300D-01-0.378D-01 0.211D+00 0.854D+00
 Coeff:     -0.147D-03 0.297D-02-0.300D-01-0.378D-01 0.211D+00 0.854D+00
 Gap=     0.493 Goal=   None    Shift=    0.000
 RMSDP=2.64D-08 MaxDP=6.26D-07 DE=-2.93D-11 OVMax= 8.83D-07

 Cycle   7  Pass 1  IDiag  1:
 RMSU=  1.14D-08    CP:  1.00D+00  1.24D+00  1.28D+00  9.57D-01  1.38D+00
                    CP:  9.80D-01
 E= -269.314181482333     Delta-E=        0.000000000002 Rises=F Damp=F
 DIIS: error= 2.80D-08 at cycle   7 NSaved=   7.
 NSaved= 7 IEnMin= 6 EnMin= -269.314181482335     IErMin= 7 ErrMin= 2.80D-08
 ErrMax= 2.80D-08  0.00D+00 EMaxC= 1.00D-01 BMatC= 2.23D-13 BMatP= 1.62D-12
 IDIUse=1 WtCom= 1.00D+00 WtEn= 0.00D+00
 Coeff-Com: -0.351D-03 0.344D-02-0.729D-02-0.175D-01-0.556D-01 0.254D+00
 Coeff-Com:  0.823D+00
 Coeff:     -0.351D-03 0.344D-02-0.729D-02-0.175D-01-0.556D-01 0.254D+00
 Coeff:      0.823D+00
 Gap=     0.493 Goal=   None    Shift=    0.000
 RMSDP=8.41D-09 MaxDP=2.06D-07 DE= 1.82D-12 OVMax= 2.82D-07

 Error on total polarization charges =  0.03198
 SCF Done:  E(RwB97XD) =  -269.314181482     A.U. after    7 cycles
            NFock=  7  Conv=0.84D-08     -V/T= 2.0096
 KE= 2.667518336165D+02 PE=-1.024215487526D+03 EE= 2.909688330568D+02
 SMD-CDS (non-electrostatic) energy       (kcal/mol) =       2.80
 (included in total energy above)
 Leave Link  502 at Tue Oct 21 19:55:46 2025, MaxMem=  4294967296 cpu:              84.2 elap:              10.6
 (Enter /lrz/sys/applications/gaussian/g16.C.01/x86_64_legacy/exe/l701.exe)
 ... and contract with generalized density number  0.
 Compute integral first derivatives.
 R6Disp: Adding Grimme-D2 dispersion energy 1st derivatives to the gradient.
   1 Symmetry operations used in ECPInt.
 ECPInt:  NShTT=    1485 NPrTT=    5139 LenC2=    1483 LenP2D=    4465.
 LDataN:  DoStor=T MaxTD1= 5 Len=  102
 D1PCM: PCM CHGder 1st derivatives, ID1Alg=3 FixD1E=F DoIter=F DoCFld=F I1PDM=0.
 GePol: Maximum number of non-zero 1st derivatives   =     243
 Leave Link  701 at Tue Oct 21 19:55:46 2025, MaxMem=  4294967296 cpu:               4.1 elap:               0.5
 (Enter /lrz/sys/applications/gaussian/g16.C.01/x86_64_legacy/exe/l702.exe)
 L702 exits ... SP integral derivatives will be done elsewhere.
 Leave Link  702 at Tue Oct 21 19:55:46 2025, MaxMem=  4294967296 cpu:               0.2 elap:               0.0
 (Enter /lrz/sys/applications/gaussian/g16.C.01/x86_64_legacy/exe/l703.exe)
 Integral derivatives from FoFJK, PRISM(SPDF).
 Compute integral first derivatives, UseDBF=F ICtDFT=           0.
 Calling FoFJK, ICntrl=      2127 FMM=F ISym2X=0 I1Cent= 0 IOpClX= 0 NMat=1 NMatS=1 NMatT=0.
 FoFJK:  IHMeth= 1 ICntrl=    2127 DoSepK=T KAlg= 0 I1Cent=           0 FoldK=F
 IRaf=         1 NMat=       1 IRICut=       1 DoRegI=T DoRafI=F ISym2E= 0 IDoP0=0 IntGTp=1.
 FoFCou: FMM=F IPFlag=           0 FMFlag=      100000 FMFlg1=         800
         NFxFlg=           0 DoJE=F BraDBF=F KetDBF=F FulRan=T
         wScrn=  0.000000 ICntrl=      2527 IOpCl=  0 I1Cent=           0 NGrid=           0
         NMat0=    1 NMatS0=      1 NMatT0=    0 NMatD0=    1 NMtDS0=    0 NMtDT0=    0
 Symmetry not used in FoFCou.
 Leave Link  703 at Tue Oct 21 19:55:48 2025, MaxMem=  4294967296 cpu:              17.5 elap:               2.2
 (Enter /lrz/sys/applications/gaussian/g16.C.01/x86_64_legacy/exe/l716.exe)
 Dipole        = 1.18080746D+00 6.07615021D-01 3.38328311D-01
 ***** Axes restored to original set *****
 -------------------------------------------------------------------
 Center     Atomic                   Forces (Hartrees/Bohr)
 Number     Number              X              Y              Z
 -------------------------------------------------------------------
      1        8          -0.000012449    0.000008782   -0.000021241
      2        6           0.000009596   -0.000001574   -0.000003203
      3        8          -0.000007586   -0.000030345    0.000004431
      4        6           0.000002394    0.000013631    0.000001930
      5        6           0.000002381   -0.000007041    0.000005460
      6        1           0.000006479    0.000016639   -0.000037339
      7        1          -0.000006927    0.000013611    0.000004776
      8        1          -0.000001390   -0.000028103    0.000008777
      9        1           0.000007224    0.000027401   -0.000006211
     10        1           0.000000583    0.000022499    0.000024982
     11        1           0.000000839   -0.000017425   -0.000013961
     12        1          -0.000006053   -0.000018879    0.000018882
     13        1           0.000004909    0.000000805    0.000012715
 -------------------------------------------------------------------
 Cartesian Forces:  Max     0.000037339 RMS     0.000014599
 Leave Link  716 at Tue Oct 21 19:55:48 2025, MaxMem=  4294967296 cpu:               0.3 elap:               0.1
 (Enter /lrz/sys/applications/gaussian/g16.C.01/x86_64_legacy/exe/l103.exe)

 GradGradGradGradGradGradGradGradGradGradGradGradGradGradGradGradGradGrad
 Berny optimization.
 Using GEDIIS/GDIIS optimizer.
 FormGI is forming the generalized inverse of G from B-inverse, IUseBI=4.
 Internal  Forces:  Max     0.000020159 RMS     0.000006365
 Search for a local minimum.
 Step number  14 out of a maximum of   66
 All quantities printed in internal units (Hartrees-Bohrs-Radians)
 RMS Force = .63651D-05 SwitMx=.10000D-02 MixMth= 2
 Mixed Optimization -- En-DIIS/RFO-DIIS
 Swapping is turned off.
 Update second derivatives using D2CorX and points    2    3    4    5    6
                                                      7    8    9   10   11
                                                     12   13   14
 DE=  4.74D-07 DEPred=-5.83D-08 R=-8.13D+00
 Trust test=-8.13D+00 RLast= 5.27D-03 DXMaxT set to 3.84D-01
 ITU= -1  1  1  1  1  1  1  0  1  1  1  1  1  0
     Eigenvalues ---    0.00145   0.00239   0.00284   0.00378   0.03436
     Eigenvalues ---    0.04209   0.05439   0.05495   0.06394   0.07200
     Eigenvalues ---    0.08633   0.10460   0.12471   0.15100   0.15889
     Eigenvalues ---    0.16025   0.16694   0.17715   0.20607   0.20727
     Eigenvalues ---    0.21763   0.29785   0.30348   0.33575   0.34648
     Eigenvalues ---    0.34818   0.34972   0.35133   0.40001   0.48468
     Eigenvalues ---    0.50341   0.54750   0.54831
 En-DIIS/RFO-DIIS/Sim-DIIS IScMMF=       -3 using points:    14   13   12   11   10    9    8    7    6    5
 RFO step:  Lambda=-8.07085260D-09.
 NNeg= 0 NGDIIS=10 SimSw=  2.50D-03 Rises=T DC=  4.74D-07 SmlDif=  1.00D-05
 NRisDI= 1 DoIntr=F SqrtH=F CThrHd= 10.0 CDAdj=  3.0
 RMS Error=  0.8582460022D-04 NUsed=10 OKEnD=T EnDIS=T
 InvSVX:  RCond= 4.80D-10 Info=           0 Equed=N FErr=  3.49D-10 BErr=  6.53D-17
 DIIS inversion failure, remove point  10.
 InvSVX:  RCond= 1.31D-09 Info=           0 Equed=N FErr=  7.22D-11 BErr=  7.36D-17
 DIIS inversion failure, remove point   9.
 InvSVX:  RCond= 1.56D-09 Info=           0 Equed=N FErr=  6.20D-11 BErr=  8.36D-17
 DIIS inversion failure, remove point   8.
 InvSVX:  RCond= 7.85D-09 Info=           0 Equed=N FErr=  9.83D-12 BErr=  9.18D-17
 DIIS inversion failure, remove point   7.
 InvSVX:  RCond= 1.50D-08 Info=           0 Equed=N FErr=  1.77D-12 BErr=  3.02D-17
 DIIS inversion failure, remove point   6.
 InvSVX:  RCond= 4.85D-08 Info=           0 Equed=N FErr=  5.32D-13 BErr=  7.62D-17
 DIIS inversion failure, remove point   5.
 InvSVX:  RCond= 4.78D-07 Info=           0 Equed=N FErr=  1.69D-14 BErr=  5.85D-17
 RFO-DIIS uses    4 points instead of   10
 EnCoef did   100 forward-backward iterations
 IWarn =    2
 Energies =   -269.314113982      -269.314162173      -269.314163870      -269.314167405      -269.314170499    
 Energies =   -269.314174272      -269.314177580      -269.314180608      -269.314181957      -269.314181482    
 Point number   1 has energy  -0.2693141140D+03 and has been removed
 EnCoef did   100 forward-backward iterations
 IWarn =    2
 Energies =   -269.314162173      -269.314163870      -269.314167405      -269.314170499      -269.314174272    
 Energies =   -269.314177580      -269.314180608      -269.314181957      -269.314181482    
 Point number   1 has energy  -0.2693141622D+03 and has been removed
 IWarn =    0
 DidBck=F Rises=T En-DIIS coefs:    0.92169    0.00000    0.00000    0.00000    0.00000
                  En-DIIS coefs:    0.00000    0.00000    0.07831    0.00000    0.00000
 Iteration  1 RMS(Cart)=  0.00019525 RMS(Int)=  0.00000009
 Iteration  2 RMS(Cart)=  0.00000008 RMS(Int)=  0.00000002
 ITry= 1 IFail=0 DXMaxC= 8.27D-04 DCOld= 1.00D+10 DXMaxT= 3.84D-01 DXLimC= 3.00D+00 Rises=F
 Variable       Old X    -DE/DX   Delta X   Delta X   Delta X     New X
                                 (Linear)    (Quad)   (Total)
    R1        2.66840  -0.00002   0.00006  -0.00009  -0.00003   2.66837
    R2        1.82438  -0.00000  -0.00000  -0.00000  -0.00001   1.82437
    R3        2.64326  -0.00001  -0.00011   0.00008  -0.00003   2.64323
    R4        2.88504   0.00002   0.00005  -0.00001   0.00005   2.88508
    R5        2.08799  -0.00000  -0.00001   0.00001  -0.00001   2.08798
    R6        1.82692   0.00000  -0.00001   0.00001  -0.00000   1.82692
    R7        2.87894   0.00001   0.00001  -0.00000   0.00000   2.87895
    R8        2.08380   0.00000  -0.00004   0.00005   0.00001   2.08381
    R9        2.08131   0.00000  -0.00003   0.00004   0.00001   2.08132
   R10        2.07887   0.00000  -0.00005   0.00006   0.00001   2.07888
   R11        2.08252   0.00001  -0.00001   0.00002   0.00001   2.08253
   R12        2.07777   0.00001  -0.00003   0.00005   0.00001   2.07778
    A1        1.89020  -0.00001  -0.00006  -0.00004  -0.00010   1.89010
    A2        1.87395  -0.00002  -0.00000  -0.00010  -0.00010   1.87385
    A3        1.95204   0.00001  -0.00007   0.00013   0.00006   1.95211
    A4        1.91939  -0.00001  -0.00006  -0.00002  -0.00008   1.91931
    A5        1.97339   0.00001  -0.00004   0.00006   0.00002   1.97341
    A6        1.83577  -0.00000   0.00017  -0.00018  -0.00001   1.83576
    A7        1.90548   0.00000   0.00001   0.00009   0.00010   1.90558
    A8        1.88624  -0.00000   0.00003  -0.00007  -0.00004   1.88620
    A9        1.99334   0.00000  -0.00008   0.00007  -0.00000   1.99334
   A10        1.87939   0.00000  -0.00004   0.00007   0.00004   1.87943
   A11        1.87739   0.00000   0.00010  -0.00007   0.00004   1.87742
   A12        1.92073  -0.00000  -0.00003   0.00002  -0.00002   1.92071
   A13        1.92924  -0.00000  -0.00003   0.00001  -0.00002   1.92922
   A14        1.85805  -0.00000   0.00008  -0.00012  -0.00003   1.85801
   A15        1.94061  -0.00000  -0.00002   0.00001  -0.00002   1.94059
   A16        1.94936  -0.00000   0.00009  -0.00006   0.00002   1.94939
   A17        1.93251   0.00001  -0.00005   0.00008   0.00003   1.93254
   A18        1.88416   0.00000   0.00002  -0.00002  -0.00000   1.88416
   A19        1.88416  -0.00000   0.00009  -0.00010  -0.00001   1.88415
   A20        1.87012  -0.00000  -0.00012   0.00009  -0.00003   1.87010
    D1       -2.96917  -0.00001  -0.00417   0.00380  -0.00037  -2.96954
    D2       -0.79470  -0.00000  -0.00427   0.00389  -0.00038  -0.79507
    D3        1.32554   0.00001  -0.00433   0.00407  -0.00026   1.32528
    D4        1.16516   0.00001   0.00281  -0.00195   0.00086   1.16601
    D5       -0.99634  -0.00000   0.00292  -0.00209   0.00084  -0.99550
    D6       -3.07406  -0.00001   0.00282  -0.00211   0.00071  -3.07335
    D7       -1.03313   0.00000  -0.00030   0.00047   0.00017  -1.03296
    D8        1.10557   0.00000  -0.00042   0.00059   0.00017   1.10574
    D9        3.10192   0.00000  -0.00029   0.00046   0.00017   3.10208
   D10        1.08485  -0.00000  -0.00038   0.00048   0.00009   1.08494
   D11       -3.05964  -0.00000  -0.00050   0.00060   0.00009  -3.05954
   D12       -1.06329  -0.00000  -0.00037   0.00047   0.00009  -1.06320
   D13        3.12181  -0.00000  -0.00019   0.00035   0.00016   3.12197
   D14       -1.02268  -0.00000  -0.00031   0.00047   0.00016  -1.02252
   D15        0.97367   0.00000  -0.00018   0.00034   0.00016   0.97383
   D16        1.00655   0.00000  -0.00007   0.00000  -0.00007   1.00648
   D17       -1.09942   0.00000  -0.00015   0.00007  -0.00008  -1.09949
   D18        3.10112   0.00000  -0.00002  -0.00006  -0.00008   3.10104
   D19       -1.10944  -0.00000   0.00005  -0.00015  -0.00010  -1.10954
   D20        3.06778  -0.00000  -0.00002  -0.00009  -0.00011   3.06767
   D21        0.98513  -0.00000   0.00011  -0.00022  -0.00011   0.98502
   D22        3.12633   0.00000  -0.00001  -0.00003  -0.00004   3.12628
   D23        1.02036   0.00000  -0.00009   0.00004  -0.00005   1.02031
   D24       -1.06229   0.00000   0.00004  -0.00009  -0.00005  -1.06234
         Item               Value     Threshold  Converged?
 Maximum Force            0.000020     0.000450     YES
 RMS     Force            0.000006     0.000300     YES
 Maximum Displacement     0.000827     0.001800     YES
 RMS     Displacement     0.000195     0.001200     YES
 Predicted change in Energy=-2.788308D-09
 Optimization completed.
    -- Stationary point found.
                           ----------------------------
                           !   Optimized Parameters   !
                           ! (Angstroms and Degrees)  !
 --------------------------                            --------------------------
 ! Name  Definition              Value          Derivative Info.                !
 --------------------------------------------------------------------------------
 ! R1    R(1,2)                  1.4121         -DE/DX =    0.0                 !
 ! R2    R(1,6)                  0.9654         -DE/DX =    0.0                 !
 ! R3    R(2,3)                  1.3988         -DE/DX =    0.0                 !
 ! R4    R(2,4)                  1.5267         -DE/DX =    0.0                 !
 ! R5    R(2,7)                  1.1049         -DE/DX =    0.0                 !
 ! R6    R(3,8)                  0.9668         -DE/DX =    0.0                 !
 ! R7    R(4,5)                  1.5235         -DE/DX =    0.0                 !
 ! R8    R(4,9)                  1.1027         -DE/DX =    0.0                 !
 ! R9    R(4,10)                 1.1014         -DE/DX =    0.0                 !
 ! R10   R(5,11)                 1.1001         -DE/DX =    0.0                 !
 ! R11   R(5,12)                 1.102          -DE/DX =    0.0                 !
 ! R12   R(5,13)                 1.0995         -DE/DX =    0.0                 !
 ! A1    A(2,1,6)              108.3004         -DE/DX =    0.0                 !
 ! A2    A(1,2,3)              107.3695         -DE/DX =    0.0                 !
 ! A3    A(1,2,4)              111.8439         -DE/DX =    0.0                 !
 ! A4    A(1,2,7)              109.9728         -DE/DX =    0.0                 !
 ! A5    A(3,2,4)              113.0672         -DE/DX =    0.0                 !
 ! A6    A(3,2,7)              105.1818         -DE/DX =    0.0                 !
 ! A7    A(4,2,7)              109.1762         -DE/DX =    0.0                 !
 ! A8    A(2,3,8)              108.0735         -DE/DX =    0.0                 !
 ! A9    A(2,4,5)              114.2102         -DE/DX =    0.0                 !
 ! A10   A(2,4,9)              107.6811         -DE/DX =    0.0                 !
 ! A11   A(2,4,10)             107.5663         -DE/DX =    0.0                 !
 ! A12   A(5,4,9)              110.0496         -DE/DX =    0.0                 !
 ! A13   A(5,4,10)             110.537          -DE/DX =    0.0                 !
 ! A14   A(9,4,10)             106.4582         -DE/DX =    0.0                 !
 ! A15   A(4,5,11)             111.189          -DE/DX =    0.0                 !
 ! A16   A(4,5,12)             111.6902         -DE/DX =    0.0                 !
 ! A17   A(4,5,13)             110.7244         -DE/DX =    0.0                 !
 ! A18   A(11,5,12)            107.9542         -DE/DX =    0.0                 !
 ! A19   A(11,5,13)            107.9541         -DE/DX =    0.0                 !
 ! A20   A(12,5,13)            107.1502         -DE/DX =    0.0                 !
 ! D1    D(6,1,2,3)           -170.121          -DE/DX =    0.0                 !
 ! D2    D(6,1,2,4)            -45.5329         -DE/DX =    0.0                 !
 ! D3    D(6,1,2,7)             75.9481         -DE/DX =    0.0                 !
 ! D4    D(1,2,3,8)             66.7585         -DE/DX =    0.0                 !
 ! D5    D(4,2,3,8)            -57.0861         -DE/DX =    0.0                 !
 ! D6    D(7,2,3,8)           -176.1305         -DE/DX =    0.0                 !
 ! D7    D(1,2,4,5)            -59.194          -DE/DX =    0.0                 !
 ! D8    D(1,2,4,9)             63.3444         -DE/DX =    0.0                 !
 ! D9    D(1,2,4,10)           177.7268         -DE/DX =    0.0                 !
 ! D10   D(3,2,4,5)             62.1573         -DE/DX =    0.0                 !
 ! D11   D(3,2,4,9)           -175.3042         -DE/DX =    0.0                 !
 ! D12   D(3,2,4,10)           -60.9219         -DE/DX =    0.0                 !
 ! D13   D(7,2,4,5)            178.8666         -DE/DX =    0.0                 !
 ! D14   D(7,2,4,9)            -58.595          -DE/DX =    0.0                 !
 ! D15   D(7,2,4,10)            55.7874         -DE/DX =    0.0                 !
 ! D16   D(2,4,5,11)            57.6712         -DE/DX =    0.0                 !
 ! D17   D(2,4,5,12)           -62.9919         -DE/DX =    0.0                 !
 ! D18   D(2,4,5,13)           177.6811         -DE/DX =    0.0                 !
 ! D19   D(9,4,5,11)           -63.5662         -DE/DX =    0.0                 !
 ! D20   D(9,4,5,12)           175.7707         -DE/DX =    0.0                 !
 ! D21   D(9,4,5,13)            56.4437         -DE/DX =    0.0                 !
 ! D22   D(10,4,5,11)          179.1253         -DE/DX =    0.0                 !
 ! D23   D(10,4,5,12)           58.4622         -DE/DX =    0.0                 !
 ! D24   D(10,4,5,13)          -60.8648         -DE/DX =    0.0                 !
 --------------------------------------------------------------------------------
 Largest change from initial coordinates is atom    6       0.158 Angstoms.
 GradGradGradGradGradGradGradGradGradGradGradGradGradGradGradGradGradGrad

 Leave Link  103 at Tue Oct 21 19:55:48 2025, MaxMem=  4294967296 cpu:               0.3 elap:               0.1
 (Enter /lrz/sys/applications/gaussian/g16.C.01/x86_64_legacy/exe/l202.exe)
                          Input orientation:                          
 ---------------------------------------------------------------------
 Center     Atomic      Atomic             Coordinates (Angstroms)
 Number     Number       Type             X           Y           Z
 ---------------------------------------------------------------------
      1          8           0       -0.735849   -1.349842   -0.072432
      2          6           0       -0.605334   -0.001660   -0.471527
      3          8           0       -1.262857    0.781797    0.482604
      4          6           0        0.856242    0.394169   -0.666251
      5          6           0        1.718926    0.230882    0.578769
      6          1           0       -0.159602   -1.888036   -0.629499
      7          1           0       -1.155957    0.167837   -1.414354
      8          1           0       -0.775955    0.712292    1.314908
      9          1           0        1.261753   -0.216618   -1.489932
     10          1           0        0.874131    1.438917   -1.014419
     11          1           0        1.696336   -0.806228    0.944954
     12          1           0        1.381577    0.887476    1.397020
     13          1           0        2.765231    0.491808    0.364103
 ---------------------------------------------------------------------
                    Distance matrix (angstroms):
                    1          2          3          4          5
     1  O    0.000000
     2  C    1.412058   0.000000
     3  O    2.264881   1.398752   0.000000
     4  C    2.434944   1.526696   2.441456   0.000000
     5  C    2.991434   2.561129   3.033775   1.523471   0.000000
     6  H    0.965421   1.944749   3.095473   2.498349   3.078733
     7  H    2.068960   1.104916   1.996703   2.158663   3.498781
     8  H    2.485703   1.931369   0.966765   2.586554   2.645390
     9  H    2.698873   2.137608   3.355799   1.102701   2.165361
    10  H    3.355079   2.135137   2.690652   1.101380   2.170547
    11  H    2.691861   2.819828   3.390046   2.177772   1.100090
    12  H    3.412972   2.868770   2.800064   2.185501   1.102023
    13  H    3.979924   3.507491   4.040251   2.171498   1.099507
                    6          7          8          9         10
     6  H    0.000000
     7  H    2.415644   0.000000
     8  H    3.304893   2.808861   0.000000
     9  H    2.356742   2.449252   3.589186   0.000000
    10  H    3.505051   2.428343   2.945595   1.765548   0.000000
    11  H    2.663403   3.827625   2.924891   2.542670   3.091251
    12  H    3.766361   3.854968   2.166189   3.093198   2.525198
    13  H    3.899429   4.317821   3.673233   2.489932   2.524598
                   11         12         13
    11  H    0.000000
    12  H    1.781030   0.000000
    13  H    1.778994   1.771431   0.000000
 Stoichiometry    C3H8O2
 Framework group  C1[X(C3H8O2)]
 Deg. of freedom    33
 Full point group                 C1      NOp   1
 RotChk:  IX=0 Diff= 1.74D-15
 Largest Abelian subgroup         C1      NOp   1
 Largest concise Abelian subgroup C1      NOp   1
                         Standard orientation:                         
 ---------------------------------------------------------------------
 Center     Atomic      Atomic             Coordinates (Angstroms)
 Number     Number       Type             X           Y           Z
 ---------------------------------------------------------------------
      1          8           0       -1.041092    1.082915   -0.413664
      2          6           0       -0.665750    0.013119    0.428097
      3          8           0       -1.071612   -1.171243   -0.195656
      4          6           0        0.826660    0.039265    0.748767
      5          6           0        1.730173   -0.041797   -0.475184
      6          1           0       -0.633220    1.890746   -0.077381
      7          1           0       -1.240343    0.055215    1.370917
      8          1           0       -0.547003   -1.281529   -1.000179
      9          1           0        1.032467    0.965953    1.309875
     10          1           0        1.033331   -0.794974    1.437513
     11          1           0        1.521884    0.778328   -1.178184
     12          1           0        1.599901   -0.993520   -1.015282
     13          1           0        2.788117    0.022889   -0.182802
 ---------------------------------------------------------------------
 Rotational constants (GHZ):           6.8959889           4.0109267           3.3419684
 Leave Link  202 at Tue Oct 21 19:55:48 2025, MaxMem=  4294967296 cpu:               0.0 elap:               0.0
 (Enter /lrz/sys/applications/gaussian/g16.C.01/x86_64_legacy/exe/l601.exe)
 Copying SCF densities to generalized density rwf, IOpCl= 0 IROHF=0.

 **********************************************************************

            Population analysis using the SCF Density.

 **********************************************************************

 Orbital symmetries:
       Occupied  (A) (A) (A) (A) (A) (A) (A) (A) (A) (A) (A) (A)
                 (A) (A) (A) (A) (A) (A) (A) (A) (A)
       Virtual   (A) (A) (A) (A) (A) (A) (A) (A) (A) (A) (A) (A)
                 (A) (A) (A) (A) (A) (A) (A) (A) (A) (A) (A) (A)
                 (A) (A) (A) (A) (A) (A) (A) (A) (A) (A) (A) (A)
                 (A) (A) (A) (A) (A) (A) (A) (A) (A) (A) (A) (A)
                 (A) (A) (A) (A) (A) (A) (A) (A) (A) (A) (A) (A)
                 (A) (A) (A) (A) (A) (A) (A) (A) (A) (A) (A) (A)
                 (A) (A) (A) (A) (A) (A) (A) (A) (A) (A) (A) (A)
                 (A) (A) (A) (A) (A)
 The electronic state is 1-A.
 Alpha  occ. eigenvalues --  -19.25919 -19.25466 -10.38558 -10.28694 -10.28376
 Alpha  occ. eigenvalues --   -1.15054  -1.07932  -0.85843  -0.76088  -0.68626
 Alpha  occ. eigenvalues --   -0.61668  -0.56874  -0.56103  -0.52600  -0.46567
 Alpha  occ. eigenvalues --   -0.46381  -0.43641  -0.42917  -0.41283  -0.38837
 Alpha  occ. eigenvalues --   -0.35325
 Alpha virt. eigenvalues --    0.14005   0.16873   0.18971   0.21114   0.21548
 Alpha virt. eigenvalues --    0.22813   0.24425   0.26652   0.29363   0.30968
 Alpha virt. eigenvalues --    0.33258   0.38664   0.51706   0.52666   0.53507
 Alpha virt. eigenvalues --    0.57439   0.60228   0.64925   0.68582   0.69094
 Alpha virt. eigenvalues --    0.72350   0.74338   0.74913   0.76293   0.77864
 Alpha virt. eigenvalues --    0.78573   0.79231   0.80776   0.80865   0.83368
 Alpha virt. eigenvalues --    0.92879   1.04865   1.07706   1.08974   1.12380
 Alpha virt. eigenvalues --    1.13884   1.21392   1.24468   1.35186   1.36700
 Alpha virt. eigenvalues --    1.43630   1.43684   1.50794   1.56713   1.58112
 Alpha virt. eigenvalues --    1.64024   1.66223   1.69402   1.76760   1.81602
 Alpha virt. eigenvalues --    1.84525   1.87402   1.88576   1.89303   1.90686
 Alpha virt. eigenvalues --    1.93961   1.95625   1.97361   2.01689   2.01783
 Alpha virt. eigenvalues --    2.06262   2.13941   2.17646   2.23210   2.27992
 Alpha virt. eigenvalues --    2.32715   2.35481   2.42501   2.43237   2.49868
 Alpha virt. eigenvalues --    2.62726   2.63942   2.67104   2.83636   2.86955
 Alpha virt. eigenvalues --    2.93240   2.99293   3.01706   3.03623   3.05928
 Alpha virt. eigenvalues --    3.07553   3.08908   3.18803   3.21888   3.26111
 Alpha virt. eigenvalues --    3.41630   3.53279   3.83605   3.88923
          Condensed to atoms (all electrons):
               1          2          3          4          5          6
     1  O    7.878016   0.307848  -0.061126  -0.064977  -0.004021   0.332207
     2  C    0.307848   4.420346   0.326845   0.396912  -0.036958  -0.017122
     3  O   -0.061126   0.326845   7.839637  -0.040161  -0.007792   0.004233
     4  C   -0.064977   0.396912  -0.040161   4.882873   0.350885  -0.001638
     5  C   -0.004021  -0.036958  -0.007792   0.350885   4.650675  -0.000657
     6  H    0.332207  -0.017122   0.004233  -0.001638  -0.000657   0.458437
     7  H   -0.032325   0.402472  -0.036433  -0.057546   0.010206  -0.000020
     8  H    0.003848  -0.025148   0.338888  -0.018715   0.010175  -0.000325
     9  H   -0.000488  -0.013650   0.004609   0.365418  -0.026002   0.001812
    10  H    0.005209  -0.012774   0.001932   0.360106  -0.023700  -0.000030
    11  H    0.015856  -0.006773  -0.001105  -0.034296   0.398273   0.000953
    12  H   -0.000573  -0.006832   0.005926  -0.022889   0.391208  -0.000040
    13  H    0.000136   0.006301   0.000106  -0.014306   0.392131  -0.000061
               7          8          9         10         11         12
     1  O   -0.032325   0.003848  -0.000488   0.005209   0.015856  -0.000573
     2  C    0.402472  -0.025148  -0.013650  -0.012774  -0.006773  -0.006832
     3  O   -0.036433   0.338888   0.004609   0.001932  -0.001105   0.005926
     4  C   -0.057546  -0.018715   0.365418   0.360106  -0.034296  -0.022889
     5  C    0.010206   0.010175  -0.026002  -0.023700   0.398273   0.391208
     6  H   -0.000020  -0.000325   0.001812  -0.000030   0.000953  -0.000040
     7  H    0.681374   0.008699  -0.005122  -0.003310   0.000638  -0.000089
     8  H    0.008699   0.465677   0.000036  -0.000374   0.000582   0.004411
     9  H   -0.005122   0.000036   0.647071  -0.018577  -0.007713   0.008053
    10  H   -0.003310  -0.000374  -0.018577   0.649826   0.007905  -0.007641
    11  H    0.000638   0.000582  -0.007713   0.007905   0.632738  -0.025683
    12  H   -0.000089   0.004411   0.008053  -0.007641  -0.025683   0.628568
    13  H   -0.000207  -0.000315  -0.006342  -0.005062  -0.020218  -0.020069
              13
     1  O    0.000136
     2  C    0.006301
     3  O    0.000106
     4  C   -0.014306
     5  C    0.392131
     6  H   -0.000061
     7  H   -0.000207
     8  H   -0.000315
     9  H   -0.006342
    10  H   -0.005062
    11  H   -0.020218
    12  H   -0.020069
    13  H    0.613538
 Mulliken charges:
               1
     1  O   -0.379609
     2  C    0.258532
     3  O   -0.375558
     4  C   -0.101666
     5  C   -0.104424
     6  H    0.222252
     7  H    0.031664
     8  H    0.212561
     9  H    0.050896
    10  H    0.046491
    11  H    0.038843
    12  H    0.045649
    13  H    0.054367
 Sum of Mulliken charges =  -0.00000
 Mulliken charges with hydrogens summed into heavy atoms:
               1
     1  O   -0.157357
     2  C    0.290196
     3  O   -0.162997
     4  C   -0.004279
     5  C    0.034436
 Electronic spatial extent (au):  <R**2>=            445.1867
 Charge=             -0.0000 electrons
 Dipole moment (field-independent basis, Debye):
    X=              3.0013    Y=              1.5444    Z=              0.8599  Tot=              3.4832
 Quadrupole moment (field-independent basis, Debye-Ang):
   XX=            -35.9000   YY=            -28.9976   ZZ=            -29.7033
   XY=             -1.3204   XZ=             -1.5246   YZ=              3.2655
 Traceless Quadrupole moment (field-independent basis, Debye-Ang):
   XX=             -4.3664   YY=              2.5360   ZZ=              1.8303
   XY=             -1.3204   XZ=             -1.5246   YZ=              3.2655
 Octapole moment (field-independent basis, Debye-Ang**2):
  XXX=              0.6030  YYY=             12.5722  ZZZ=             -2.6634  XYY=              0.7560
  XXY=              1.3449  XXZ=              2.9560  XZZ=             -3.5936  YZZ=             -3.2723
  YYZ=             -2.1289  XYZ=             -1.9978
 Hexadecapole moment (field-independent basis, Debye-Ang**3):
 XXXX=           -309.4546 YYYY=           -118.7526 ZZZZ=           -102.0346 XXXY=             -0.8293
 XXXZ=              0.5446 YYYX=             -8.8346 YYYZ=              6.0206 ZZZX=              2.4478
 ZZZY=              3.8728 XXYY=            -81.7628 XXZZ=            -68.7786 YYZZ=            -36.2747
 XXYZ=              1.7833 YYXZ=              0.7301 ZZXY=              1.9891
 N-N= 1.971806393704D+02 E-N=-1.024215489515D+03  KE= 2.667518336165D+02
 No NMR shielding tensors so no spin-rotation constants.
 Leave Link  601 at Tue Oct 21 19:55:49 2025, MaxMem=  4294967296 cpu:               0.7 elap:               0.1
 (Enter /lrz/sys/applications/gaussian/g16.C.01/x86_64_legacy/exe/l9999.exe)
 Unable to Open any file for archive entry.
 1\1\GINC-CM4R13C06S02\FOpt\RwB97XD\def2SVP\C3H8O2\GO29TIZ2\21-Oct-2025
 \0\\#p opt freq wb97xd scrf=(smd,solvent=water) def2svp\\g16_C3-w_9\\0
 ,1\O,-0.735848937,-1.3498424742,-0.0724322237\C,-0.6053336407,-0.00165
 9763,-0.4715267814\O,-1.262857321,0.7817965239,0.4826041212\C,0.856241
 9251,0.3941689542,-0.6662513237\C,1.7189264167,0.2308822422,0.57876889
 91\H,-0.1596016192,-1.8880363604,-0.6294990094\H,-1.1559568593,0.16783
 74304,-1.414353936\H,-0.7759548096,0.7122920687,1.3149079004\H,1.26175
 25859,-0.2166179586,-1.489932177\H,0.8741314061,1.4389169709,-1.014418
 7407\H,1.6963359038,-0.8062277311,0.9449538057\H,1.3815768422,0.887476
 1038,1.3970196734\H,2.765230707,0.4918081931,0.3641031921\\Version=EM6
 4L-G16RevC.01\State=1-A\HF=-269.3141815\RMSD=8.412e-09\RMSF=1.460e-05\
 Dipole=1.2859582,-0.1944799,-0.4318072\Quadrupole=-3.4196158,0.2719632
 ,3.1476527,-0.4027399,0.4559183,2.2153755\PG=C01 [X(C3H8O2)]\\@
 The archive entry for this job was punched.


 I MET A TRAVELLER FROM AN ANTIQUE LAND
 WHO SAID... TWO VAST AND TRUNKLESS LEGS OF STONE
 STAND IN THE DESERT..... NEAR THEM,  ON THE SAND,
 HALF SUNK,  A SHATTERED VISAGE LIES,  WHOSE FROWN,
 AND WRINKLED LIP,  AND SNEER OF COLD COMMAND
 TELL THAT ITS SCULPTOR WELL THOSE PASSIONS READ
 WHICH YET SURVIVE,  STAMPED ON THESE LIFELESS THINGS
 THE HAND THAT MOCKED THEM,  AND THE HEART THAT FED-
 AND ON THE PEDESTAL THESE WORDS APPEAR 
 MY NAME IS OZYMANDIAS, KING OF KINGS--   
 LOOK ON MY WORKS YE MIGHTY AND DESPAIR. 
 NOTHING BESIDE REMAINS,  ROUND THE DECAY 
 OF THAT COLOSSAL WRECK,  BOUNDLESS AND BARE
 THE LONE AND LEVEL SANDS STRETCH FAR AWAY.
                                    SHELLEY
 Leave Link 9999 at Tue Oct 21 19:55:49 2025, MaxMem=  4294967296 cpu:               0.2 elap:               0.0
 Job cpu time:       0 days  0 hours 31 minutes 19.5 seconds.
 Elapsed time:       0 days  0 hours  3 minutes 59.1 seconds.
 File lengths (MBytes):  RWF=    272 Int=      0 D2E=      0 Chk=      8 Scr=     32
 Normal termination of Gaussian 16 at Tue Oct 21 19:55:49 2025.
 (Enter /lrz/sys/applications/gaussian/g16.C.01/x86_64_legacy/exe/l1.exe)
 Link1:  Proceeding to internal job step number  2.
 --------------------------------------------------------------------
 #P Geom=AllCheck Guess=TCheck SCRF=Check GenChk RwB97XD/def2SVP Freq
 --------------------------------------------------------------------
 1/10=4,29=7,30=1,38=1,40=1/1,3;
 2/12=2,40=1/2;
 3/5=43,7=101,11=2,14=-4,25=1,30=1,70=2,71=2,74=-58,116=1,140=1/1,2,3;
 4/5=101/1;
 5/5=2,38=6,98=1/2;
 8/6=4,10=90,11=11/1;
 11/6=1,8=1,9=11,15=111,16=1/1,2,10;
 10/6=1/2;
 6/7=2,8=2,9=2,10=2,28=1/1;
 7/8=1,10=1,25=1/1,2,3,16;
 1/10=4,30=1/3;
 99//99;
 Leave Link    1 at Tue Oct 21 19:55:49 2025, MaxMem=  4294967296 cpu:               0.2 elap:               0.0
 (Enter /lrz/sys/applications/gaussian/g16.C.01/x86_64_legacy/exe/l101.exe)
 Structure from the checkpoint file:  "g16_C3-w_9.chk"
 ----------
 g16_C3-w_9
 ----------
 Charge =  0 Multiplicity = 1
 Redundant internal coordinates found in file.  (old form).
 O,0,-0.735848937,-1.3498424742,-0.0724322237
 C,0,-0.6053336407,-0.001659763,-0.4715267814
 O,0,-1.262857321,0.7817965239,0.4826041212
 C,0,0.8562419251,0.3941689542,-0.6662513237
 C,0,1.7189264167,0.2308822422,0.5787688991
 H,0,-0.1596016192,-1.8880363604,-0.6294990094
 H,0,-1.1559568593,0.1678374304,-1.414353936
 H,0,-0.7759548096,0.7122920687,1.3149079004
 H,0,1.2617525859,-0.2166179586,-1.489932177
 H,0,0.8741314061,1.4389169709,-1.0144187407
 H,0,1.6963359038,-0.8062277311,0.9449538057
 H,0,1.3815768422,0.8874761038,1.3970196734
 H,0,2.765230707,0.4918081931,0.3641031921
 Recover connectivity data from disk.
 ITRead=  0  0  0  0  0  0  0  0  0  0  0  0  0
 MicOpt= -1 -1 -1 -1 -1 -1 -1 -1 -1 -1 -1 -1 -1
 NAtoms=     13 NQM=       13 NQMF=       0 NMMI=      0 NMMIF=      0
                NMic=       0 NMicF=      0.
                    Isotopes and Nuclear Properties:
 (Nuclear quadrupole moments (NQMom) in fm**2, nuclear magnetic moments (NMagM)
  in nuclear magnetons)

  Atom         1           2           3           4           5           6           7           8           9          10
 IAtWgt=          16          12          16          12          12           1           1           1           1           1
 AtmWgt=  15.9949146  12.0000000  15.9949146  12.0000000  12.0000000   1.0078250   1.0078250   1.0078250   1.0078250   1.0078250
 NucSpn=           0           0           0           0           0           1           1           1           1           1
 AtZEff=   5.6000000   3.6000000   5.6000000   3.6000000   3.6000000   1.0000000   1.0000000   1.0000000   1.0000000   1.0000000
 NQMom=    0.0000000   0.0000000   0.0000000   0.0000000   0.0000000   0.0000000   0.0000000   0.0000000   0.0000000   0.0000000
 NMagM=    0.0000000   0.0000000   0.0000000   0.0000000   0.0000000   2.7928460   2.7928460   2.7928460   2.7928460   2.7928460
 AtZNuc=   8.0000000   6.0000000   8.0000000   6.0000000   6.0000000   1.0000000   1.0000000   1.0000000   1.0000000   1.0000000

  Atom        11          12          13
 IAtWgt=           1           1           1
 AtmWgt=   1.0078250   1.0078250   1.0078250
 NucSpn=           1           1           1
 AtZEff=   1.0000000   1.0000000   1.0000000
 NQMom=    0.0000000   0.0000000   0.0000000
 NMagM=    2.7928460   2.7928460   2.7928460
 AtZNuc=   1.0000000   1.0000000   1.0000000
 Leave Link  101 at Tue Oct 21 19:55:49 2025, MaxMem=  4294967296 cpu:               3.0 elap:               0.4
 (Enter /lrz/sys/applications/gaussian/g16.C.01/x86_64_legacy/exe/l103.exe)

 GradGradGradGradGradGradGradGradGradGradGradGradGradGradGradGradGradGrad
 Berny optimization.
 Initialization pass.
                           ----------------------------
                           !    Initial Parameters    !
                           ! (Angstroms and Degrees)  !
 --------------------------                            --------------------------
 ! Name  Definition              Value          Derivative Info.                !
 --------------------------------------------------------------------------------
 ! R1    R(1,2)                  1.4121         calculate D2E/DX2 analytically  !
 ! R2    R(1,6)                  0.9654         calculate D2E/DX2 analytically  !
 ! R3    R(2,3)                  1.3988         calculate D2E/DX2 analytically  !
 ! R4    R(2,4)                  1.5267         calculate D2E/DX2 analytically  !
 ! R5    R(2,7)                  1.1049         calculate D2E/DX2 analytically  !
 ! R6    R(3,8)                  0.9668         calculate D2E/DX2 analytically  !
 ! R7    R(4,5)                  1.5235         calculate D2E/DX2 analytically  !
 ! R8    R(4,9)                  1.1027         calculate D2E/DX2 analytically  !
 ! R9    R(4,10)                 1.1014         calculate D2E/DX2 analytically  !
 ! R10   R(5,11)                 1.1001         calculate D2E/DX2 analytically  !
 ! R11   R(5,12)                 1.102          calculate D2E/DX2 analytically  !
 ! R12   R(5,13)                 1.0995         calculate D2E/DX2 analytically  !
 ! A1    A(2,1,6)              108.3004         calculate D2E/DX2 analytically  !
 ! A2    A(1,2,3)              107.3695         calculate D2E/DX2 analytically  !
 ! A3    A(1,2,4)              111.8439         calculate D2E/DX2 analytically  !
 ! A4    A(1,2,7)              109.9728         calculate D2E/DX2 analytically  !
 ! A5    A(3,2,4)              113.0672         calculate D2E/DX2 analytically  !
 ! A6    A(3,2,7)              105.1818         calculate D2E/DX2 analytically  !
 ! A7    A(4,2,7)              109.1762         calculate D2E/DX2 analytically  !
 ! A8    A(2,3,8)              108.0735         calculate D2E/DX2 analytically  !
 ! A9    A(2,4,5)              114.2102         calculate D2E/DX2 analytically  !
 ! A10   A(2,4,9)              107.6811         calculate D2E/DX2 analytically  !
 ! A11   A(2,4,10)             107.5663         calculate D2E/DX2 analytically  !
 ! A12   A(5,4,9)              110.0496         calculate D2E/DX2 analytically  !
 ! A13   A(5,4,10)             110.537          calculate D2E/DX2 analytically  !
 ! A14   A(9,4,10)             106.4582         calculate D2E/DX2 analytically  !
 ! A15   A(4,5,11)             111.189          calculate D2E/DX2 analytically  !
 ! A16   A(4,5,12)             111.6902         calculate D2E/DX2 analytically  !
 ! A17   A(4,5,13)             110.7244         calculate D2E/DX2 analytically  !
 ! A18   A(11,5,12)            107.9542         calculate D2E/DX2 analytically  !
 ! A19   A(11,5,13)            107.9541         calculate D2E/DX2 analytically  !
 ! A20   A(12,5,13)            107.1502         calculate D2E/DX2 analytically  !
 ! D1    D(6,1,2,3)           -170.121          calculate D2E/DX2 analytically  !
 ! D2    D(6,1,2,4)            -45.5329         calculate D2E/DX2 analytically  !
 ! D3    D(6,1,2,7)             75.9481         calculate D2E/DX2 analytically  !
 ! D4    D(1,2,3,8)             66.7585         calculate D2E/DX2 analytically  !
 ! D5    D(4,2,3,8)            -57.0861         calculate D2E/DX2 analytically  !
 ! D6    D(7,2,3,8)           -176.1305         calculate D2E/DX2 analytically  !
 ! D7    D(1,2,4,5)            -59.194          calculate D2E/DX2 analytically  !
 ! D8    D(1,2,4,9)             63.3444         calculate D2E/DX2 analytically  !
 ! D9    D(1,2,4,10)           177.7268         calculate D2E/DX2 analytically  !
 ! D10   D(3,2,4,5)             62.1573         calculate D2E/DX2 analytically  !
 ! D11   D(3,2,4,9)           -175.3042         calculate D2E/DX2 analytically  !
 ! D12   D(3,2,4,10)           -60.9219         calculate D2E/DX2 analytically  !
 ! D13   D(7,2,4,5)            178.8666         calculate D2E/DX2 analytically  !
 ! D14   D(7,2,4,9)            -58.595          calculate D2E/DX2 analytically  !
 ! D15   D(7,2,4,10)            55.7874         calculate D2E/DX2 analytically  !
 ! D16   D(2,4,5,11)            57.6712         calculate D2E/DX2 analytically  !
 ! D17   D(2,4,5,12)           -62.9919         calculate D2E/DX2 analytically  !
 ! D18   D(2,4,5,13)           177.6811         calculate D2E/DX2 analytically  !
 ! D19   D(9,4,5,11)           -63.5662         calculate D2E/DX2 analytically  !
 ! D20   D(9,4,5,12)           175.7707         calculate D2E/DX2 analytically  !
 ! D21   D(9,4,5,13)            56.4437         calculate D2E/DX2 analytically  !
 ! D22   D(10,4,5,11)          179.1253         calculate D2E/DX2 analytically  !
 ! D23   D(10,4,5,12)           58.4622         calculate D2E/DX2 analytically  !
 ! D24   D(10,4,5,13)          -60.8648         calculate D2E/DX2 analytically  !
 --------------------------------------------------------------------------------
 Trust Radius=3.00D-01 FncErr=1.00D-07 GrdErr=1.00D-07 EigMax=2.50D+02 EigMin=1.00D-04
 Number of steps in this run=      2 maximum allowed number of steps=      2.
 GradGradGradGradGradGradGradGradGradGradGradGradGradGradGradGradGradGrad

 Leave Link  103 at Tue Oct 21 19:55:49 2025, MaxMem=  4294967296 cpu:               0.2 elap:               0.0
 (Enter /lrz/sys/applications/gaussian/g16.C.01/x86_64_legacy/exe/l202.exe)
                          Input orientation:                          
 ---------------------------------------------------------------------
 Center     Atomic      Atomic             Coordinates (Angstroms)
 Number     Number       Type             X           Y           Z
 ---------------------------------------------------------------------
      1          8           0       -0.735849   -1.349842   -0.072432
      2          6           0       -0.605334   -0.001660   -0.471527
      3          8           0       -1.262857    0.781797    0.482604
      4          6           0        0.856242    0.394169   -0.666251
      5          6           0        1.718926    0.230882    0.578769
      6          1           0       -0.159602   -1.888036   -0.629499
      7          1           0       -1.155957    0.167837   -1.414354
      8          1           0       -0.775955    0.712292    1.314908
      9          1           0        1.261753   -0.216618   -1.489932
     10          1           0        0.874131    1.438917   -1.014419
     11          1           0        1.696336   -0.806228    0.944954
     12          1           0        1.381577    0.887476    1.397020
     13          1           0        2.765231    0.491808    0.364103
 ---------------------------------------------------------------------
                    Distance matrix (angstroms):
                    1          2          3          4          5
     1  O    0.000000
     2  C    1.412058   0.000000
     3  O    2.264881   1.398752   0.000000
     4  C    2.434944   1.526696   2.441456   0.000000
     5  C    2.991434   2.561129   3.033775   1.523471   0.000000
     6  H    0.965421   1.944749   3.095473   2.498349   3.078733
     7  H    2.068960   1.104916   1.996703   2.158663   3.498781
     8  H    2.485703   1.931369   0.966765   2.586554   2.645390
     9  H    2.698873   2.137608   3.355799   1.102701   2.165361
    10  H    3.355079   2.135137   2.690652   1.101380   2.170547
    11  H    2.691861   2.819828   3.390046   2.177772   1.100090
    12  H    3.412972   2.868770   2.800064   2.185501   1.102023
    13  H    3.979924   3.507491   4.040251   2.171498   1.099507
                    6          7          8          9         10
     6  H    0.000000
     7  H    2.415644   0.000000
     8  H    3.304893   2.808861   0.000000
     9  H    2.356742   2.449252   3.589186   0.000000
    10  H    3.505051   2.428343   2.945595   1.765548   0.000000
    11  H    2.663403   3.827625   2.924891   2.542670   3.091251
    12  H    3.766361   3.854968   2.166189   3.093198   2.525198
    13  H    3.899429   4.317821   3.673233   2.489932   2.524598
                   11         12         13
    11  H    0.000000
    12  H    1.781030   0.000000
    13  H    1.778994   1.771431   0.000000
 Stoichiometry    C3H8O2
 Framework group  C1[X(C3H8O2)]
 Deg. of freedom    33
 Full point group                 C1      NOp   1
 RotChk:  IX=0 Diff= 4.38D-15
 Largest Abelian subgroup         C1      NOp   1
 Largest concise Abelian subgroup C1      NOp   1
                         Standard orientation:                         
 ---------------------------------------------------------------------
 Center     Atomic      Atomic             Coordinates (Angstroms)
 Number     Number       Type             X           Y           Z
 ---------------------------------------------------------------------
      1          8           0       -1.041092    1.082915   -0.413664
      2          6           0       -0.665750    0.013119    0.428097
      3          8           0       -1.071612   -1.171243   -0.195656
      4          6           0        0.826660    0.039265    0.748767
      5          6           0        1.730173   -0.041797   -0.475184
      6          1           0       -0.633220    1.890746   -0.077381
      7          1           0       -1.240343    0.055215    1.370917
      8          1           0       -0.547003   -1.281529   -1.000179
      9          1           0        1.032467    0.965953    1.309875
     10          1           0        1.033331   -0.794974    1.437513
     11          1           0        1.521884    0.778328   -1.178184
     12          1           0        1.599901   -0.993520   -1.015282
     13          1           0        2.788117    0.022889   -0.182802
 ---------------------------------------------------------------------
 Rotational constants (GHZ):           6.8959889           4.0109267           3.3419684
 Leave Link  202 at Tue Oct 21 19:55:49 2025, MaxMem=  4294967296 cpu:               0.2 elap:               0.0
 (Enter /lrz/sys/applications/gaussian/g16.C.01/x86_64_legacy/exe/l301.exe)
 Standard basis: def2SVP (5D, 7F)
 Ernie: Thresh=  0.10000D-02 Tol=  0.10000D-05 Strict=F.
 There are   115 symmetry adapted cartesian basis functions of A   symmetry.
 There are   110 symmetry adapted basis functions of A   symmetry.
   110 basis functions,   181 primitive gaussians,   115 cartesian basis functions
    21 alpha electrons       21 beta electrons
       nuclear repulsion energy       197.1821554612 Hartrees.
 IExCor= 4639 DFT=T Ex+Corr=wB97XD ExCW=0 ScaHFX=  1.000000
 ScaDFX=  1.000000  1.000000  1.000000  1.000000 ScalE2=  1.000000  1.000000
 IRadAn=      5 IRanWt=     -1 IRanGd=            0 ICorTp=0 IEmpDi=121
 HFx  wShort=  0.000000 wLong=  0.200000 cFull=  0.222036 cShort=  0.000000 cLong=  0.777964
 DFx  wShort=  0.000000 wLong=  0.200000 cFull=  0.000000 cShort=  0.000000 cLong=  1.000000
 NAtoms=   13 NActive=   13 NUniq=   13 SFac= 1.00D+00 NAtFMM=   60 NAOKFM=F Big=F
 Integral buffers will be    131072 words long.
 Raffenetti 2 integral format.
 Two-electron integral symmetry is turned on.
 R6Disp:  Grimme-D2 Dispersion energy=       -0.0059821886 Hartrees.
 Nuclear repulsion after empirical dispersion term =      197.1761732726 Hartrees.
 Force inversion solution in PCM.
 ------------------------------------------------------------------------------
 Polarizable Continuum Model (PCM)
 =================================
 Model                : PCM.
 Atomic radii         : SMD-Coulomb.
 Polarization charges : Total charges.
 Charge compensation  : None.
 Solution method      : Matrix inversion.
 Cavity type          : VdW (van der Waals Surface) (Alpha=1.000).
 Cavity algorithm     : GePol (No added spheres)
                        Default sphere list used, NSphG=   13.
                        Lebedev-Laikov grids with approx.  5.0 points / Ang**2.
                        Smoothing algorithm: York/Karplus (Gamma=1.0000).
                        Polarization charges: spherical gaussians, with
                                              point-specific exponents (IZeta= 3).
                        Self-potential: point-specific (ISelfS= 7).
                        Self-field    : sphere-specific E.n sum rule (ISelfD= 2).
 1st derivatives      : Analytical E(r).r(x)/FMM algorithm (CHGder, D1EAlg=3).
                        Cavity 1st derivative terms included.
 2nd derivatives      : Analytical E(r).r(xy)/FMM algorithm (CHGder, D2EAlg=3).
                        Cavity 2nd derivative terms included.
 Solvent              : Water, Eps=  78.355300 Eps(inf)=   1.777849
 ------------------------------------------------------------------------------
 Spheres list:
 ISph  on   Nord     Re0    Alpha      Xe            Ye            Ze
    1   O      1    1.5200  1.000     -1.041092      1.082915     -0.413664
    2   C      2    1.8500  1.000     -0.665750      0.013119      0.428097
    3   O      3    1.5200  1.000     -1.071612     -1.171243     -0.195656
    4   C      4    1.8500  1.000      0.826660      0.039265      0.748767
    5   C      5    1.8500  1.000      1.730173     -0.041797     -0.475184
    6   H      6    1.2000  1.000     -0.633220      1.890746     -0.077381
    7   H      7    1.2000  1.000     -1.240343      0.055215      1.370917
    8   H      8    1.2000  1.000     -0.547003     -1.281529     -1.000179
    9   H      9    1.2000  1.000      1.032467      0.965953      1.309875
   10   H     10    1.2000  1.000      1.033331     -0.794974      1.437513
   11   H     11    1.2000  1.000      1.521884      0.778328     -1.178184
   12   H     12    1.2000  1.000      1.599901     -0.993520     -1.015282
   13   H     13    1.2000  1.000      2.788117      0.022889     -0.182802
 ------------------------------------------------------------------------------
 GePol: Number of generator spheres                  =      13
 GePol: Total number of spheres                      =      13
 GePol: Number of exposed spheres                    =      13 (100.00%)
 GePol: Number of points                             =     904
 GePol: Average weight of points                     =       0.12
 GePol: Minimum weight of points                     =   0.70D-07
 GePol: Maximum weight of points                     =    0.21991
 GePol: Number of points with low weight             =      48
 GePol: Fraction of low-weight points (<1% of avg)   =       5.31%
 GePol: Cavity surface area                          =    109.210 Ang**2
 GePol: Cavity volume                                =     82.028 Ang**3
 ------------------------------------------------------------------------------
 Atomic radii for non-electrostatic terms: SMD-CDS.
 ------------------------------------------------------------------------------
 PCM non-electrostatic energy =         0.0044660978 Hartrees.
 Nuclear repulsion after PCM non-electrostatic terms =      197.1806393704 Hartrees.
 Leave Link  301 at Tue Oct 21 19:55:49 2025, MaxMem=  4294967296 cpu:               0.5 elap:               0.1
 (Enter /lrz/sys/applications/gaussian/g16.C.01/x86_64_legacy/exe/l302.exe)
 NPDir=0 NMtPBC=     1 NCelOv=     1 NCel=       1 NClECP=     1 NCelD=      1
         NCelK=      1 NCelE2=     1 NClLst=     1 CellRange=     0.0.
 One-electron integrals computed using PRISM.
 One-electron integral symmetry used in STVInt
   1 Symmetry operations used in ECPInt.
 ECPInt:  NShTT=    1485 NPrTT=    5139 LenC2=    1483 LenP2D=    4465.
 LDataN:  DoStor=T MaxTD1= 4 Len=   56
 NBasis=   110 RedAO= T EigKep=  2.40D-03  NBF=   110
 NBsUse=   110 1.00D-06 EigRej= -1.00D+00 NBFU=   110
 Precomputing XC quadrature grid using
 IXCGrd= 4 IRadAn=           5 IRanWt=          -1 IRanGd=           0 AccXCQ= 0.00D+00.
 Generated NRdTot=       0 NPtTot=           0 NUsed=           0 NTot=          32
 NSgBfM=   115   115   115   115   115 MxSgAt=    13 MxSgA2=    13.
 Leave Link  302 at Tue Oct 21 19:55:49 2025, MaxMem=  4294967296 cpu:               1.2 elap:               0.2
 (Enter /lrz/sys/applications/gaussian/g16.C.01/x86_64_legacy/exe/l303.exe)
 DipDrv:  MaxL=1.
 Leave Link  303 at Tue Oct 21 19:55:49 2025, MaxMem=  4294967296 cpu:               0.2 elap:               0.0
 (Enter /lrz/sys/applications/gaussian/g16.C.01/x86_64_legacy/exe/l401.exe)
 Initial guess from the checkpoint file:  "g16_C3-w_9.chk"
 B after Tr=     0.000000   -0.000000   -0.000000
         Rot=    1.000000    0.000000    0.000000   -0.000000 Ang=   0.00 deg.
 Guess basis will be translated and rotated to current coordinates.
 JPrj=2 DoOrth=T DoCkMO=T.
 Leave Link  401 at Tue Oct 21 19:55:50 2025, MaxMem=  4294967296 cpu:               0.8 elap:               0.1
 (Enter /lrz/sys/applications/gaussian/g16.C.01/x86_64_legacy/exe/l502.exe)
 Integral symmetry usage will be decided dynamically.
 Closed shell SCF:
 Using DIIS extrapolation, IDIIS=  1040.
 NGot=  4294967296 LenX=  4294938204 LenY=  4294924538
 Requested convergence on RMS density matrix=1.00D-08 within 128 cycles.
 Requested convergence on MAX density matrix=1.00D-06.
 Requested convergence on             energy=1.00D-06.
 No special actions if energy rises.
 Fock matrices will be formed incrementally for  20 cycles.

 Cycle   1  Pass 1  IDiag  1:
 FoFJK:  IHMeth= 1 ICntrl=       0 DoSepK=T KAlg= 0 I1Cent=           0 FoldK=F
 IRaf=         1 NMat=       1 IRICut=       1 DoRegI=T DoRafI=F ISym2E= 0 IDoP0=0 IntGTp=1.
 FoFCou: FMM=F IPFlag=           0 FMFlag=      100000 FMFlg1=           0
         NFxFlg=           0 DoJE=T BraDBF=F KetDBF=F FulRan=T
         wScrn=  0.000000 ICntrl=       500 IOpCl=  0 I1Cent=           0 NGrid=           0
         NMat0=    1 NMatS0=      1 NMatT0=    0 NMatD0=    1 NMtDS0=    0 NMtDT0=    0
 Symmetry not used in FoFCou.
 Inv3:  Mode=1 IEnd=     2451648.
 Iteration    1 A*A^-1 deviation from unit magnitude is 4.44D-15 for    483.
 Iteration    1 A*A^-1 deviation from orthogonality  is 3.66D-15 for    812    299.
 Iteration    1 A^-1*A deviation from unit magnitude is 4.22D-15 for    262.
 Iteration    1 A^-1*A deviation from orthogonality  is 3.17D-15 for    768    735.
 E= -269.314181482337    
 DIIS: error= 9.89D-09 at cycle   1 NSaved=   1.
 NSaved= 1 IEnMin= 1 EnMin= -269.314181482337     IErMin= 1 ErrMin= 9.89D-09
 ErrMax= 9.89D-09  0.00D+00 EMaxC= 1.00D-01 BMatC= 2.10D-14 BMatP= 2.10D-14
 IDIUse=1 WtCom= 1.00D+00 WtEn= 0.00D+00
 Coeff-Com:  0.100D+01
 Coeff:      0.100D+01
 Gap=     0.493 Goal=   None    Shift=    0.000
 RMSDP=2.38D-09 MaxDP=6.08D-08              OVMax= 7.07D-08

 Error on total polarization charges =  0.03198
 SCF Done:  E(RwB97XD) =  -269.314181482     A.U. after    1 cycles
            NFock=  1  Conv=0.24D-08     -V/T= 2.0096
 KE= 2.667518350459D+02 PE=-1.024215490945D+03 EE= 2.909688350462D+02
 SMD-CDS (non-electrostatic) energy       (kcal/mol) =       2.80
 (included in total energy above)
 Leave Link  502 at Tue Oct 21 19:55:53 2025, MaxMem=  4294967296 cpu:              24.1 elap:               3.1
 (Enter /lrz/sys/applications/gaussian/g16.C.01/x86_64_legacy/exe/l801.exe)
 DoSCS=F DFT=T ScalE2(SS,OS)=  1.000000  1.000000
 Range of M.O.s used for correlation:     1   110
 NBasis=   110 NAE=    21 NBE=    21 NFC=     0 NFV=     0
 NROrb=    110 NOA=    21 NOB=    21 NVA=    89 NVB=    89
 Leave Link  801 at Tue Oct 21 19:55:53 2025, MaxMem=  4294967296 cpu:               0.2 elap:               0.0
 (Enter /lrz/sys/applications/gaussian/g16.C.01/x86_64_legacy/exe/l1101.exe)
 Using compressed storage, NAtomX=    13.
 Will process     14 centers per pass.
   1 Symmetry operations used in ECPInt.
 ECPInt:  NShTT=    1485 NPrTT=    5139 LenC2=    1483 LenP2D=    4465.
 LDataN:  DoStor=T MaxTD1= 5 Len=  102
 R6Disp: Adding Grimme-D2 dispersion energy 1st derivatives to the gradient.
 Leave Link 1101 at Tue Oct 21 19:55:53 2025, MaxMem=  4294967296 cpu:               1.0 elap:               0.1
 (Enter /lrz/sys/applications/gaussian/g16.C.01/x86_64_legacy/exe/l1102.exe)
 Symmetrizing basis deriv contribution to polar:
 IMax=3 JMax=2 DiffMx= 0.00D+00
 Leave Link 1102 at Tue Oct 21 19:55:53 2025, MaxMem=  4294967296 cpu:               0.3 elap:               0.1
 (Enter /lrz/sys/applications/gaussian/g16.C.01/x86_64_legacy/exe/l1110.exe)
 Forming Gx(P) for the SCF density, NAtomX=    13.
 Integral derivatives from FoFJK, PRISM(SPDF).
 Do as many integral derivatives as possible in FoFJK.
 G2DrvN: MDV=    4294965821.
 G2DrvN: will do    14 centers at a time, making    1 passes.
 Calling FoFCou, ICntrl=  3107 FMM=F I1Cent=   0 AccDes= 0.00D+00.
 FoFJK:  IHMeth= 1 ICntrl=    3107 DoSepK=T KAlg= 0 I1Cent=           0 FoldK=F
 IRaf=         1 NMat=       1 IRICut=       1 DoRegI=T DoRafI=F ISym2E= 0 IDoP0=0 IntGTp=1.
 FoFCou: FMM=F IPFlag=           0 FMFlag=      100000 FMFlg1=           0
         NFxFlg=           0 DoJE=F BraDBF=F KetDBF=F FulRan=T
         wScrn=  0.000000 ICntrl=      3507 IOpCl=  0 I1Cent=           0 NGrid=           0
         NMat0=    1 NMatS0=      1 NMatT0=    0 NMatD0=    1 NMtDS0=    0 NMtDT0=    0
 Symmetry not used in FoFCou.
 NEqPCM:  Using equilibrium solvation (IEInf=0, Eps=  78.3553, EpsInf=   1.7778)
 G2PCM: DoFxE=T DoFxN=T DoGrad=T DoDP/DQ/DG/TGxP=FFFF NFrqRd=   0 IEInf=0 SqF1=F DoCFld=F IF1Alg=4.
 GePol: Maximum number of non-zero 1st derivatives   =     243
 End of G2Drv F.D. properties file   721 does not exist.
 End of G2Drv F.D. properties file   722 does not exist.
 End of G2Drv F.D. properties file   788 does not exist.
 Leave Link 1110 at Tue Oct 21 19:56:13 2025, MaxMem=  4294967296 cpu:             158.7 elap:              19.9
 (Enter /lrz/sys/applications/gaussian/g16.C.01/x86_64_legacy/exe/l1002.exe)
 Minotr:  Closed shell wavefunction.
          IDoAtm=1111111111111
 NEqPCM:  Using equilibrium solvation (IEInf=0, Eps=  78.3553, EpsInf=   1.7778)
          Direct CPHF calculation.
          Differentiating once with respect to electric field.
                with respect to dipole field.
          Differentiating once with respect to nuclear coordinates.
          Requested convergence is 1.0D-08 RMS, and 1.0D-07 maximum.
          Secondary convergence is 1.0D-12 RMS, and 1.0D-12 maximum.
          NewPWx=T KeepS1=F KeepF1=F KeepIn=T MapXYZ=F SortEE=F KeepMc=T.
         3854 words used for storage of precomputed grid.
 Keep R1 ints in memory in canonical form, NReq=45462276.
 FoFCou: FMM=F IPFlag=           0 FMFlag=           0 FMFlg1=           0
         NFxFlg=           0 DoJE=F BraDBF=F KetDBF=F FulRan=T
         wScrn=  0.000000 ICntrl=       600 IOpCl=  0 I1Cent=           0 NGrid=           0
         NMat0=    1 NMatS0=   6105 NMatT0=    0 NMatD0=    1 NMtDS0=    0 NMtDT0=    0
 Symmetry not used in FoFCou.
 Two-electron integral symmetry not used.
          MDV=    4294967296 using IRadAn=       1.
          Solving linear equations simultaneously, MaxMat=       0.
          There are    42 degrees of freedom in the 1st order CPHF.  IDoFFX=6 NUNeed=     3.
     39 vectors produced by pass  0 Test12= 4.45D-15 2.38D-09 XBig12= 1.34D+01 1.01D+00.
 AX will form    39 AO Fock derivatives at one time.
     39 vectors produced by pass  1 Test12= 4.45D-15 2.38D-09 XBig12= 5.54D-01 1.18D-01.
     39 vectors produced by pass  2 Test12= 4.45D-15 2.38D-09 XBig12= 1.63D-02 2.39D-02.
     39 vectors produced by pass  3 Test12= 4.45D-15 2.38D-09 XBig12= 7.01D-05 1.46D-03.
     39 vectors produced by pass  4 Test12= 4.45D-15 2.38D-09 XBig12= 3.26D-07 9.96D-05.
     39 vectors produced by pass  5 Test12= 4.45D-15 2.38D-09 XBig12= 1.59D-09 5.48D-06.
     19 vectors produced by pass  6 Test12= 4.45D-15 2.38D-09 XBig12= 6.44D-12 3.82D-07.
      3 vectors produced by pass  7 Test12= 4.45D-15 2.38D-09 XBig12= 2.43D-14 2.68D-08.
 InvSVY:  IOpt=1 It=  1 EMax= 2.22D-15
 Solved reduced A of dimension   256 with    42 vectors.
 FullF1:  Do perturbations      1 to       3.
 Isotropic polarizability for W=    0.000000       52.23 Bohr**3.
 End of Minotr F.D. properties file   721 does not exist.
 End of Minotr F.D. properties file   722 does not exist.
 End of Minotr F.D. properties file   788 does not exist.
 Leave Link 1002 at Tue Oct 21 19:56:33 2025, MaxMem=  4294967296 cpu:             160.8 elap:              20.2
 (Enter /lrz/sys/applications/gaussian/g16.C.01/x86_64_legacy/exe/l601.exe)
 Copying SCF densities to generalized density rwf, IOpCl= 0 IROHF=0.

 **********************************************************************

            Population analysis using the SCF Density.

 **********************************************************************

 Orbital symmetries:
       Occupied  (A) (A) (A) (A) (A) (A) (A) (A) (A) (A) (A) (A)
                 (A) (A) (A) (A) (A) (A) (A) (A) (A)
       Virtual   (A) (A) (A) (A) (A) (A) (A) (A) (A) (A) (A) (A)
                 (A) (A) (A) (A) (A) (A) (A) (A) (A) (A) (A) (A)
                 (A) (A) (A) (A) (A) (A) (A) (A) (A) (A) (A) (A)
                 (A) (A) (A) (A) (A) (A) (A) (A) (A) (A) (A) (A)
                 (A) (A) (A) (A) (A) (A) (A) (A) (A) (A) (A) (A)
                 (A) (A) (A) (A) (A) (A) (A) (A) (A) (A) (A) (A)
                 (A) (A) (A) (A) (A) (A) (A) (A) (A) (A) (A) (A)
                 (A) (A) (A) (A) (A)
 The electronic state is 1-A.
 Alpha  occ. eigenvalues --  -19.25919 -19.25466 -10.38558 -10.28694 -10.28376
 Alpha  occ. eigenvalues --   -1.15054  -1.07932  -0.85843  -0.76088  -0.68626
 Alpha  occ. eigenvalues --   -0.61668  -0.56874  -0.56103  -0.52600  -0.46567
 Alpha  occ. eigenvalues --   -0.46381  -0.43641  -0.42917  -0.41283  -0.38837
 Alpha  occ. eigenvalues --   -0.35325
 Alpha virt. eigenvalues --    0.14005   0.16873   0.18971   0.21114   0.21548
 Alpha virt. eigenvalues --    0.22813   0.24425   0.26652   0.29363   0.30968
 Alpha virt. eigenvalues --    0.33258   0.38664   0.51706   0.52666   0.53507
 Alpha virt. eigenvalues --    0.57439   0.60228   0.64925   0.68582   0.69094
 Alpha virt. eigenvalues --    0.72350   0.74338   0.74913   0.76293   0.77864
 Alpha virt. eigenvalues --    0.78573   0.79231   0.80776   0.80865   0.83368
 Alpha virt. eigenvalues --    0.92879   1.04865   1.07706   1.08974   1.12380
 Alpha virt. eigenvalues --    1.13884   1.21392   1.24468   1.35186   1.36700
 Alpha virt. eigenvalues --    1.43630   1.43684   1.50794   1.56713   1.58112
 Alpha virt. eigenvalues --    1.64024   1.66223   1.69402   1.76760   1.81602
 Alpha virt. eigenvalues --    1.84525   1.87402   1.88576   1.89303   1.90686
 Alpha virt. eigenvalues --    1.93961   1.95625   1.97361   2.01689   2.01783
 Alpha virt. eigenvalues --    2.06262   2.13941   2.17646   2.23210   2.27992
 Alpha virt. eigenvalues --    2.32715   2.35481   2.42501   2.43237   2.49868
 Alpha virt. eigenvalues --    2.62726   2.63942   2.67104   2.83636   2.86955
 Alpha virt. eigenvalues --    2.93240   2.99293   3.01706   3.03623   3.05928
 Alpha virt. eigenvalues --    3.07553   3.08908   3.18803   3.21888   3.26111
 Alpha virt. eigenvalues --    3.41630   3.53279   3.83605   3.88923
          Condensed to atoms (all electrons):
               1          2          3          4          5          6
     1  O    7.878016   0.307848  -0.061126  -0.064977  -0.004021   0.332207
     2  C    0.307848   4.420346   0.326845   0.396912  -0.036958  -0.017122
     3  O   -0.061126   0.326845   7.839637  -0.040161  -0.007792   0.004233
     4  C   -0.064977   0.396912  -0.040161   4.882873   0.350885  -0.001638
     5  C   -0.004021  -0.036958  -0.007792   0.350885   4.650676  -0.000657
     6  H    0.332207  -0.017122   0.004233  -0.001638  -0.000657   0.458437
     7  H   -0.032325   0.402472  -0.036433  -0.057546   0.010206  -0.000020
     8  H    0.003848  -0.025148   0.338888  -0.018715   0.010175  -0.000325
     9  H   -0.000488  -0.013650   0.004609   0.365418  -0.026002   0.001812
    10  H    0.005209  -0.012774   0.001932   0.360106  -0.023700  -0.000030
    11  H    0.015856  -0.006773  -0.001105  -0.034296   0.398273   0.000953
    12  H   -0.000573  -0.006832   0.005926  -0.022889   0.391208  -0.000040
    13  H    0.000136   0.006301   0.000106  -0.014306   0.392131  -0.000061
               7          8          9         10         11         12
     1  O   -0.032325   0.003848  -0.000488   0.005209   0.015856  -0.000573
     2  C    0.402472  -0.025148  -0.013650  -0.012774  -0.006773  -0.006832
     3  O   -0.036433   0.338888   0.004609   0.001932  -0.001105   0.005926
     4  C   -0.057546  -0.018715   0.365418   0.360106  -0.034296  -0.022889
     5  C    0.010206   0.010175  -0.026002  -0.023700   0.398273   0.391208
     6  H   -0.000020  -0.000325   0.001812  -0.000030   0.000953  -0.000040
     7  H    0.681374   0.008699  -0.005122  -0.003310   0.000638  -0.000089
     8  H    0.008699   0.465677   0.000036  -0.000374   0.000582   0.004411
     9  H   -0.005122   0.000036   0.647071  -0.018577  -0.007713   0.008053
    10  H   -0.003310  -0.000374  -0.018577   0.649826   0.007905  -0.007641
    11  H    0.000638   0.000582  -0.007713   0.007905   0.632738  -0.025683
    12  H   -0.000089   0.004411   0.008053  -0.007641  -0.025683   0.628568
    13  H   -0.000207  -0.000315  -0.006342  -0.005062  -0.020218  -0.020069
              13
     1  O    0.000136
     2  C    0.006301
     3  O    0.000106
     4  C   -0.014306
     5  C    0.392131
     6  H   -0.000061
     7  H   -0.000207
     8  H   -0.000315
     9  H   -0.006342
    10  H   -0.005062
    11  H   -0.020218
    12  H   -0.020069
    13  H    0.613538
 Mulliken charges:
               1
     1  O   -0.379609
     2  C    0.258532
     3  O   -0.375558
     4  C   -0.101666
     5  C   -0.104424
     6  H    0.222252
     7  H    0.031664
     8  H    0.212561
     9  H    0.050896
    10  H    0.046491
    11  H    0.038843
    12  H    0.045649
    13  H    0.054367
 Sum of Mulliken charges =  -0.00000
 Mulliken charges with hydrogens summed into heavy atoms:
               1
     1  O   -0.157357
     2  C    0.290196
     3  O   -0.162997
     4  C   -0.004279
     5  C    0.034436
 APT charges:
               1
     1  O   -0.954305
     2  C    1.269911
     3  O   -0.899849
     4  C   -0.007046
     5  C    0.012565
     6  H    0.381892
     7  H   -0.113223
     8  H    0.386618
     9  H   -0.029255
    10  H   -0.026841
    11  H   -0.001090
    12  H   -0.014214
    13  H   -0.005163
 Sum of APT charges =  -0.00000
 APT charges with hydrogens summed into heavy atoms:
               1
     1  O   -0.572413
     2  C    1.156688
     3  O   -0.513231
     4  C   -0.063141
     5  C   -0.007902
 Electronic spatial extent (au):  <R**2>=            445.1867
 Charge=             -0.0000 electrons
 Dipole moment (field-independent basis, Debye):
    X=              3.0013    Y=              1.5444    Z=              0.8599  Tot=              3.4832
 Quadrupole moment (field-independent basis, Debye-Ang):
   XX=            -35.9000   YY=            -28.9976   ZZ=            -29.7033
   XY=             -1.3204   XZ=             -1.5246   YZ=              3.2655
 Traceless Quadrupole moment (field-independent basis, Debye-Ang):
   XX=             -4.3664   YY=              2.5360   ZZ=              1.8303
   XY=             -1.3204   XZ=             -1.5246   YZ=              3.2655
 Octapole moment (field-independent basis, Debye-Ang**2):
  XXX=              0.6030  YYY=             12.5722  ZZZ=             -2.6634  XYY=              0.7560
  XXY=              1.3449  XXZ=              2.9560  XZZ=             -3.5936  YZZ=             -3.2723
  YYZ=             -2.1289  XYZ=             -1.9978
 Hexadecapole moment (field-independent basis, Debye-Ang**3):
 XXXX=           -309.4546 YYYY=           -118.7526 ZZZZ=           -102.0346 XXXY=             -0.8293
 XXXZ=              0.5446 YYYX=             -8.8347 YYYZ=              6.0206 ZZZX=              2.4478
 ZZZY=              3.8728 XXYY=            -81.7628 XXZZ=            -68.7786 YYZZ=            -36.2747
 XXYZ=              1.7833 YYXZ=              0.7301 ZZXY=              1.9891
 N-N= 1.971806393704D+02 E-N=-1.024215492587D+03  KE= 2.667518350459D+02
  Exact polarizability:      50.341       0.558      53.670      -1.942       1.352      52.666
 Approx polarizability:      39.155       0.827      42.853      -0.605       0.867      41.005
 No NMR shielding tensors so no spin-rotation constants.
 Leave Link  601 at Tue Oct 21 19:56:33 2025, MaxMem=  4294967296 cpu:               0.7 elap:               0.1
 (Enter /lrz/sys/applications/gaussian/g16.C.01/x86_64_legacy/exe/l701.exe)
 ... and contract with generalized density number  0.
 Compute integral second derivatives.
 R6Disp: Adding Grimme-D2 dispersion energy 2nd derivatives to the Hessian.
   1 Symmetry operations used in ECPInt.
 ECPInt:  NShTT=    1485 NPrTT=    5139 LenC2=    1483 LenP2D=    4465.
 LDataN:  DoStor=T MaxTD1= 6 Len=  172
 D2PCM: PCM CHGder 2nd derivatives, FixD1E=F FixD2E=F DoIter=F DoCFld=F I1PDM=0
 GePol: Maximum number of non-zero 2nd derivatives   =     243
 Leave Link  701 at Tue Oct 21 19:56:36 2025, MaxMem=  4294967296 cpu:              26.7 elap:               3.4
 (Enter /lrz/sys/applications/gaussian/g16.C.01/x86_64_legacy/exe/l702.exe)
 L702 exits ... SP integral derivatives will be done elsewhere.
 Leave Link  702 at Tue Oct 21 19:56:36 2025, MaxMem=  4294967296 cpu:               0.3 elap:               0.1
 (Enter /lrz/sys/applications/gaussian/g16.C.01/x86_64_legacy/exe/l703.exe)
 Integral derivatives from FoFJK, PRISM(SPDF).
 Compute integral second derivatives, UseDBF=F ICtDFT=           0.
 Calling FoFJK, ICntrl=    100127 FMM=F ISym2X=0 I1Cent= 0 IOpClX= 0 NMat=1 NMatS=1 NMatT=0.
 FoFJK:  IHMeth= 1 ICntrl=  100127 DoSepK=T KAlg= 0 I1Cent=           0 FoldK=F
 IRaf=         1 NMat=       1 IRICut=       1 DoRegI=T DoRafI=F ISym2E= 0 IDoP0=0 IntGTp=1.
 FoFCou: FMM=F IPFlag=           0 FMFlag=      100000 FMFlg1=         800
         NFxFlg=           0 DoJE=F BraDBF=F KetDBF=F FulRan=T
         wScrn=  0.000000 ICntrl=    100527 IOpCl=  0 I1Cent=           0 NGrid=           0
         NMat0=    1 NMatS0=      1 NMatT0=    0 NMatD0=    1 NMtDS0=    0 NMtDT0=    0
 Symmetry not used in FoFCou.
 Leave Link  703 at Tue Oct 21 19:57:03 2025, MaxMem=  4294967296 cpu:             209.7 elap:              26.3
 (Enter /lrz/sys/applications/gaussian/g16.C.01/x86_64_legacy/exe/l716.exe)
 Dipole        = 1.18080762D+00 6.07614800D-01 3.38328507D-01
 Polarizability= 5.03413344D+01 5.58458663D-01 5.36698457D+01
                -1.94190831D+00 1.35211597D+00 5.26657965D+01
 Full mass-weighted force constant matrix:
 Low frequencies ---  -24.8003  -15.9367   -0.0010    0.0011    0.0011   38.3721
 Low frequencies ---  118.1190  205.3703  234.4338
 Diagonal vibrational polarizability:
      112.4534274      29.2392299      78.1615929
 Harmonic frequencies (cm**-1), IR intensities (KM/Mole), Raman scattering
 activities (A**4/AMU), depolarization ratios for plane and unpolarized
 incident light, reduced masses (AMU), force constants (mDyne/A),
 and normal coordinates:
                      1                      2                      3
                      A                      A                      A
 Frequencies --    117.5657               205.3261               234.3932
 Red. masses --      2.0785                 1.1472                 1.1507
 Frc consts  --      0.0169                 0.0285                 0.0372
 IR Inten    --      7.9297               170.7739                13.3707
  Atom  AN      X      Y      Z        X      Y      Z        X      Y      Z
     1   8     0.08  -0.04  -0.08    -0.06   0.01   0.05     0.06   0.01   0.00
     2   6     0.00  -0.01  -0.00    -0.00  -0.01   0.00    -0.00  -0.02   0.00
     3   8    -0.12  -0.02   0.10     0.02  -0.01  -0.02    -0.05   0.00  -0.01
     4   6     0.00  -0.10  -0.00    -0.01   0.04   0.00    -0.01  -0.04   0.01
     5   6     0.02   0.18  -0.00     0.01  -0.02   0.01    -0.03   0.04  -0.01
     6   1     0.31  -0.08  -0.26     0.75  -0.15  -0.55     0.19  -0.03  -0.05
     7   1     0.01   0.10   0.00     0.00  -0.08   0.01    -0.02   0.01  -0.01
     8   1    -0.21  -0.08   0.04    -0.15   0.16  -0.16     0.07  -0.11   0.09
     9   1     0.01  -0.23   0.21    -0.02   0.06  -0.03    -0.03  -0.04   0.03
    10   1    -0.02  -0.25  -0.18     0.00   0.07   0.04     0.02  -0.05  -0.01
    11   1     0.13   0.42   0.24     0.05  -0.04  -0.02    -0.44  -0.23  -0.21
    12   1    -0.06   0.37  -0.31    -0.03  -0.03   0.05     0.39  -0.16   0.24
    13   1     0.02  -0.02   0.05     0.00  -0.04   0.02    -0.04   0.62  -0.08
                      4                      5                      6
                      A                      A                      A
 Frequencies --    257.6601               326.1685               422.3501
 Red. masses --      2.4498                 1.2217                 2.2124
 Frc consts  --      0.0958                 0.0766                 0.2325
 IR Inten    --     12.9135               229.2548                23.4279
  Atom  AN      X      Y      Z        X      Y      Z        X      Y      Z
     1   8    -0.12  -0.01   0.03    -0.07   0.05   0.03     0.15  -0.01   0.07
     2   6     0.01  -0.01  -0.04    -0.02   0.01  -0.02    -0.01  -0.12  -0.00
     3   8    -0.14   0.01   0.02    -0.01   0.01   0.00    -0.14  -0.05  -0.05
     4   6     0.05   0.00  -0.10    -0.01  -0.03  -0.05    -0.01   0.15  -0.02
     5   6     0.26  -0.01   0.05     0.06  -0.01  -0.00     0.00   0.03  -0.01
     6   1    -0.24   0.02   0.09     0.15  -0.01  -0.10     0.15  -0.09   0.23
     7   1     0.15  -0.01   0.05     0.01   0.02  -0.01    -0.02  -0.14  -0.01
     8   1    -0.47   0.12  -0.21     0.62  -0.50   0.49     0.04  -0.29   0.10
     9   1    -0.02   0.02  -0.10     0.02  -0.06  -0.01    -0.25   0.39  -0.33
    10   1     0.02   0.04  -0.04    -0.05  -0.06  -0.07     0.24   0.44   0.25
    11   1     0.27  -0.11  -0.08     0.16   0.04   0.02     0.17   0.07  -0.01
    12   1     0.49  -0.08   0.13     0.11   0.02  -0.07    -0.14   0.06  -0.01
    13   1     0.19   0.20   0.26     0.03  -0.06   0.10     0.00  -0.16   0.03
                      7                      8                      9
                      A                      A                      A
 Frequencies --    535.8034               674.5191               798.3085
 Red. masses --      4.7440                 2.6813                 1.1695
 Frc consts  --      0.8024                 0.7188                 0.4391
 IR Inten    --     35.4563                23.4636                 9.4354
  Atom  AN      X      Y      Z        X      Y      Z        X      Y      Z
     1   8     0.09   0.26   0.05     0.09  -0.12   0.01     0.02  -0.02   0.01
     2   6    -0.11   0.01  -0.12    -0.13   0.01   0.19    -0.00  -0.01   0.00
     3   8     0.15  -0.25   0.16     0.06   0.10  -0.00    -0.02  -0.01  -0.01
     4   6    -0.18  -0.01  -0.14    -0.15  -0.01  -0.13    -0.00   0.10  -0.01
     5   6     0.01  -0.01  -0.02     0.03  -0.00  -0.07     0.00   0.04  -0.01
     6   1     0.18   0.06   0.45     0.01  -0.07  -0.03     0.01  -0.03   0.05
     7   1    -0.15   0.01  -0.15    -0.18   0.02   0.17    -0.00  -0.05   0.01
     8   1    -0.37  -0.02  -0.21     0.24   0.47   0.06     0.00  -0.05   0.01
     9   1    -0.16  -0.06  -0.08    -0.04  -0.01  -0.18     0.01  -0.19   0.46
    10   1    -0.25  -0.05  -0.17    -0.00   0.02  -0.13    -0.01  -0.26  -0.43
    11   1     0.16  -0.02  -0.08     0.34   0.01  -0.15     0.22  -0.21  -0.36
    12   1     0.18  -0.02  -0.02     0.35  -0.02  -0.12    -0.21  -0.16   0.39
    13   1    -0.07   0.05   0.26    -0.11   0.04   0.41     0.01  -0.18   0.01
                     10                     11                     12
                      A                      A                      A
 Frequencies --    863.9763              1011.0729              1069.6271
 Red. masses --      3.0486                 1.4778                 1.4786
 Frc consts  --      1.3408                 0.8901                 0.9967
 IR Inten    --     11.4128                16.3873                 7.4499
  Atom  AN      X      Y      Z        X      Y      Z        X      Y      Z
     1   8     0.01  -0.07   0.05    -0.02   0.05  -0.03     0.02  -0.05   0.04
     2   6     0.26  -0.01  -0.09    -0.01   0.00   0.03     0.01   0.04  -0.01
     3   8     0.02   0.09   0.03    -0.02  -0.05  -0.03    -0.02  -0.02  -0.03
     4   6    -0.10  -0.02  -0.17     0.12  -0.01   0.01    -0.00   0.15   0.03
     5   6    -0.17   0.01   0.12    -0.13   0.00   0.02    -0.01  -0.09  -0.03
     6   1    -0.05   0.02  -0.08    -0.04   0.08  -0.07     0.04  -0.08   0.09
     7   1     0.53  -0.03   0.07    -0.11   0.00  -0.03    -0.05  -0.07  -0.04
     8   1    -0.12  -0.22  -0.02    -0.02  -0.01  -0.03    -0.09  -0.18  -0.05
     9   1    -0.23  -0.01  -0.15     0.42   0.00  -0.12     0.52  -0.05   0.16
    10   1    -0.21  -0.01  -0.14     0.50  -0.02  -0.12    -0.51  -0.08  -0.11
    11   1    -0.00   0.03   0.10     0.23   0.05  -0.02    -0.06   0.13   0.23
    12   1    -0.01  -0.01   0.13     0.21  -0.05   0.05     0.24   0.07  -0.35
    13   1    -0.27   0.03   0.46    -0.27   0.03   0.55    -0.06   0.21   0.08
                     13                     14                     15
                      A                      A                      A
 Frequencies --   1093.9860              1158.0589              1225.2582
 Red. masses --      2.0715                 1.6964                 1.2304
 Frc consts  --      1.4607                 1.3404                 1.0883
 IR Inten    --     15.6936               162.2914               156.2608
  Atom  AN      X      Y      Z        X      Y      Z        X      Y      Z
     1   8    -0.01   0.00   0.01    -0.04  -0.05  -0.02    -0.03   0.03  -0.05
     2   6     0.10  -0.01  -0.04    -0.06  -0.06  -0.12     0.05  -0.02  -0.00
     3   8     0.01   0.04   0.01     0.05   0.14   0.06    -0.04  -0.06  -0.01
     4   6    -0.08  -0.03   0.20     0.04  -0.01   0.01     0.02   0.02   0.04
     5   6    -0.01   0.01  -0.18    -0.02   0.01   0.01    -0.03  -0.01  -0.04
     6   1    -0.10   0.10  -0.13     0.38  -0.51   0.62     0.20  -0.24   0.33
     7   1    -0.09  -0.07  -0.15    -0.20  -0.01  -0.20     0.39   0.27   0.18
     8   1    -0.20  -0.29  -0.08    -0.11  -0.11   0.00     0.30   0.53   0.12
     9   1    -0.29   0.04   0.17     0.12   0.01  -0.04    -0.14  -0.00   0.13
    10   1    -0.00   0.04   0.26     0.17  -0.00  -0.02    -0.20   0.01   0.11
    11   1     0.44  -0.01  -0.34     0.03   0.00  -0.01     0.10   0.03  -0.03
    12   1     0.34  -0.06  -0.16     0.01  -0.01   0.02     0.13  -0.03  -0.04
    13   1    -0.12  -0.03   0.24    -0.03  -0.00   0.05    -0.07  -0.00   0.09
                     16                     17                     18
                      A                      A                      A
 Frequencies --   1249.2726              1304.8269              1369.9242
 Red. masses --      1.6718                 1.5337                 1.3224
 Frc consts  --      1.5373                 1.5385                 1.4622
 IR Inten    --     80.7170               134.6375                 7.5766
  Atom  AN      X      Y      Z        X      Y      Z        X      Y      Z
     1   8     0.01  -0.07   0.07     0.02  -0.07   0.10     0.01  -0.00   0.02
     2   6    -0.01   0.14  -0.05    -0.00   0.10  -0.10    -0.02  -0.03  -0.03
     3   8    -0.01  -0.05  -0.03    -0.01  -0.03  -0.01    -0.01   0.01   0.03
     4   6     0.01  -0.09   0.01     0.01   0.02   0.01     0.13   0.00  -0.03
     5   6    -0.01   0.11  -0.01    -0.00  -0.06   0.01     0.01  -0.00  -0.08
     6   1     0.02  -0.08   0.06    -0.05   0.02  -0.07    -0.07   0.09  -0.12
     7   1    -0.07   0.31  -0.09    -0.20   0.60  -0.25    -0.32  -0.15  -0.20
     8   1     0.02  -0.01  -0.02     0.09   0.17   0.03     0.09   0.17   0.07
     9   1     0.42   0.04  -0.35    -0.36   0.02   0.15    -0.31   0.03   0.09
    10   1    -0.39   0.07   0.33     0.44  -0.05  -0.22    -0.40  -0.02   0.10
    11   1     0.13  -0.09  -0.29    -0.03   0.05   0.13    -0.20   0.21   0.24
    12   1    -0.11  -0.05   0.31     0.06   0.02  -0.15    -0.14  -0.18   0.29
    13   1     0.00  -0.19   0.02    -0.01   0.09  -0.02    -0.13  -0.01   0.41
                     19                     20                     21
                      A                      A                      A
 Frequencies --   1372.2077              1402.2179              1426.7812
 Red. masses --      1.4494                 1.7081                 1.5515
 Frc consts  --      1.6079                 1.9787                 1.8609
 IR Inten    --     50.9397                33.1418                90.7672
  Atom  AN      X      Y      Z        X      Y      Z        X      Y      Z
     1   8     0.02  -0.00   0.04     0.02  -0.02   0.01     0.03  -0.04   0.02
     2   6    -0.01  -0.08  -0.13    -0.12   0.08  -0.00    -0.11   0.10  -0.12
     3   8    -0.03   0.02   0.07     0.02   0.00  -0.01     0.00  -0.00   0.02
     4   6     0.00   0.01   0.03     0.15  -0.02  -0.04    -0.04  -0.01   0.05
     5   6    -0.05   0.02   0.05    -0.11  -0.01   0.06     0.04  -0.01  -0.06
     6   1    -0.16   0.20  -0.25     0.00  -0.01   0.00    -0.03   0.02  -0.04
     7   1    -0.07  -0.34  -0.17     0.19  -0.18   0.22     0.57  -0.45   0.33
     8   1     0.25   0.51   0.17    -0.12  -0.24  -0.07     0.05   0.06   0.04
     9   1     0.22   0.08  -0.17    -0.46   0.01   0.15     0.11  -0.05   0.09
    10   1    -0.08  -0.10  -0.09    -0.23   0.02   0.12     0.31   0.07   0.06
    11   1     0.21  -0.08  -0.14     0.45   0.03  -0.06    -0.19   0.10   0.13
    12   1     0.23   0.06  -0.11     0.34   0.00  -0.07    -0.14  -0.09   0.12
    13   1     0.06  -0.06  -0.28     0.01   0.07  -0.33    -0.05   0.00   0.25
                     22                     23                     24
                      A                      A                      A
 Frequencies --   1450.8868              1463.6678              1474.5311
 Red. masses --      1.0996                 1.0454                 1.1667
 Frc consts  --      1.3638                 1.3195                 1.4946
 IR Inten    --      3.4776                19.1575                27.4054
  Atom  AN      X      Y      Z        X      Y      Z        X      Y      Z
     1   8     0.00  -0.00   0.01    -0.00   0.00  -0.00     0.01   0.01   0.01
     2   6     0.01  -0.01  -0.02     0.02  -0.01  -0.00    -0.03  -0.09  -0.01
     3   8    -0.01   0.00   0.01    -0.01  -0.00   0.00     0.02   0.02  -0.00
     4   6     0.00  -0.00  -0.08    -0.02  -0.02  -0.01    -0.04   0.01  -0.02
     5   6    -0.01   0.01   0.03     0.00  -0.05  -0.01    -0.02   0.01  -0.03
     6   1    -0.03   0.03  -0.04    -0.01   0.01  -0.00    -0.06   0.09  -0.11
     7   1    -0.11  -0.04  -0.09    -0.04  -0.03  -0.04     0.11   0.35   0.04
     8   1     0.04   0.08   0.03     0.05   0.06   0.03    -0.05  -0.07  -0.03
     9   1     0.12  -0.37   0.51     0.10  -0.08   0.04     0.23  -0.15   0.15
    10   1     0.09   0.44   0.44     0.02   0.09   0.11     0.07   0.16   0.13
    11   1    -0.10  -0.19  -0.18     0.48   0.13   0.04     0.11   0.35   0.34
    12   1     0.00   0.14  -0.21    -0.48  -0.03   0.11     0.30  -0.28   0.40
    13   1    -0.03  -0.08   0.09    -0.02   0.67  -0.09     0.06  -0.15  -0.27
                     25                     26                     27
                      A                      A                      A
 Frequencies --   1484.6411              3050.8831              3052.5956
 Red. masses --      1.5164                 1.0757                 1.0470
 Frc consts  --      1.9693                 5.8991                 5.7480
 IR Inten    --    143.9672               111.2607                 4.8907
  Atom  AN      X      Y      Z        X      Y      Z        X      Y      Z
     1   8     0.02   0.01   0.03    -0.00   0.00   0.00     0.00  -0.00   0.00
     2   6    -0.11  -0.14  -0.05     0.04  -0.00  -0.06    -0.02   0.00   0.03
     3   8     0.04   0.04   0.00    -0.00  -0.00   0.00     0.00   0.00  -0.00
     4   6     0.06   0.02   0.03     0.00   0.00   0.02    -0.01  -0.00  -0.01
     5   6     0.01  -0.00   0.01     0.01  -0.01  -0.02     0.02  -0.01  -0.04
     6   1    -0.12   0.17  -0.22    -0.00   0.00  -0.00    -0.00  -0.00  -0.00
     7   1     0.31   0.57   0.18    -0.45   0.04   0.72     0.21  -0.02  -0.34
     8   1    -0.08  -0.13  -0.04     0.01   0.01  -0.01    -0.00  -0.00   0.01
     9   1     0.06   0.06  -0.04    -0.03  -0.16  -0.09     0.03   0.14   0.08
    10   1    -0.20  -0.08   0.01    -0.02   0.12  -0.09     0.03  -0.12   0.09
    11   1    -0.05  -0.21  -0.23     0.05  -0.19   0.16     0.10  -0.36   0.30
    12   1    -0.25   0.17  -0.23     0.04   0.28   0.15     0.08   0.52   0.29
    13   1    -0.07   0.13   0.26    -0.21  -0.01  -0.06    -0.43  -0.03  -0.13
                     28                     29                     30
                      A                      A                      A
 Frequencies --   3070.9032              3123.7938              3144.0601
 Red. masses --      1.0676                 1.1044                 1.1034
 Frc consts  --      5.9316                 6.3497                 6.4261
 IR Inten    --     61.6183                14.9909                48.6539
  Atom  AN      X      Y      Z        X      Y      Z        X      Y      Z
     1   8    -0.00   0.00   0.00    -0.00   0.00  -0.00     0.00   0.00  -0.00
     2   6     0.02  -0.00  -0.02    -0.00  -0.00   0.00     0.00  -0.00  -0.00
     3   8    -0.00  -0.00   0.00     0.00   0.00   0.00     0.00   0.00  -0.00
     4   6    -0.02  -0.01  -0.06     0.00  -0.09   0.01    -0.00  -0.03   0.00
     5   6     0.00   0.00   0.01     0.01   0.03  -0.00    -0.04  -0.08  -0.02
     6   1     0.00   0.00  -0.00    -0.00   0.00  -0.00    -0.00   0.00  -0.00
     7   1    -0.17   0.01   0.26     0.01   0.00  -0.01    -0.00   0.00   0.00
     8   1     0.01   0.00  -0.00     0.00  -0.00  -0.00     0.00   0.00   0.01
     9   1     0.14   0.62   0.37     0.11   0.48   0.30     0.04   0.19   0.11
    10   1     0.11  -0.45   0.36    -0.14   0.56  -0.46    -0.04   0.16  -0.13
    11   1    -0.01   0.04  -0.04     0.05  -0.17   0.14    -0.09   0.32  -0.28
    12   1    -0.01  -0.08  -0.05    -0.03  -0.19  -0.10     0.08   0.60   0.34
    13   1     0.00   0.00  -0.00    -0.08   0.00  -0.02     0.47   0.02   0.13
                     31                     32                     33
                      A                      A                      A
 Frequencies --   3159.9527              3842.8651              3870.9977
 Red. masses --      1.1048                 1.0660                 1.0665
 Frc consts  --      6.4996                 9.2750                 9.4156
 IR Inten    --     28.8775                99.9616               121.5890
  Atom  AN      X      Y      Z        X      Y      Z        X      Y      Z
     1   8    -0.00  -0.00   0.00     0.00   0.00   0.00    -0.03  -0.05  -0.02
     2   6     0.00   0.00  -0.00     0.00   0.00  -0.00    -0.00  -0.00  -0.00
     3   8    -0.00  -0.00  -0.00     0.03  -0.01  -0.05     0.00   0.00  -0.00
     4   6    -0.00   0.01  -0.00     0.00   0.00   0.00     0.00   0.00  -0.00
     5   6    -0.07   0.04  -0.05    -0.00   0.00   0.00     0.00  -0.00  -0.00
     6   1     0.00  -0.00  -0.00    -0.01  -0.02  -0.01     0.42   0.84   0.34
     7   1    -0.00   0.00   0.00    -0.01   0.00   0.01     0.00   0.00  -0.00
     8   1     0.00   0.00   0.00    -0.54   0.13   0.83    -0.01   0.00   0.02
     9   1    -0.01  -0.03  -0.02     0.00   0.00   0.00    -0.00   0.00  -0.00
    10   1     0.02  -0.08   0.07     0.00  -0.00   0.00    -0.00   0.00  -0.00
    11   1     0.13  -0.52   0.43     0.00   0.00  -0.00     0.00  -0.00   0.00
    12   1    -0.01  -0.02  -0.02     0.00  -0.00  -0.00     0.00   0.00   0.00
    13   1     0.68   0.05   0.19    -0.00  -0.00  -0.00    -0.00  -0.00   0.00

 -------------------
 - Thermochemistry -
 -------------------
 Temperature   298.150 Kelvin.  Pressure   1.00000 Atm.
 Atom     1 has atomic number  8 and mass  15.99491
 Atom     2 has atomic number  6 and mass  12.00000
 Atom     3 has atomic number  8 and mass  15.99491
 Atom     4 has atomic number  6 and mass  12.00000
 Atom     5 has atomic number  6 and mass  12.00000
 Atom     6 has atomic number  1 and mass   1.00783
 Atom     7 has atomic number  1 and mass   1.00783
 Atom     8 has atomic number  1 and mass   1.00783
 Atom     9 has atomic number  1 and mass   1.00783
 Atom    10 has atomic number  1 and mass   1.00783
 Atom    11 has atomic number  1 and mass   1.00783
 Atom    12 has atomic number  1 and mass   1.00783
 Atom    13 has atomic number  1 and mass   1.00783
 Molecular mass:    76.05243 amu.
 Principal axes and moments of inertia in atomic units:
                           1         2         3
     Eigenvalues --   261.70883 449.95617 540.02342
           X            0.99956  -0.01054  -0.02774
           Y            0.01210   0.99831   0.05688
           Z            0.02709  -0.05719   0.99800
 This molecule is an asymmetric top.
 Rotational symmetry number  1.
 Rotational temperatures (Kelvin)      0.33096     0.19249     0.16039
 Rotational constants (GHZ):           6.89599     4.01093     3.34197
 Zero-point vibrational energy     300915.1 (Joules/Mol)
                                   71.92044 (Kcal/Mol)
 Warning -- explicit consideration of   7 degrees of freedom as
           vibrations may cause significant error
 Vibrational temperatures:    169.15   295.42   337.24   370.72   469.28
          (Kelvin)            607.67   770.90   970.48  1148.59  1243.07
                             1454.71  1538.95  1574.00  1666.19  1762.87
                             1797.42  1877.35  1971.02  1974.30  2017.48
                             2052.82  2087.50  2105.89  2121.52  2136.07
                             4389.54  4392.00  4418.34  4494.44  4523.60
                             4546.47  5529.03  5569.50
 
 Zero-point correction=                           0.114613 (Hartree/Particle)
 Thermal correction to Energy=                    0.121025
 Thermal correction to Enthalpy=                  0.121969
 Thermal correction to Gibbs Free Energy=         0.085266
 Sum of electronic and zero-point Energies=           -269.199569
 Sum of electronic and thermal Energies=              -269.193156
 Sum of electronic and thermal Enthalpies=            -269.192212
 Sum of electronic and thermal Free Energies=         -269.228916
 
                     E (Thermal)             CV                S
                      KCal/Mol        Cal/Mol-Kelvin    Cal/Mol-Kelvin
 Total                   75.944             22.037             77.249
 Electronic               0.000              0.000              0.000
 Translational            0.889              2.981             38.902
 Rotational               0.889              2.981             25.656
 Vibrational             74.167             16.076             12.692
 Vibration     1          0.608              1.935              3.140
 Vibration     2          0.640              1.832              2.085
 Vibration     3          0.654              1.788              1.845
 Vibration     4          0.667              1.750              1.678
 Vibration     5          0.710              1.623              1.279
 Vibration     6          0.785              1.422              0.884
 Vibration     7          0.891              1.171              0.574
                       Q            Log10(Q)             Ln(Q)
 Total Bot       0.603357D-39        -39.219426        -90.306065
 Total V=0       0.315231D+14         13.498628         31.081740
 Vib (Bot)       0.256392D-51        -51.591096       -118.792888
 Vib (Bot)    1  0.173921D+01          0.240352          0.553431
 Vib (Bot)    2  0.969114D+00         -0.013625         -0.031373
 Vib (Bot)    3  0.838662D+00         -0.076413         -0.175948
 Vib (Bot)    4  0.754693D+00         -0.122230         -0.281445
 Vib (Bot)    5  0.574195D+00         -0.240941         -0.554786
 Vib (Bot)    6  0.414995D+00         -0.381957         -0.879488
 Vib (Bot)    7  0.296868D+00         -0.527437         -1.214469
 Vib (V=0)       0.133955D+02          1.126959          2.594918
 Vib (V=0)    1  0.230966D+01          0.363547          0.837098
 Vib (V=0)    2  0.159050D+01          0.201533          0.464046
 Vib (V=0)    3  0.147640D+01          0.169203          0.389605
 Vib (V=0)    4  0.140530D+01          0.147768          0.340248
 Vib (V=0)    5  0.126138D+01          0.100846          0.232207
 Vib (V=0)    6  0.114979D+01          0.060617          0.139575
 Vib (V=0)    7  0.108149D+01          0.034022          0.078340
 Electronic      0.100000D+01          0.000000          0.000000
 Translational   0.260689D+08          7.416124         17.076255
 Rotational      0.902706D+05          4.955546         11.410567
 
                                                              g16_C3-w_9
                                                             IR Spectrum
 
     33                    333333                                                11111111 111  111 1                                 
     88                    111000                                                44444433 322  100 0    8 7   6    5   4  3 222  1   
     74                    642755                                                87652077 042  597 1    6 9   7    3   2  2 530  1   
     13                    044131                                                55417220 595  840 1    4 8   5    6   2  6 845  8   
 
     XX                    XXXXXX                                                XXXXXXXX XXX  XXX X    X X   X    X   X  X XXX  X   
     XX                    XX X X                                                XXX XXX  XXX  X              X    X   X  X   X      
     XX                    XX X X                                                X   XXX  XXX  X                   X      X   X      
     XX                     X X X                                                X   X X  XXX  X                          X   X      
     XX                       X X                                                X   X    XXX  X                          X   X      
     XX                         X                                                X   X    XXX  X                          X   X      
     XX                         X                                                X   X    XXX  X                          X   X      
     XX                         X                                                X   X    X X  X                          X   X      
     XX                         X                                                X        X X  X                          X   X      
     X                          X                                                X        X X  X                          X   X      
     X                                                                           X        X X  X                          X   X      
                                                                                 X        X X  X                          X   X      
                                                                                 X          X  X                          X   X      
                                                                                            X  X                          X   X      
                                                                                                                          X   X      
                                                                                                                          X          
                                                                                                                          X          
                                                                                                                          X          
                                                                                                                          X          
                                                                                                                          X          
 
 ***** Axes restored to original set *****
 -------------------------------------------------------------------
 Center     Atomic                   Forces (Hartrees/Bohr)
 Number     Number              X              Y              Z
 -------------------------------------------------------------------
      1        8          -0.000012480    0.000008749   -0.000021204
      2        6           0.000009595   -0.000001476   -0.000003213
      3        8          -0.000007576   -0.000030361    0.000004426
      4        6           0.000002387    0.000013625    0.000001931
      5        6           0.000002383   -0.000007043    0.000005464
      6        1           0.000006503    0.000016610   -0.000037363
      7        1          -0.000006925    0.000013602    0.000004778
      8        1          -0.000001394   -0.000028104    0.000008773
      9        1           0.000007226    0.000027399   -0.000006214
     10        1           0.000000580    0.000022498    0.000024983
     11        1           0.000000843   -0.000017427   -0.000013961
     12        1          -0.000006055   -0.000018879    0.000018884
     13        1           0.000004911    0.000000807    0.000012715
 -------------------------------------------------------------------
 Cartesian Forces:  Max     0.000037363 RMS     0.000014599
 Force constants in Cartesian coordinates: 
                1             2             3             4             5 
      1  0.282164D+00
      2 -0.136290D+00  0.592265D+00
      3 -0.226239D+00  0.519733D-01  0.299274D+00
      4 -0.871712D-01 -0.465547D-01  0.257209D-01  0.571538D+00
      5 -0.112184D-01 -0.297313D+00  0.705874D-01 -0.273629D-01  0.595867D+00
      6  0.198200D-01  0.104871D+00 -0.121462D+00  0.244110D-01 -0.125900D-01
      7  0.244365D-02  0.158124D-01  0.409585D-02 -0.147938D+00  0.616286D-01
      8  0.336999D-01 -0.592814D-01 -0.380398D-01  0.740984D-01 -0.130142D+00
      9  0.141856D-02 -0.155268D-01  0.938681D-02  0.864845D-01 -0.945153D-01
     10 -0.102912D-02 -0.771052D-02  0.116086D-02 -0.191883D+00 -0.298845D-01
     11 -0.392689D-01 -0.330989D-01  0.115802D-01 -0.279402D-01 -0.830349D-01
     12  0.138781D-01  0.106924D-01  0.481702D-03 -0.326385D-02  0.264322D-02
     13  0.100212D-02  0.221540D-02 -0.682327D-03 -0.256745D-01  0.288454D-02
     14  0.146504D-03  0.641244D-03 -0.386143D-03 -0.373709D-02  0.201224D-02
     15  0.467522D-03  0.150039D-02  0.129295D-03 -0.558309D-02 -0.290174D-02
     16 -0.197792D+00  0.177767D+00  0.190753D+00  0.832329D-03 -0.339319D-02
     17  0.144115D+00 -0.181399D+00 -0.130854D+00  0.245763D-01 -0.236026D-01
     18  0.194560D+00 -0.168661D+00 -0.191069D+00 -0.756591D-02  0.945245D-02
     19  0.786864D-02  0.118561D-02  0.437733D-02 -0.128473D+00  0.147414D-01
     20  0.155767D-01 -0.256264D-01  0.356354D-01  0.173898D-01 -0.525291D-01
     21 -0.371349D-02  0.133464D-01 -0.306800D-02 -0.107491D+00  0.257183D-01
     22 -0.577230D-03  0.370112D-03 -0.641413D-03  0.108649D-01 -0.309828D-03
     23 -0.141107D-02  0.300046D-02  0.715417D-03 -0.107380D-01 -0.351472D-02
     24 -0.107926D-02  0.219371D-02  0.327360D-02 -0.141525D-01 -0.103786D-02
     25  0.155832D-02  0.322709D-03 -0.133181D-02 -0.688945D-02  0.199024D-01
     26  0.154396D-03  0.114070D-02  0.141101D-04 -0.464807D-02  0.234921D-02
     27 -0.347247D-03  0.466880D-03  0.705688D-03 -0.495877D-03 -0.328762D-02
     28 -0.769548D-02 -0.608720D-02  0.240952D-02  0.264498D-02 -0.290436D-01
     29 -0.315722D-02 -0.137915D-02  0.461394D-03  0.475780D-02 -0.828046D-02
     30  0.109328D-02  0.733621D-03  0.130696D-02 -0.356919D-03  0.405281D-02
     31 -0.678728D-03 -0.927109D-03  0.238254D-04  0.771457D-03  0.139313D-02
     32 -0.144307D-02  0.501773D-03 -0.120241D-02 -0.121082D-02 -0.107578D-02
     33  0.304488D-03 -0.104124D-02  0.536672D-03  0.120093D-02  0.806922D-03
     34 -0.869447D-04  0.196786D-03  0.132575D-03  0.525814D-03 -0.803212D-03
     35 -0.312086D-03 -0.874620D-05  0.448086D-04  0.762624D-03 -0.229631D-03
     36 -0.424592D-03 -0.224297D-03  0.134333D-03  0.218494D-02 -0.363722D-03
     37 -0.592749D-05 -0.301106D-03  0.220897D-03  0.851581D-03  0.146556D-02
     38 -0.591914D-03  0.557425D-03 -0.529251D-03  0.606857D-03 -0.506392D-03
     39  0.261721D-03 -0.324229D-03  0.369143D-03 -0.109275D-02  0.143518D-02
                6             7             8             9            10 
      6  0.693770D+00
      7  0.507264D-01  0.324907D+00
      8 -0.732714D-01 -0.142958D+00  0.215002D+00
      9 -0.217941D+00  0.111021D+00  0.104334D+00  0.628279D+00
     10  0.551116D-02 -0.216475D-01  0.429223D-02  0.143972D-01  0.493477D+00
     11  0.328225D-02  0.285009D-01  0.169716D-02 -0.134041D-01 -0.231618D-01
     12 -0.899219D-01  0.370562D-01 -0.229358D-02 -0.118776D-01 -0.224428D-01
     13 -0.312745D-01  0.225387D-02 -0.132615D-02 -0.113121D-02 -0.121882D+00
     14 -0.904418D-02 -0.464461D-03 -0.758231D-04  0.207428D-03  0.807146D-02
     15  0.745392D-02  0.557040D-03 -0.667820D-03 -0.771203D-03 -0.589586D-01
     16 -0.218790D-02  0.245780D-02 -0.301669D-02 -0.100939D-02 -0.883918D-04
     17 -0.245220D-01  0.542210D-03 -0.835582D-02  0.288775D-03 -0.971525D-03
     18  0.344065D-02  0.151026D-03  0.812208D-03  0.194993D-02  0.458455D-03
     19 -0.116656D+00  0.984526D-02  0.135797D-02  0.207696D-01 -0.159115D-01
     20  0.292325D-01 -0.716319D-02  0.175792D-03 -0.251610D-01 -0.479152D-02
     21 -0.226456D+00 -0.819714D-02 -0.590687D-02 -0.323877D-01  0.314672D-02
     22  0.221474D-01 -0.163908D+00  0.337857D-01 -0.235643D+00  0.915020D-04
     23 -0.269686D-01  0.445382D-01 -0.224917D-01  0.422562D-01  0.652514D-03
     24 -0.342917D-01 -0.196995D+00  0.140626D-01 -0.380610D+00 -0.122405D-02
     25  0.223482D-01 -0.954303D-02 -0.409749D-03  0.446161D-02 -0.856432D-01
     26  0.782716D-02 -0.179884D-02  0.134736D-02  0.592690D-03  0.569886D-01
     27 -0.461420D-02  0.151707D-02 -0.168444D-05  0.868013D-03  0.745772D-01
     28  0.876119D-02  0.176131D-02  0.426611D-03 -0.118922D-02 -0.486550D-01
     29  0.800092D-03  0.328631D-03  0.153887D-02 -0.687756D-04 -0.655301D-02
     30 -0.353240D-02 -0.368920D-03 -0.609096D-04  0.443355D-03  0.179664D-02
     31  0.585049D-03 -0.173009D-03 -0.211225D-03  0.652490D-04  0.621216D-03
     32  0.714846D-03  0.342723D-03  0.770903D-04 -0.148239D-03  0.104144D-02
     33  0.549196D-03 -0.198614D-03  0.322559D-05  0.163964D-03  0.147744D-02
     34 -0.352198D-04 -0.330293D-03  0.389805D-03  0.190028D-03  0.764821D-02
     35 -0.914685D-03  0.498856D-03  0.202182D-03  0.467736D-03 -0.296046D-02
     36 -0.690339D-03  0.490734D-03  0.752957D-03  0.164774D-02  0.904991D-02
     37 -0.415690D-02 -0.128746D-03 -0.129248D-03  0.164613D-03 -0.150981D-01
     38  0.582939D-03  0.191487D-03  0.306008D-03  0.677231D-03  0.498712D-02
     39 -0.630418D-02  0.144023D-03  0.277052D-03  0.848793D-03 -0.289501D-01
               11            12            13            14            15 
     11  0.619122D+00
     12  0.116727D-01  0.555594D+00
     13  0.848914D-02 -0.619331D-01  0.559778D+00
     14 -0.850275D-01  0.131971D-01  0.897701D-02  0.583652D+00
     15  0.139439D-01 -0.176155D+00 -0.407762D-01  0.621507D-02  0.520253D+00
     16 -0.228578D-02  0.166570D-03  0.593375D-04 -0.710585D-05 -0.111242D-03
     17  0.990725D-03 -0.115722D-02 -0.306781D-03  0.217616D-04 -0.590618D-03
     18  0.188090D-02  0.976124D-03  0.119446D-03 -0.110206D-03 -0.297033D-03
     19  0.310198D-02 -0.268556D-01 -0.482692D-02 -0.212131D-02  0.312444D-02
     20  0.390325D-02 -0.627957D-02 -0.153012D-02  0.445080D-03  0.669165D-03
     21  0.386343D-05  0.496715D-02  0.103131D-02  0.284649D-03  0.824048D-03
     22 -0.421871D-03  0.251252D-02  0.903296D-03  0.236665D-02  0.976656D-03
     23  0.611040D-04  0.501621D-03  0.120078D-02 -0.632589D-04  0.390503D-03
     24  0.208472D-02  0.163069D-02  0.205790D-05  0.170223D-03  0.773866D-03
     25  0.535127D-01  0.737924D-01  0.657756D-02 -0.119567D-01 -0.158743D-01
     26 -0.133315D+00 -0.111778D+00 -0.192657D-02  0.265944D-02  0.424844D-02
     27 -0.110386D+00 -0.193193D+00  0.941053D-02 -0.147625D-01 -0.189664D-01
     28 -0.211285D-02  0.160010D-02 -0.211239D-03  0.186769D-01 -0.594988D-02
     29 -0.293816D+00  0.789801D-01 -0.450630D-03 -0.263832D-03 -0.513067D-03
     30  0.767353D-01 -0.717324D-01  0.814844D-03  0.256481D-01 -0.846227D-02
     31  0.186737D-01 -0.539054D-02 -0.464547D-01 -0.769236D-02  0.393833D-02
     32 -0.598015D-03  0.376014D-03 -0.648866D-02 -0.295218D+00  0.836133D-01
     33  0.261767D-01 -0.800333D-02  0.328676D-02  0.827012D-01 -0.759631D-01
     34 -0.129093D-01 -0.140064D-01 -0.737140D-01  0.515253D-01  0.626995D-01
     35  0.313628D-02  0.440339D-02  0.521965D-01 -0.146990D+00 -0.119918D+00
     36 -0.157259D-01 -0.184561D-01  0.632253D-01 -0.118643D+00 -0.192107D+00
     37 -0.417765D-02  0.488640D-02 -0.297811D+00 -0.637848D-01  0.554899D-01
     38 -0.204288D-04 -0.958079D-03 -0.639345D-01 -0.617944D-01  0.140102D-01
     39 -0.784501D-02  0.569025D-02  0.579071D-01  0.145222D-01 -0.567112D-01
               16            17            18            19            20 
     16  0.194884D+00
     17 -0.168334D+00  0.210714D+00
     18 -0.188278D+00  0.154907D+00  0.186396D+00
     19  0.522704D-03  0.108964D-03  0.121861D-04  0.130356D+00
     20 -0.100000D-02  0.694680D-03  0.619417D-03 -0.205168D-01  0.724435D-01
     21  0.180006D-03  0.130139D-03 -0.833553D-03  0.113289D+00 -0.310773D-01
     22 -0.180666D-04  0.260187D-03  0.101711D-03 -0.166677D-03  0.198165D-02
     23  0.327523D-03  0.127706D-03  0.439629D-03  0.171039D-02 -0.252250D-03
     24 -0.239438D-04  0.583565D-03  0.690910D-04  0.336102D-02 -0.330773D-02
     25 -0.530783D-03 -0.100292D-02  0.273966D-03  0.812393D-03  0.694507D-04
     26 -0.392401D-03 -0.105687D-03  0.131728D-03  0.525527D-03  0.259984D-03
     27  0.597042D-03  0.737892D-03 -0.318004D-03  0.183744D-03  0.557881D-03
     28 -0.228189D-03  0.109776D-02  0.452754D-03  0.742501D-03  0.392196D-03
     29  0.125873D-03  0.931569D-03  0.341650D-03 -0.396960D-03  0.501476D-03
     30 -0.397222D-04  0.310846D-03 -0.123421D-03  0.135424D-03 -0.455703D-03
     31 -0.245160D-03 -0.312495D-03 -0.359922D-03  0.245907D-03 -0.309158D-03
     32  0.746075D-04 -0.144292D-03  0.359573D-04  0.277654D-03  0.727474D-05
     33 -0.216395D-03 -0.180621D-03 -0.274081D-03  0.414531D-04 -0.137958D-03
     34  0.993921D-04  0.606062D-04 -0.108988D-04  0.180409D-03  0.208021D-03
     35  0.586552D-04  0.779449D-04  0.992050D-04 -0.180055D-03 -0.470576D-04
     36  0.949870D-04  0.212329D-03  0.166116D-04 -0.151205D-03  0.492991D-04
     37  0.465825D-04  0.166106D-03  0.844258D-04 -0.119628D-02 -0.307039D-03
     38  0.745393D-04  0.482717D-04  0.515993D-04  0.205598D-03  0.237517D-04
     39  0.744588D-04  0.134630D-03  0.668792D-04 -0.163119D-02 -0.344482D-03
               21            22            23            24            25 
     21  0.257985D+00
     22  0.240661D-02  0.153895D+00
     23 -0.236150D-02 -0.354347D-01  0.235959D-01
     24 -0.177146D-02  0.211041D+00 -0.148254D-01  0.410414D+00
     25 -0.535549D-03 -0.142218D-04 -0.337533D-04 -0.964641D-03  0.940580D-01
     26 -0.687867D-04 -0.106691D-03 -0.952387D-04  0.653761D-05 -0.595969D-01
     27  0.490423D-03 -0.586412D-03 -0.972034D-04  0.462897D-03 -0.778813D-01
     28 -0.510555D-03 -0.158719D-03 -0.208363D-03  0.130577D-03  0.113464D-03
     29 -0.127644D-03  0.344512D-04 -0.562514D-04 -0.629152D-04 -0.150020D-02
     30  0.134803D-03 -0.141131D-03  0.111426D-03  0.347975D-04 -0.173476D-02
     31  0.106317D-03 -0.688461D-04  0.225450D-03 -0.207191D-04  0.499860D-03
     32 -0.208576D-04 -0.862064D-04 -0.193386D-03  0.111099D-03  0.287038D-03
     33 -0.283688D-05  0.209096D-04 -0.249928D-04 -0.755391D-04  0.786924D-03
     34  0.146706D-03 -0.152563D-02 -0.834000D-03  0.116448D-03 -0.186103D-02
     35  0.558739D-04 -0.160457D-02  0.717224D-05  0.946270D-05  0.806210D-03
     36  0.631241D-04 -0.168693D-02 -0.231833D-03  0.851207D-04 -0.389368D-02
     37  0.141808D-03  0.682301D-03  0.505222D-05 -0.190770D-03  0.862138D-03
     38  0.236883D-04 -0.834909D-03 -0.125523D-03  0.120542D-04 -0.400239D-03
     39  0.550898D-04 -0.507830D-03  0.947358D-04  0.436231D-05  0.552955D-03
               26            27            28            29            30 
     26  0.137534D+00
     27  0.120028D+00  0.209112D+00
     28  0.113063D-01 -0.429285D-02  0.522612D-01
     29 -0.137767D-01  0.555026D-02  0.616414D-02  0.312476D+00
     30 -0.212926D-01  0.741079D-02  0.125562D-02 -0.860833D-01  0.767007D-01
     31 -0.563559D-03  0.494494D-03 -0.171136D-02  0.175936D-03 -0.350849D-02
     32  0.637198D-03  0.255943D-03 -0.312566D-04  0.114518D-02  0.750738D-03
     33 -0.850758D-04  0.765751D-03 -0.381941D-02  0.339241D-03 -0.400145D-02
     34  0.317352D-03 -0.324062D-02  0.684875D-03  0.125275D-03  0.789167D-03
     35  0.125843D-02  0.895036D-03 -0.719835D-03  0.652238D-03  0.308604D-04
     36  0.714778D-03 -0.393075D-02  0.480761D-03  0.238996D-03  0.852768D-03
     37 -0.259185D-03  0.642841D-04  0.451699D-03  0.345904D-03  0.264962D-03
     38  0.106582D-03  0.426828D-04  0.139169D-03  0.326949D-03 -0.481068D-03
     39 -0.338852D-03  0.120621D-02  0.671381D-03  0.144022D-03  0.967837D-03
               31            32            33            34            35 
     31  0.458303D-01
     32  0.760717D-02  0.313321D+00
     33 -0.139076D-03 -0.921624D-01  0.804390D-01
     34 -0.202822D-03 -0.150815D-02 -0.194178D-02  0.759822D-01
     35  0.979419D-02 -0.139510D-01 -0.216641D-01 -0.558108D-01  0.150987D+00
     36 -0.434657D-02  0.684038D-02  0.859663D-02 -0.655700D-01  0.129637D+00
     37  0.156590D-02  0.113752D-02 -0.803624D-03 -0.740016D-02 -0.252928D-02
     38 -0.278537D-01 -0.450952D-02  0.526910D-02  0.190423D-01  0.490437D-02
     39  0.855205D-02  0.835560D-03 -0.273087D-02  0.207305D-01  0.685346D-02
               36            37            38            39 
     36  0.208007D+00
     37  0.546327D-03  0.317180D+00
     38 -0.325687D-02  0.683682D-01  0.606829D-01
     39 -0.421821D-02 -0.567123D-01 -0.154443D-01  0.607559D-01
 FormGI is forming the generalized inverse of G from B-inverse, IUseBI=4.
 Leave Link  716 at Tue Oct 21 19:57:03 2025, MaxMem=  4294967296 cpu:               0.4 elap:               0.1
 (Enter /lrz/sys/applications/gaussian/g16.C.01/x86_64_legacy/exe/l103.exe)

 GradGradGradGradGradGradGradGradGradGradGradGradGradGradGradGradGradGrad
 Berny optimization.
 Red2BG is reusing G-inverse.
 Internal  Forces:  Max     0.000020155 RMS     0.000006363
 Search for a local minimum.
 Step number   1 out of a maximum of    2
 All quantities printed in internal units (Hartrees-Bohrs-Radians)
 Second derivative matrix not updated -- analytic derivatives used.
 ITU=  0
     Eigenvalues ---    0.00142   0.00247   0.00376   0.00443   0.03486
     Eigenvalues ---    0.03767   0.04424   0.04464   0.06194   0.06946
     Eigenvalues ---    0.07929   0.10209   0.10261   0.11912   0.13781
     Eigenvalues ---    0.15505   0.16346   0.16690   0.19714   0.22541
     Eigenvalues ---    0.24133   0.30139   0.32585   0.32870   0.33879
     Eigenvalues ---    0.34079   0.34290   0.34657   0.34801   0.43507
     Eigenvalues ---    0.52523   0.53257   0.53959
 Angle between quadratic step and forces=  74.77 degrees.
 Linear search not attempted -- first point.
 Iteration  1 RMS(Cart)=  0.00010450 RMS(Int)=  0.00000002
 Iteration  2 RMS(Cart)=  0.00000001 RMS(Int)=  0.00000000
 ITry= 1 IFail=0 DXMaxC= 4.50D-04 DCOld= 1.00D+10 DXMaxT= 3.00D-01 DXLimC= 3.00D+00 Rises=F
 Variable       Old X    -DE/DX   Delta X   Delta X   Delta X     New X
                                 (Linear)    (Quad)   (Total)
    R1        2.66840  -0.00002   0.00000  -0.00002  -0.00002   2.66838
    R2        1.82438  -0.00000   0.00000  -0.00000  -0.00000   1.82438
    R3        2.64326  -0.00001   0.00000  -0.00002  -0.00002   2.64324
    R4        2.88504   0.00002   0.00000   0.00005   0.00005   2.88509
    R5        2.08799  -0.00000   0.00000  -0.00000  -0.00000   2.08799
    R6        1.82692   0.00000   0.00000   0.00000   0.00000   1.82692
    R7        2.87894   0.00001   0.00000   0.00003   0.00003   2.87897
    R8        2.08380   0.00000   0.00000   0.00001   0.00001   2.08381
    R9        2.08131   0.00000   0.00000   0.00001   0.00001   2.08132
   R10        2.07887   0.00000   0.00000   0.00001   0.00001   2.07888
   R11        2.08252   0.00001   0.00000   0.00002   0.00002   2.08254
   R12        2.07777   0.00001   0.00000   0.00002   0.00002   2.07779
    A1        1.89020  -0.00001   0.00000  -0.00008  -0.00008   1.89012
    A2        1.87395  -0.00002   0.00000  -0.00007  -0.00007   1.87388
    A3        1.95204   0.00001   0.00000   0.00005   0.00005   1.95209
    A4        1.91939  -0.00001   0.00000  -0.00006  -0.00006   1.91933
    A5        1.97339   0.00001   0.00000   0.00001   0.00001   1.97340
    A6        1.83577  -0.00000   0.00000  -0.00001  -0.00001   1.83575
    A7        1.90548   0.00000   0.00000   0.00007   0.00007   1.90556
    A8        1.88624  -0.00000   0.00000  -0.00002  -0.00002   1.88622
    A9        1.99334   0.00000   0.00000  -0.00001  -0.00001   1.99333
   A10        1.87939   0.00000   0.00000   0.00003   0.00003   1.87942
   A11        1.87739   0.00000   0.00000   0.00002   0.00002   1.87740
   A12        1.92073  -0.00000   0.00000  -0.00001  -0.00001   1.92072
   A13        1.92924  -0.00000   0.00000  -0.00003  -0.00003   1.92921
   A14        1.85805  -0.00000   0.00000   0.00000   0.00000   1.85805
   A15        1.94061  -0.00000   0.00000  -0.00002  -0.00002   1.94059
   A16        1.94936  -0.00000   0.00000  -0.00001  -0.00001   1.94935
   A17        1.93251   0.00001   0.00000   0.00003   0.00003   1.93254
   A18        1.88416   0.00000   0.00000   0.00001   0.00001   1.88417
   A19        1.88416  -0.00000   0.00000  -0.00000  -0.00000   1.88415
   A20        1.87012  -0.00000   0.00000  -0.00002  -0.00002   1.87011
    D1       -2.96917  -0.00001   0.00000  -0.00036  -0.00036  -2.96953
    D2       -0.79470  -0.00000   0.00000  -0.00036  -0.00036  -0.79506
    D3        1.32554   0.00001   0.00000  -0.00028  -0.00028   1.32527
    D4        1.16516   0.00001   0.00000   0.00028   0.00028   1.16544
    D5       -0.99634  -0.00000   0.00000   0.00026   0.00026  -0.99608
    D6       -3.07406  -0.00001   0.00000   0.00018   0.00018  -3.07388
    D7       -1.03313   0.00000   0.00000   0.00002   0.00002  -1.03311
    D8        1.10557   0.00000   0.00000   0.00002   0.00002   1.10559
    D9        3.10192   0.00000   0.00000   0.00004   0.00004   3.10196
   D10        1.08485  -0.00000   0.00000  -0.00003  -0.00003   1.08482
   D11       -3.05964  -0.00000   0.00000  -0.00003  -0.00003  -3.05966
   D12       -1.06329  -0.00000   0.00000  -0.00000  -0.00000  -1.06329
   D13        3.12181  -0.00000   0.00000   0.00001   0.00001   3.12182
   D14       -1.02268  -0.00000   0.00000   0.00001   0.00001  -1.02267
   D15        0.97367   0.00000   0.00000   0.00003   0.00003   0.97371
   D16        1.00655   0.00000   0.00000  -0.00002  -0.00002   1.00653
   D17       -1.09942   0.00000   0.00000  -0.00002  -0.00002  -1.09943
   D18        3.10112   0.00000   0.00000  -0.00002  -0.00002   3.10111
   D19       -1.10944  -0.00000   0.00000  -0.00005  -0.00005  -1.10949
   D20        3.06778  -0.00000   0.00000  -0.00004  -0.00004   3.06773
   D21        0.98513  -0.00000   0.00000  -0.00004  -0.00004   0.98509
   D22        3.12633   0.00000   0.00000  -0.00002  -0.00002   3.12630
   D23        1.02036   0.00000   0.00000  -0.00002  -0.00002   1.02034
   D24       -1.06229   0.00000   0.00000  -0.00002  -0.00002  -1.06231
         Item               Value     Threshold  Converged?
 Maximum Force            0.000020     0.000450     YES
 RMS     Force            0.000006     0.000300     YES
 Maximum Displacement     0.000450     0.001800     YES
 RMS     Displacement     0.000104     0.001200     YES
 Predicted change in Energy=-4.654162D-09
 Optimization completed.
    -- Stationary point found.
                           ----------------------------
                           !   Optimized Parameters   !
                           ! (Angstroms and Degrees)  !
 --------------------------                            --------------------------
 ! Name  Definition              Value          Derivative Info.                !
 --------------------------------------------------------------------------------
 ! R1    R(1,2)                  1.4121         -DE/DX =    0.0                 !
 ! R2    R(1,6)                  0.9654         -DE/DX =    0.0                 !
 ! R3    R(2,3)                  1.3988         -DE/DX =    0.0                 !
 ! R4    R(2,4)                  1.5267         -DE/DX =    0.0                 !
 ! R5    R(2,7)                  1.1049         -DE/DX =    0.0                 !
 ! R6    R(3,8)                  0.9668         -DE/DX =    0.0                 !
 ! R7    R(4,5)                  1.5235         -DE/DX =    0.0                 !
 ! R8    R(4,9)                  1.1027         -DE/DX =    0.0                 !
 ! R9    R(4,10)                 1.1014         -DE/DX =    0.0                 !
 ! R10   R(5,11)                 1.1001         -DE/DX =    0.0                 !
 ! R11   R(5,12)                 1.102          -DE/DX =    0.0                 !
 ! R12   R(5,13)                 1.0995         -DE/DX =    0.0                 !
 ! A1    A(2,1,6)              108.3004         -DE/DX =    0.0                 !
 ! A2    A(1,2,3)              107.3695         -DE/DX =    0.0                 !
 ! A3    A(1,2,4)              111.8439         -DE/DX =    0.0                 !
 ! A4    A(1,2,7)              109.9728         -DE/DX =    0.0                 !
 ! A5    A(3,2,4)              113.0672         -DE/DX =    0.0                 !
 ! A6    A(3,2,7)              105.1818         -DE/DX =    0.0                 !
 ! A7    A(4,2,7)              109.1762         -DE/DX =    0.0                 !
 ! A8    A(2,3,8)              108.0735         -DE/DX =    0.0                 !
 ! A9    A(2,4,5)              114.2102         -DE/DX =    0.0                 !
 ! A10   A(2,4,9)              107.6811         -DE/DX =    0.0                 !
 ! A11   A(2,4,10)             107.5663         -DE/DX =    0.0                 !
 ! A12   A(5,4,9)              110.0496         -DE/DX =    0.0                 !
 ! A13   A(5,4,10)             110.537          -DE/DX =    0.0                 !
 ! A14   A(9,4,10)             106.4582         -DE/DX =    0.0                 !
 ! A15   A(4,5,11)             111.189          -DE/DX =    0.0                 !
 ! A16   A(4,5,12)             111.6902         -DE/DX =    0.0                 !
 ! A17   A(4,5,13)             110.7244         -DE/DX =    0.0                 !
 ! A18   A(11,5,12)            107.9542         -DE/DX =    0.0                 !
 ! A19   A(11,5,13)            107.9541         -DE/DX =    0.0                 !
 ! A20   A(12,5,13)            107.1502         -DE/DX =    0.0                 !
 ! D1    D(6,1,2,3)           -170.121          -DE/DX =    0.0                 !
 ! D2    D(6,1,2,4)            -45.5329         -DE/DX =    0.0                 !
 ! D3    D(6,1,2,7)             75.9481         -DE/DX =    0.0                 !
 ! D4    D(1,2,3,8)             66.7585         -DE/DX =    0.0                 !
 ! D5    D(4,2,3,8)            -57.0861         -DE/DX =    0.0                 !
 ! D6    D(7,2,3,8)           -176.1305         -DE/DX =    0.0                 !
 ! D7    D(1,2,4,5)            -59.194          -DE/DX =    0.0                 !
 ! D8    D(1,2,4,9)             63.3444         -DE/DX =    0.0                 !
 ! D9    D(1,2,4,10)           177.7268         -DE/DX =    0.0                 !
 ! D10   D(3,2,4,5)             62.1573         -DE/DX =    0.0                 !
 ! D11   D(3,2,4,9)           -175.3042         -DE/DX =    0.0                 !
 ! D12   D(3,2,4,10)           -60.9219         -DE/DX =    0.0                 !
 ! D13   D(7,2,4,5)            178.8666         -DE/DX =    0.0                 !
 ! D14   D(7,2,4,9)            -58.595          -DE/DX =    0.0                 !
 ! D15   D(7,2,4,10)            55.7874         -DE/DX =    0.0                 !
 ! D16   D(2,4,5,11)            57.6712         -DE/DX =    0.0                 !
 ! D17   D(2,4,5,12)           -62.9919         -DE/DX =    0.0                 !
 ! D18   D(2,4,5,13)           177.6811         -DE/DX =    0.0                 !
 ! D19   D(9,4,5,11)           -63.5662         -DE/DX =    0.0                 !
 ! D20   D(9,4,5,12)           175.7707         -DE/DX =    0.0                 !
 ! D21   D(9,4,5,13)            56.4437         -DE/DX =    0.0                 !
 ! D22   D(10,4,5,11)          179.1253         -DE/DX =    0.0                 !
 ! D23   D(10,4,5,12)           58.4622         -DE/DX =    0.0                 !
 ! D24   D(10,4,5,13)          -60.8648         -DE/DX =    0.0                 !
 --------------------------------------------------------------------------------
 GradGradGradGradGradGradGradGradGradGradGradGradGradGradGradGradGradGrad

 Leave Link  103 at Tue Oct 21 19:57:03 2025, MaxMem=  4294967296 cpu:               0.5 elap:               0.1
 (Enter /lrz/sys/applications/gaussian/g16.C.01/x86_64_legacy/exe/l9999.exe)

 ----------------------------------------------------------------------

 Electric dipole moment (input orientation):
 (Debye = 10**-18 statcoulomb cm , SI units = C m)
                  (au)            (Debye)         (10**-30 SI)
   Tot        0.137039D+01      0.348318D+01      0.116186D+02
   x          0.128596D+01      0.326858D+01      0.109028D+02
   y         -0.194480D+00     -0.494318D+00     -0.164887D+01
   z         -0.431807D+00     -0.109754D+01     -0.366101D+01

 Dipole polarizability, Alpha (input orientation).
 (esu units = cm**3 , SI units = C**2 m**2 J**-1)
 Alpha(0;0):
               (au)            (10**-24 esu)      (10**-40 SI)
   iso        0.522257D+02      0.773904D+01      0.861085D+01
   aniso      0.514572D+01      0.762517D+00      0.848414D+00
   xx         0.507420D+02      0.751919D+01      0.836622D+01
   yx        -0.169841D+01     -0.251678D+00     -0.280029D+00
   yy         0.520595D+02      0.771443D+01      0.858346D+01
   zx         0.107240D+01      0.158914D+00      0.176816D+00
   zy         0.152189D+01      0.225521D+00      0.250926D+00
   zz         0.538754D+02      0.798352D+01      0.888286D+01

 ----------------------------------------------------------------------

 Dipole orientation:
     8         -0.84620717          2.63315574         -0.89974664
     6         -1.21443867         -0.00752905         -0.79222129
     8          0.21689145         -1.08366899         -2.73645120
     6         -0.57140499         -1.07599157          1.80938160
     6          2.14379043         -0.60334274          2.64162209
     1         -1.57723895          3.37495318          0.59814980
     1         -3.19771975         -0.47040803         -1.25269045
     1          1.98352989         -0.82430176         -2.34998296
     1         -1.89572042         -0.23794266          3.18273437
     1         -0.97771542         -3.11683944          1.76823892
     1          2.58057758          1.42902391          2.66165156
     1          3.50980142         -1.54112820          1.38008795
     1          2.46635646         -1.34666123          4.55487784

 Electric dipole moment (dipole orientation):
 (Debye = 10**-18 statcoulomb cm , SI units = C m)
                  (au)            (Debye)         (10**-30 SI)
   Tot        0.137039D+01      0.348318D+01      0.116186D+02
   x          0.000000D+00      0.000000D+00      0.000000D+00
   y          0.000000D+00      0.000000D+00      0.000000D+00
   z          0.137039D+01      0.348318D+01      0.116186D+02

 Dipole polarizability, Alpha (dipole orientation).
 (esu units = cm**3 , SI units = C**2 m**2 J**-1)
 Alpha(0;0):
               (au)            (10**-24 esu)      (10**-40 SI)
   iso        0.522257D+02      0.773904D+01      0.861085D+01
   aniso      0.514572D+01      0.762517D+00      0.848414D+00
   xx         0.543553D+02      0.805463D+01      0.896198D+01
   yx        -0.580093D+00     -0.859609D-01     -0.956444D-01
   yy         0.512877D+02      0.760006D+01      0.845621D+01
   zx        -0.445759D+00     -0.660546D-01     -0.734957D-01
   zy         0.220753D+01      0.327123D+00      0.363973D+00
   zz         0.510339D+02      0.756245D+01      0.841436D+01

 ----------------------------------------------------------------------
 Unable to Open any file for archive entry.
 1\1\GINC-CM4R13C06S02\Freq\RwB97XD\def2SVP\C3H8O2\GO29TIZ2\21-Oct-2025
 \0\\#P Geom=AllCheck Guess=TCheck SCRF=Check GenChk RwB97XD/def2SVP Fr
 eq\\g16_C3-w_9\\0,1\O,-0.735848937,-1.3498424742,-0.0724322237\C,-0.60
 53336407,-0.001659763,-0.4715267814\O,-1.262857321,0.7817965239,0.4826
 041212\C,0.8562419251,0.3941689542,-0.6662513237\C,1.7189264167,0.2308
 822422,0.5787688991\H,-0.1596016192,-1.8880363604,-0.6294990094\H,-1.1
 559568593,0.1678374304,-1.414353936\H,-0.7759548096,0.7122920687,1.314
 9079004\H,1.2617525859,-0.2166179586,-1.489932177\H,0.8741314061,1.438
 9169709,-1.0144187407\H,1.6963359038,-0.8062277311,0.9449538057\H,1.38
 15768422,0.8874761038,1.3970196734\H,2.765230707,0.4918081931,0.364103
 1921\\Version=EM64L-G16RevC.01\State=1-A\HF=-269.3141815\RMSD=2.385e-0
 9\RMSF=1.460e-05\ZeroPoint=0.1146125\Thermal=0.1210252\ETot=-269.19315
 63\HTot=-269.1922121\GTot=-269.2289159\Dipole=1.2859583,-0.1944796,-0.
 4318073\DipoleDeriv=-0.7561331,-0.1210574,-0.0472054,-0.0772998,-1.448
 0046,0.0839412,-0.093204,0.1986254,-0.6587784,1.087734,-0.0249291,-0.2
 280219,-0.0825147,1.6501634,0.082239,-0.224781,0.0619763,1.0718347,-0.
 8428278,0.0878611,0.2899894,0.0642006,-0.9098558,-0.2193358,0.3733617,
 -0.2982968,-0.9468626,-0.1402439,-0.0732454,0.0888614,-0.0614699,0.037
 6852,-0.0069698,-0.0088814,0.0075112,0.0814217,-0.0656374,-0.0214126,-
 0.0096823,-0.0258575,0.0640515,0.0111694,0.002639,0.0185915,0.0392821,
 0.3832576,0.0201677,0.0761553,0.0253098,0.4267707,0.0129499,0.1037273,
 -0.0016345,0.3356473,-0.1164,0.029727,-0.1462335,0.0204625,-0.0443949,
 0.0313757,-0.0968064,0.0554775,-0.1788735,0.3934505,0.0530596,-0.09321
 98,0.0685193,0.404902,0.0329349,-0.0635947,0.0004131,0.3615003,0.01255
 42,0.0316428,0.0421636,0.0496873,0.0033487,-0.1314764,0.0295566,-0.105
 0039,-0.1036687,0.0396813,0.0096965,-0.0393231,-0.0055846,-0.1499828,0
 .1070459,-0.0373244,0.0734753,0.02978,0.1042082,-0.011868,-0.0031125,0
 .0255605,-0.1256066,0.097041,-0.0312683,0.0684956,0.0181288,0.0570526,
 0.0734583,0.0672862,0.0523598,0.001437,-0.1138863,0.0247494,-0.0962545
 ,-0.1011325,-0.1566962,-0.0531006,0.0023425,-0.0533733,0.0894862,0.012
 9712,0.0218263,0.0166238,0.0517207\Polar=50.7419788,-1.6984071,52.0595
 481,1.072404,1.5218897,53.8754495\Quadrupole=-3.4196162,0.2719633,3.14
 76529,-0.4027407,0.4559186,2.2153757\PG=C01 [X(C3H8O2)]\NImag=0\\0.282
 16351,-0.13628989,0.59226502,-0.22623948,0.05197333,0.29927448,-0.0871
 7122,-0.04655469,0.02572095,0.57153835,-0.01121844,-0.29731336,0.07058
 741,-0.02736289,0.59586705,0.01981996,0.10487111,-0.12146172,0.0244109
 9,-0.01258999,0.69376955,0.00244365,0.01581241,0.00409585,-0.14793839,
 0.06162863,0.05072637,0.32490675,0.03369994,-0.05928139,-0.03803985,0.
 07409836,-0.13014151,-0.07327144,-0.14295758,0.21500176,0.00141856,-0.
 01552679,0.00938681,0.08648453,-0.09451535,-0.21794087,0.11102148,0.10
 433415,0.62827878,-0.00102912,-0.00771052,0.00116086,-0.19188298,-0.02
 988453,0.00551116,-0.02164751,0.00429223,0.01439717,0.49347723,-0.0392
 6887,-0.03309886,0.01158022,-0.02794022,-0.08303490,0.00328225,0.02850
 092,0.00169716,-0.01340406,-0.02316185,0.61912172,0.01387809,0.0106924
 2,0.00048170,-0.00326385,0.00264322,-0.08992190,0.03705617,-0.00229358
 ,-0.01187765,-0.02244276,0.01167267,0.55559373,0.00100212,0.00221540,-
 0.00068233,-0.02567448,0.00288454,-0.03127449,0.00225387,-0.00132615,-
 0.00113121,-0.12188233,0.00848914,-0.06193308,0.55977841,0.00014650,0.
 00064124,-0.00038614,-0.00373709,0.00201224,-0.00904418,-0.00046446,-0
 .00007582,0.00020743,0.00807146,-0.08502753,0.01319712,0.00897701,0.58
 365244,0.00046752,0.00150039,0.00012929,-0.00558309,-0.00290174,0.0074
 5392,0.00055704,-0.00066782,-0.00077120,-0.05895857,0.01394385,-0.1761
 5537,-0.04077624,0.00621507,0.52025293,-0.19779160,0.17776748,0.190753
 23,0.00083233,-0.00339319,-0.00218790,0.00245780,-0.00301669,-0.001009
 39,-0.00008839,-0.00228578,0.00016657,0.00005934,-0.00000711,-0.000111
 24,0.19488404,0.14411505,-0.18139871,-0.13085448,0.02457635,-0.0236026
 3,-0.02452204,0.00054221,-0.00835582,0.00028877,-0.00097152,0.00099072
 ,-0.00115722,-0.00030678,0.00002176,-0.00059062,-0.16833351,0.21071448
 ,0.19456045,-0.16866134,-0.19106897,-0.00756591,0.00945245,0.00344065,
 0.00015103,0.00081221,0.00194993,0.00045846,0.00188090,0.00097612,0.00
 011945,-0.00011021,-0.00029703,-0.18827770,0.15490680,0.18639578,0.007
 86864,0.00118561,0.00437733,-0.12847285,0.01474141,-0.11665584,0.00984
 526,0.00135797,0.02076958,-0.01591149,0.00310198,-0.02685562,-0.004826
 92,-0.00212131,0.00312444,0.00052270,0.00010896,0.00001219,0.13035640,
 0.01557665,-0.02562642,0.03563543,0.01738983,-0.05252912,0.02923255,-0
 .00716319,0.00017579,-0.02516103,-0.00479152,0.00390325,-0.00627957,-0
 .00153012,0.00044508,0.00066916,-0.00100000,0.00069468,0.00061942,-0.0
 2051678,0.07244355,-0.00371349,0.01334642,-0.00306800,-0.10749144,0.02
 571829,-0.22645604,-0.00819714,-0.00590687,-0.03238767,0.00314672,0.00
 000386,0.00496715,0.00103131,0.00028465,0.00082405,0.00018001,0.000130
 14,-0.00083355,0.11328869,-0.03107727,0.25798492,-0.00057723,0.0003701
 1,-0.00064141,0.01086485,-0.00030983,0.02214741,-0.16390765,0.03378572
 ,-0.23564300,0.00009150,-0.00042187,0.00251252,0.00090330,0.00236665,0
 .00097666,-0.00001807,0.00026019,0.00010171,-0.00016668,0.00198165,0.0
 0240661,0.15389509,-0.00141107,0.00300046,0.00071542,-0.01073804,-0.00
 351472,-0.02696861,0.04453821,-0.02249168,0.04225623,0.00065251,0.0000
 6110,0.00050162,0.00120078,-0.00006326,0.00039050,0.00032752,0.0001277
 1,0.00043963,0.00171039,-0.00025225,-0.00236150,-0.03543470,0.02359587
 ,-0.00107926,0.00219371,0.00327360,-0.01415252,-0.00103786,-0.03429166
 ,-0.19699509,0.01406256,-0.38060999,-0.00122405,0.00208472,0.00163069,
 0.00000206,0.00017022,0.00077387,-0.00002394,0.00058356,0.00006909,0.0
 0336102,-0.00330773,-0.00177146,0.21104089,-0.01482542,0.41041423,0.00
 155832,0.00032271,-0.00133181,-0.00688945,0.01990239,0.02234821,-0.009
 54303,-0.00040975,0.00446161,-0.08564319,0.05351265,0.07379243,0.00657
 756,-0.01195671,-0.01587434,-0.00053078,-0.00100292,0.00027397,0.00081
 239,0.00006945,-0.00053555,-0.00001422,-0.00003375,-0.00096464,0.09405
 797,0.00015440,0.00114070,0.00001411,-0.00464807,0.00234921,0.00782716
 ,-0.00179884,0.00134736,0.00059269,0.05698864,-0.13331481,-0.11177807,
 -0.00192657,0.00265944,0.00424844,-0.00039240,-0.00010569,0.00013173,0
 .00052553,0.00025998,-0.00006879,-0.00010669,-0.00009524,0.00000654,-0
 .05959687,0.13753354,-0.00034725,0.00046688,0.00070569,-0.00049588,-0.
 00328762,-0.00461420,0.00151707,-0.00000168,0.00086801,0.07457716,-0.1
 1038552,-0.19319283,0.00941053,-0.01476251,-0.01896642,0.00059704,0.00
 073789,-0.00031800,0.00018374,0.00055788,0.00049042,-0.00058641,-0.000
 09720,0.00046290,-0.07788132,0.12002797,0.20911244,-0.00769548,-0.0060
 8720,0.00240952,0.00264498,-0.02904357,0.00876119,0.00176131,0.0004266
 1,-0.00118922,-0.04865504,-0.00211285,0.00160010,-0.00021124,0.0186769
 3,-0.00594988,-0.00022819,0.00109776,0.00045275,0.00074250,0.00039220,
 -0.00051055,-0.00015872,-0.00020836,0.00013058,0.00011346,0.01130628,-
 0.00429285,0.05226119,-0.00315722,-0.00137915,0.00046139,0.00475780,-0
 .00828046,0.00080009,0.00032863,0.00153887,-0.00006878,-0.00655301,-0.
 29381569,0.07898007,-0.00045063,-0.00026383,-0.00051307,0.00012587,0.0
 0093157,0.00034165,-0.00039696,0.00050148,-0.00012764,0.00003445,-0.00
 005625,-0.00006292,-0.00150020,-0.01377671,0.00555026,0.00616414,0.312
 47582,0.00109328,0.00073362,0.00130696,-0.00035692,0.00405281,-0.00353
 240,-0.00036892,-0.00006091,0.00044336,0.00179664,0.07673527,-0.071732
 44,0.00081484,0.02564806,-0.00846227,-0.00003972,0.00031085,-0.0001234
 2,0.00013542,-0.00045570,0.00013480,-0.00014113,0.00011143,0.00003480,
 -0.00173476,-0.02129263,0.00741079,0.00125562,-0.08608332,0.07670066,-
 0.00067873,-0.00092711,0.00002383,0.00077146,0.00139313,0.00058505,-0.
 00017301,-0.00021123,0.00006525,0.00062122,0.01867374,-0.00539054,-0.0
 4645467,-0.00769236,0.00393833,-0.00024516,-0.00031249,-0.00035992,0.0
 0024591,-0.00030916,0.00010632,-0.00006885,0.00022545,-0.00002072,0.00
 049986,-0.00056356,0.00049449,-0.00171136,0.00017594,-0.00350849,0.045
 83025,-0.00144307,0.00050177,-0.00120241,-0.00121082,-0.00107578,0.000
 71485,0.00034272,0.00007709,-0.00014824,0.00104144,-0.00059802,0.00037
 601,-0.00648866,-0.29521775,0.08361335,0.00007461,-0.00014429,0.000035
 96,0.00027765,0.00000727,-0.00002086,-0.00008621,-0.00019339,0.0001111
 0,0.00028704,0.00063720,0.00025594,-0.00003126,0.00114518,0.00075074,0
 .00760717,0.31332123,0.00030449,-0.00104124,0.00053667,0.00120093,0.00
 080692,0.00054920,-0.00019861,0.00000323,0.00016396,0.00147744,0.02617
 674,-0.00800333,0.00328676,0.08270118,-0.07596311,-0.00021640,-0.00018
 062,-0.00027408,0.00004145,-0.00013796,-0.00000284,0.00002091,-0.00002
 499,-0.00007554,0.00078692,-0.00008508,0.00076575,-0.00381941,0.000339
 24,-0.00400145,-0.00013908,-0.09216238,0.08043900,-0.00008694,0.000196
 79,0.00013258,0.00052581,-0.00080321,-0.00003522,-0.00033029,0.0003898
 0,0.00019003,0.00764821,-0.01290933,-0.01400643,-0.07371398,0.05152530
 ,0.06269949,0.00009939,0.00006061,-0.00001090,0.00018041,0.00020802,0.
 00014671,-0.00152563,-0.00083400,0.00011645,-0.00186103,0.00031735,-0.
 00324062,0.00068487,0.00012527,0.00078917,-0.00020282,-0.00150815,-0.0
 0194178,0.07598216,-0.00031209,-0.00000875,0.00004481,0.00076262,-0.00
 022963,-0.00091468,0.00049886,0.00020218,0.00046774,-0.00296046,0.0031
 3628,0.00440339,0.05219653,-0.14698962,-0.11991778,0.00005866,0.000077
 94,0.00009921,-0.00018006,-0.00004706,0.00005587,-0.00160457,0.0000071
 7,0.00000946,0.00080621,0.00125843,0.00089504,-0.00071983,0.00065224,0
 .00003086,0.00979419,-0.01395100,-0.02166414,-0.05581078,0.15098744,-0
 .00042459,-0.00022430,0.00013433,0.00218494,-0.00036372,-0.00069034,0.
 00049073,0.00075296,0.00164774,0.00904991,-0.01572590,-0.01845614,0.06
 322531,-0.11864290,-0.19210744,0.00009499,0.00021233,0.00001661,-0.000
 15120,0.00004930,0.00006312,-0.00168693,-0.00023183,0.00008512,-0.0038
 9368,0.00071478,-0.00393075,0.00048076,0.00023900,0.00085277,-0.004346
 57,0.00684038,0.00859663,-0.06556999,0.12963678,0.20800656,-0.00000593
 ,-0.00030111,0.00022090,0.00085158,0.00146556,-0.00415690,-0.00012875,
 -0.00012925,0.00016461,-0.01509809,-0.00417765,0.00488640,-0.29781097,
 -0.06378482,0.05548988,0.00004658,0.00016611,0.00008443,-0.00119628,-0
 .00030704,0.00014181,0.00068230,0.00000505,-0.00019077,0.00086214,-0.0
 0025919,0.00006428,0.00045170,0.00034590,0.00026496,0.00156590,0.00113
 752,-0.00080362,-0.00740016,-0.00252928,0.00054633,0.31717997,-0.00059
 191,0.00055743,-0.00052925,0.00060686,-0.00050639,0.00058294,0.0001914
 9,0.00030601,0.00067723,0.00498712,-0.00002043,-0.00095808,-0.06393450
 ,-0.06179439,0.01401025,0.00007454,0.00004827,0.00005160,0.00020560,0.
 00002375,0.00002369,-0.00083491,-0.00012552,0.00001205,-0.00040024,0.0
 0010658,0.00004268,0.00013917,0.00032695,-0.00048107,-0.02785371,-0.00
 450952,0.00526910,0.01904233,0.00490437,-0.00325687,0.06836818,0.06068
 289,0.00026172,-0.00032423,0.00036914,-0.00109275,0.00143518,-0.006304
 18,0.00014402,0.00027705,0.00084879,-0.02895014,-0.00784501,0.00569025
 ,0.05790709,0.01452222,-0.05671122,0.00007446,0.00013463,0.00006688,-0
 .00163119,-0.00034448,0.00005509,-0.00050783,0.00009474,0.00000436,0.0
 0055295,-0.00033885,0.00120621,0.00067138,0.00014402,0.00096784,0.0085
 5205,0.00083556,-0.00273087,0.02073054,0.00685346,-0.00421821,-0.05671
 230,-0.01544428,0.06075593\\0.00001248,-0.00000875,0.00002120,-0.00000
 959,0.00000148,0.00000321,0.00000758,0.00003036,-0.00000443,-0.0000023
 9,-0.00001362,-0.00000193,-0.00000238,0.00000704,-0.00000546,-0.000006
 50,-0.00001661,0.00003736,0.00000692,-0.00001360,-0.00000478,0.0000013
 9,0.00002810,-0.00000877,-0.00000723,-0.00002740,0.00000621,-0.0000005
 8,-0.00002250,-0.00002498,-0.00000084,0.00001743,0.00001396,0.00000606
 ,0.00001888,-0.00001888,-0.00000491,-0.00000081,-0.00001271\\\@
 The archive entry for this job was punched.


 THE WHOLE OF SCIENCE IS NOTHING MORE THAN A REFINEMENT OF EVERYDAY THINKING.
                                                              -- A. EINSTEIN
 Job cpu time:       0 days  0 hours  9 minutes 49.8 seconds.
 Elapsed time:       0 days  0 hours  1 minutes 14.3 seconds.
 File lengths (MBytes):  RWF=   1312 Int=      0 D2E=      0 Chk=     12 Scr=     32
 Normal termination of Gaussian 16 at Tue Oct 21 19:57:03 2025.
