 Entering Gaussian System, Link 0=g16
 Input=../../g16_C3-w_1.com
 Output=../../g16_C3-w_1.log
 Initial command:
 /lrz/sys/applications/gaussian/g16.C.01/x86_64_legacy/exe/l1.exe "/dss/lxclscratch/0D/go29tiz2/Gau-208992.inp" -scrdir="/dss/lxclscratch/0D/go29tiz2/"
 Entering Link 1 = /lrz/sys/applications/gaussian/g16.C.01/x86_64_legacy/exe/l1.exe PID=    208993.
  
 Copyright (c) 1988-2019, Gaussian, Inc.  All Rights Reserved.
  
 This is part of the Gaussian(R) 16 program.  It is based on
 the Gaussian(R) 09 system (copyright 2009, Gaussian, Inc.),
 the Gaussian(R) 03 system (copyright 2003, Gaussian, Inc.),
 the Gaussian(R) 98 system (copyright 1998, Gaussian, Inc.),
 the Gaussian(R) 94 system (copyright 1995, Gaussian, Inc.),
 the Gaussian 92(TM) system (copyright 1992, Gaussian, Inc.),
 the Gaussian 90(TM) system (copyright 1990, Gaussian, Inc.),
 the Gaussian 88(TM) system (copyright 1988, Gaussian, Inc.),
 the Gaussian 86(TM) system (copyright 1986, Carnegie Mellon
 University), and the Gaussian 82(TM) system (copyright 1983,
 Carnegie Mellon University). Gaussian is a federally registered
 trademark of Gaussian, Inc.
  
 This software contains proprietary and confidential information,
 including trade secrets, belonging to Gaussian, Inc.
  
 This software is provided under written license and may be
 used, copied, transmitted, or stored only in accord with that
 written license.
  
 The following legend is applicable only to US Government
 contracts under FAR:
  
                    RESTRICTED RIGHTS LEGEND
  
 Use, reproduction and disclosure by the US Government is
 subject to restrictions as set forth in subparagraphs (a)
 and (c) of the Commercial Computer Software - Restricted
 Rights clause in FAR 52.227-19.
  
 Gaussian, Inc.
 340 Quinnipiac St., Bldg. 40, Wallingford CT 06492
  
  
 ---------------------------------------------------------------
 Warning -- This program may not be used in any manner that
 competes with the business of Gaussian, Inc. or will provide
 assistance to any competitor of Gaussian, Inc.  The licensee
 of this program is prohibited from giving any competitor of
 Gaussian, Inc. access to this program.  By using this program,
 the user acknowledges that Gaussian, Inc. is engaged in the
 business of creating and licensing software in the field of
 computational chemistry and represents and warrants to the
 licensee that it is not a competitor of Gaussian, Inc. and that
 it will not use this program in any manner prohibited above.
 ---------------------------------------------------------------
  

 Cite this work as:
 Gaussian 16, Revision C.01,
 M. J. Frisch, G. W. Trucks, H. B. Schlegel, G. E. Scuseria, 
 M. A. Robb, J. R. Cheeseman, G. Scalmani, V. Barone, 
 G. A. Petersson, H. Nakatsuji, X. Li, M. Caricato, A. V. Marenich, 
 J. Bloino, B. G. Janesko, R. Gomperts, B. Mennucci, H. P. Hratchian, 
 J. V. Ortiz, A. F. Izmaylov, J. L. Sonnenberg, D. Williams-Young, 
 F. Ding, F. Lipparini, F. Egidi, J. Goings, B. Peng, A. Petrone, 
 T. Henderson, D. Ranasinghe, V. G. Zakrzewski, J. Gao, N. Rega, 
 G. Zheng, W. Liang, M. Hada, M. Ehara, K. Toyota, R. Fukuda, 
 J. Hasegawa, M. Ishida, T. Nakajima, Y. Honda, O. Kitao, H. Nakai, 
 T. Vreven, K. Throssell, J. A. Montgomery, Jr., J. E. Peralta, 
 F. Ogliaro, M. J. Bearpark, J. J. Heyd, E. N. Brothers, K. N. Kudin, 
 V. N. Staroverov, T. A. Keith, R. Kobayashi, J. Normand, 
 K. Raghavachari, A. P. Rendell, J. C. Burant, S. S. Iyengar, 
 J. Tomasi, M. Cossi, J. M. Millam, M. Klene, C. Adamo, R. Cammi, 
 J. W. Ochterski, R. L. Martin, K. Morokuma, O. Farkas, 
 J. B. Foresman, and D. J. Fox, Gaussian, Inc., Wallingford CT, 2019.
 
 ******************************************
 Gaussian 16:  EM64L-G16RevC.01  3-Jul-2019
                21-Oct-2025 
 ******************************************
 %chk=g16_C3-w_1.chk
 %nprocshared=8
 Will use up to    8 processors via shared memory.
 %mem=32GB
 ---------------------------------------------------
 #p opt freq wb97xd scrf=(smd,solvent=water) def2svp
 ---------------------------------------------------
 1/18=20,19=15,26=3,38=1/1,3;
 2/9=110,12=2,17=6,18=5,40=1/2;
 3/5=43,7=101,11=2,25=1,30=1,70=32201,71=1,72=1,74=-58/1,2,3;
 4//1;
 5/5=2,38=5,53=1/2;
 6/7=2,8=2,9=2,10=2,28=1/1;
 7//1,2,3,16;
 1/18=20,19=15,26=3/3(2);
 2/9=110/2;
 99//99;
 2/9=110/2;
 3/5=43,7=101,11=2,25=1,30=1,70=32205,71=1,72=1,74=-58/1,2,3;
 4/5=5,16=3,69=1/1;
 5/5=2,38=5,53=1/2;
 7//1,2,3,16;
 1/18=20,19=15,26=3/3(-5);
 2/9=110/2;
 6/7=2,8=2,9=2,10=2,19=2,28=1/1;
 99/9=1/99;
 Leave Link    1 at Tue Oct 21 19:48:49 2025, MaxMem=  4294967296 cpu:               4.6 elap:               0.7
 (Enter /lrz/sys/applications/gaussian/g16.C.01/x86_64_legacy/exe/l101.exe)
 ----------
 g16_C3-w_1
 ----------
 Symbolic Z-matrix:
 Charge =  0 Multiplicity = 1
 O                    -0.61352  -1.32095   0.09517 
 C                    -0.44017   0.00401  -0.31957 
 O                    -1.55302   0.79004   0.02151 
 C                     0.79381   0.66517   0.29814 
 C                     2.08146  -0.02434  -0.13096 
 H                    -0.63263  -1.3406    1.06148 
 H                    -0.33028  -0.05965  -1.41314 
 H                    -2.34976   0.38652  -0.34633 
 H                     0.79616   1.71118  -0.00762 
 H                     0.68798   0.6341    1.38505 
 H                     2.04342  -1.08351   0.11247 
 H                     2.93292   0.42109   0.37606 
 H                     2.22552   0.07412  -1.20408 
 
 ITRead=  0  0  0  0  0  0  0  0  0  0  0  0  0
 MicOpt= -1 -1 -1 -1 -1 -1 -1 -1 -1 -1 -1 -1 -1
 NAtoms=     13 NQM=       13 NQMF=       0 NMMI=      0 NMMIF=      0
                NMic=       0 NMicF=      0.
                    Isotopes and Nuclear Properties:
 (Nuclear quadrupole moments (NQMom) in fm**2, nuclear magnetic moments (NMagM)
  in nuclear magnetons)

  Atom         1           2           3           4           5           6           7           8           9          10
 IAtWgt=          16          12          16          12          12           1           1           1           1           1
 AtmWgt=  15.9949146  12.0000000  15.9949146  12.0000000  12.0000000   1.0078250   1.0078250   1.0078250   1.0078250   1.0078250
 NucSpn=           0           0           0           0           0           1           1           1           1           1
 AtZEff=  -0.0000000  -0.0000000  -0.0000000  -0.0000000  -0.0000000  -0.0000000  -0.0000000  -0.0000000  -0.0000000  -0.0000000
 NQMom=    0.0000000   0.0000000   0.0000000   0.0000000   0.0000000   0.0000000   0.0000000   0.0000000   0.0000000   0.0000000
 NMagM=    0.0000000   0.0000000   0.0000000   0.0000000   0.0000000   2.7928460   2.7928460   2.7928460   2.7928460   2.7928460
 AtZNuc=   8.0000000   6.0000000   8.0000000   6.0000000   6.0000000   1.0000000   1.0000000   1.0000000   1.0000000   1.0000000

  Atom        11          12          13
 IAtWgt=           1           1           1
 AtmWgt=   1.0078250   1.0078250   1.0078250
 NucSpn=           1           1           1
 AtZEff=  -0.0000000  -0.0000000  -0.0000000
 NQMom=    0.0000000   0.0000000   0.0000000
 NMagM=    2.7928460   2.7928460   2.7928460
 AtZNuc=   1.0000000   1.0000000   1.0000000
 Leave Link  101 at Tue Oct 21 19:48:49 2025, MaxMem=  4294967296 cpu:               3.3 elap:               0.4
 (Enter /lrz/sys/applications/gaussian/g16.C.01/x86_64_legacy/exe/l103.exe)

 GradGradGradGradGradGradGradGradGradGradGradGradGradGradGradGradGradGrad
 Berny optimization.
 Initialization pass.
                           ----------------------------
                           !    Initial Parameters    !
                           ! (Angstroms and Degrees)  !
 --------------------------                            --------------------------
 ! Name  Definition              Value          Derivative Info.                !
 --------------------------------------------------------------------------------
 ! R1    R(1,2)                  1.3991         estimate D2E/DX2                !
 ! R2    R(1,6)                  0.9667         estimate D2E/DX2                !
 ! R3    R(2,3)                  1.4045         estimate D2E/DX2                !
 ! R4    R(2,4)                  1.5302         estimate D2E/DX2                !
 ! R5    R(2,7)                  1.1009         estimate D2E/DX2                !
 ! R6    R(3,8)                  0.9659         estimate D2E/DX2                !
 ! R7    R(4,5)                  1.5224         estimate D2E/DX2                !
 ! R8    R(4,9)                  1.0898         estimate D2E/DX2                !
 ! R9    R(4,10)                 1.0925         estimate D2E/DX2                !
 ! R10   R(5,11)                 1.0875         estimate D2E/DX2                !
 ! R11   R(5,12)                 1.0865         estimate D2E/DX2                !
 ! R12   R(5,13)                 1.0872         estimate D2E/DX2                !
 ! A1    A(2,1,6)              108.5425         estimate D2E/DX2                !
 ! A2    A(1,2,3)              111.0895         estimate D2E/DX2                !
 ! A3    A(1,2,4)              112.9191         estimate D2E/DX2                !
 ! A4    A(1,2,7)              104.5992         estimate D2E/DX2                !
 ! A5    A(3,2,4)              107.4048         estimate D2E/DX2                !
 ! A6    A(3,2,7)              110.6515         estimate D2E/DX2                !
 ! A7    A(4,2,7)              110.2112         estimate D2E/DX2                !
 ! A8    A(2,3,8)              109.1053         estimate D2E/DX2                !
 ! A9    A(2,4,5)              111.8771         estimate D2E/DX2                !
 ! A10   A(2,4,9)              107.6503         estimate D2E/DX2                !
 ! A11   A(2,4,10)             108.1327         estimate D2E/DX2                !
 ! A12   A(5,4,9)              110.7216         estimate D2E/DX2                !
 ! A13   A(5,4,10)             110.4549         estimate D2E/DX2                !
 ! A14   A(9,4,10)             107.8569         estimate D2E/DX2                !
 ! A15   A(4,5,11)             110.3931         estimate D2E/DX2                !
 ! A16   A(4,5,12)             110.2208         estimate D2E/DX2                !
 ! A17   A(4,5,13)             110.4422         estimate D2E/DX2                !
 ! A18   A(11,5,12)            108.7999         estimate D2E/DX2                !
 ! A19   A(11,5,13)            108.2879         estimate D2E/DX2                !
 ! A20   A(12,5,13)            108.6411         estimate D2E/DX2                !
 ! D1    D(6,1,2,3)            -65.8815         estimate D2E/DX2                !
 ! D2    D(6,1,2,4)             54.8578         estimate D2E/DX2                !
 ! D3    D(6,1,2,7)            174.7081         estimate D2E/DX2                !
 ! D4    D(1,2,3,8)            -55.2358         estimate D2E/DX2                !
 ! D5    D(4,2,3,8)           -179.1746         estimate D2E/DX2                !
 ! D6    D(7,2,3,8)             60.4895         estimate D2E/DX2                !
 ! D7    D(1,2,4,5)             63.1778         estimate D2E/DX2                !
 ! D8    D(1,2,4,9)           -174.9597         estimate D2E/DX2                !
 ! D9    D(1,2,4,10)           -58.6767         estimate D2E/DX2                !
 ! D10   D(3,2,4,5)           -174.0057         estimate D2E/DX2                !
 ! D11   D(3,2,4,9)            -52.1431         estimate D2E/DX2                !
 ! D12   D(3,2,4,10)            64.1398         estimate D2E/DX2                !
 ! D13   D(7,2,4,5)            -53.3911         estimate D2E/DX2                !
 ! D14   D(7,2,4,9)             68.4715         estimate D2E/DX2                !
 ! D15   D(7,2,4,10)          -175.2456         estimate D2E/DX2                !
 ! D16   D(2,4,5,11)           -55.8298         estimate D2E/DX2                !
 ! D17   D(2,4,5,12)          -176.0503         estimate D2E/DX2                !
 ! D18   D(2,4,5,13)            63.8954         estimate D2E/DX2                !
 ! D19   D(9,4,5,11)          -175.9116         estimate D2E/DX2                !
 ! D20   D(9,4,5,12)            63.868          estimate D2E/DX2                !
 ! D21   D(9,4,5,13)           -56.1863         estimate D2E/DX2                !
 ! D22   D(10,4,5,11)           64.6813         estimate D2E/DX2                !
 ! D23   D(10,4,5,12)          -55.5392         estimate D2E/DX2                !
 ! D24   D(10,4,5,13)         -175.5934         estimate D2E/DX2                !
 --------------------------------------------------------------------------------
 Trust Radius=3.00D-01 FncErr=1.00D-07 GrdErr=1.00D-06 EigMax=2.50D+02 EigMin=1.00D-04
 Number of steps in this run=     66 maximum allowed number of steps=    100.
 GradGradGradGradGradGradGradGradGradGradGradGradGradGradGradGradGradGrad

 Leave Link  103 at Tue Oct 21 19:48:49 2025, MaxMem=  4294967296 cpu:               0.1 elap:               0.0
 (Enter /lrz/sys/applications/gaussian/g16.C.01/x86_64_legacy/exe/l202.exe)
                          Input orientation:                          
 ---------------------------------------------------------------------
 Center     Atomic      Atomic             Coordinates (Angstroms)
 Number     Number       Type             X           Y           Z
 ---------------------------------------------------------------------
      1          8           0       -0.613521   -1.320946    0.095168
      2          6           0       -0.440173    0.004009   -0.319573
      3          8           0       -1.553015    0.790036    0.021510
      4          6           0        0.793809    0.665175    0.298136
      5          6           0        2.081460   -0.024337   -0.130958
      6          1           0       -0.632626   -1.340598    1.061480
      7          1           0       -0.330284   -0.059652   -1.413138
      8          1           0       -2.349763    0.386520   -0.346329
      9          1           0        0.796156    1.711182   -0.007619
     10          1           0        0.687983    0.634102    1.385051
     11          1           0        2.043418   -1.083513    0.112470
     12          1           0        2.932922    0.421093    0.376059
     13          1           0        2.225518    0.074124   -1.204083
 ---------------------------------------------------------------------
                    Distance matrix (angstroms):
                    1          2          3          4          5
     1  O    0.000000
     2  C    1.399130   0.000000
     3  O    2.311778   1.404490   0.000000
     4  C    2.442631   1.530169   2.366367   0.000000
     5  C    2.999208   2.528836   3.727715   1.522365   0.000000
     6  H    0.966701   1.937089   2.543276   2.576924   3.243565
     7  H    1.986472   1.100914   2.067669   2.171961   2.731618
     8  H    2.474853   1.947707   0.965887   3.221029   4.455438
     9  H    3.345378   2.130789   2.523482   1.089781   2.163157
    10  H    2.679537   2.139040   2.627856   1.092496   2.161852
    11  H    2.667582   2.745467   4.056204   2.157291   1.087455
    12  H    3.961168   3.469241   4.515025   2.154403   1.086490
    13  H    3.419709   2.809481   4.036325   2.157729   1.087219
                    6          7          8          9         10
     6  H    0.000000
     7  H    2.802850   0.000000
     8  H    2.813081   2.327111   0.000000
     9  H    3.535216   2.525906   3.430198   0.000000
    10  H    2.397529   3.057453   3.505263   1.763897   0.000000
    11  H    2.850951   3.001704   4.655269   3.062745   2.531179
    12  H    4.035652   3.752446   5.331960   2.525333   2.470463
    13  H    3.911931   2.567824   4.665462   2.480839   3.062875
                   11         12         13
    11  H    0.000000
    12  H    1.767635   0.000000
    13  H    1.762554   1.765688   0.000000
 Stoichiometry    C3H8O2
 Framework group  C1[X(C3H8O2)]
 Deg. of freedom    33
 Full point group                 C1      NOp   1
 Largest Abelian subgroup         C1      NOp   1
 Largest concise Abelian subgroup C1      NOp   1
                         Standard orientation:                         
 ---------------------------------------------------------------------
 Center     Atomic      Atomic             Coordinates (Angstroms)
 Number     Number       Type             X           Y           Z
 ---------------------------------------------------------------------
      1          8           0       -0.688315    1.324968   -0.074935
      2          6           0       -0.503790   -0.004996    0.318398
      3          8           0       -1.609102   -0.795186   -0.037243
      4          6           0        0.736917   -0.645012   -0.308053
      5          6           0        2.017762    0.048792    0.134290
      6          1           0       -0.706194    1.360233   -1.040828
      7          1           0       -0.396055    0.041763    1.413030
      8          1           0       -2.409939   -0.404815    0.335864
      9          1           0        0.748124   -1.695812   -0.019409
     10          1           0        0.632393   -0.597127   -1.394483
     11          1           0        1.970653    1.111424   -0.091878
     12          1           0        2.873885   -0.380726   -0.378573
     13          1           0        2.161135   -0.065905    1.205893
 ---------------------------------------------------------------------
 Rotational constants (GHZ):           8.5126710           3.5840844           2.7854380
 Leave Link  202 at Tue Oct 21 19:48:49 2025, MaxMem=  4294967296 cpu:               0.1 elap:               0.0
 (Enter /lrz/sys/applications/gaussian/g16.C.01/x86_64_legacy/exe/l301.exe)
 Standard basis: def2SVP (5D, 7F)
 Ernie: Thresh=  0.10000D-02 Tol=  0.10000D-05 Strict=F.
 There are   115 symmetry adapted cartesian basis functions of A   symmetry.
 There are   110 symmetry adapted basis functions of A   symmetry.
   110 basis functions,   181 primitive gaussians,   115 cartesian basis functions
    21 alpha electrons       21 beta electrons
       nuclear repulsion energy       195.3297542941 Hartrees.
 IExCor= 4639 DFT=T Ex+Corr=wB97XD ExCW=0 ScaHFX=  1.000000
 ScaDFX=  1.000000  1.000000  1.000000  1.000000 ScalE2=  1.000000  1.000000
 IRadAn=      5 IRanWt=     -1 IRanGd=            0 ICorTp=0 IEmpDi=121
 HFx  wShort=  0.000000 wLong=  0.200000 cFull=  0.222036 cShort=  0.000000 cLong=  0.777964
 DFx  wShort=  0.000000 wLong=  0.200000 cFull=  0.000000 cShort=  0.000000 cLong=  1.000000
 NAtoms=   13 NActive=   13 NUniq=   13 SFac= 1.00D+00 NAtFMM=   60 NAOKFM=F Big=F
 Integral buffers will be    131072 words long.
 Raffenetti 2 integral format.
 Two-electron integral symmetry is turned on.
 R6Disp:  Grimme-D2 Dispersion energy=       -0.0055657095 Hartrees.
 Nuclear repulsion after empirical dispersion term =      195.3241885846 Hartrees.
 ------------------------------------------------------------------------------
 Polarizable Continuum Model (PCM)
 =================================
 Model                : PCM.
 Atomic radii         : SMD-Coulomb.
 Polarization charges : Total charges.
 Charge compensation  : None.
 Solution method      : On-the-fly selection.
 Cavity type          : VdW (van der Waals Surface) (Alpha=1.000).
 Cavity algorithm     : GePol (No added spheres)
                        Default sphere list used, NSphG=   13.
                        Lebedev-Laikov grids with approx.  5.0 points / Ang**2.
                        Smoothing algorithm: York/Karplus (Gamma=1.0000).
                        Polarization charges: spherical gaussians, with
                                              point-specific exponents (IZeta= 3).
                        Self-potential: point-specific (ISelfS= 7).
                        Self-field    : sphere-specific E.n sum rule (ISelfD= 2).
 1st derivatives      : Analytical E(r).r(x)/FMM algorithm (CHGder, D1EAlg=3).
                        Cavity 1st derivative terms included.
 Solvent              : Water, Eps=  78.355300 Eps(inf)=   1.777849
 ------------------------------------------------------------------------------
 Spheres list:
 ISph  on   Nord     Re0    Alpha      Xe            Ye            Ze
    1   O      1    1.5200  1.000     -0.688315      1.324968     -0.074935
    2   C      2    1.8500  1.000     -0.503790     -0.004996      0.318398
    3   O      3    1.5200  1.000     -1.609102     -0.795186     -0.037243
    4   C      4    1.8500  1.000      0.736917     -0.645012     -0.308053
    5   C      5    1.8500  1.000      2.017762      0.048792      0.134290
    6   H      6    1.2000  1.000     -0.706194      1.360233     -1.040828
    7   H      7    1.2000  1.000     -0.396055      0.041763      1.413030
    8   H      8    1.2000  1.000     -2.409939     -0.404815      0.335864
    9   H      9    1.2000  1.000      0.748124     -1.695812     -0.019409
   10   H     10    1.2000  1.000      0.632393     -0.597127     -1.394483
   11   H     11    1.2000  1.000      1.970653      1.111424     -0.091878
   12   H     12    1.2000  1.000      2.873885     -0.380726     -0.378573
   13   H     13    1.2000  1.000      2.161135     -0.065905      1.205893
 ------------------------------------------------------------------------------
 GePol: Number of generator spheres                  =      13
 GePol: Total number of spheres                      =      13
 GePol: Number of exposed spheres                    =      13 (100.00%)
 GePol: Number of points                             =     916
 GePol: Average weight of points                     =       0.12
 GePol: Minimum weight of points                     =   0.44D-07
 GePol: Maximum weight of points                     =    0.21991
 GePol: Number of points with low weight             =      54
 GePol: Fraction of low-weight points (<1% of avg)   =       5.90%
 GePol: Cavity surface area                          =    110.862 Ang**2
 GePol: Cavity volume                                =     81.996 Ang**3
 ------------------------------------------------------------------------------
 Atomic radii for non-electrostatic terms: SMD-CDS.
 ------------------------------------------------------------------------------
 PCM non-electrostatic energy =         0.0047944133 Hartrees.
 Nuclear repulsion after PCM non-electrostatic terms =      195.3289829979 Hartrees.
 Leave Link  301 at Tue Oct 21 19:48:49 2025, MaxMem=  4294967296 cpu:               0.7 elap:               0.1
 (Enter /lrz/sys/applications/gaussian/g16.C.01/x86_64_legacy/exe/l302.exe)
 NPDir=0 NMtPBC=     1 NCelOv=     1 NCel=       1 NClECP=     1 NCelD=      1
         NCelK=      1 NCelE2=     1 NClLst=     1 CellRange=     0.0.
 One-electron integrals computed using PRISM.
 One-electron integral symmetry used in STVInt
   1 Symmetry operations used in ECPInt.
 ECPInt:  NShTT=    1485 NPrTT=    5139 LenC2=    1483 LenP2D=    4440.
 LDataN:  DoStor=T MaxTD1= 4 Len=   56
 NBasis=   110 RedAO= T EigKep=  2.28D-03  NBF=   110
 NBsUse=   110 1.00D-06 EigRej= -1.00D+00 NBFU=   110
 Precomputing XC quadrature grid using
 IXCGrd= 4 IRadAn=           5 IRanWt=          -1 IRanGd=           0 AccXCQ= 0.00D+00.
 Generated NRdTot=       0 NPtTot=           0 NUsed=           0 NTot=          32
 NSgBfM=   115   115   115   115   115 MxSgAt=    13 MxSgA2=    13.
 Leave Link  302 at Tue Oct 21 19:48:49 2025, MaxMem=  4294967296 cpu:               1.2 elap:               0.2
 (Enter /lrz/sys/applications/gaussian/g16.C.01/x86_64_legacy/exe/l303.exe)
 DipDrv:  MaxL=1.
 Leave Link  303 at Tue Oct 21 19:48:49 2025, MaxMem=  4294967296 cpu:               0.3 elap:               0.1
 (Enter /lrz/sys/applications/gaussian/g16.C.01/x86_64_legacy/exe/l401.exe)
 ExpMin= 1.22D-01 ExpMax= 2.27D+03 ExpMxC= 3.41D+02 IAcc=3 IRadAn=         5 AccDes= 0.00D+00
 Harris functional with IExCor= 4639 and IRadAn=       5 diagonalized for initial guess.
 HarFok:  IExCor= 4639 AccDes= 0.00D+00 IRadAn=         5 IDoV= 1 UseB2=F ITyADJ=14
 ICtDFT=  3500011 ScaDFX=  1.000000  1.000000  1.000000  1.000000
 FoFCou: FMM=F IPFlag=           0 FMFlag=      100000 FMFlg1=           0
         NFxFlg=           0 DoJE=T BraDBF=F KetDBF=T FulRan=T
         wScrn=  0.000000 ICntrl=       500 IOpCl=  0 I1Cent=   200000004 NGrid=           0
         NMat0=    1 NMatS0=      1 NMatT0=    0 NMatD0=    1 NMtDS0=    0 NMtDT0=    0
 Petite list used in FoFCou.
 Harris En= -258.102700275555    
 JPrj=0 DoOrth=F DoCkMO=F.
 Leave Link  401 at Tue Oct 21 19:48:50 2025, MaxMem=  4294967296 cpu:               5.2 elap:               0.7
 (Enter /lrz/sys/applications/gaussian/g16.C.01/x86_64_legacy/exe/l502.exe)
 Integral symmetry usage will be decided dynamically.
 Closed shell SCF:
 Using DIIS extrapolation, IDIIS=  1040.
 NGot=  4294967296 LenX=  4294938204 LenY=  4294924538
 Requested convergence on RMS density matrix=1.00D-08 within 128 cycles.
 Requested convergence on MAX density matrix=1.00D-06.
 Requested convergence on             energy=1.00D-06.
 No special actions if energy rises.
 Fock matrices will be formed incrementally for  20 cycles.

 Cycle   1  Pass 1  IDiag  1:
 FoFJK:  IHMeth= 1 ICntrl=       0 DoSepK=T KAlg= 0 I1Cent=           0 FoldK=F
 IRaf=         1 NMat=       1 IRICut=       1 DoRegI=T DoRafI=F ISym2E= 0 IDoP0=0 IntGTp=1.
 FoFCou: FMM=F IPFlag=           0 FMFlag=      100000 FMFlg1=           0
         NFxFlg=           0 DoJE=T BraDBF=F KetDBF=F FulRan=T
         wScrn=  0.000000 ICntrl=       500 IOpCl=  0 I1Cent=           0 NGrid=           0
         NMat0=    1 NMatS0=      1 NMatT0=    0 NMatD0=    1 NMtDS0=    0 NMtDT0=    0
 Symmetry not used in FoFCou.
 Inv3:  Mode=1 IEnd=     2517168.
 Iteration    1 A*A^-1 deviation from unit magnitude is 5.55D-15 for      9.
 Iteration    1 A*A^-1 deviation from orthogonality  is 2.60D-15 for    882    540.
 Iteration    1 A^-1*A deviation from unit magnitude is 5.33D-15 for      9.
 Iteration    1 A^-1*A deviation from orthogonality  is 3.16D-15 for    660      1.
 E= -269.265893270975    
 DIIS: error= 3.43D-02 at cycle   1 NSaved=   1.
 NSaved= 1 IEnMin= 1 EnMin= -269.265893270975     IErMin= 1 ErrMin= 3.43D-02
 ErrMax= 3.43D-02  0.00D+00 EMaxC= 1.00D-01 BMatC= 1.18D-01 BMatP= 1.18D-01
 IDIUse=3 WtCom= 6.57D-01 WtEn= 3.43D-01
 Coeff-Com:  0.100D+01
 Coeff-En:   0.100D+01
 Coeff:      0.100D+01
 Gap=     0.574 Goal=   None    Shift=    0.000
 GapD=    0.574 DampG=2.000 DampE=0.500 DampFc=1.0000 IDamp=-1.
 RMSDP=3.88D-03 MaxDP=8.07D-02              OVMax= 6.58D-02

 Cycle   2  Pass 1  IDiag  1:
 RMSU=  3.85D-03    CP:  9.84D-01
 E= -269.293879056322     Delta-E=       -0.027985785347 Rises=F Damp=F
 DIIS: error= 1.11D-02 at cycle   2 NSaved=   2.
 NSaved= 2 IEnMin= 2 EnMin= -269.293879056322     IErMin= 2 ErrMin= 1.11D-02
 ErrMax= 1.11D-02  0.00D+00 EMaxC= 1.00D-01 BMatC= 2.87D-02 BMatP= 1.18D-01
 IDIUse=3 WtCom= 8.89D-01 WtEn= 1.11D-01
 Coeff-Com:  0.285D+00 0.715D+00
 Coeff-En:   0.202D+00 0.798D+00
 Coeff:      0.276D+00 0.724D+00
 Gap=     0.546 Goal=   None    Shift=    0.000
 RMSDP=1.53D-03 MaxDP=3.43D-02 DE=-2.80D-02 OVMax= 3.19D-02

 Cycle   3  Pass 1  IDiag  1:
 RMSU=  1.10D-03    CP:  9.88D-01  7.27D-01
 E= -269.313145964818     Delta-E=       -0.019266908496 Rises=F Damp=F
 DIIS: error= 5.00D-03 at cycle   3 NSaved=   3.
 NSaved= 3 IEnMin= 3 EnMin= -269.313145964818     IErMin= 3 ErrMin= 5.00D-03
 ErrMax= 5.00D-03  0.00D+00 EMaxC= 1.00D-01 BMatC= 4.63D-03 BMatP= 2.87D-02
 IDIUse=3 WtCom= 9.50D-01 WtEn= 5.00D-02
 Coeff-Com:  0.238D-02 0.284D+00 0.714D+00
 Coeff-En:   0.000D+00 0.301D-01 0.970D+00
 Coeff:      0.226D-02 0.271D+00 0.727D+00
 Gap=     0.518 Goal=   None    Shift=    0.000
 RMSDP=5.83D-04 MaxDP=1.22D-02 DE=-1.93D-02 OVMax= 1.17D-02

 Cycle   4  Pass 1  IDiag  1:
 RMSU=  2.42D-04    CP:  9.85D-01  8.53D-01  8.19D-01
 E= -269.316587127771     Delta-E=       -0.003441162953 Rises=F Damp=F
 DIIS: error= 9.03D-04 at cycle   4 NSaved=   4.
 NSaved= 4 IEnMin= 4 EnMin= -269.316587127771     IErMin= 4 ErrMin= 9.03D-04
 ErrMax= 9.03D-04  0.00D+00 EMaxC= 1.00D-01 BMatC= 1.53D-04 BMatP= 4.63D-03
 IDIUse=3 WtCom= 9.91D-01 WtEn= 9.03D-03
 Coeff-Com: -0.323D-02 0.101D+00 0.316D+00 0.586D+00
 Coeff-En:   0.000D+00 0.000D+00 0.000D+00 0.100D+01
 Coeff:     -0.320D-02 0.100D+00 0.313D+00 0.590D+00
 Gap=     0.516 Goal=   None    Shift=    0.000
 RMSDP=8.41D-05 MaxDP=3.03D-03 DE=-3.44D-03 OVMax= 1.87D-03

 Cycle   5  Pass 1  IDiag  1:
 RMSU=  6.91D-05    CP:  9.85D-01  8.55D-01  8.38D-01  8.25D-01
 E= -269.316701572778     Delta-E=       -0.000114445006 Rises=F Damp=F
 DIIS: error= 8.98D-05 at cycle   5 NSaved=   5.
 NSaved= 5 IEnMin= 5 EnMin= -269.316701572778     IErMin= 5 ErrMin= 8.98D-05
 ErrMax= 8.98D-05  0.00D+00 EMaxC= 1.00D-01 BMatC= 2.42D-06 BMatP= 1.53D-04
 IDIUse=1 WtCom= 1.00D+00 WtEn= 0.00D+00
 Coeff-Com: -0.412D-03-0.194D-01-0.374D-01 0.412D-01 0.102D+01
 Coeff:     -0.412D-03-0.194D-01-0.374D-01 0.412D-01 0.102D+01
 Gap=     0.516 Goal=   None    Shift=    0.000
 RMSDP=4.08D-05 MaxDP=6.03D-04 DE=-1.14D-04 OVMax= 8.12D-04

 Cycle   6  Pass 1  IDiag  1:
 RMSU=  1.31D-05    CP:  9.85D-01  8.60D-01  8.54D-01  9.24D-01  1.19D+00
 E= -269.316705537854     Delta-E=       -0.000003965077 Rises=F Damp=F
 DIIS: error= 1.79D-05 at cycle   6 NSaved=   6.
 NSaved= 6 IEnMin= 6 EnMin= -269.316705537854     IErMin= 6 ErrMin= 1.79D-05
 ErrMax= 1.79D-05  0.00D+00 EMaxC= 1.00D-01 BMatC= 1.06D-07 BMatP= 2.42D-06
 IDIUse=1 WtCom= 1.00D+00 WtEn= 0.00D+00
 Coeff-Com:  0.992D-04-0.760D-02-0.189D-01-0.215D-01 0.140D+00 0.907D+00
 Coeff:      0.992D-04-0.760D-02-0.189D-01-0.215D-01 0.140D+00 0.907D+00
 Gap=     0.515 Goal=   None    Shift=    0.000
 RMSDP=8.51D-06 MaxDP=1.17D-04 DE=-3.97D-06 OVMax= 1.93D-04

 Cycle   7  Pass 1  IDiag  1:
 RMSU=  3.10D-06    CP:  9.85D-01  8.61D-01  8.56D-01  9.40D-01  1.26D+00
                    CP:  1.16D+00
 E= -269.316705686135     Delta-E=       -0.000000148281 Rises=F Damp=F
 DIIS: error= 1.01D-05 at cycle   7 NSaved=   7.
 NSaved= 7 IEnMin= 7 EnMin= -269.316705686135     IErMin= 7 ErrMin= 1.01D-05
 ErrMax= 1.01D-05  0.00D+00 EMaxC= 1.00D-01 BMatC= 1.95D-08 BMatP= 1.06D-07
 IDIUse=1 WtCom= 1.00D+00 WtEn= 0.00D+00
 Coeff-Com:  0.443D-04-0.232D-02-0.594D-02-0.989D-02 0.159D-01 0.358D+00
 Coeff-Com:  0.644D+00
 Coeff:      0.443D-04-0.232D-02-0.594D-02-0.989D-02 0.159D-01 0.358D+00
 Coeff:      0.644D+00
 Gap=     0.515 Goal=   None    Shift=    0.000
 RMSDP=1.74D-06 MaxDP=3.09D-05 DE=-1.48D-07 OVMax= 4.37D-05

 Cycle   8  Pass 1  IDiag  1:
 RMSU=  1.04D-06    CP:  9.85D-01  8.61D-01  8.57D-01  9.42D-01  1.26D+00
                    CP:  1.24D+00  9.21D-01
 E= -269.316705703754     Delta-E=       -0.000000017618 Rises=F Damp=F
 DIIS: error= 2.82D-06 at cycle   8 NSaved=   8.
 NSaved= 8 IEnMin= 8 EnMin= -269.316705703754     IErMin= 8 ErrMin= 2.82D-06
 ErrMax= 2.82D-06  0.00D+00 EMaxC= 1.00D-01 BMatC= 1.83D-09 BMatP= 1.95D-08
 IDIUse=1 WtCom= 1.00D+00 WtEn= 0.00D+00
 Coeff-Com: -0.108D-04 0.893D-03 0.230D-02 0.206D-02-0.236D-01-0.947D-01
 Coeff-Com:  0.163D+00 0.950D+00
 Coeff:     -0.108D-04 0.893D-03 0.230D-02 0.206D-02-0.236D-01-0.947D-01
 Coeff:      0.163D+00 0.950D+00
 Gap=     0.515 Goal=   None    Shift=    0.000
 RMSDP=1.05D-06 MaxDP=2.04D-05 DE=-1.76D-08 OVMax= 2.87D-05

 Cycle   9  Pass 1  IDiag  1:
 RMSU=  3.38D-07    CP:  9.85D-01  8.61D-01  8.57D-01  9.43D-01  1.27D+00
                    CP:  1.29D+00  1.10D+00  1.17D+00
 E= -269.316705706244     Delta-E=       -0.000000002491 Rises=F Damp=F
 DIIS: error= 6.97D-07 at cycle   9 NSaved=   9.
 NSaved= 9 IEnMin= 9 EnMin= -269.316705706244     IErMin= 9 ErrMin= 6.97D-07
 ErrMax= 6.97D-07  0.00D+00 EMaxC= 1.00D-01 BMatC= 1.09D-10 BMatP= 1.83D-09
 IDIUse=1 WtCom= 1.00D+00 WtEn= 0.00D+00
 Coeff-Com: -0.353D-05 0.424D-03 0.108D-02 0.119D-02-0.907D-02-0.501D-01
 Coeff-Com:  0.284D-01 0.329D+00 0.699D+00
 Coeff:     -0.353D-05 0.424D-03 0.108D-02 0.119D-02-0.907D-02-0.501D-01
 Coeff:      0.284D-01 0.329D+00 0.699D+00
 Gap=     0.515 Goal=   None    Shift=    0.000
 RMSDP=1.75D-07 MaxDP=3.25D-06 DE=-2.49D-09 OVMax= 3.65D-06

 Cycle  10  Pass 1  IDiag  1:
 RMSU=  1.01D-07    CP:  9.85D-01  8.61D-01  8.57D-01  9.43D-01  1.27D+00
                    CP:  1.29D+00  1.12D+00  1.24D+00  1.02D+00
 E= -269.316705706381     Delta-E=       -0.000000000137 Rises=F Damp=F
 DIIS: error= 1.33D-07 at cycle  10 NSaved=  10.
 NSaved=10 IEnMin=10 EnMin= -269.316705706381     IErMin=10 ErrMin= 1.33D-07
 ErrMax= 1.33D-07  0.00D+00 EMaxC= 1.00D-01 BMatC= 4.49D-12 BMatP= 1.09D-10
 IDIUse=1 WtCom= 1.00D+00 WtEn= 0.00D+00
 Coeff-Com:  0.176D-06-0.607D-04-0.155D-03-0.112D-03 0.188D-02 0.618D-02
 Coeff-Com: -0.151D-01-0.771D-01 0.484D-01 0.104D+01
 Coeff:      0.176D-06-0.607D-04-0.155D-03-0.112D-03 0.188D-02 0.618D-02
 Coeff:     -0.151D-01-0.771D-01 0.484D-01 0.104D+01
 Gap=     0.515 Goal=   None    Shift=    0.000
 RMSDP=8.38D-08 MaxDP=1.74D-06 DE=-1.37D-10 OVMax= 1.92D-06

 Cycle  11  Pass 1  IDiag  1:
 RMSU=  2.07D-08    CP:  9.85D-01  8.61D-01  8.57D-01  9.43D-01  1.27D+00
                    CP:  1.30D+00  1.13D+00  1.28D+00  1.18D+00  1.24D+00
 E= -269.316705706386     Delta-E=       -0.000000000005 Rises=F Damp=F
 DIIS: error= 2.39D-08 at cycle  11 NSaved=  11.
 NSaved=11 IEnMin=11 EnMin= -269.316705706386     IErMin=11 ErrMin= 2.39D-08
 ErrMax= 2.39D-08  0.00D+00 EMaxC= 1.00D-01 BMatC= 1.64D-13 BMatP= 4.49D-12
 IDIUse=1 WtCom= 1.00D+00 WtEn= 0.00D+00
 Coeff-Com:  0.167D-06-0.218D-04-0.557D-04-0.549D-04 0.491D-03 0.246D-02
 Coeff-Com: -0.212D-02-0.179D-01-0.288D-01 0.442D-01 0.100D+01
 Coeff:      0.167D-06-0.218D-04-0.557D-04-0.549D-04 0.491D-03 0.246D-02
 Coeff:     -0.212D-02-0.179D-01-0.288D-01 0.442D-01 0.100D+01
 Gap=     0.515 Goal=   None    Shift=    0.000
 RMSDP=1.82D-08 MaxDP=3.50D-07 DE=-5.29D-12 OVMax= 3.86D-07

 Cycle  12  Pass 1  IDiag  1:
 RMSU=  4.78D-09    CP:  9.85D-01  8.61D-01  8.57D-01  9.43D-01  1.27D+00
                    CP:  1.30D+00  1.13D+00  1.28D+00  1.21D+00  1.33D+00
                    CP:  1.29D+00
 E= -269.316705706389     Delta-E=       -0.000000000003 Rises=F Damp=F
 DIIS: error= 7.68D-09 at cycle  12 NSaved=  12.
 NSaved=12 IEnMin=12 EnMin= -269.316705706389     IErMin=12 ErrMin= 7.68D-09
 ErrMax= 7.68D-09  0.00D+00 EMaxC= 1.00D-01 BMatC= 2.15D-14 BMatP= 1.64D-13
 IDIUse=1 WtCom= 1.00D+00 WtEn= 0.00D+00
 Coeff-Com:  0.474D-07-0.126D-05-0.325D-05-0.458D-05-0.141D-05 0.155D-03
 Coeff-Com:  0.365D-03 0.586D-03-0.902D-02-0.507D-01 0.228D+00 0.830D+00
 Coeff:      0.474D-07-0.126D-05-0.325D-05-0.458D-05-0.141D-05 0.155D-03
 Coeff:      0.365D-03 0.586D-03-0.902D-02-0.507D-01 0.228D+00 0.830D+00
 Gap=     0.515 Goal=   None    Shift=    0.000
 RMSDP=3.69D-09 MaxDP=7.20D-08 DE=-2.79D-12 OVMax= 8.39D-08

 Error on total polarization charges =  0.03173
 SCF Done:  E(RwB97XD) =  -269.316705706     A.U. after   12 cycles
            NFock= 12  Conv=0.37D-08     -V/T= 2.0093
 KE= 2.668408512612D+02 PE=-1.020693082202D+03 EE= 2.892065422366D+02
 SMD-CDS (non-electrostatic) energy       (kcal/mol) =       3.01
 (included in total energy above)
 Leave Link  502 at Tue Oct 21 19:49:07 2025, MaxMem=  4294967296 cpu:             133.6 elap:              16.8
 (Enter /lrz/sys/applications/gaussian/g16.C.01/x86_64_legacy/exe/l601.exe)
 Copying SCF densities to generalized density rwf, IOpCl= 0 IROHF=0.

 **********************************************************************

            Population analysis using the SCF Density.

 **********************************************************************

 Orbital symmetries:
       Occupied  (A) (A) (A) (A) (A) (A) (A) (A) (A) (A) (A) (A)
                 (A) (A) (A) (A) (A) (A) (A) (A) (A)
       Virtual   (A) (A) (A) (A) (A) (A) (A) (A) (A) (A) (A) (A)
                 (A) (A) (A) (A) (A) (A) (A) (A) (A) (A) (A) (A)
                 (A) (A) (A) (A) (A) (A) (A) (A) (A) (A) (A) (A)
                 (A) (A) (A) (A) (A) (A) (A) (A) (A) (A) (A) (A)
                 (A) (A) (A) (A) (A) (A) (A) (A) (A) (A) (A) (A)
                 (A) (A) (A) (A) (A) (A) (A) (A) (A) (A) (A) (A)
                 (A) (A) (A) (A) (A) (A) (A) (A) (A) (A) (A) (A)
                 (A) (A) (A) (A) (A)
 The electronic state is 1-A.
 Alpha  occ. eigenvalues --  -19.25774 -19.25454 -10.38320 -10.28373 -10.27774
 Alpha  occ. eigenvalues --   -1.15058  -1.07708  -0.86344  -0.75512  -0.69036
 Alpha  occ. eigenvalues --   -0.62306  -0.57186  -0.54821  -0.50468  -0.50019
 Alpha  occ. eigenvalues --   -0.45955  -0.44096  -0.41857  -0.39761  -0.39357
 Alpha  occ. eigenvalues --   -0.36248
 Alpha virt. eigenvalues --    0.15298   0.17198   0.17782   0.20850   0.21603
 Alpha virt. eigenvalues --    0.23392   0.24058   0.25423   0.30241   0.32055
 Alpha virt. eigenvalues --    0.34612   0.36868   0.51639   0.52890   0.54509
 Alpha virt. eigenvalues --    0.58424   0.60699   0.63915   0.67931   0.70827
 Alpha virt. eigenvalues --    0.71480   0.73678   0.75321   0.75765   0.77189
 Alpha virt. eigenvalues --    0.78759   0.79696   0.80757   0.81211   0.84142
 Alpha virt. eigenvalues --    0.97226   1.05626   1.06878   1.10037   1.10629
 Alpha virt. eigenvalues --    1.12133   1.19275   1.32020   1.34490   1.37540
 Alpha virt. eigenvalues --    1.43799   1.44862   1.50157   1.53774   1.61090
 Alpha virt. eigenvalues --    1.63750   1.65463   1.70630   1.75361   1.81190
 Alpha virt. eigenvalues --    1.82682   1.87229   1.88601   1.90986   1.92186
 Alpha virt. eigenvalues --    1.93567   1.96297   1.99050   2.04687   2.05246
 Alpha virt. eigenvalues --    2.08036   2.12988   2.18618   2.22727   2.31100
 Alpha virt. eigenvalues --    2.32344   2.38693   2.42443   2.48096   2.51512
 Alpha virt. eigenvalues --    2.61928   2.65606   2.70336   2.85146   2.87348
 Alpha virt. eigenvalues --    2.91912   2.98911   3.04277   3.05094   3.06937
 Alpha virt. eigenvalues --    3.08568   3.12278   3.15894   3.24266   3.26058
 Alpha virt. eigenvalues --    3.46474   3.51101   3.84964   3.86626
          Condensed to atoms (all electrons):
               1          2          3          4          5          6
     1  O    7.864961   0.318073  -0.066074  -0.041382  -0.006378   0.328682
     2  C    0.318073   4.418834   0.340885   0.360377  -0.035399  -0.022976
     3  O   -0.066074   0.340885   7.855260  -0.076047   0.004618   0.005109
     4  C   -0.041382   0.360377  -0.076047   4.905385   0.355960  -0.012919
     5  C   -0.006378  -0.035399   0.004618   0.355960   4.604564  -0.000565
     6  H    0.328682  -0.022976   0.005109  -0.012919  -0.000565   0.472891
     7  H   -0.042785   0.412918  -0.030507  -0.061474   0.001198   0.009389
     8  H    0.006659  -0.014487   0.322261   0.010316  -0.000568  -0.000836
     9  H    0.005332  -0.014458   0.007561   0.355298  -0.014052  -0.000111
    10  H   -0.006008  -0.006308   0.003866   0.351226  -0.017160   0.006797
    11  H    0.017717  -0.010730   0.000447  -0.024899   0.389761   0.000584
    12  H    0.000090   0.005770  -0.000112  -0.009898   0.387456  -0.000051
    13  H   -0.000924  -0.004531  -0.000077  -0.024375   0.399172   0.000085
               7          8          9         10         11         12
     1  O   -0.042785   0.006659   0.005332  -0.006008   0.017717   0.000090
     2  C    0.412918  -0.014487  -0.014458  -0.006308  -0.010730   0.005770
     3  O   -0.030507   0.322261   0.007561   0.003866   0.000447  -0.000112
     4  C   -0.061474   0.010316   0.355298   0.351226  -0.024899  -0.009898
     5  C    0.001198  -0.000568  -0.014052  -0.017160   0.389761   0.387456
     6  H    0.009389  -0.000836  -0.000111   0.006797   0.000584  -0.000051
     7  H    0.683734  -0.006804  -0.004692   0.008851  -0.001959  -0.000100
     8  H   -0.006804   0.471915  -0.000575  -0.000589  -0.000044   0.000015
     9  H   -0.004692  -0.000575   0.651870  -0.021835   0.008019  -0.005636
    10  H    0.008851  -0.000589  -0.021835   0.652480  -0.007687  -0.007416
    11  H   -0.001959  -0.000044   0.008019  -0.007687   0.641338  -0.019892
    12  H   -0.000100   0.000015  -0.005636  -0.007416  -0.019892   0.624383
    13  H    0.005502  -0.000003  -0.009055   0.007348  -0.023129  -0.020828
              13
     1  O   -0.000924
     2  C   -0.004531
     3  O   -0.000077
     4  C   -0.024375
     5  C    0.399172
     6  H    0.000085
     7  H    0.005502
     8  H   -0.000003
     9  H   -0.009055
    10  H    0.007348
    11  H   -0.023129
    12  H   -0.020828
    13  H    0.630369
 Mulliken charges:
               1
     1  O   -0.377963
     2  C    0.252032
     3  O   -0.367190
     4  C   -0.087567
     5  C   -0.068608
     6  H    0.213920
     7  H    0.026729
     8  H    0.212741
     9  H    0.042333
    10  H    0.036436
    11  H    0.030474
    12  H    0.046218
    13  H    0.040446
 Sum of Mulliken charges =  -0.00000
 Mulliken charges with hydrogens summed into heavy atoms:
               1
     1  O   -0.164043
     2  C    0.278761
     3  O   -0.154449
     4  C   -0.008798
     5  C    0.048530
 Electronic spatial extent (au):  <R**2>=            476.3696
 Charge=             -0.0000 electrons
 Dipole moment (field-independent basis, Debye):
    X=             -0.0182    Y=              0.1448    Z=             -0.3492  Tot=              0.3785
 Quadrupole moment (field-independent basis, Debye-Ang):
   XX=            -27.9953   YY=            -35.5668   ZZ=            -28.2554
   XY=             -1.7510   XZ=             -1.2443   YZ=             -3.0501
 Traceless Quadrupole moment (field-independent basis, Debye-Ang):
   XX=              2.6105   YY=             -4.9610   ZZ=              2.3505
   XY=             -1.7510   XZ=             -1.2443   YZ=             -3.0501
 Octapole moment (field-independent basis, Debye-Ang**2):
  XXX=            -25.8227  YYY=              0.6768  ZZZ=             -2.1480  XYY=              1.4279
  XXY=              1.2353  XXZ=              3.2240  XZZ=             -5.1892  YZZ=              4.0260
  YYZ=             -3.8182  XYZ=              2.7204
 Hexadecapole moment (field-independent basis, Debye-Ang**3):
 XXXX=           -330.0373 YYYY=           -153.1382 ZZZZ=            -56.3181 XXXY=             -1.0371
 XXXZ=            -13.6784 YYYX=             -0.6034 YYYZ=             -8.8012 ZZZX=              1.6733
 ZZZY=             -5.5494 XXYY=            -93.7201 XXZZ=            -70.7672 YYZZ=            -31.5593
 XXYZ=             -3.6669 YYXZ=              2.2257 ZZXY=             -2.6204
 N-N= 1.953289829979D+02 E-N=-1.020693081351D+03  KE= 2.668408512612D+02
 No NMR shielding tensors so no spin-rotation constants.
 Leave Link  601 at Tue Oct 21 19:49:07 2025, MaxMem=  4294967296 cpu:               0.8 elap:               0.1
 (Enter /lrz/sys/applications/gaussian/g16.C.01/x86_64_legacy/exe/l701.exe)
 ... and contract with generalized density number  0.
 Compute integral first derivatives.
 R6Disp: Adding Grimme-D2 dispersion energy 1st derivatives to the gradient.
   1 Symmetry operations used in ECPInt.
 ECPInt:  NShTT=    1485 NPrTT=    5139 LenC2=    1483 LenP2D=    4440.
 LDataN:  DoStor=T MaxTD1= 5 Len=  102
 D1PCM: PCM CHGder 1st derivatives, ID1Alg=3 FixD1E=F DoIter=F DoCFld=F I1PDM=0.
 GePol: Maximum number of non-zero 1st derivatives   =     248
 Leave Link  701 at Tue Oct 21 19:49:08 2025, MaxMem=  4294967296 cpu:               4.4 elap:               0.6
 (Enter /lrz/sys/applications/gaussian/g16.C.01/x86_64_legacy/exe/l702.exe)
 L702 exits ... SP integral derivatives will be done elsewhere.
 Leave Link  702 at Tue Oct 21 19:49:08 2025, MaxMem=  4294967296 cpu:               0.2 elap:               0.0
 (Enter /lrz/sys/applications/gaussian/g16.C.01/x86_64_legacy/exe/l703.exe)
 Integral derivatives from FoFJK, PRISM(SPDF).
 Compute integral first derivatives, UseDBF=F ICtDFT=           0.
 Calling FoFJK, ICntrl=      2127 FMM=F ISym2X=0 I1Cent= 0 IOpClX= 0 NMat=1 NMatS=1 NMatT=0.
 FoFJK:  IHMeth= 1 ICntrl=    2127 DoSepK=T KAlg= 0 I1Cent=           0 FoldK=F
 IRaf=         1 NMat=       1 IRICut=       1 DoRegI=T DoRafI=F ISym2E= 0 IDoP0=0 IntGTp=1.
 FoFCou: FMM=F IPFlag=           0 FMFlag=      100000 FMFlg1=         800
         NFxFlg=           0 DoJE=F BraDBF=F KetDBF=F FulRan=T
         wScrn=  0.000000 ICntrl=      2527 IOpCl=  0 I1Cent=           0 NGrid=           0
         NMat0=    1 NMatS0=      1 NMatT0=    0 NMatD0=    1 NMtDS0=    0 NMtDT0=    0
 Symmetry not used in FoFCou.
 Leave Link  703 at Tue Oct 21 19:49:10 2025, MaxMem=  4294967296 cpu:              17.1 elap:               2.2
 (Enter /lrz/sys/applications/gaussian/g16.C.01/x86_64_legacy/exe/l716.exe)
 Dipole        =-7.15326439D-03 5.69787873D-02-1.37381108D-01
 ***** Axes restored to original set *****
 -------------------------------------------------------------------
 Center     Atomic                   Forces (Hartrees/Bohr)
 Number     Number              X              Y              Z
 -------------------------------------------------------------------
      1        8           0.000050752   -0.006095354   -0.000079551
      2        6           0.001253401    0.005969567    0.004993791
      3        8          -0.001321572    0.002923123    0.002350249
      4        6          -0.003392586   -0.011488325   -0.009826340
      5        6          -0.009431229    0.006058732    0.004269054
      6        1           0.000457360    0.001295185    0.000627626
      7        1           0.000227374    0.000446544   -0.002779943
      8        1           0.002108254   -0.001324029   -0.001525886
      9        1           0.000452173    0.007180015   -0.001177925
     10        1          -0.002026653    0.000561876    0.007092705
     11        1           0.000959607   -0.008253181    0.002017327
     12        1           0.008096649    0.002507522    0.003154132
     13        1           0.002566468    0.000218324   -0.009115238
 -------------------------------------------------------------------
 Cartesian Forces:  Max     0.011488325 RMS     0.004723999
 Leave Link  716 at Tue Oct 21 19:49:10 2025, MaxMem=  4294967296 cpu:               0.3 elap:               0.1
 (Enter /lrz/sys/applications/gaussian/g16.C.01/x86_64_legacy/exe/l103.exe)

 GradGradGradGradGradGradGradGradGradGradGradGradGradGradGradGradGradGrad
 Berny optimization.
 FormGI is forming the generalized inverse of G from B-inverse, IUseBI=4.
 Internal  Forces:  Max     0.009353586 RMS     0.002884060
 Search for a local minimum.
 Step number   1 out of a maximum of   66
 All quantities printed in internal units (Hartrees-Bohrs-Radians)
 RMS Force = .28841D-02 SwitMx=.10000D-02 MixMth= 1
 Mixed Optimization -- RFO/linear search
 Second derivative matrix not updated -- first step.
 ITU=  0
     Eigenvalues ---    0.00367   0.00470   0.01632   0.01703   0.03697
     Eigenvalues ---    0.04907   0.05628   0.05710   0.05712   0.05951
     Eigenvalues ---    0.08201   0.09590   0.12084   0.16000   0.16000
     Eigenvalues ---    0.16000   0.16000   0.16000   0.18878   0.20765
     Eigenvalues ---    0.21939   0.29408   0.30140   0.33581   0.34526
     Eigenvalues ---    0.34838   0.35108   0.35136   0.35221   0.44884
     Eigenvalues ---    0.45765   0.54057   0.54226
 RFO step:  Lambda=-1.71319888D-03 EMin= 3.66875282D-03
 Linear search not attempted -- first point.
 Iteration  1 RMS(Cart)=  0.02817046 RMS(Int)=  0.00047239
 Iteration  2 RMS(Cart)=  0.00052968 RMS(Int)=  0.00002673
 Iteration  3 RMS(Cart)=  0.00000029 RMS(Int)=  0.00002672
 ITry= 1 IFail=0 DXMaxC= 7.82D-02 DCOld= 1.00D+10 DXMaxT= 3.00D-01 DXLimC= 3.00D+00 Rises=F
 Variable       Old X    -DE/DX   Delta X   Delta X   Delta X     New X
                                 (Linear)    (Quad)   (Total)
    R1        2.64397   0.00464   0.00000   0.01009   0.01009   2.65407
    R2        1.82680   0.00059   0.00000   0.00109   0.00109   1.82789
    R3        2.65410   0.00048   0.00000   0.00106   0.00106   2.65516
    R4        2.89160  -0.00508   0.00000  -0.01718  -0.01718   2.87442
    R5        2.08043   0.00276   0.00000   0.00818   0.00818   2.08860
    R6        1.82526  -0.00061   0.00000  -0.00112  -0.00112   1.82414
    R7        2.87685   0.00153   0.00000   0.00505   0.00505   2.88190
    R8        2.05939   0.00722   0.00000   0.02063   0.02063   2.08001
    R9        2.06452   0.00724   0.00000   0.02086   0.02086   2.08538
   R10        2.05499   0.00846   0.00000   0.02399   0.02399   2.07898
   R11        2.05317   0.00884   0.00000   0.02499   0.02499   2.07815
   R12        2.05455   0.00935   0.00000   0.02649   0.02649   2.08104
    A1        1.89442  -0.00248   0.00000  -0.01535  -0.01535   1.87907
    A2        1.93888   0.00083   0.00000   0.00667   0.00668   1.94555
    A3        1.97081  -0.00106   0.00000  -0.00425  -0.00425   1.96656
    A4        1.82560   0.00041   0.00000   0.00246   0.00245   1.82805
    A5        1.87457   0.00032   0.00000   0.00201   0.00201   1.87658
    A6        1.93123  -0.00035   0.00000  -0.00292  -0.00292   1.92831
    A7        1.92355  -0.00018   0.00000  -0.00422  -0.00423   1.91932
    A8        1.90425  -0.00498   0.00000  -0.03079  -0.03079   1.87346
    A9        1.95262   0.00292   0.00000   0.01621   0.01617   1.96879
   A10        1.87885  -0.00038   0.00000   0.00255   0.00248   1.88133
   A11        1.88727  -0.00172   0.00000  -0.01161  -0.01165   1.87562
   A12        1.93246  -0.00095   0.00000  -0.00128  -0.00135   1.93111
   A13        1.92780   0.00001   0.00000   0.00337   0.00342   1.93122
   A14        1.88246  -0.00001   0.00000  -0.01043  -0.01045   1.87201
   A15        1.92672   0.00083   0.00000   0.00489   0.00486   1.93159
   A16        1.92372   0.00208   0.00000   0.01234   0.01230   1.93601
   A17        1.92758   0.00153   0.00000   0.01018   0.01013   1.93771
   A18        1.89892  -0.00167   0.00000  -0.01177  -0.01179   1.88713
   A19        1.88998  -0.00110   0.00000  -0.00581  -0.00585   1.88413
   A20        1.89615  -0.00181   0.00000  -0.01072  -0.01078   1.88536
    D1       -1.14985  -0.00018   0.00000  -0.01008  -0.01007  -1.15991
    D2        0.95745   0.00010   0.00000  -0.00564  -0.00564   0.95181
    D3        3.04923  -0.00043   0.00000  -0.01150  -0.01151   3.03772
    D4       -0.96405  -0.00093   0.00000  -0.02832  -0.02831  -0.99235
    D5       -3.12719  -0.00036   0.00000  -0.02863  -0.02864   3.12736
    D6        1.05574  -0.00014   0.00000  -0.02303  -0.02304   1.03270
    D7        1.10266  -0.00041   0.00000  -0.04795  -0.04799   1.05467
    D8       -3.05362  -0.00002   0.00000  -0.03771  -0.03770  -3.09132
    D9       -1.02410  -0.00112   0.00000  -0.05461  -0.05458  -1.07868
   D10       -3.03697   0.00018   0.00000  -0.04084  -0.04089  -3.07786
   D11       -0.91007   0.00057   0.00000  -0.03061  -0.03060  -0.94067
   D12        1.11945  -0.00053   0.00000  -0.04751  -0.04748   1.07197
   D13       -0.93185  -0.00015   0.00000  -0.04562  -0.04566  -0.97751
   D14        1.19505   0.00023   0.00000  -0.03538  -0.03537   1.15968
   D15       -3.05861  -0.00086   0.00000  -0.05228  -0.05225  -3.11086
   D16       -0.97441   0.00011   0.00000  -0.01596  -0.01598  -0.99040
   D17       -3.07266   0.00032   0.00000  -0.01240  -0.01241  -3.08506
   D18        1.11519   0.00025   0.00000  -0.01354  -0.01356   1.10162
   D19       -3.07024  -0.00071   0.00000  -0.02918  -0.02919  -3.09943
   D20        1.11471  -0.00051   0.00000  -0.02562  -0.02562   1.08909
   D21       -0.98064  -0.00057   0.00000  -0.02675  -0.02677  -1.00741
   D22        1.12890  -0.00011   0.00000  -0.01753  -0.01751   1.11139
   D23       -0.96934   0.00010   0.00000  -0.01397  -0.01393  -0.98327
   D24       -3.06468   0.00003   0.00000  -0.01510  -0.01509  -3.07977
         Item               Value     Threshold  Converged?
 Maximum Force            0.009354     0.000450     NO 
 RMS     Force            0.002884     0.000300     NO 
 Maximum Displacement     0.078171     0.001800     NO 
 RMS     Displacement     0.028258     0.001200     NO 
 Predicted change in Energy=-8.816775D-04
 Lowest energy point so far.  Saving SCF results.
 GradGradGradGradGradGradGradGradGradGradGradGradGradGradGradGradGradGrad

 Leave Link  103 at Tue Oct 21 19:49:10 2025, MaxMem=  4294967296 cpu:               0.2 elap:               0.0
 (Enter /lrz/sys/applications/gaussian/g16.C.01/x86_64_legacy/exe/l202.exe)
                          Input orientation:                          
 ---------------------------------------------------------------------
 Center     Atomic      Atomic             Coordinates (Angstroms)
 Number     Number       Type             X           Y           Z
 ---------------------------------------------------------------------
      1          8           0       -0.602943   -1.325281    0.071143
      2          6           0       -0.450868    0.015359   -0.318853
      3          8           0       -1.562311    0.789136    0.055491
      4          6           0        0.784238    0.665452    0.285778
      5          6           0        2.078202   -0.031614   -0.121034
      6          1           0       -0.593560   -1.352548    1.037990
      7          1           0       -0.357833   -0.020806   -1.419577
      8          1           0       -2.342889    0.381792   -0.340187
      9          1           0        0.796638    1.720471   -0.027772
     10          1           0        0.662707    0.651260    1.382508
     11          1           0        2.048700   -1.096465    0.153837
     12          1           0        2.944689    0.426541    0.377625
     13          1           0        2.237114    0.033898   -1.208774
 ---------------------------------------------------------------------
                    Distance matrix (angstroms):
                    1          2          3          4          5
     1  O    0.000000
     2  C    1.404471   0.000000
     3  O    2.321938   1.405052   0.000000
     4  C    2.435849   1.521080   2.361064   0.000000
     5  C    2.983127   2.537229   3.736057   1.525038   0.000000
     6  H    0.967277   1.931981   2.547665   2.556653   3.197892
     7  H    1.995991   1.105241   2.069444   2.164142   2.760543
     8  H    2.471984   1.927297   0.965294   3.201752   4.445782
     9  H    3.353389   2.132698   2.537510   1.100696   2.172764
    10  H    2.688543   2.130504   2.594358   1.103535   2.174990
    11  H    2.662782   2.776225   4.074870   2.172700   1.100151
    12  H    3.968439   3.490552   4.533023   2.175561   1.099712
    13  H    3.398747   2.831528   4.074848   2.177934   1.101238
                    6          7          8          9         10
     6  H    0.000000
     7  H    2.805127   0.000000
     8  H    2.822669   2.295128   0.000000
     9  H    3.537222   2.510372   3.427286   0.000000
    10  H    2.390009   3.056935   3.474752   1.774835   0.000000
    11  H    2.798007   3.069865   4.659974   3.088004   2.546596
    12  H    4.015027   3.786384   5.336266   2.540222   2.503544
    13  H    3.870775   2.604070   4.674602   2.512820   3.094291
                   11         12         13
    11  H    0.000000
    12  H    1.781130   0.000000
    13  H    1.780430   1.780868   0.000000
 Stoichiometry    C3H8O2
 Framework group  C1[X(C3H8O2)]
 Deg. of freedom    33
 Full point group                 C1      NOp   1
 RotChk:  IX=0 Diff= 2.82D-02
 Largest Abelian subgroup         C1      NOp   1
 Largest concise Abelian subgroup C1      NOp   1
                         Standard orientation:                         
 ---------------------------------------------------------------------
 Center     Atomic      Atomic             Coordinates (Angstroms)
 Number     Number       Type             X           Y           Z
 ---------------------------------------------------------------------
      1          8           0       -0.663722    1.333417   -0.071717
      2          6           0       -0.511252   -0.006627    0.320170
      3          8           0       -1.622770   -0.781116   -0.052475
      4          6           0        0.723644   -0.657426   -0.284129
      5          6           0        2.017710    0.040426    0.121005
      6          1           0       -0.654830    1.359265   -1.038608
      7          1           0       -0.417667    0.031169    1.420793
      8          1           0       -2.403208   -0.373305    0.342999
      9          1           0        0.736357   -1.711981    0.030964
     10          1           0        0.601557   -0.644863   -1.380817
     11          1           0        1.987913    1.104868   -0.155415
     12          1           0        2.884013   -0.418334   -0.377418
     13          1           0        2.177182   -0.023465    1.208760
 ---------------------------------------------------------------------
 Rotational constants (GHZ):           8.4967927           3.5864873           2.7797423
 Leave Link  202 at Tue Oct 21 19:49:10 2025, MaxMem=  4294967296 cpu:               0.1 elap:               0.0
 (Enter /lrz/sys/applications/gaussian/g16.C.01/x86_64_legacy/exe/l301.exe)
 Standard basis: def2SVP (5D, 7F)
 Ernie: Thresh=  0.10000D-02 Tol=  0.10000D-05 Strict=F.
 There are   115 symmetry adapted cartesian basis functions of A   symmetry.
 There are   110 symmetry adapted basis functions of A   symmetry.
   110 basis functions,   181 primitive gaussians,   115 cartesian basis functions
    21 alpha electrons       21 beta electrons
       nuclear repulsion energy       195.0573877509 Hartrees.
 IExCor= 4639 DFT=T Ex+Corr=wB97XD ExCW=0 ScaHFX=  1.000000
 ScaDFX=  1.000000  1.000000  1.000000  1.000000 ScalE2=  1.000000  1.000000
 IRadAn=      5 IRanWt=     -1 IRanGd=            0 ICorTp=0 IEmpDi=121
 HFx  wShort=  0.000000 wLong=  0.200000 cFull=  0.222036 cShort=  0.000000 cLong=  0.777964
 DFx  wShort=  0.000000 wLong=  0.200000 cFull=  0.000000 cShort=  0.000000 cLong=  1.000000
 NAtoms=   13 NActive=   13 NUniq=   13 SFac= 1.00D+00 NAtFMM=   60 NAOKFM=F Big=F
 Integral buffers will be    131072 words long.
 Raffenetti 2 integral format.
 Two-electron integral symmetry is turned on.
 R6Disp:  Grimme-D2 Dispersion energy=       -0.0055671857 Hartrees.
 Nuclear repulsion after empirical dispersion term =      195.0518205652 Hartrees.
 ------------------------------------------------------------------------------
 Polarizable Continuum Model (PCM)
 =================================
 Model                : PCM.
 Atomic radii         : SMD-Coulomb.
 Polarization charges : Total charges.
 Charge compensation  : None.
 Solution method      : On-the-fly selection.
 Cavity type          : VdW (van der Waals Surface) (Alpha=1.000).
 Cavity algorithm     : GePol (No added spheres)
                        Default sphere list used, NSphG=   13.
                        Lebedev-Laikov grids with approx.  5.0 points / Ang**2.
                        Smoothing algorithm: York/Karplus (Gamma=1.0000).
                        Polarization charges: spherical gaussians, with
                                              point-specific exponents (IZeta= 3).
                        Self-potential: point-specific (ISelfS= 7).
                        Self-field    : sphere-specific E.n sum rule (ISelfD= 2).
 1st derivatives      : Analytical E(r).r(x)/FMM algorithm (CHGder, D1EAlg=3).
                        Cavity 1st derivative terms included.
 Solvent              : Water, Eps=  78.355300 Eps(inf)=   1.777849
 ------------------------------------------------------------------------------
 Spheres list:
 ISph  on   Nord     Re0    Alpha      Xe            Ye            Ze
    1   O      1    1.5200  1.000     -0.663722      1.333417     -0.071717
    2   C      2    1.8500  1.000     -0.511252     -0.006627      0.320170
    3   O      3    1.5200  1.000     -1.622770     -0.781116     -0.052475
    4   C      4    1.8500  1.000      0.723644     -0.657426     -0.284129
    5   C      5    1.8500  1.000      2.017710      0.040426      0.121005
    6   H      6    1.2000  1.000     -0.654830      1.359265     -1.038608
    7   H      7    1.2000  1.000     -0.417667      0.031169      1.420793
    8   H      8    1.2000  1.000     -2.403208     -0.373305      0.342999
    9   H      9    1.2000  1.000      0.736357     -1.711981      0.030964
   10   H     10    1.2000  1.000      0.601557     -0.644863     -1.380817
   11   H     11    1.2000  1.000      1.987913      1.104868     -0.155415
   12   H     12    1.2000  1.000      2.884013     -0.418334     -0.377418
   13   H     13    1.2000  1.000      2.177182     -0.023465      1.208760
 ------------------------------------------------------------------------------
 GePol: Number of generator spheres                  =      13
 GePol: Total number of spheres                      =      13
 GePol: Number of exposed spheres                    =      13 (100.00%)
 GePol: Number of points                             =     919
 GePol: Average weight of points                     =       0.12
 GePol: Minimum weight of points                     =   0.33D-06
 GePol: Maximum weight of points                     =    0.21991
 GePol: Number of points with low weight             =      68
 GePol: Fraction of low-weight points (<1% of avg)   =       7.40%
 GePol: Cavity surface area                          =    110.947 Ang**2
 GePol: Cavity volume                                =     82.102 Ang**3
 ------------------------------------------------------------------------------
 Atomic radii for non-electrostatic terms: SMD-CDS.
 ------------------------------------------------------------------------------
 PCM non-electrostatic energy =         0.0047282859 Hartrees.
 Nuclear repulsion after PCM non-electrostatic terms =      195.0565488511 Hartrees.
 Leave Link  301 at Tue Oct 21 19:49:10 2025, MaxMem=  4294967296 cpu:               0.5 elap:               0.1
 (Enter /lrz/sys/applications/gaussian/g16.C.01/x86_64_legacy/exe/l302.exe)
 NPDir=0 NMtPBC=     1 NCelOv=     1 NCel=       1 NClECP=     1 NCelD=      1
         NCelK=      1 NCelE2=     1 NClLst=     1 CellRange=     0.0.
 One-electron integrals computed using PRISM.
 One-electron integral symmetry used in STVInt
   1 Symmetry operations used in ECPInt.
 ECPInt:  NShTT=    1485 NPrTT=    5139 LenC2=    1483 LenP2D=    4436.
 LDataN:  DoStor=T MaxTD1= 4 Len=   56
 NBasis=   110 RedAO= T EigKep=  2.29D-03  NBF=   110
 NBsUse=   110 1.00D-06 EigRej= -1.00D+00 NBFU=   110
 Precomputing XC quadrature grid using
 IXCGrd= 4 IRadAn=           5 IRanWt=          -1 IRanGd=           0 AccXCQ= 0.00D+00.
 Generated NRdTot=       0 NPtTot=           0 NUsed=           0 NTot=          32
 NSgBfM=   115   115   115   115   115 MxSgAt=    13 MxSgA2=    13.
 Leave Link  302 at Tue Oct 21 19:49:10 2025, MaxMem=  4294967296 cpu:               1.2 elap:               0.2
 (Enter /lrz/sys/applications/gaussian/g16.C.01/x86_64_legacy/exe/l303.exe)
 DipDrv:  MaxL=1.
 Leave Link  303 at Tue Oct 21 19:49:10 2025, MaxMem=  4294967296 cpu:               0.2 elap:               0.0
 (Enter /lrz/sys/applications/gaussian/g16.C.01/x86_64_legacy/exe/l401.exe)
 Initial guess from the checkpoint file:  "g16_C3-w_1.chk"
 B after Tr=     0.000000    0.000000    0.000000
         Rot=    0.999981    0.003618    0.000301    0.004889 Ang=   0.70 deg.
 Guess basis will be translated and rotated to current coordinates.
 JPrj=2 DoOrth=T DoCkMO=T.
 Generating alternative initial guess.
 ExpMin= 1.22D-01 ExpMax= 2.27D+03 ExpMxC= 3.41D+02 IAcc=3 IRadAn=         5 AccDes= 0.00D+00
 Harris functional with IExCor= 4639 and IRadAn=       5 diagonalized for initial guess.
 HarFok:  IExCor= 4639 AccDes= 0.00D+00 IRadAn=         5 IDoV= 1 UseB2=F ITyADJ=14
 ICtDFT=  3500011 ScaDFX=  1.000000  1.000000  1.000000  1.000000
 FoFCou: FMM=F IPFlag=           0 FMFlag=      100000 FMFlg1=           0
         NFxFlg=           0 DoJE=T BraDBF=F KetDBF=T FulRan=T
         wScrn=  0.000000 ICntrl=       500 IOpCl=  0 I1Cent=   200000004 NGrid=           0
         NMat0=    1 NMatS0=      1 NMatT0=    0 NMatD0=    1 NMtDS0=    0 NMtDT0=    0
 Petite list used in FoFCou.
 Harris En= -258.106040934229    
 Leave Link  401 at Tue Oct 21 19:49:11 2025, MaxMem=  4294967296 cpu:               5.4 elap:               0.7
 (Enter /lrz/sys/applications/gaussian/g16.C.01/x86_64_legacy/exe/l502.exe)
 Integral symmetry usage will be decided dynamically.
 Closed shell SCF:
 Using DIIS extrapolation, IDIIS=  1040.
 NGot=  4294967296 LenX=  4294938204 LenY=  4294924538
 Requested convergence on RMS density matrix=1.00D-08 within 128 cycles.
 Requested convergence on MAX density matrix=1.00D-06.
 Requested convergence on             energy=1.00D-06.
 No special actions if energy rises.
 Fock matrices will be formed incrementally for  20 cycles.

 Cycle   1  Pass 1  IDiag  1:
 FoFJK:  IHMeth= 1 ICntrl=       0 DoSepK=T KAlg= 0 I1Cent=           0 FoldK=F
 IRaf=         1 NMat=       1 IRICut=       1 DoRegI=T DoRafI=F ISym2E= 0 IDoP0=0 IntGTp=1.
 FoFCou: FMM=F IPFlag=           0 FMFlag=      100000 FMFlg1=           0
         NFxFlg=           0 DoJE=T BraDBF=F KetDBF=F FulRan=T
         wScrn=  0.000000 ICntrl=       500 IOpCl=  0 I1Cent=           0 NGrid=           0
         NMat0=    1 NMatS0=      1 NMatT0=    0 NMatD0=    1 NMtDS0=    0 NMtDT0=    0
 Symmetry not used in FoFCou.
 Inv3:  Mode=1 IEnd=     2533683.
 Iteration    1 A*A^-1 deviation from unit magnitude is 4.88D-15 for    514.
 Iteration    1 A*A^-1 deviation from orthogonality  is 4.13D-15 for    885    544.
 Iteration    1 A^-1*A deviation from unit magnitude is 5.11D-15 for    514.
 Iteration    1 A^-1*A deviation from orthogonality  is 2.14D-15 for    476    350.
 E= -269.316503360098    
 DIIS: error= 1.41D-03 at cycle   1 NSaved=   1.
 NSaved= 1 IEnMin= 1 EnMin= -269.316503360098     IErMin= 1 ErrMin= 1.41D-03
 ErrMax= 1.41D-03  0.00D+00 EMaxC= 1.00D-01 BMatC= 7.21D-04 BMatP= 7.21D-04
 IDIUse=3 WtCom= 9.86D-01 WtEn= 1.41D-02
 Coeff-Com:  0.100D+01
 Coeff-En:   0.100D+01
 Coeff:      0.100D+01
 Gap=     0.784 Goal=   None    Shift=    0.000
 GapD=    0.784 DampG=2.000 DampE=1.000 DampFc=2.0000 IDamp=-1.
 RMSDP=4.12D-04 MaxDP=5.92D-03              OVMax= 7.12D-03

 Cycle   2  Pass 1  IDiag  1:
 RMSU=  4.11D-04    CP:  9.99D-01
 E= -269.317555808072     Delta-E=       -0.001052447974 Rises=F Damp=F
 DIIS: error= 3.10D-04 at cycle   2 NSaved=   2.
 NSaved= 2 IEnMin= 2 EnMin= -269.317555808072     IErMin= 2 ErrMin= 3.10D-04
 ErrMax= 3.10D-04  0.00D+00 EMaxC= 1.00D-01 BMatC= 3.02D-05 BMatP= 7.21D-04
 IDIUse=3 WtCom= 9.97D-01 WtEn= 3.10D-03
 Coeff-Com: -0.130D+00 0.113D+01
 Coeff-En:   0.000D+00 0.100D+01
 Coeff:     -0.129D+00 0.113D+01
 Gap=     0.515 Goal=   None    Shift=    0.000
 RMSDP=1.03D-04 MaxDP=2.04D-03 DE=-1.05D-03 OVMax= 2.35D-03

 Cycle   3  Pass 1  IDiag  1:
 RMSU=  6.84D-05    CP:  9.99D-01  1.19D+00
 E= -269.317607995993     Delta-E=       -0.000052187921 Rises=F Damp=F
 DIIS: error= 2.03D-04 at cycle   3 NSaved=   3.
 NSaved= 3 IEnMin= 3 EnMin= -269.317607995993     IErMin= 3 ErrMin= 2.03D-04
 ErrMax= 2.03D-04  0.00D+00 EMaxC= 1.00D-01 BMatC= 8.78D-06 BMatP= 3.02D-05
 IDIUse=3 WtCom= 9.98D-01 WtEn= 2.03D-03
 Coeff-Com: -0.729D-01 0.425D+00 0.648D+00
 Coeff-En:   0.000D+00 0.000D+00 0.100D+01
 Coeff:     -0.728D-01 0.424D+00 0.649D+00
 Gap=     0.515 Goal=   None    Shift=    0.000
 RMSDP=2.80D-05 MaxDP=8.98D-04 DE=-5.22D-05 OVMax= 7.08D-04

 Cycle   4  Pass 1  IDiag  1:
 RMSU=  2.39D-05    CP:  9.99D-01  1.21D+00  8.63D-01
 E= -269.317616580092     Delta-E=       -0.000008584099 Rises=F Damp=F
 DIIS: error= 4.26D-05 at cycle   4 NSaved=   4.
 NSaved= 4 IEnMin= 4 EnMin= -269.317616580092     IErMin= 4 ErrMin= 4.26D-05
 ErrMax= 4.26D-05  0.00D+00 EMaxC= 1.00D-01 BMatC= 4.77D-07 BMatP= 8.78D-06
 IDIUse=1 WtCom= 1.00D+00 WtEn= 0.00D+00
 Coeff-Com: -0.226D-02-0.293D-01 0.137D+00 0.894D+00
 Coeff:     -0.226D-02-0.293D-01 0.137D+00 0.894D+00
 Gap=     0.515 Goal=   None    Shift=    0.000
 RMSDP=1.02D-05 MaxDP=1.51D-04 DE=-8.58D-06 OVMax= 2.05D-04

 Cycle   5  Pass 1  IDiag  1:
 RMSU=  6.21D-06    CP:  9.99D-01  1.22D+00  9.65D-01  1.10D+00
 E= -269.317617093796     Delta-E=       -0.000000513704 Rises=F Damp=F
 DIIS: error= 2.20D-05 at cycle   5 NSaved=   5.
 NSaved= 5 IEnMin= 5 EnMin= -269.317617093796     IErMin= 5 ErrMin= 2.20D-05
 ErrMax= 2.20D-05  0.00D+00 EMaxC= 1.00D-01 BMatC= 1.08D-07 BMatP= 4.77D-07
 IDIUse=1 WtCom= 1.00D+00 WtEn= 0.00D+00
 Coeff-Com:  0.429D-02-0.459D-01 0.126D-01 0.403D+00 0.626D+00
 Coeff:      0.429D-02-0.459D-01 0.126D-01 0.403D+00 0.626D+00
 Gap=     0.515 Goal=   None    Shift=    0.000
 RMSDP=3.22D-06 MaxDP=5.72D-05 DE=-5.14D-07 OVMax= 6.09D-05

 Cycle   6  Pass 1  IDiag  1:
 RMSU=  1.83D-06    CP:  9.99D-01  1.22D+00  9.86D-01  1.17D+00  8.03D-01
 E= -269.317617186920     Delta-E=       -0.000000093124 Rises=F Damp=F
 DIIS: error= 2.96D-06 at cycle   6 NSaved=   6.
 NSaved= 6 IEnMin= 6 EnMin= -269.317617186920     IErMin= 6 ErrMin= 2.96D-06
 ErrMax= 2.96D-06  0.00D+00 EMaxC= 1.00D-01 BMatC= 2.48D-09 BMatP= 1.08D-07
 IDIUse=1 WtCom= 1.00D+00 WtEn= 0.00D+00
 Coeff-Com:  0.106D-02-0.663D-02-0.937D-02-0.648D-02 0.107D+00 0.915D+00
 Coeff:      0.106D-02-0.663D-02-0.937D-02-0.648D-02 0.107D+00 0.915D+00
 Gap=     0.515 Goal=   None    Shift=    0.000
 RMSDP=1.06D-06 MaxDP=1.69D-05 DE=-9.31D-08 OVMax= 2.21D-05

 Cycle   7  Pass 1  IDiag  1:
 RMSU=  3.75D-07    CP:  9.99D-01  1.22D+00  9.93D-01  1.19D+00  8.93D-01
                    CP:  1.14D+00
 E= -269.317617190860     Delta-E=       -0.000000003940 Rises=F Damp=F
 DIIS: error= 5.85D-07 at cycle   7 NSaved=   7.
 NSaved= 7 IEnMin= 7 EnMin= -269.317617190860     IErMin= 7 ErrMin= 5.85D-07
 ErrMax= 5.85D-07  0.00D+00 EMaxC= 1.00D-01 BMatC= 9.28D-11 BMatP= 2.48D-09
 IDIUse=1 WtCom= 1.00D+00 WtEn= 0.00D+00
 Coeff-Com: -0.122D-03 0.177D-02-0.105D-02-0.204D-01-0.250D-01 0.584D-01
 Coeff-Com:  0.986D+00
 Coeff:     -0.122D-03 0.177D-02-0.105D-02-0.204D-01-0.250D-01 0.584D-01
 Coeff:      0.986D+00
 Gap=     0.515 Goal=   None    Shift=    0.000
 RMSDP=2.74D-07 MaxDP=6.24D-06 DE=-3.94D-09 OVMax= 7.24D-06

 Cycle   8  Pass 1  IDiag  1:
 RMSU=  1.13D-07    CP:  9.99D-01  1.22D+00  9.94D-01  1.20D+00  9.12D-01
                    CP:  1.23D+00  1.19D+00
 E= -269.317617191068     Delta-E=       -0.000000000208 Rises=F Damp=F
 DIIS: error= 2.37D-07 at cycle   8 NSaved=   8.
 NSaved= 8 IEnMin= 8 EnMin= -269.317617191068     IErMin= 8 ErrMin= 2.37D-07
 ErrMax= 2.37D-07  0.00D+00 EMaxC= 1.00D-01 BMatC= 1.69D-11 BMatP= 9.28D-11
 IDIUse=1 WtCom= 1.00D+00 WtEn= 0.00D+00
 Coeff-Com: -0.969D-04 0.920D-03 0.244D-03-0.571D-02-0.141D-01-0.394D-01
 Coeff-Com:  0.313D+00 0.745D+00
 Coeff:     -0.969D-04 0.920D-03 0.244D-03-0.571D-02-0.141D-01-0.394D-01
 Coeff:      0.313D+00 0.745D+00
 Gap=     0.515 Goal=   None    Shift=    0.000
 RMSDP=6.00D-08 MaxDP=1.56D-06 DE=-2.08D-10 OVMax= 1.87D-06

 Cycle   9  Pass 1  IDiag  1:
 RMSU=  3.41D-08    CP:  9.99D-01  1.22D+00  9.94D-01  1.20D+00  9.15D-01
                    CP:  1.25D+00  1.28D+00  9.83D-01
 E= -269.317617191087     Delta-E=       -0.000000000018 Rises=F Damp=F
 DIIS: error= 7.12D-08 at cycle   9 NSaved=   9.
 NSaved= 9 IEnMin= 9 EnMin= -269.317617191087     IErMin= 9 ErrMin= 7.12D-08
 ErrMax= 7.12D-08  0.00D+00 EMaxC= 1.00D-01 BMatC= 1.03D-12 BMatP= 1.69D-11
 IDIUse=1 WtCom= 1.00D+00 WtEn= 0.00D+00
 Coeff-Com: -0.960D-06-0.574D-04 0.136D-03 0.143D-02 0.644D-03-0.129D-01
 Coeff-Com: -0.596D-01 0.111D+00 0.960D+00
 Coeff:     -0.960D-06-0.574D-04 0.136D-03 0.143D-02 0.644D-03-0.129D-01
 Coeff:     -0.596D-01 0.111D+00 0.960D+00
 Gap=     0.515 Goal=   None    Shift=    0.000
 RMSDP=2.46D-08 MaxDP=7.39D-07 DE=-1.83D-11 OVMax= 7.58D-07

 Cycle  10  Pass 1  IDiag  1:
 RMSU=  8.39D-09    CP:  9.99D-01  1.22D+00  9.94D-01  1.20D+00  9.15D-01
                    CP:  1.25D+00  1.32D+00  1.12D+00  1.16D+00
 E= -269.317617191091     Delta-E=       -0.000000000004 Rises=F Damp=F
 DIIS: error= 3.02D-08 at cycle  10 NSaved=  10.
 NSaved=10 IEnMin=10 EnMin= -269.317617191091     IErMin=10 ErrMin= 3.02D-08
 ErrMax= 3.02D-08  0.00D+00 EMaxC= 1.00D-01 BMatC= 1.88D-13 BMatP= 1.03D-12
 IDIUse=1 WtCom= 1.00D+00 WtEn= 0.00D+00
 Coeff-Com:  0.761D-05-0.952D-04 0.313D-04 0.992D-03 0.132D-02-0.206D-02
 Coeff-Com: -0.456D-01-0.123D-01 0.376D+00 0.682D+00
 Coeff:      0.761D-05-0.952D-04 0.313D-04 0.992D-03 0.132D-02-0.206D-02
 Coeff:     -0.456D-01-0.123D-01 0.376D+00 0.682D+00
 Gap=     0.515 Goal=   None    Shift=    0.000
 RMSDP=5.59D-09 MaxDP=1.40D-07 DE=-3.92D-12 OVMax= 1.60D-07

 Error on total polarization charges =  0.03209
 SCF Done:  E(RwB97XD) =  -269.317617191     A.U. after   10 cycles
            NFock= 10  Conv=0.56D-08     -V/T= 2.0096
 KE= 2.667591269215D+02 PE=-1.020067258900D+03 EE= 2.889339659359D+02
 SMD-CDS (non-electrostatic) energy       (kcal/mol) =       2.97
 (included in total energy above)
 Leave Link  502 at Tue Oct 21 19:49:25 2025, MaxMem=  4294967296 cpu:             114.6 elap:              14.4
 (Enter /lrz/sys/applications/gaussian/g16.C.01/x86_64_legacy/exe/l701.exe)
 ... and contract with generalized density number  0.
 Compute integral first derivatives.
 R6Disp: Adding Grimme-D2 dispersion energy 1st derivatives to the gradient.
   1 Symmetry operations used in ECPInt.
 ECPInt:  NShTT=    1485 NPrTT=    5139 LenC2=    1483 LenP2D=    4436.
 LDataN:  DoStor=T MaxTD1= 5 Len=  102
 D1PCM: PCM CHGder 1st derivatives, ID1Alg=3 FixD1E=F DoIter=F DoCFld=F I1PDM=0.
 GePol: Maximum number of non-zero 1st derivatives   =     248
 Leave Link  701 at Tue Oct 21 19:49:26 2025, MaxMem=  4294967296 cpu:               4.3 elap:               0.6
 (Enter /lrz/sys/applications/gaussian/g16.C.01/x86_64_legacy/exe/l702.exe)
 L702 exits ... SP integral derivatives will be done elsewhere.
 Leave Link  702 at Tue Oct 21 19:49:26 2025, MaxMem=  4294967296 cpu:               0.2 elap:               0.0
 (Enter /lrz/sys/applications/gaussian/g16.C.01/x86_64_legacy/exe/l703.exe)
 Integral derivatives from FoFJK, PRISM(SPDF).
 Compute integral first derivatives, UseDBF=F ICtDFT=           0.
 Calling FoFJK, ICntrl=      2127 FMM=F ISym2X=0 I1Cent= 0 IOpClX= 0 NMat=1 NMatS=1 NMatT=0.
 FoFJK:  IHMeth= 1 ICntrl=    2127 DoSepK=T KAlg= 0 I1Cent=           0 FoldK=F
 IRaf=         1 NMat=       1 IRICut=       1 DoRegI=T DoRafI=F ISym2E= 0 IDoP0=0 IntGTp=1.
 FoFCou: FMM=F IPFlag=           0 FMFlag=      100000 FMFlg1=         800
         NFxFlg=           0 DoJE=F BraDBF=F KetDBF=F FulRan=T
         wScrn=  0.000000 ICntrl=      2527 IOpCl=  0 I1Cent=           0 NGrid=           0
         NMat0=    1 NMatS0=      1 NMatT0=    0 NMatD0=    1 NMtDS0=    0 NMtDT0=    0
 Symmetry not used in FoFCou.
 Leave Link  703 at Tue Oct 21 19:49:28 2025, MaxMem=  4294967296 cpu:              17.3 elap:               2.2
 (Enter /lrz/sys/applications/gaussian/g16.C.01/x86_64_legacy/exe/l716.exe)
 Dipole        = 1.44300796D-02 4.11237228D-02-1.11589952D-01
 ***** Axes restored to original set *****
 -------------------------------------------------------------------
 Center     Atomic                   Forces (Hartrees/Bohr)
 Number     Number              X              Y              Z
 -------------------------------------------------------------------
      1        8          -0.000827114   -0.000350016    0.000026363
      2        6           0.001997744    0.002022285   -0.000377275
      3        8          -0.000256153   -0.001235031    0.000763758
      4        6           0.000809958   -0.002404061   -0.001750808
      5        6          -0.002155378    0.001393250    0.001234132
      6        1           0.000218364   -0.000028443    0.000256683
      7        1          -0.000587389   -0.000223199   -0.000065648
      8        1          -0.000440296    0.000389794   -0.000526670
      9        1           0.000335877    0.000169980    0.000443347
     10        1           0.000028972    0.000558210    0.000358545
     11        1           0.000544512    0.000045597   -0.000023733
     12        1           0.000104074   -0.000093029   -0.000311712
     13        1           0.000226828   -0.000245336   -0.000026983
 -------------------------------------------------------------------
 Cartesian Forces:  Max     0.002404061 RMS     0.000895278
 Leave Link  716 at Tue Oct 21 19:49:28 2025, MaxMem=  4294967296 cpu:               0.2 elap:               0.0
 (Enter /lrz/sys/applications/gaussian/g16.C.01/x86_64_legacy/exe/l103.exe)

 GradGradGradGradGradGradGradGradGradGradGradGradGradGradGradGradGradGrad
 Berny optimization.
 Using GEDIIS/GDIIS optimizer.
 FormGI is forming the generalized inverse of G from B-inverse, IUseBI=4.
 Internal  Forces:  Max     0.001818302 RMS     0.000419386
 Search for a local minimum.
 Step number   2 out of a maximum of   66
 All quantities printed in internal units (Hartrees-Bohrs-Radians)
 RMS Force = .41939D-03 SwitMx=.10000D-02 MixMth= 2
 Mixed Optimization -- En-DIIS/RFO-DIIS
 Update second derivatives using D2CorX and points    1    2
 DE= -9.11D-04 DEPred=-8.82D-04 R= 1.03D+00
 TightC=F SS=  1.41D+00  RLast= 1.71D-01 DXNew= 5.0454D-01 5.1287D-01
 Trust test= 1.03D+00 RLast= 1.71D-01 DXMaxT set to 5.05D-01
 ITU=  1  0
 Use linear search instead of GDIIS.
     Eigenvalues ---    0.00359   0.00463   0.01582   0.01700   0.03599
     Eigenvalues ---    0.04756   0.05601   0.05631   0.05667   0.05972
     Eigenvalues ---    0.08399   0.09605   0.12215   0.15568   0.16000
     Eigenvalues ---    0.16000   0.16000   0.16458   0.19025   0.20774
     Eigenvalues ---    0.21552   0.29015   0.30229   0.33601   0.34491
     Eigenvalues ---    0.34880   0.35119   0.35182   0.37192   0.44878
     Eigenvalues ---    0.45591   0.54048   0.54290
 RFO step:  Lambda=-1.45476599D-04 EMin= 3.59086128D-03
 Quartic linear search produced a step of  0.07744.
 Iteration  1 RMS(Cart)=  0.02359078 RMS(Int)=  0.00029991
 Iteration  2 RMS(Cart)=  0.00032012 RMS(Int)=  0.00000723
 Iteration  3 RMS(Cart)=  0.00000008 RMS(Int)=  0.00000723
 ITry= 1 IFail=0 DXMaxC= 7.98D-02 DCOld= 1.00D+10 DXMaxT= 5.05D-01 DXLimC= 3.00D+00 Rises=F
 Variable       Old X    -DE/DX   Delta X   Delta X   Delta X     New X
                                 (Linear)    (Quad)   (Total)
    R1        2.65407   0.00050   0.00078   0.00107   0.00185   2.65592
    R2        1.82789   0.00027   0.00008   0.00052   0.00060   1.82849
    R3        2.65516   0.00015   0.00008   0.00034   0.00042   2.65559
    R4        2.87442  -0.00036  -0.00133  -0.00115  -0.00248   2.87194
    R5        2.08860   0.00002   0.00063  -0.00001   0.00063   2.08923
    R6        1.82414   0.00041  -0.00009   0.00082   0.00073   1.82487
    R7        2.88190  -0.00182   0.00039  -0.00654  -0.00615   2.87576
    R8        2.08001   0.00004   0.00160  -0.00008   0.00151   2.08153
    R9        2.08538   0.00034   0.00162   0.00085   0.00247   2.08784
   R10        2.07898  -0.00006   0.00186  -0.00043   0.00142   2.08041
   R11        2.07815  -0.00010   0.00193  -0.00056   0.00138   2.07953
   R12        2.08104   0.00004   0.00205  -0.00015   0.00190   2.08294
    A1        1.87907  -0.00002  -0.00119   0.00001  -0.00118   1.87789
    A2        1.94555  -0.00083   0.00052  -0.00710  -0.00659   1.93897
    A3        1.96656   0.00028  -0.00033   0.00110   0.00077   1.96733
    A4        1.82805  -0.00008   0.00019  -0.00092  -0.00074   1.82731
    A5        1.87658   0.00049   0.00016   0.00207   0.00223   1.87881
    A6        1.92831  -0.00014  -0.00023  -0.00082  -0.00107   1.92724
    A7        1.91932   0.00027  -0.00033   0.00572   0.00538   1.92470
    A8        1.87346   0.00057  -0.00238   0.00418   0.00179   1.87525
    A9        1.96879   0.00099   0.00125   0.00650   0.00774   1.97653
   A10        1.88133  -0.00015   0.00019   0.00069   0.00088   1.88221
   A11        1.87562  -0.00008  -0.00090   0.00263   0.00172   1.87734
   A12        1.93111  -0.00037  -0.00010  -0.00274  -0.00287   1.92824
   A13        1.93122  -0.00031   0.00027  -0.00109  -0.00085   1.93038
   A14        1.87201  -0.00011  -0.00081  -0.00645  -0.00727   1.86474
   A15        1.93159   0.00061   0.00038   0.00443   0.00480   1.93639
   A16        1.93601   0.00017   0.00095   0.00067   0.00162   1.93763
   A17        1.93771   0.00029   0.00078   0.00184   0.00261   1.94032
   A18        1.88713  -0.00041  -0.00091  -0.00254  -0.00346   1.88367
   A19        1.88413  -0.00040  -0.00045  -0.00195  -0.00242   1.88172
   A20        1.88536  -0.00032  -0.00084  -0.00279  -0.00363   1.88173
    D1       -1.15991  -0.00042  -0.00078  -0.00879  -0.00957  -1.16948
    D2        0.95181  -0.00019  -0.00044  -0.01046  -0.01090   0.94091
    D3        3.03772   0.00024  -0.00089  -0.00353  -0.00443   3.03329
    D4       -0.99235  -0.00007  -0.00219  -0.02119  -0.02338  -1.01574
    D5        3.12736  -0.00022  -0.00222  -0.01941  -0.02163   3.10573
    D6        1.03270  -0.00077  -0.00178  -0.02715  -0.02893   1.00378
    D7        1.05467   0.00018  -0.00372  -0.02672  -0.03043   1.02424
    D8       -3.09132   0.00025  -0.00292  -0.02548  -0.02839  -3.11971
    D9       -1.07868   0.00000  -0.00423  -0.03132  -0.03554  -1.11422
   D10       -3.07786  -0.00035  -0.00317  -0.03352  -0.03669  -3.11455
   D11       -0.94067  -0.00028  -0.00237  -0.03228  -0.03465  -0.97532
   D12        1.07197  -0.00053  -0.00368  -0.03811  -0.04180   1.03017
   D13       -0.97751  -0.00007  -0.00354  -0.02995  -0.03349  -1.01100
   D14        1.15968   0.00001  -0.00274  -0.02872  -0.03145   1.12823
   D15       -3.11086  -0.00024  -0.00405  -0.03455  -0.03860   3.13373
   D16       -0.99040  -0.00018  -0.00124  -0.02574  -0.02698  -1.01738
   D17       -3.08506  -0.00018  -0.00096  -0.02591  -0.02688  -3.11194
   D18        1.10162  -0.00009  -0.00105  -0.02406  -0.02512   1.07651
   D19       -3.09943  -0.00040  -0.00226  -0.02916  -0.03141  -3.13084
   D20        1.08909  -0.00041  -0.00198  -0.02933  -0.03131   1.05778
   D21       -1.00741  -0.00031  -0.00207  -0.02748  -0.02955  -1.03695
   D22        1.11139   0.00017  -0.00136  -0.01869  -0.02005   1.09134
   D23       -0.98327   0.00016  -0.00108  -0.01886  -0.01995  -1.00322
   D24       -3.07977   0.00026  -0.00117  -0.01702  -0.01819  -3.09796
         Item               Value     Threshold  Converged?
 Maximum Force            0.001818     0.000450     NO 
 RMS     Force            0.000419     0.000300     NO 
 Maximum Displacement     0.079786     0.001800     NO 
 RMS     Displacement     0.023609     0.001200     NO 
 Predicted change in Energy=-7.678009D-05
 Lowest energy point so far.  Saving SCF results.
 GradGradGradGradGradGradGradGradGradGradGradGradGradGradGradGradGradGrad

 Leave Link  103 at Tue Oct 21 19:49:28 2025, MaxMem=  4294967296 cpu:               0.1 elap:               0.0
 (Enter /lrz/sys/applications/gaussian/g16.C.01/x86_64_legacy/exe/l202.exe)
                          Input orientation:                          
 ---------------------------------------------------------------------
 Center     Atomic      Atomic             Coordinates (Angstroms)
 Number     Number       Type             X           Y           Z
 ---------------------------------------------------------------------
      1          8           0       -0.599044   -1.326067    0.045408
      2          6           0       -0.454155    0.022450   -0.323109
      3          8           0       -1.567199    0.779454    0.080473
      4          6           0        0.783728    0.665909    0.279631
      5          6           0        2.076157   -0.036430   -0.110464
      6          1           0       -0.570083   -1.369996    1.011573
      7          1           0       -0.378644    0.005290   -1.425966
      8          1           0       -2.348249    0.387550   -0.330518
      9          1           0        0.806061    1.719708   -0.040222
     10          1           0        0.657946    0.667150    1.377286
     11          1           0        2.057581   -1.093638    0.196057
     12          1           0        2.944525    0.440030    0.369005
     13          1           0        2.233256   -0.004217   -1.200981
 ---------------------------------------------------------------------
                    Distance matrix (angstroms):
                    1          2          3          4          5
     1  O    0.000000
     2  C    1.405452   0.000000
     3  O    2.317708   1.405276   0.000000
     4  C    2.436162   1.519766   2.362078   0.000000
     5  C    2.973913   2.539914   3.738471   1.521784   0.000000
     6  H    0.967596   1.932284   2.545844   2.552146   3.168589
     7  H    1.996504   1.105572   2.069142   2.167160   2.785378
     8  H    2.477402   1.928975   0.965682   3.202974   4.450118
     9  H    3.355353   2.132804   2.555583   1.101498   2.168432
    10  H    2.706812   2.131608   2.577907   1.104839   2.172498
    11  H    2.671024   2.797142   4.081772   2.173866   1.100905
    12  H    3.972492   3.493483   4.533664   2.174409   1.100440
    13  H    3.364922   2.827286   4.086529   2.177708   1.102245
                    6          7          8          9         10
     6  H    0.000000
     7  H    2.805291   0.000000
     8  H    2.837613   2.285929   0.000000
     9  H    3.542078   2.502606   3.436363   0.000000
    10  H    2.406608   3.061176   3.468714   1.771764   0.000000
    11  H    2.765150   3.126306   4.677877   3.088211   2.540601
    12  H    4.005192   3.801891   5.339058   2.525484   2.509314
    13  H    3.823540   2.621589   4.679891   2.521143   3.095125
                   11         12         13
    11  H    0.000000
    12  H    1.780090   0.000000
    13  H    1.780286   1.779920   0.000000
 Stoichiometry    C3H8O2
 Framework group  C1[X(C3H8O2)]
 Deg. of freedom    33
 Full point group                 C1      NOp   1
 RotChk:  IX=0 Diff= 2.56D-02
 Largest Abelian subgroup         C1      NOp   1
 Largest concise Abelian subgroup C1      NOp   1
                         Standard orientation:                         
 ---------------------------------------------------------------------
 Center     Atomic      Atomic             Coordinates (Angstroms)
 Number     Number       Type             X           Y           Z
 ---------------------------------------------------------------------
      1          8           0       -0.656354    1.333034   -0.070506
      2          6           0       -0.513918   -0.008315    0.324197
      3          8           0       -1.628243   -0.771050   -0.064793
      4          6           0        0.722912   -0.665570   -0.265682
      5          6           0        2.016528    0.041929    0.110921
      6          1           0       -0.627168    1.358111   -1.037337
      7          1           0       -0.438544    0.030159    1.426526
      8          1           0       -2.408659   -0.369841    0.338352
      9          1           0        0.743323   -1.712986    0.074611
     10          1           0        0.597295   -0.687937   -1.363129
     11          1           0        1.999876    1.093008   -0.216109
     12          1           0        2.884120   -0.445306   -0.359028
     13          1           0        2.173403    0.030655    1.201887
 ---------------------------------------------------------------------
 Rotational constants (GHZ):           8.5286574           3.5865973           2.7789016
 Leave Link  202 at Tue Oct 21 19:49:28 2025, MaxMem=  4294967296 cpu:               0.1 elap:               0.0
 (Enter /lrz/sys/applications/gaussian/g16.C.01/x86_64_legacy/exe/l301.exe)
 Standard basis: def2SVP (5D, 7F)
 Ernie: Thresh=  0.10000D-02 Tol=  0.10000D-05 Strict=F.
 There are   115 symmetry adapted cartesian basis functions of A   symmetry.
 There are   110 symmetry adapted basis functions of A   symmetry.
   110 basis functions,   181 primitive gaussians,   115 cartesian basis functions
    21 alpha electrons       21 beta electrons
       nuclear repulsion energy       195.0751352795 Hartrees.
 IExCor= 4639 DFT=T Ex+Corr=wB97XD ExCW=0 ScaHFX=  1.000000
 ScaDFX=  1.000000  1.000000  1.000000  1.000000 ScalE2=  1.000000  1.000000
 IRadAn=      5 IRanWt=     -1 IRanGd=            0 ICorTp=0 IEmpDi=121
 HFx  wShort=  0.000000 wLong=  0.200000 cFull=  0.222036 cShort=  0.000000 cLong=  0.777964
 DFx  wShort=  0.000000 wLong=  0.200000 cFull=  0.000000 cShort=  0.000000 cLong=  1.000000
 NAtoms=   13 NActive=   13 NUniq=   13 SFac= 1.00D+00 NAtFMM=   60 NAOKFM=F Big=F
 Integral buffers will be    131072 words long.
 Raffenetti 2 integral format.
 Two-electron integral symmetry is turned on.
 R6Disp:  Grimme-D2 Dispersion energy=       -0.0055689043 Hartrees.
 Nuclear repulsion after empirical dispersion term =      195.0695663752 Hartrees.
 ------------------------------------------------------------------------------
 Polarizable Continuum Model (PCM)
 =================================
 Model                : PCM.
 Atomic radii         : SMD-Coulomb.
 Polarization charges : Total charges.
 Charge compensation  : None.
 Solution method      : On-the-fly selection.
 Cavity type          : VdW (van der Waals Surface) (Alpha=1.000).
 Cavity algorithm     : GePol (No added spheres)
                        Default sphere list used, NSphG=   13.
                        Lebedev-Laikov grids with approx.  5.0 points / Ang**2.
                        Smoothing algorithm: York/Karplus (Gamma=1.0000).
                        Polarization charges: spherical gaussians, with
                                              point-specific exponents (IZeta= 3).
                        Self-potential: point-specific (ISelfS= 7).
                        Self-field    : sphere-specific E.n sum rule (ISelfD= 2).
 1st derivatives      : Analytical E(r).r(x)/FMM algorithm (CHGder, D1EAlg=3).
                        Cavity 1st derivative terms included.
 Solvent              : Water, Eps=  78.355300 Eps(inf)=   1.777849
 ------------------------------------------------------------------------------
 Spheres list:
 ISph  on   Nord     Re0    Alpha      Xe            Ye            Ze
    1   O      1    1.5200  1.000     -0.656354      1.333034     -0.070506
    2   C      2    1.8500  1.000     -0.513918     -0.008315      0.324197
    3   O      3    1.5200  1.000     -1.628243     -0.771050     -0.064793
    4   C      4    1.8500  1.000      0.722912     -0.665570     -0.265682
    5   C      5    1.8500  1.000      2.016528      0.041929      0.110921
    6   H      6    1.2000  1.000     -0.627168      1.358111     -1.037337
    7   H      7    1.2000  1.000     -0.438544      0.030159      1.426526
    8   H      8    1.2000  1.000     -2.408659     -0.369841      0.338352
    9   H      9    1.2000  1.000      0.743323     -1.712986      0.074611
   10   H     10    1.2000  1.000      0.597295     -0.687937     -1.363129
   11   H     11    1.2000  1.000      1.999876      1.093008     -0.216109
   12   H     12    1.2000  1.000      2.884120     -0.445306     -0.359028
   13   H     13    1.2000  1.000      2.173403      0.030655      1.201887
 ------------------------------------------------------------------------------
 GePol: Number of generator spheres                  =      13
 GePol: Total number of spheres                      =      13
 GePol: Number of exposed spheres                    =      13 (100.00%)
 GePol: Number of points                             =     921
 GePol: Average weight of points                     =       0.12
 GePol: Minimum weight of points                     =   0.11D-06
 GePol: Maximum weight of points                     =    0.21991
 GePol: Number of points with low weight             =      60
 GePol: Fraction of low-weight points (<1% of avg)   =       6.51%
 GePol: Cavity surface area                          =    110.863 Ang**2
 GePol: Cavity volume                                =     82.038 Ang**3
 ------------------------------------------------------------------------------
 Atomic radii for non-electrostatic terms: SMD-CDS.
 ------------------------------------------------------------------------------
 PCM non-electrostatic energy =         0.0047085104 Hartrees.
 Nuclear repulsion after PCM non-electrostatic terms =      195.0742748856 Hartrees.
 Leave Link  301 at Tue Oct 21 19:49:28 2025, MaxMem=  4294967296 cpu:               0.5 elap:               0.1
 (Enter /lrz/sys/applications/gaussian/g16.C.01/x86_64_legacy/exe/l302.exe)
 NPDir=0 NMtPBC=     1 NCelOv=     1 NCel=       1 NClECP=     1 NCelD=      1
         NCelK=      1 NCelE2=     1 NClLst=     1 CellRange=     0.0.
 One-electron integrals computed using PRISM.
 One-electron integral symmetry used in STVInt
   1 Symmetry operations used in ECPInt.
 ECPInt:  NShTT=    1485 NPrTT=    5139 LenC2=    1483 LenP2D=    4434.
 LDataN:  DoStor=T MaxTD1= 4 Len=   56
 NBasis=   110 RedAO= T EigKep=  2.28D-03  NBF=   110
 NBsUse=   110 1.00D-06 EigRej= -1.00D+00 NBFU=   110
 Precomputing XC quadrature grid using
 IXCGrd= 4 IRadAn=           5 IRanWt=          -1 IRanGd=           0 AccXCQ= 0.00D+00.
 Generated NRdTot=       0 NPtTot=           0 NUsed=           0 NTot=          32
 NSgBfM=   115   115   115   115   115 MxSgAt=    13 MxSgA2=    13.
 Leave Link  302 at Tue Oct 21 19:49:28 2025, MaxMem=  4294967296 cpu:               1.2 elap:               0.2
 (Enter /lrz/sys/applications/gaussian/g16.C.01/x86_64_legacy/exe/l303.exe)
 DipDrv:  MaxL=1.
 Leave Link  303 at Tue Oct 21 19:49:28 2025, MaxMem=  4294967296 cpu:               0.2 elap:               0.0
 (Enter /lrz/sys/applications/gaussian/g16.C.01/x86_64_legacy/exe/l401.exe)
 Initial guess from the checkpoint file:  "g16_C3-w_1.chk"
 B after Tr=    -0.000000   -0.000000    0.000000
         Rot=    0.999991    0.003960    0.000782    0.001486 Ang=   0.49 deg.
 Guess basis will be translated and rotated to current coordinates.
 JPrj=2 DoOrth=T DoCkMO=T.
 Generating alternative initial guess.
 ExpMin= 1.22D-01 ExpMax= 2.27D+03 ExpMxC= 3.41D+02 IAcc=3 IRadAn=         5 AccDes= 0.00D+00
 Harris functional with IExCor= 4639 and IRadAn=       5 diagonalized for initial guess.
 HarFok:  IExCor= 4639 AccDes= 0.00D+00 IRadAn=         5 IDoV= 1 UseB2=F ITyADJ=14
 ICtDFT=  3500011 ScaDFX=  1.000000  1.000000  1.000000  1.000000
 FoFCou: FMM=F IPFlag=           0 FMFlag=      100000 FMFlg1=           0
         NFxFlg=           0 DoJE=T BraDBF=F KetDBF=T FulRan=T
         wScrn=  0.000000 ICntrl=       500 IOpCl=  0 I1Cent=   200000004 NGrid=           0
         NMat0=    1 NMatS0=      1 NMatT0=    0 NMatD0=    1 NMtDS0=    0 NMtDT0=    0
 Petite list used in FoFCou.
 Harris En= -258.106169858599    
 Leave Link  401 at Tue Oct 21 19:49:29 2025, MaxMem=  4294967296 cpu:               5.5 elap:               0.7
 (Enter /lrz/sys/applications/gaussian/g16.C.01/x86_64_legacy/exe/l502.exe)
 Integral symmetry usage will be decided dynamically.
 Closed shell SCF:
 Using DIIS extrapolation, IDIIS=  1040.
 NGot=  4294967296 LenX=  4294938204 LenY=  4294924538
 Requested convergence on RMS density matrix=1.00D-08 within 128 cycles.
 Requested convergence on MAX density matrix=1.00D-06.
 Requested convergence on             energy=1.00D-06.
 No special actions if energy rises.
 Fock matrices will be formed incrementally for  20 cycles.

 Cycle   1  Pass 1  IDiag  1:
 FoFJK:  IHMeth= 1 ICntrl=       0 DoSepK=T KAlg= 0 I1Cent=           0 FoldK=F
 IRaf=         1 NMat=       1 IRICut=       1 DoRegI=T DoRafI=F ISym2E= 0 IDoP0=0 IntGTp=1.
 FoFCou: FMM=F IPFlag=           0 FMFlag=      100000 FMFlg1=           0
         NFxFlg=           0 DoJE=T BraDBF=F KetDBF=F FulRan=T
         wScrn=  0.000000 ICntrl=       500 IOpCl=  0 I1Cent=           0 NGrid=           0
         NMat0=    1 NMatS0=      1 NMatT0=    0 NMatD0=    1 NMtDS0=    0 NMtDT0=    0
 Symmetry not used in FoFCou.
 Inv3:  Mode=1 IEnd=     2544723.
 Iteration    1 A*A^-1 deviation from unit magnitude is 6.11D-15 for    169.
 Iteration    1 A*A^-1 deviation from orthogonality  is 4.02D-15 for    802    626.
 Iteration    1 A^-1*A deviation from unit magnitude is 5.66D-15 for    169.
 Iteration    1 A^-1*A deviation from orthogonality  is 1.85D-15 for    882    268.
 E= -269.317014817448    
 DIIS: error= 1.32D-03 at cycle   1 NSaved=   1.
 NSaved= 1 IEnMin= 1 EnMin= -269.317014817448     IErMin= 1 ErrMin= 1.32D-03
 ErrMax= 1.32D-03  0.00D+00 EMaxC= 1.00D-01 BMatC= 4.24D-04 BMatP= 4.24D-04
 IDIUse=3 WtCom= 9.87D-01 WtEn= 1.32D-02
 Coeff-Com:  0.100D+01
 Coeff-En:   0.100D+01
 Coeff:      0.100D+01
 Gap=     0.781 Goal=   None    Shift=    0.000
 GapD=    0.781 DampG=2.000 DampE=1.000 DampFc=2.0000 IDamp=-1.
 RMSDP=2.96D-04 MaxDP=5.48D-03              OVMax= 5.43D-03

 Cycle   2  Pass 1  IDiag  1:
 RMSU=  2.96D-04    CP:  1.00D+00
 E= -269.317673083772     Delta-E=       -0.000658266324 Rises=F Damp=F
 DIIS: error= 2.72D-04 at cycle   2 NSaved=   2.
 NSaved= 2 IEnMin= 2 EnMin= -269.317673083772     IErMin= 2 ErrMin= 2.72D-04
 ErrMax= 2.72D-04  0.00D+00 EMaxC= 1.00D-01 BMatC= 1.63D-05 BMatP= 4.24D-04
 IDIUse=3 WtCom= 9.97D-01 WtEn= 2.72D-03
 Coeff-Com: -0.184D+00 0.118D+01
 Coeff-En:   0.000D+00 0.100D+01
 Coeff:     -0.183D+00 0.118D+01
 Gap=     0.515 Goal=   None    Shift=    0.000
 RMSDP=7.91D-05 MaxDP=1.37D-03 DE=-6.58D-04 OVMax= 1.83D-03

 Cycle   3  Pass 1  IDiag  1:
 RMSU=  4.04D-05    CP:  1.00D+00  1.23D+00
 E= -269.317709508664     Delta-E=       -0.000036424891 Rises=F Damp=F
 DIIS: error= 8.13D-05 at cycle   3 NSaved=   3.
 NSaved= 3 IEnMin= 3 EnMin= -269.317709508664     IErMin= 3 ErrMin= 8.13D-05
 ErrMax= 8.13D-05  0.00D+00 EMaxC= 1.00D-01 BMatC= 2.09D-06 BMatP= 1.63D-05
 IDIUse=1 WtCom= 1.00D+00 WtEn= 0.00D+00
 Coeff-Com: -0.669D-01 0.357D+00 0.710D+00
 Coeff:     -0.669D-01 0.357D+00 0.710D+00
 Gap=     0.515 Goal=   None    Shift=    0.000
 RMSDP=1.55D-05 MaxDP=3.98D-04 DE=-3.64D-05 OVMax= 3.36D-04

 Cycle   4  Pass 1  IDiag  1:
 RMSU=  1.43D-05    CP:  1.00D+00  1.25D+00  1.07D+00
 E= -269.317711200349     Delta-E=       -0.000001691686 Rises=F Damp=F
 DIIS: error= 3.86D-05 at cycle   4 NSaved=   4.
 NSaved= 4 IEnMin= 4 EnMin= -269.317711200349     IErMin= 4 ErrMin= 3.86D-05
 ErrMax= 3.86D-05  0.00D+00 EMaxC= 1.00D-01 BMatC= 4.67D-07 BMatP= 2.09D-06
 IDIUse=1 WtCom= 1.00D+00 WtEn= 0.00D+00
 Coeff-Com:  0.125D-01-0.113D+00 0.291D+00 0.809D+00
 Coeff:      0.125D-01-0.113D+00 0.291D+00 0.809D+00
 Gap=     0.515 Goal=   None    Shift=    0.000
 RMSDP=8.14D-06 MaxDP=1.39D-04 DE=-1.69D-06 OVMax= 1.57D-04

 Cycle   5  Pass 1  IDiag  1:
 RMSU=  3.10D-06    CP:  1.00D+00  1.26D+00  1.24D+00  9.57D-01
 E= -269.317711652651     Delta-E=       -0.000000452302 Rises=F Damp=F
 DIIS: error= 3.94D-06 at cycle   5 NSaved=   5.
 NSaved= 5 IEnMin= 5 EnMin= -269.317711652651     IErMin= 5 ErrMin= 3.94D-06
 ErrMax= 3.94D-06  0.00D+00 EMaxC= 1.00D-01 BMatC= 5.70D-09 BMatP= 4.67D-07
 IDIUse=1 WtCom= 1.00D+00 WtEn= 0.00D+00
 Coeff-Com:  0.411D-02-0.317D-01 0.301D-01 0.142D+00 0.855D+00
 Coeff:      0.411D-02-0.317D-01 0.301D-01 0.142D+00 0.855D+00
 Gap=     0.515 Goal=   None    Shift=    0.000
 RMSDP=1.58D-06 MaxDP=2.44D-05 DE=-4.52D-07 OVMax= 3.01D-05

 Cycle   6  Pass 1  IDiag  1:
 RMSU=  8.68D-07    CP:  1.00D+00  1.26D+00  1.27D+00  1.00D+00  1.14D+00
 E= -269.317711660498     Delta-E=       -0.000000007847 Rises=F Damp=F
 DIIS: error= 1.63D-06 at cycle   6 NSaved=   6.
 NSaved= 6 IEnMin= 6 EnMin= -269.317711660498     IErMin= 6 ErrMin= 1.63D-06
 ErrMax= 1.63D-06  0.00D+00 EMaxC= 1.00D-01 BMatC= 1.24D-09 BMatP= 5.70D-09
 IDIUse=1 WtCom= 1.00D+00 WtEn= 0.00D+00
 Coeff-Com:  0.347D-03-0.115D-02-0.164D-01-0.242D-01 0.306D+00 0.735D+00
 Coeff:      0.347D-03-0.115D-02-0.164D-01-0.242D-01 0.306D+00 0.735D+00
 Gap=     0.515 Goal=   None    Shift=    0.000
 RMSDP=5.26D-07 MaxDP=7.92D-06 DE=-7.85D-09 OVMax= 1.04D-05

 Cycle   7  Pass 1  IDiag  1:
 RMSU=  2.37D-07    CP:  1.00D+00  1.26D+00  1.27D+00  1.01D+00  1.25D+00
                    CP:  8.93D-01
 E= -269.317711661862     Delta-E=       -0.000000001364 Rises=F Damp=F
 DIIS: error= 5.76D-07 at cycle   7 NSaved=   7.
 NSaved= 7 IEnMin= 7 EnMin= -269.317711661862     IErMin= 7 ErrMin= 5.76D-07
 ErrMax= 5.76D-07  0.00D+00 EMaxC= 1.00D-01 BMatC= 9.63D-11 BMatP= 1.24D-09
 IDIUse=1 WtCom= 1.00D+00 WtEn= 0.00D+00
 Coeff-Com: -0.278D-03 0.272D-02-0.706D-02-0.201D-01-0.426D-02 0.213D+00
 Coeff-Com:  0.816D+00
 Coeff:     -0.278D-03 0.272D-02-0.706D-02-0.201D-01-0.426D-02 0.213D+00
 Coeff:      0.816D+00
 Gap=     0.515 Goal=   None    Shift=    0.000
 RMSDP=1.64D-07 MaxDP=3.37D-06 DE=-1.36D-09 OVMax= 3.91D-06

 Cycle   8  Pass 1  IDiag  1:
 RMSU=  8.53D-08    CP:  1.00D+00  1.26D+00  1.27D+00  1.02D+00  1.27D+00
                    CP:  9.84D-01  1.03D+00
 E= -269.317711661971     Delta-E=       -0.000000000109 Rises=F Damp=F
 DIIS: error= 1.95D-07 at cycle   8 NSaved=   8.
 NSaved= 8 IEnMin= 8 EnMin= -269.317711661971     IErMin= 8 ErrMin= 1.95D-07
 ErrMax= 1.95D-07  0.00D+00 EMaxC= 1.00D-01 BMatC= 1.11D-11 BMatP= 9.63D-11
 IDIUse=1 WtCom= 1.00D+00 WtEn= 0.00D+00
 Coeff-Com: -0.115D-03 0.980D-03-0.101D-02-0.478D-02-0.264D-01 0.184D-01
 Coeff-Com:  0.294D+00 0.719D+00
 Coeff:     -0.115D-03 0.980D-03-0.101D-02-0.478D-02-0.264D-01 0.184D-01
 Coeff:      0.294D+00 0.719D+00
 Gap=     0.515 Goal=   None    Shift=    0.000
 RMSDP=4.58D-08 MaxDP=1.03D-06 DE=-1.09D-10 OVMax= 1.33D-06

 Cycle   9  Pass 1  IDiag  1:
 RMSU=  2.46D-08    CP:  1.00D+00  1.26D+00  1.27D+00  1.02D+00  1.28D+00
                    CP:  1.01D+00  1.14D+00  9.35D-01
 E= -269.317711661988     Delta-E=       -0.000000000017 Rises=F Damp=F
 DIIS: error= 4.90D-08 at cycle   9 NSaved=   9.
 NSaved= 9 IEnMin= 9 EnMin= -269.317711661988     IErMin= 9 ErrMin= 4.90D-08
 ErrMax= 4.90D-08  0.00D+00 EMaxC= 1.00D-01 BMatC= 4.67D-13 BMatP= 1.11D-11
 IDIUse=1 WtCom= 1.00D+00 WtEn= 0.00D+00
 Coeff-Com:  0.296D-04-0.306D-03 0.881D-03 0.237D-02-0.217D-02-0.270D-01
 Coeff-Com: -0.815D-01 0.338D-01 0.107D+01
 Coeff:      0.296D-04-0.306D-03 0.881D-03 0.237D-02-0.217D-02-0.270D-01
 Coeff:     -0.815D-01 0.338D-01 0.107D+01
 Gap=     0.515 Goal=   None    Shift=    0.000
 RMSDP=2.14D-08 MaxDP=5.93D-07 DE=-1.68D-11 OVMax= 6.72D-07

 Cycle  10  Pass 1  IDiag  1:
 RMSU=  4.84D-09    CP:  1.00D+00  1.26D+00  1.27D+00  1.02D+00  1.28D+00
                    CP:  1.02D+00  1.19D+00  1.08D+00  1.26D+00
 E= -269.317711661984     Delta-E=        0.000000000004 Rises=F Damp=F
 DIIS: error= 9.80D-09 at cycle  10 NSaved=  10.
 NSaved=10 IEnMin= 9 EnMin= -269.317711661988     IErMin=10 ErrMin= 9.80D-09
 ErrMax= 9.80D-09  0.00D+00 EMaxC= 1.00D-01 BMatC= 1.44D-14 BMatP= 4.67D-13
 IDIUse=1 WtCom= 1.00D+00 WtEn= 0.00D+00
 Coeff-Com:  0.632D-05-0.572D-04 0.109D-03 0.354D-03 0.552D-03-0.248D-02
 Coeff-Com: -0.139D-01-0.203D-01 0.594D-01 0.976D+00
 Coeff:      0.632D-05-0.572D-04 0.109D-03 0.354D-03 0.552D-03-0.248D-02
 Coeff:     -0.139D-01-0.203D-01 0.594D-01 0.976D+00
 Gap=     0.515 Goal=   None    Shift=    0.000
 RMSDP=3.35D-09 MaxDP=7.32D-08 DE= 3.69D-12 OVMax= 9.51D-08

 Error on total polarization charges =  0.03209
 SCF Done:  E(RwB97XD) =  -269.317711662     A.U. after   10 cycles
            NFock= 10  Conv=0.34D-08     -V/T= 2.0096
 KE= 2.667562546386D+02 PE=-1.020107109122D+03 EE= 2.889588679360D+02
 SMD-CDS (non-electrostatic) energy       (kcal/mol) =       2.95
 (included in total energy above)
 Leave Link  502 at Tue Oct 21 19:49:44 2025, MaxMem=  4294967296 cpu:             115.7 elap:              14.6
 (Enter /lrz/sys/applications/gaussian/g16.C.01/x86_64_legacy/exe/l701.exe)
 ... and contract with generalized density number  0.
 Compute integral first derivatives.
 R6Disp: Adding Grimme-D2 dispersion energy 1st derivatives to the gradient.
   1 Symmetry operations used in ECPInt.
 ECPInt:  NShTT=    1485 NPrTT=    5139 LenC2=    1483 LenP2D=    4434.
 LDataN:  DoStor=T MaxTD1= 5 Len=  102
 D1PCM: PCM CHGder 1st derivatives, ID1Alg=3 FixD1E=F DoIter=F DoCFld=F I1PDM=0.
 GePol: Maximum number of non-zero 1st derivatives   =     250
 Leave Link  701 at Tue Oct 21 19:49:44 2025, MaxMem=  4294967296 cpu:               4.4 elap:               0.6
 (Enter /lrz/sys/applications/gaussian/g16.C.01/x86_64_legacy/exe/l702.exe)
 L702 exits ... SP integral derivatives will be done elsewhere.
 Leave Link  702 at Tue Oct 21 19:49:44 2025, MaxMem=  4294967296 cpu:               0.2 elap:               0.0
 (Enter /lrz/sys/applications/gaussian/g16.C.01/x86_64_legacy/exe/l703.exe)
 Integral derivatives from FoFJK, PRISM(SPDF).
 Compute integral first derivatives, UseDBF=F ICtDFT=           0.
 Calling FoFJK, ICntrl=      2127 FMM=F ISym2X=0 I1Cent= 0 IOpClX= 0 NMat=1 NMatS=1 NMatT=0.
 FoFJK:  IHMeth= 1 ICntrl=    2127 DoSepK=T KAlg= 0 I1Cent=           0 FoldK=F
 IRaf=         1 NMat=       1 IRICut=       1 DoRegI=T DoRafI=F ISym2E= 0 IDoP0=0 IntGTp=1.
 FoFCou: FMM=F IPFlag=           0 FMFlag=      100000 FMFlg1=         800
         NFxFlg=           0 DoJE=F BraDBF=F KetDBF=F FulRan=T
         wScrn=  0.000000 ICntrl=      2527 IOpCl=  0 I1Cent=           0 NGrid=           0
         NMat0=    1 NMatS0=      1 NMatT0=    0 NMatD0=    1 NMtDS0=    0 NMtDT0=    0
 Symmetry not used in FoFCou.
 Leave Link  703 at Tue Oct 21 19:49:47 2025, MaxMem=  4294967296 cpu:              17.4 elap:               2.2
 (Enter /lrz/sys/applications/gaussian/g16.C.01/x86_64_legacy/exe/l716.exe)
 Dipole        = 3.15414490D-02 2.49566511D-02-9.39313576D-02
 ***** Axes restored to original set *****
 -------------------------------------------------------------------
 Center     Atomic                   Forces (Hartrees/Bohr)
 Number     Number              X              Y              Z
 -------------------------------------------------------------------
      1        8           0.000113017   -0.000245428    0.000133713
      2        6           0.000021193    0.000180681   -0.000209812
      3        8           0.000025213   -0.000172971    0.000262780
      4        6           0.000181889    0.000091000   -0.000015161
      5        6          -0.000112890   -0.000150316    0.000065566
      6        1           0.000139007   -0.000076006   -0.000099948
      7        1          -0.000086591   -0.000047861    0.000290525
      8        1           0.000114447    0.000393070   -0.000266114
      9        1           0.000000766   -0.000256298    0.000247861
     10        1          -0.000071368    0.000050978   -0.000422813
     11        1           0.000199698    0.000473181   -0.000174948
     12        1          -0.000465074   -0.000090084   -0.000286400
     13        1          -0.000059307   -0.000149946    0.000474751
 -------------------------------------------------------------------
 Cartesian Forces:  Max     0.000474751 RMS     0.000219693
 Leave Link  716 at Tue Oct 21 19:49:47 2025, MaxMem=  4294967296 cpu:               0.2 elap:               0.0
 (Enter /lrz/sys/applications/gaussian/g16.C.01/x86_64_legacy/exe/l103.exe)

 GradGradGradGradGradGradGradGradGradGradGradGradGradGradGradGradGradGrad
 Berny optimization.
 Using GEDIIS/GDIIS optimizer.
 FormGI is forming the generalized inverse of G from B-inverse, IUseBI=4.
 Internal  Forces:  Max     0.000530752 RMS     0.000212496
 Search for a local minimum.
 Step number   3 out of a maximum of   66
 All quantities printed in internal units (Hartrees-Bohrs-Radians)
 RMS Force = .21250D-03 SwitMx=.10000D-02 MixMth= 2
 Mixed Optimization -- En-DIIS/RFO-DIIS
 Swapping is turned off.
 Update second derivatives using D2CorX and points    1    2    3
 DE= -9.45D-05 DEPred=-7.68D-05 R= 1.23D+00
 TightC=F SS=  1.41D+00  RLast= 1.39D-01 DXNew= 8.4853D-01 4.1743D-01
 Trust test= 1.23D+00 RLast= 1.39D-01 DXMaxT set to 5.05D-01
 ITU=  1  1  0
     Eigenvalues ---    0.00281   0.00429   0.01310   0.01697   0.03543
     Eigenvalues ---    0.04747   0.05567   0.05595   0.05634   0.06157
     Eigenvalues ---    0.08524   0.09966   0.12276   0.15470   0.16000
     Eigenvalues ---    0.16000   0.16112   0.16440   0.19948   0.20999
     Eigenvalues ---    0.22295   0.28683   0.30744   0.33640   0.34668
     Eigenvalues ---    0.34881   0.35119   0.35186   0.39838   0.44879
     Eigenvalues ---    0.45457   0.54085   0.54456
 En-DIIS/RFO-DIIS/Sim-DIIS IScMMF=       -3 using points:     3    2
 RFO step:  Lambda=-5.42428524D-05.
 NNeg= 0 NGDIIS= 2 SimSw=  2.50D-03 Rises=F DC= -9.45D-05 SmlDif=  1.00D-05
 NRisDI= 0 DoIntr=F SqrtH=F CThrHd= 10.0 CDAdj=  3.0
 RMS Error=  0.1439506019D-01 NUsed= 2 OKEnD=T EnDIS=F
 InvSVX:  RCond= 4.59D-03 Info=           0 Equed=N FErr=  3.47D-15 BErr=  3.19D-17
 DidBck=F Rises=F RFO-DIIS coefs:    1.73900   -0.73900
 Iteration  1 RMS(Cart)=  0.01752563 RMS(Int)=  0.00021862
 Iteration  2 RMS(Cart)=  0.00022461 RMS(Int)=  0.00000586
 Iteration  3 RMS(Cart)=  0.00000006 RMS(Int)=  0.00000586
 ITry= 1 IFail=0 DXMaxC= 5.89D-02 DCOld= 1.00D+10 DXMaxT= 5.05D-01 DXLimC= 3.00D+00 Rises=F
 Variable       Old X    -DE/DX   Delta X   Delta X   Delta X     New X
                                 (Linear)    (Quad)   (Total)
    R1        2.65592   0.00029   0.00137   0.00034   0.00171   2.65763
    R2        1.82849  -0.00008   0.00045  -0.00046  -0.00002   1.82847
    R3        2.65559   0.00000   0.00031  -0.00015   0.00016   2.65575
    R4        2.87194  -0.00032  -0.00184  -0.00096  -0.00280   2.86914
    R5        2.08923  -0.00029   0.00046  -0.00116  -0.00070   2.08853
    R6        1.82487  -0.00014   0.00054  -0.00075  -0.00021   1.82467
    R7        2.87576  -0.00043  -0.00454   0.00131  -0.00324   2.87252
    R8        2.08153  -0.00031   0.00112  -0.00114  -0.00002   2.08151
    R9        2.08784  -0.00042   0.00182  -0.00200  -0.00018   2.08767
   R10        2.08041  -0.00050   0.00105  -0.00167  -0.00062   2.07979
   R11        2.07953  -0.00053   0.00102  -0.00171  -0.00069   2.07884
   R12        2.08294  -0.00049   0.00141  -0.00174  -0.00033   2.08261
    A1        1.87789   0.00010  -0.00087   0.00081  -0.00006   1.87783
    A2        1.93897   0.00043  -0.00487   0.00747   0.00261   1.94157
    A3        1.96733  -0.00004   0.00057  -0.00044   0.00013   1.96745
    A4        1.82731  -0.00008  -0.00055   0.00009  -0.00046   1.82685
    A5        1.87881  -0.00039   0.00165  -0.00342  -0.00178   1.87703
    A6        1.92724   0.00001  -0.00079  -0.00040  -0.00120   1.92604
    A7        1.92470   0.00009   0.00398  -0.00322   0.00075   1.92546
    A8        1.87525   0.00016   0.00132  -0.00076   0.00057   1.87581
    A9        1.97653   0.00006   0.00572  -0.00243   0.00328   1.97980
   A10        1.88221  -0.00003   0.00065  -0.00068  -0.00002   1.88219
   A11        1.87734  -0.00004   0.00127  -0.00155  -0.00029   1.87705
   A12        1.92824   0.00001  -0.00212   0.00175  -0.00038   1.92786
   A13        1.93038   0.00004  -0.00063   0.00142   0.00077   1.93114
   A14        1.86474  -0.00005  -0.00537   0.00160  -0.00378   1.86095
   A15        1.93639   0.00028   0.00355   0.00052   0.00406   1.94044
   A16        1.93763  -0.00021   0.00120  -0.00224  -0.00105   1.93658
   A17        1.94032   0.00009   0.00193  -0.00018   0.00174   1.94206
   A18        1.88367  -0.00003  -0.00256   0.00120  -0.00136   1.88230
   A19        1.88172  -0.00017  -0.00179  -0.00007  -0.00187   1.87985
   A20        1.88173   0.00001  -0.00268   0.00089  -0.00180   1.87993
    D1       -1.16948   0.00005  -0.00707  -0.00205  -0.00912  -1.17860
    D2        0.94091  -0.00017  -0.00805  -0.00141  -0.00946   0.93146
    D3        3.03329  -0.00013  -0.00327  -0.00549  -0.00877   3.02453
    D4       -1.01574  -0.00034  -0.01728  -0.01208  -0.02937  -1.04511
    D5        3.10573  -0.00030  -0.01598  -0.01401  -0.02999   3.07574
    D6        1.00378  -0.00017  -0.02138  -0.00773  -0.02911   0.97467
    D7        1.02424  -0.00012  -0.02249   0.00323  -0.01926   1.00498
    D8       -3.11971  -0.00008  -0.02098   0.00337  -0.01761  -3.13732
    D9       -1.11422  -0.00018  -0.02627   0.00411  -0.02216  -1.13638
   D10       -3.11455   0.00012  -0.02711   0.00998  -0.01714  -3.13169
   D11       -0.97532   0.00016  -0.02561   0.01012  -0.01549  -0.99081
   D12        1.03017   0.00006  -0.03089   0.01086  -0.02004   1.01013
   D13       -1.01100  -0.00005  -0.02475   0.00549  -0.01925  -1.03025
   D14        1.12823  -0.00002  -0.02324   0.00563  -0.01760   1.11063
   D15        3.13373  -0.00011  -0.02852   0.00637  -0.02215   3.11157
   D16       -1.01738  -0.00007  -0.01994  -0.00585  -0.02579  -1.04317
   D17       -3.11194  -0.00009  -0.01986  -0.00621  -0.02608  -3.13801
   D18        1.07651  -0.00003  -0.01856  -0.00571  -0.02427   1.05224
   D19       -3.13084  -0.00008  -0.02321  -0.00456  -0.02777   3.12458
   D20        1.05778  -0.00010  -0.02314  -0.00492  -0.02805   1.02973
   D21       -1.03695  -0.00004  -0.02183  -0.00442  -0.02624  -1.06320
   D22        1.09134  -0.00006  -0.01482  -0.00850  -0.02333   1.06802
   D23       -1.00322  -0.00007  -0.01474  -0.00887  -0.02361  -1.02683
   D24       -3.09796  -0.00002  -0.01344  -0.00836  -0.02180  -3.11976
         Item               Value     Threshold  Converged?
 Maximum Force            0.000531     0.000450     NO 
 RMS     Force            0.000212     0.000300     YES
 Maximum Displacement     0.058937     0.001800     NO 
 RMS     Displacement     0.017551     0.001200     NO 
 Predicted change in Energy=-2.744194D-05
 Lowest energy point so far.  Saving SCF results.
 GradGradGradGradGradGradGradGradGradGradGradGradGradGradGradGradGradGrad

 Leave Link  103 at Tue Oct 21 19:49:47 2025, MaxMem=  4294967296 cpu:               0.2 elap:               0.0
 (Enter /lrz/sys/applications/gaussian/g16.C.01/x86_64_legacy/exe/l202.exe)
                          Input orientation:                          
 ---------------------------------------------------------------------
 Center     Atomic      Atomic             Coordinates (Angstroms)
 Number     Number       Type             X           Y           Z
 ---------------------------------------------------------------------
      1          8           0       -0.594052   -1.329650    0.029995
      2          6           0       -0.456594    0.024690   -0.323150
      3          8           0       -1.567976    0.775637    0.096309
      4          6           0        0.781780    0.664923    0.278284
      5          6           0        2.073152   -0.039599   -0.104624
      6          1           0       -0.549605   -1.386230    0.994903
      7          1           0       -0.389424    0.020883   -1.426302
      8          1           0       -2.348203    0.404266   -0.334577
      9          1           0        0.807580    1.717944   -0.043833
     10          1           0        0.653050    0.673087    1.375474
     11          1           0        2.067123   -1.088931    0.227245
     12          1           0        2.942060    0.454369    0.354894
     13          1           0        2.222992   -0.034196   -1.196446
 ---------------------------------------------------------------------
                    Distance matrix (angstroms):
                    1          2          3          4          5
     1  O    0.000000
     2  C    1.406357   0.000000
     3  O    2.320594   1.405361   0.000000
     4  C    2.435751   1.518285   2.359391   0.000000
     5  C    2.965861   2.539981   3.736683   1.520071   0.000000
     6  H    0.967587   1.933031   2.553080   2.548207   3.146622
     7  H    1.996649   1.105202   2.068086   2.166130   2.795492
     8  H    2.493275   1.929350   0.965573   3.200051   4.449525
     9  H    3.355272   2.131493   2.559463   1.101489   2.166640
    10  H    2.715977   2.130035   2.565099   1.104745   2.171475
    11  H    2.679311   2.812869   4.087506   2.175021   1.100577
    12  H    3.973961   3.492165   4.528853   2.171869   1.100074
    13  H    3.334381   2.818917   4.086378   2.177313   1.102069
                    6          7          8          9         10
     6  H    0.000000
     7  H    2.804970   0.000000
     8  H    2.865021   2.275007   0.000000
     9  H    3.543560   2.494806   3.430633   0.000000
    10  H    2.414953   3.059749   3.464686   1.769191   0.000000
    11  H    2.743165   3.162361   4.694719   3.088443   2.534313
    12  H    3.998643   3.802546   5.335237   2.512291   2.515748
    13  H    3.783821   2.623087   4.672354   2.530198   3.095115
                   11         12         13
    11  H    0.000000
    12  H    1.778647   0.000000
    13  H    1.778668   1.778316   0.000000
 Stoichiometry    C3H8O2
 Framework group  C1[X(C3H8O2)]
 Deg. of freedom    33
 Full point group                 C1      NOp   1
 RotChk:  IX=0 Diff= 1.59D-02
 Largest Abelian subgroup         C1      NOp   1
 Largest concise Abelian subgroup C1      NOp   1
                         Standard orientation:                         
 ---------------------------------------------------------------------
 Center     Atomic      Atomic             Coordinates (Angstroms)
 Number     Number       Type             X           Y           Z
 ---------------------------------------------------------------------
      1          8           0       -0.647498    1.336557   -0.069430
      2          6           0       -0.516385   -0.007050    0.324739
      3          8           0       -1.630894   -0.765366   -0.072584
      4          6           0        0.719451   -0.670804   -0.256064
      5          6           0        2.013761    0.039190    0.106270
      6          1           0       -0.602200    1.363638   -1.035577
      7          1           0       -0.449879    0.029920    1.427318
      8          1           0       -2.409698   -0.377584    0.346249
      9          1           0        0.740289   -1.713673    0.097868
     10          1           0        0.591362   -0.711671   -1.352597
     11          1           0        2.012683    1.077986   -0.257282
     12          1           0        2.880708   -0.472400   -0.337397
     13          1           0        2.162901    0.066237    1.197866
 ---------------------------------------------------------------------
 Rotational constants (GHZ):           8.5194397           3.5950677           2.7805292
 Leave Link  202 at Tue Oct 21 19:49:47 2025, MaxMem=  4294967296 cpu:               0.0 elap:               0.0
 (Enter /lrz/sys/applications/gaussian/g16.C.01/x86_64_legacy/exe/l301.exe)
 Standard basis: def2SVP (5D, 7F)
 Ernie: Thresh=  0.10000D-02 Tol=  0.10000D-05 Strict=F.
 There are   115 symmetry adapted cartesian basis functions of A   symmetry.
 There are   110 symmetry adapted basis functions of A   symmetry.
   110 basis functions,   181 primitive gaussians,   115 cartesian basis functions
    21 alpha electrons       21 beta electrons
       nuclear repulsion energy       195.1166098964 Hartrees.
 IExCor= 4639 DFT=T Ex+Corr=wB97XD ExCW=0 ScaHFX=  1.000000
 ScaDFX=  1.000000  1.000000  1.000000  1.000000 ScalE2=  1.000000  1.000000
 IRadAn=      5 IRanWt=     -1 IRanGd=            0 ICorTp=0 IEmpDi=121
 HFx  wShort=  0.000000 wLong=  0.200000 cFull=  0.222036 cShort=  0.000000 cLong=  0.777964
 DFx  wShort=  0.000000 wLong=  0.200000 cFull=  0.000000 cShort=  0.000000 cLong=  1.000000
 NAtoms=   13 NActive=   13 NUniq=   13 SFac= 1.00D+00 NAtFMM=   60 NAOKFM=F Big=F
 Integral buffers will be    131072 words long.
 Raffenetti 2 integral format.
 Two-electron integral symmetry is turned on.
 R6Disp:  Grimme-D2 Dispersion energy=       -0.0055733260 Hartrees.
 Nuclear repulsion after empirical dispersion term =      195.1110365703 Hartrees.
 ------------------------------------------------------------------------------
 Polarizable Continuum Model (PCM)
 =================================
 Model                : PCM.
 Atomic radii         : SMD-Coulomb.
 Polarization charges : Total charges.
 Charge compensation  : None.
 Solution method      : On-the-fly selection.
 Cavity type          : VdW (van der Waals Surface) (Alpha=1.000).
 Cavity algorithm     : GePol (No added spheres)
                        Default sphere list used, NSphG=   13.
                        Lebedev-Laikov grids with approx.  5.0 points / Ang**2.
                        Smoothing algorithm: York/Karplus (Gamma=1.0000).
                        Polarization charges: spherical gaussians, with
                                              point-specific exponents (IZeta= 3).
                        Self-potential: point-specific (ISelfS= 7).
                        Self-field    : sphere-specific E.n sum rule (ISelfD= 2).
 1st derivatives      : Analytical E(r).r(x)/FMM algorithm (CHGder, D1EAlg=3).
                        Cavity 1st derivative terms included.
 Solvent              : Water, Eps=  78.355300 Eps(inf)=   1.777849
 ------------------------------------------------------------------------------
 Spheres list:
 ISph  on   Nord     Re0    Alpha      Xe            Ye            Ze
    1   O      1    1.5200  1.000     -0.647498      1.336557     -0.069430
    2   C      2    1.8500  1.000     -0.516385     -0.007050      0.324739
    3   O      3    1.5200  1.000     -1.630894     -0.765366     -0.072584
    4   C      4    1.8500  1.000      0.719451     -0.670804     -0.256064
    5   C      5    1.8500  1.000      2.013761      0.039190      0.106270
    6   H      6    1.2000  1.000     -0.602200      1.363638     -1.035577
    7   H      7    1.2000  1.000     -0.449879      0.029920      1.427318
    8   H      8    1.2000  1.000     -2.409698     -0.377584      0.346249
    9   H      9    1.2000  1.000      0.740289     -1.713673      0.097868
   10   H     10    1.2000  1.000      0.591362     -0.711671     -1.352597
   11   H     11    1.2000  1.000      2.012683      1.077986     -0.257282
   12   H     12    1.2000  1.000      2.880708     -0.472400     -0.337397
   13   H     13    1.2000  1.000      2.162901      0.066237      1.197866
 ------------------------------------------------------------------------------
 GePol: Number of generator spheres                  =      13
 GePol: Total number of spheres                      =      13
 GePol: Number of exposed spheres                    =      13 (100.00%)
 GePol: Number of points                             =     914
 GePol: Average weight of points                     =       0.12
 GePol: Minimum weight of points                     =   0.36D-08
 GePol: Maximum weight of points                     =    0.21991
 GePol: Number of points with low weight             =      61
 GePol: Fraction of low-weight points (<1% of avg)   =       6.67%
 GePol: Cavity surface area                          =    110.922 Ang**2
 GePol: Cavity volume                                =     82.076 Ang**3
 ------------------------------------------------------------------------------
 Atomic radii for non-electrostatic terms: SMD-CDS.
 ------------------------------------------------------------------------------
 PCM non-electrostatic energy =         0.0046919371 Hartrees.
 Nuclear repulsion after PCM non-electrostatic terms =      195.1157285075 Hartrees.
 Leave Link  301 at Tue Oct 21 19:49:47 2025, MaxMem=  4294967296 cpu:               0.5 elap:               0.1
 (Enter /lrz/sys/applications/gaussian/g16.C.01/x86_64_legacy/exe/l302.exe)
 NPDir=0 NMtPBC=     1 NCelOv=     1 NCel=       1 NClECP=     1 NCelD=      1
         NCelK=      1 NCelE2=     1 NClLst=     1 CellRange=     0.0.
 One-electron integrals computed using PRISM.
 One-electron integral symmetry used in STVInt
   1 Symmetry operations used in ECPInt.
 ECPInt:  NShTT=    1485 NPrTT=    5139 LenC2=    1483 LenP2D=    4436.
 LDataN:  DoStor=T MaxTD1= 4 Len=   56
 NBasis=   110 RedAO= T EigKep=  2.28D-03  NBF=   110
 NBsUse=   110 1.00D-06 EigRej= -1.00D+00 NBFU=   110
 Precomputing XC quadrature grid using
 IXCGrd= 4 IRadAn=           5 IRanWt=          -1 IRanGd=           0 AccXCQ= 0.00D+00.
 Generated NRdTot=       0 NPtTot=           0 NUsed=           0 NTot=          32
 NSgBfM=   115   115   115   115   115 MxSgAt=    13 MxSgA2=    13.
 Leave Link  302 at Tue Oct 21 19:49:47 2025, MaxMem=  4294967296 cpu:               1.2 elap:               0.2
 (Enter /lrz/sys/applications/gaussian/g16.C.01/x86_64_legacy/exe/l303.exe)
 DipDrv:  MaxL=1.
 Leave Link  303 at Tue Oct 21 19:49:47 2025, MaxMem=  4294967296 cpu:               0.3 elap:               0.1
 (Enter /lrz/sys/applications/gaussian/g16.C.01/x86_64_legacy/exe/l401.exe)
 Initial guess from the checkpoint file:  "g16_C3-w_1.chk"
 B after Tr=     0.000000   -0.000000   -0.000000
         Rot=    0.999996    0.002281    0.000626    0.001713 Ang=   0.33 deg.
 Guess basis will be translated and rotated to current coordinates.
 JPrj=2 DoOrth=T DoCkMO=T.
 Generating alternative initial guess.
 ExpMin= 1.22D-01 ExpMax= 2.27D+03 ExpMxC= 3.41D+02 IAcc=3 IRadAn=         5 AccDes= 0.00D+00
 Harris functional with IExCor= 4639 and IRadAn=       5 diagonalized for initial guess.
 HarFok:  IExCor= 4639 AccDes= 0.00D+00 IRadAn=         5 IDoV= 1 UseB2=F ITyADJ=14
 ICtDFT=  3500011 ScaDFX=  1.000000  1.000000  1.000000  1.000000
 FoFCou: FMM=F IPFlag=           0 FMFlag=      100000 FMFlg1=           0
         NFxFlg=           0 DoJE=T BraDBF=F KetDBF=T FulRan=T
         wScrn=  0.000000 ICntrl=       500 IOpCl=  0 I1Cent=   200000004 NGrid=           0
         NMat0=    1 NMatS0=      1 NMatT0=    0 NMatD0=    1 NMtDS0=    0 NMtDT0=    0
 Petite list used in FoFCou.
 Harris En= -258.106057814575    
 Leave Link  401 at Tue Oct 21 19:49:48 2025, MaxMem=  4294967296 cpu:               5.4 elap:               0.7
 (Enter /lrz/sys/applications/gaussian/g16.C.01/x86_64_legacy/exe/l502.exe)
 Integral symmetry usage will be decided dynamically.
 Closed shell SCF:
 Using DIIS extrapolation, IDIIS=  1040.
 NGot=  4294967296 LenX=  4294938204 LenY=  4294924538
 Requested convergence on RMS density matrix=1.00D-08 within 128 cycles.
 Requested convergence on MAX density matrix=1.00D-06.
 Requested convergence on             energy=1.00D-06.
 No special actions if energy rises.
 Fock matrices will be formed incrementally for  20 cycles.

 Cycle   1  Pass 1  IDiag  1:
 FoFJK:  IHMeth= 1 ICntrl=       0 DoSepK=T KAlg= 0 I1Cent=           0 FoldK=F
 IRaf=         1 NMat=       1 IRICut=       1 DoRegI=T DoRafI=F ISym2E= 0 IDoP0=0 IntGTp=1.
 FoFCou: FMM=F IPFlag=           0 FMFlag=      100000 FMFlg1=           0
         NFxFlg=           0 DoJE=T BraDBF=F KetDBF=F FulRan=T
         wScrn=  0.000000 ICntrl=       500 IOpCl=  0 I1Cent=           0 NGrid=           0
         NMat0=    1 NMatS0=      1 NMatT0=    0 NMatD0=    1 NMtDS0=    0 NMtDT0=    0
 Symmetry not used in FoFCou.
 Inv3:  Mode=1 IEnd=     2506188.
 Iteration    1 A*A^-1 deviation from unit magnitude is 4.66D-15 for    107.
 Iteration    1 A*A^-1 deviation from orthogonality  is 4.55D-15 for    850    491.
 Iteration    1 A^-1*A deviation from unit magnitude is 4.44D-15 for     59.
 Iteration    1 A^-1*A deviation from orthogonality  is 1.85D-15 for    790    396.
 E= -269.317322698841    
 DIIS: error= 1.02D-03 at cycle   1 NSaved=   1.
 NSaved= 1 IEnMin= 1 EnMin= -269.317322698841     IErMin= 1 ErrMin= 1.02D-03
 ErrMax= 1.02D-03  0.00D+00 EMaxC= 1.00D-01 BMatC= 2.65D-04 BMatP= 2.65D-04
 IDIUse=3 WtCom= 9.90D-01 WtEn= 1.02D-02
 Coeff-Com:  0.100D+01
 Coeff-En:   0.100D+01
 Coeff:      0.100D+01
 Gap=     0.781 Goal=   None    Shift=    0.000
 GapD=    0.781 DampG=2.000 DampE=1.000 DampFc=2.0000 IDamp=-1.
 RMSDP=2.27D-04 MaxDP=4.25D-03              OVMax= 4.13D-03

 Cycle   2  Pass 1  IDiag  1:
 RMSU=  2.27D-04    CP:  1.00D+00
 E= -269.317718615919     Delta-E=       -0.000395917078 Rises=F Damp=F
 DIIS: error= 2.13D-04 at cycle   2 NSaved=   2.
 NSaved= 2 IEnMin= 2 EnMin= -269.317718615919     IErMin= 2 ErrMin= 2.13D-04
 ErrMax= 2.13D-04  0.00D+00 EMaxC= 1.00D-01 BMatC= 9.51D-06 BMatP= 2.65D-04
 IDIUse=3 WtCom= 9.98D-01 WtEn= 2.13D-03
 Coeff-Com: -0.181D+00 0.118D+01
 Coeff-En:   0.000D+00 0.100D+01
 Coeff:     -0.180D+00 0.118D+01
 Gap=     0.516 Goal=   None    Shift=    0.000
 RMSDP=6.05D-05 MaxDP=1.05D-03 DE=-3.96D-04 OVMax= 1.45D-03

 Cycle   3  Pass 1  IDiag  1:
 RMSU=  3.07D-05    CP:  1.00D+00  1.23D+00
 E= -269.317740157400     Delta-E=       -0.000021541481 Rises=F Damp=F
 DIIS: error= 5.05D-05 at cycle   3 NSaved=   3.
 NSaved= 3 IEnMin= 3 EnMin= -269.317740157400     IErMin= 3 ErrMin= 5.05D-05
 ErrMax= 5.05D-05  0.00D+00 EMaxC= 1.00D-01 BMatC= 8.16D-07 BMatP= 9.51D-06
 IDIUse=1 WtCom= 1.00D+00 WtEn= 0.00D+00
 Coeff-Com: -0.488D-01 0.254D+00 0.795D+00
 Coeff:     -0.488D-01 0.254D+00 0.795D+00
 Gap=     0.516 Goal=   None    Shift=    0.000
 RMSDP=1.18D-05 MaxDP=2.60D-04 DE=-2.15D-05 OVMax= 2.51D-04

 Cycle   4  Pass 1  IDiag  1:
 RMSU=  1.02D-05    CP:  1.00D+00  1.25D+00  1.13D+00
 E= -269.317740891895     Delta-E=       -0.000000734495 Rises=F Damp=F
 DIIS: error= 3.60D-05 at cycle   4 NSaved=   4.
 NSaved= 4 IEnMin= 4 EnMin= -269.317740891895     IErMin= 4 ErrMin= 3.60D-05
 ErrMax= 3.60D-05  0.00D+00 EMaxC= 1.00D-01 BMatC= 3.07D-07 BMatP= 8.16D-07
 IDIUse=1 WtCom= 1.00D+00 WtEn= 0.00D+00
 Coeff-Com:  0.137D-01-0.121D+00 0.370D+00 0.738D+00
 Coeff:      0.137D-01-0.121D+00 0.370D+00 0.738D+00
 Gap=     0.516 Goal=   None    Shift=    0.000
 RMSDP=5.96D-06 MaxDP=1.13D-04 DE=-7.34D-07 OVMax= 1.31D-04

 Cycle   5  Pass 1  IDiag  1:
 RMSU=  2.49D-06    CP:  1.00D+00  1.26D+00  1.29D+00  8.82D-01
 E= -269.317741174989     Delta-E=       -0.000000283094 Rises=F Damp=F
 DIIS: error= 3.42D-06 at cycle   5 NSaved=   5.
 NSaved= 5 IEnMin= 5 EnMin= -269.317741174989     IErMin= 5 ErrMin= 3.42D-06
 ErrMax= 3.42D-06  0.00D+00 EMaxC= 1.00D-01 BMatC= 4.14D-09 BMatP= 3.07D-07
 IDIUse=1 WtCom= 1.00D+00 WtEn= 0.00D+00
 Coeff-Com:  0.443D-02-0.343D-01 0.411D-01 0.140D+00 0.849D+00
 Coeff:      0.443D-02-0.343D-01 0.411D-01 0.140D+00 0.849D+00
 Gap=     0.516 Goal=   None    Shift=    0.000
 RMSDP=1.28D-06 MaxDP=1.93D-05 DE=-2.83D-07 OVMax= 2.67D-05

 Cycle   6  Pass 1  IDiag  1:
 RMSU=  7.31D-07    CP:  1.00D+00  1.26D+00  1.31D+00  9.29D-01  1.14D+00
 E= -269.317741181039     Delta-E=       -0.000000006050 Rises=F Damp=F
 DIIS: error= 1.45D-06 at cycle   6 NSaved=   6.
 NSaved= 6 IEnMin= 6 EnMin= -269.317741181039     IErMin= 6 ErrMin= 1.45D-06
 ErrMax= 1.45D-06  0.00D+00 EMaxC= 1.00D-01 BMatC= 7.11D-10 BMatP= 4.14D-09
 IDIUse=1 WtCom= 1.00D+00 WtEn= 0.00D+00
 Coeff-Com:  0.185D-03 0.122D-03-0.225D-01-0.257D-01 0.271D+00 0.777D+00
 Coeff:      0.185D-03 0.122D-03-0.225D-01-0.257D-01 0.271D+00 0.777D+00
 Gap=     0.516 Goal=   None    Shift=    0.000
 RMSDP=4.42D-07 MaxDP=8.46D-06 DE=-6.05D-09 OVMax= 1.01D-05

 Cycle   7  Pass 1  IDiag  1:
 RMSU=  1.82D-07    CP:  1.00D+00  1.26D+00  1.32D+00  9.44D-01  1.26D+00
                    CP:  9.19D-01
 E= -269.317741181986     Delta-E=       -0.000000000947 Rises=F Damp=F
 DIIS: error= 4.23D-07 at cycle   7 NSaved=   7.
 NSaved= 7 IEnMin= 7 EnMin= -269.317741181986     IErMin= 7 ErrMin= 4.23D-07
 ErrMax= 4.23D-07  0.00D+00 EMaxC= 1.00D-01 BMatC= 5.41D-11 BMatP= 7.11D-10
 IDIUse=1 WtCom= 1.00D+00 WtEn= 0.00D+00
 Coeff-Com: -0.307D-03 0.293D-02-0.843D-02-0.178D-01-0.147D-01 0.194D+00
 Coeff-Com:  0.844D+00
 Coeff:     -0.307D-03 0.293D-02-0.843D-02-0.178D-01-0.147D-01 0.194D+00
 Coeff:      0.844D+00
 Gap=     0.516 Goal=   None    Shift=    0.000
 RMSDP=1.32D-07 MaxDP=3.08D-06 DE=-9.47D-10 OVMax= 3.86D-06

 Cycle   8  Pass 1  IDiag  1:
 RMSU=  7.04D-08    CP:  1.00D+00  1.26D+00  1.32D+00  9.47D-01  1.29D+00
                    CP:  1.01D+00  1.08D+00
 E= -269.317741182061     Delta-E=       -0.000000000076 Rises=F Damp=F
 DIIS: error= 2.15D-07 at cycle   8 NSaved=   8.
 NSaved= 8 IEnMin= 8 EnMin= -269.317741182061     IErMin= 8 ErrMin= 2.15D-07
 ErrMax= 2.15D-07  0.00D+00 EMaxC= 1.00D-01 BMatC= 1.00D-11 BMatP= 5.41D-11
 IDIUse=1 WtCom= 1.00D+00 WtEn= 0.00D+00
 Coeff-Com: -0.123D-03 0.104D-02-0.101D-02-0.424D-02-0.319D-01 0.604D-02
 Coeff-Com:  0.342D+00 0.688D+00
 Coeff:     -0.123D-03 0.104D-02-0.101D-02-0.424D-02-0.319D-01 0.604D-02
 Coeff:      0.342D+00 0.688D+00
 Gap=     0.516 Goal=   None    Shift=    0.000
 RMSDP=3.92D-08 MaxDP=9.25D-07 DE=-7.59D-11 OVMax= 1.26D-06

 Cycle   9  Pass 1  IDiag  1:
 RMSU=  1.98D-08    CP:  1.00D+00  1.26D+00  1.32D+00  9.47D-01  1.30D+00
                    CP:  1.03D+00  1.21D+00  9.16D-01
 E= -269.317741182072     Delta-E=       -0.000000000011 Rises=F Damp=F
 DIIS: error= 4.05D-08 at cycle   9 NSaved=   9.
 NSaved= 9 IEnMin= 9 EnMin= -269.317741182072     IErMin= 9 ErrMin= 4.05D-08
 ErrMax= 4.05D-08  0.00D+00 EMaxC= 1.00D-01 BMatC= 3.77D-13 BMatP= 1.00D-11
 IDIUse=1 WtCom= 1.00D+00 WtEn= 0.00D+00
 Coeff-Com:  0.370D-04-0.366D-03 0.123D-02 0.232D-02-0.225D-02-0.280D-01
 Coeff-Com: -0.782D-01 0.492D-01 0.106D+01
 Coeff:      0.370D-04-0.366D-03 0.123D-02 0.232D-02-0.225D-02-0.280D-01
 Coeff:     -0.782D-01 0.492D-01 0.106D+01
 Gap=     0.516 Goal=   None    Shift=    0.000
 RMSDP=1.83D-08 MaxDP=4.67D-07 DE=-1.08D-11 OVMax= 5.98D-07

 Cycle  10  Pass 1  IDiag  1:
 RMSU=  4.18D-09    CP:  1.00D+00  1.26D+00  1.32D+00  9.47D-01  1.30D+00
                    CP:  1.04D+00  1.27D+00  1.06D+00  1.24D+00
 E= -269.317741182070     Delta-E=        0.000000000002 Rises=F Damp=F
 DIIS: error= 8.71D-09 at cycle  10 NSaved=  10.
 NSaved=10 IEnMin= 9 EnMin= -269.317741182072     IErMin=10 ErrMin= 8.71D-09
 ErrMax= 8.71D-09  0.00D+00 EMaxC= 1.00D-01 BMatC= 1.49D-14 BMatP= 3.77D-13
 IDIUse=1 WtCom= 1.00D+00 WtEn= 0.00D+00
 Coeff-Com:  0.113D-04-0.104D-03 0.278D-03 0.582D-03 0.398D-03-0.527D-02
 Coeff-Com: -0.234D-01-0.119D-01 0.171D+00 0.869D+00
 Coeff:      0.113D-04-0.104D-03 0.278D-03 0.582D-03 0.398D-03-0.527D-02
 Coeff:     -0.234D-01-0.119D-01 0.171D+00 0.869D+00
 Gap=     0.516 Goal=   None    Shift=    0.000
 RMSDP=2.70D-09 MaxDP=4.42D-08 DE= 1.76D-12 OVMax= 7.53D-08

 Error on total polarization charges =  0.03207
 SCF Done:  E(RwB97XD) =  -269.317741182     A.U. after   10 cycles
            NFock= 10  Conv=0.27D-08     -V/T= 2.0096
 KE= 2.667610166723D+02 PE=-1.020197882582D+03 EE= 2.890033962203D+02
 SMD-CDS (non-electrostatic) energy       (kcal/mol) =       2.94
 (included in total energy above)
 Leave Link  502 at Tue Oct 21 19:50:02 2025, MaxMem=  4294967296 cpu:             114.0 elap:              14.4
 (Enter /lrz/sys/applications/gaussian/g16.C.01/x86_64_legacy/exe/l701.exe)
 ... and contract with generalized density number  0.
 Compute integral first derivatives.
 R6Disp: Adding Grimme-D2 dispersion energy 1st derivatives to the gradient.
   1 Symmetry operations used in ECPInt.
 ECPInt:  NShTT=    1485 NPrTT=    5139 LenC2=    1483 LenP2D=    4436.
 LDataN:  DoStor=T MaxTD1= 5 Len=  102
 D1PCM: PCM CHGder 1st derivatives, ID1Alg=3 FixD1E=F DoIter=F DoCFld=F I1PDM=0.
 GePol: Maximum number of non-zero 1st derivatives   =     248
 Leave Link  701 at Tue Oct 21 19:50:03 2025, MaxMem=  4294967296 cpu:               4.3 elap:               0.6
 (Enter /lrz/sys/applications/gaussian/g16.C.01/x86_64_legacy/exe/l702.exe)
 L702 exits ... SP integral derivatives will be done elsewhere.
 Leave Link  702 at Tue Oct 21 19:50:03 2025, MaxMem=  4294967296 cpu:               0.2 elap:               0.0
 (Enter /lrz/sys/applications/gaussian/g16.C.01/x86_64_legacy/exe/l703.exe)
 Integral derivatives from FoFJK, PRISM(SPDF).
 Compute integral first derivatives, UseDBF=F ICtDFT=           0.
 Calling FoFJK, ICntrl=      2127 FMM=F ISym2X=0 I1Cent= 0 IOpClX= 0 NMat=1 NMatS=1 NMatT=0.
 FoFJK:  IHMeth= 1 ICntrl=    2127 DoSepK=T KAlg= 0 I1Cent=           0 FoldK=F
 IRaf=         1 NMat=       1 IRICut=       1 DoRegI=T DoRafI=F ISym2E= 0 IDoP0=0 IntGTp=1.
 FoFCou: FMM=F IPFlag=           0 FMFlag=      100000 FMFlg1=         800
         NFxFlg=           0 DoJE=F BraDBF=F KetDBF=F FulRan=T
         wScrn=  0.000000 ICntrl=      2527 IOpCl=  0 I1Cent=           0 NGrid=           0
         NMat0=    1 NMatS0=      1 NMatT0=    0 NMatD0=    1 NMtDS0=    0 NMtDT0=    0
 Symmetry not used in FoFCou.
 Leave Link  703 at Tue Oct 21 19:50:05 2025, MaxMem=  4294967296 cpu:              17.1 elap:               2.2
 (Enter /lrz/sys/applications/gaussian/g16.C.01/x86_64_legacy/exe/l716.exe)
 Dipole        = 4.00618890D-02 1.02077056D-02-7.58429509D-02
 ***** Axes restored to original set *****
 -------------------------------------------------------------------
 Center     Atomic                   Forces (Hartrees/Bohr)
 Number     Number              X              Y              Z
 -------------------------------------------------------------------
      1        8           0.000010647    0.000574799    0.000126045
      2        6          -0.000385228   -0.000380478   -0.000334956
      3        8          -0.000022577   -0.000483121    0.000035137
      4        6           0.000119480    0.000869107    0.000610581
      5        6           0.000766252   -0.000507550   -0.000214959
      6        1           0.000068340   -0.000108860   -0.000097716
      7        1          -0.000018814   -0.000094182    0.000135438
      8        1          -0.000002565    0.000293457   -0.000095549
      9        1          -0.000071095   -0.000278760    0.000020212
     10        1           0.000039438   -0.000168352   -0.000285453
     11        1          -0.000087757    0.000273107   -0.000090568
     12        1          -0.000247522   -0.000020334   -0.000082130
     13        1          -0.000168598    0.000031167    0.000273920
 -------------------------------------------------------------------
 Cartesian Forces:  Max     0.000869107 RMS     0.000304962
 Leave Link  716 at Tue Oct 21 19:50:05 2025, MaxMem=  4294967296 cpu:               0.2 elap:               0.0
 (Enter /lrz/sys/applications/gaussian/g16.C.01/x86_64_legacy/exe/l103.exe)

 GradGradGradGradGradGradGradGradGradGradGradGradGradGradGradGradGradGrad
 Berny optimization.
 Using GEDIIS/GDIIS optimizer.
 FormGI is forming the generalized inverse of G from B-inverse, IUseBI=4.
 Internal  Forces:  Max     0.000457085 RMS     0.000152198
 Search for a local minimum.
 Step number   4 out of a maximum of   66
 All quantities printed in internal units (Hartrees-Bohrs-Radians)
 RMS Force = .15220D-03 SwitMx=.10000D-02 MixMth= 2
 Mixed Optimization -- En-DIIS/RFO-DIIS
 Swapping is turned off.
 Update second derivatives using D2CorX and points    1    2    3    4
 DE= -2.95D-05 DEPred=-2.74D-05 R= 1.08D+00
 TightC=F SS=  1.41D+00  RLast= 1.09D-01 DXNew= 8.4853D-01 3.2843D-01
 Trust test= 1.08D+00 RLast= 1.09D-01 DXMaxT set to 5.05D-01
 ITU=  1  1  1  0
     Eigenvalues ---    0.00263   0.00415   0.01090   0.01697   0.03522
     Eigenvalues ---    0.04954   0.05566   0.05581   0.05644   0.06189
     Eigenvalues ---    0.08571   0.10034   0.12323   0.15913   0.16000
     Eigenvalues ---    0.16016   0.16088   0.16440   0.20111   0.21464
     Eigenvalues ---    0.22194   0.30419   0.31878   0.33623   0.34648
     Eigenvalues ---    0.34906   0.35118   0.35202   0.36071   0.44912
     Eigenvalues ---    0.46708   0.54083   0.54515
 En-DIIS/RFO-DIIS/Sim-DIIS IScMMF=       -3 using points:     4    3    2
 RFO step:  Lambda=-1.19839872D-05.
 NNeg= 0 NGDIIS= 3 SimSw=  2.50D-01 Rises=F DC= -2.95D-05 SmlDif=  1.00D-05
 NRisDI= 0 DoIntr=F SqrtH=F CThrHd= 10.0 CDAdj=  3.0
 RMS Error=  0.5257543525D-02 NUsed= 3 OKEnD=T EnDIS=F
 InvSVX:  RCond= 3.49D-05 Info=           0 Equed=N FErr=  1.36D-13 BErr=  2.77D-17
 DidBck=F Rises=F RFO-DIIS coefs:    1.69839   -1.00444    0.30605
 Iteration  1 RMS(Cart)=  0.00579205 RMS(Int)=  0.00004817
 Iteration  2 RMS(Cart)=  0.00004581 RMS(Int)=  0.00000266
 Iteration  3 RMS(Cart)=  0.00000000 RMS(Int)=  0.00000266
 ITry= 1 IFail=0 DXMaxC= 1.94D-02 DCOld= 1.00D+10 DXMaxT= 5.05D-01 DXLimC= 3.00D+00 Rises=F
 Variable       Old X    -DE/DX   Delta X   Delta X   Delta X     New X
                                 (Linear)    (Quad)   (Total)
    R1        2.65763  -0.00045   0.00063  -0.00158  -0.00095   2.65668
    R2        1.82847  -0.00008  -0.00020   0.00005  -0.00015   1.82833
    R3        2.65575  -0.00010  -0.00002  -0.00025  -0.00027   2.65548
    R4        2.86914   0.00046  -0.00119   0.00268   0.00148   2.87063
    R5        2.08853  -0.00014  -0.00068   0.00019  -0.00049   2.08804
    R6        1.82467  -0.00007  -0.00037   0.00020  -0.00017   1.82450
    R7        2.87252   0.00036  -0.00038   0.00140   0.00102   2.87353
    R8        2.08151  -0.00027  -0.00048  -0.00019  -0.00067   2.08085
    R9        2.08767  -0.00029  -0.00088   0.00016  -0.00072   2.08695
   R10        2.07979  -0.00028  -0.00087   0.00014  -0.00073   2.07906
   R11        2.07884  -0.00024  -0.00090   0.00037  -0.00053   2.07831
   R12        2.08261  -0.00030  -0.00081   0.00015  -0.00067   2.08194
    A1        1.87783   0.00017   0.00032   0.00091   0.00123   1.87906
    A2        1.94157  -0.00002   0.00384  -0.00419  -0.00035   1.94122
    A3        1.96745  -0.00008  -0.00015  -0.00062  -0.00076   1.96669
    A4        1.82685   0.00002  -0.00010  -0.00001  -0.00010   1.82675
    A5        1.87703   0.00008  -0.00192   0.00247   0.00054   1.87757
    A6        1.92604  -0.00001  -0.00051   0.00051  -0.00000   1.92604
    A7        1.92546   0.00001  -0.00112   0.00179   0.00067   1.92612
    A8        1.87581   0.00028  -0.00015   0.00244   0.00228   1.87810
    A9        1.97980  -0.00014  -0.00008  -0.00007  -0.00015   1.97966
   A10        1.88219  -0.00002  -0.00029  -0.00029  -0.00058   1.88161
   A11        1.87705   0.00004  -0.00073   0.00044  -0.00028   1.87677
   A12        1.92786   0.00008   0.00061  -0.00014   0.00048   1.92833
   A13        1.93114   0.00001   0.00079  -0.00096  -0.00015   1.93099
   A14        1.86095   0.00004  -0.00042   0.00113   0.00072   1.86167
   A15        1.94044  -0.00007   0.00136  -0.00111   0.00025   1.94070
   A16        1.93658  -0.00009  -0.00123   0.00086  -0.00037   1.93622
   A17        1.94206  -0.00014   0.00042  -0.00136  -0.00094   1.94112
   A18        1.88230   0.00011   0.00011   0.00068   0.00079   1.88309
   A19        1.87985   0.00009  -0.00056   0.00047  -0.00009   1.87976
   A20        1.87993   0.00012  -0.00014   0.00056   0.00041   1.88035
    D1       -1.17860  -0.00006  -0.00344  -0.00262  -0.00606  -1.18467
    D2        0.93146  -0.00003  -0.00327  -0.00288  -0.00615   0.92530
    D3        3.02453  -0.00005  -0.00477  -0.00105  -0.00582   3.01870
    D4       -1.04511  -0.00018  -0.01335  -0.00666  -0.02001  -1.06512
    D5        3.07574  -0.00011  -0.01432  -0.00488  -0.01920   3.05654
    D6        0.97467  -0.00017  -0.01147  -0.00887  -0.02035   0.95432
    D7        1.00498   0.00000  -0.00414   0.00373  -0.00040   1.00458
    D8       -3.13732  -0.00000  -0.00361   0.00330  -0.00031  -3.13764
    D9       -1.13638   0.00005  -0.00460   0.00468   0.00009  -1.13629
   D10       -3.13169  -0.00002  -0.00074  -0.00022  -0.00096  -3.13265
   D11       -0.99081  -0.00002  -0.00021  -0.00065  -0.00087  -0.99167
   D12        1.01013   0.00003  -0.00120   0.00073  -0.00047   1.00967
   D13       -1.03025   0.00002  -0.00320   0.00296  -0.00024  -1.03049
   D14        1.11063   0.00001  -0.00267   0.00252  -0.00015   1.11049
   D15        3.11157   0.00007  -0.00366   0.00391   0.00026   3.11183
   D16       -1.04317   0.00000  -0.00976   0.00129  -0.00846  -1.05164
   D17       -3.13801  -0.00003  -0.00999   0.00060  -0.00938   3.13579
   D18        1.05224  -0.00003  -0.00926   0.00023  -0.00904   1.04321
   D19        3.12458   0.00007  -0.00978   0.00183  -0.00796   3.11662
   D20        1.02973   0.00003  -0.01001   0.00113  -0.00888   1.02086
   D21       -1.06320   0.00003  -0.00928   0.00076  -0.00853  -1.07172
   D22        1.06802  -0.00003  -0.01015   0.00111  -0.00904   1.05897
   D23       -1.02683  -0.00007  -0.01038   0.00042  -0.00996  -1.03679
   D24       -3.11976  -0.00007  -0.00966   0.00004  -0.00962  -3.12937
         Item               Value     Threshold  Converged?
 Maximum Force            0.000457     0.000450     NO 
 RMS     Force            0.000152     0.000300     YES
 Maximum Displacement     0.019361     0.001800     NO 
 RMS     Displacement     0.005792     0.001200     NO 
 Predicted change in Energy=-5.531094D-06
 Lowest energy point so far.  Saving SCF results.
 GradGradGradGradGradGradGradGradGradGradGradGradGradGradGradGradGradGrad

 Leave Link  103 at Tue Oct 21 19:50:05 2025, MaxMem=  4294967296 cpu:               0.1 elap:               0.0
 (Enter /lrz/sys/applications/gaussian/g16.C.01/x86_64_legacy/exe/l202.exe)
                          Input orientation:                          
 ---------------------------------------------------------------------
 Center     Atomic      Atomic             Coordinates (Angstroms)
 Number     Number       Type             X           Y           Z
 ---------------------------------------------------------------------
      1          8           0       -0.593474   -1.330193    0.029430
      2          6           0       -0.457577    0.024209   -0.322064
      3          8           0       -1.569454    0.773134    0.099219
      4          6           0        0.781471    0.664236    0.280181
      5          6           0        2.073215   -0.039969   -0.104193
      6          1           0       -0.542892   -1.389696    0.993781
      7          1           0       -0.391462    0.021695   -1.425025
      8          1           0       -2.348270    0.414512   -0.344617
      9          1           0        0.806401    1.717267   -0.040762
     10          1           0        0.653003    0.670386    1.377030
     11          1           0        2.071167   -1.086997    0.233670
     12          1           0        2.942583    0.459306    0.347986
     13          1           0        2.217173   -0.040696   -1.196464
 ---------------------------------------------------------------------
                    Distance matrix (angstroms):
                    1          2          3          4          5
     1  O    0.000000
     2  C    1.405852   0.000000
     3  O    2.319783   1.405218   0.000000
     4  C    2.435384   1.519069   2.360392   0.000000
     5  C    2.965428   2.540963   3.737854   1.520609   0.000000
     6  H    0.967509   1.933354   2.555759   2.545938   3.141867
     7  H    1.995958   1.104944   2.067764   2.167108   2.796968
     8  H    2.502641   1.930690   0.965482   3.201251   4.451279
     9  H    3.354339   2.131482   2.560404   1.101136   2.167191
    10  H    2.715152   2.130224   2.565672   1.104364   2.171550
    11  H    2.683500   2.817475   4.090512   2.175385   1.100193
    12  H    3.975863   3.492759   4.529774   2.171866   1.099792
    13  H    3.326463   2.814796   4.084074   2.176844   1.101717
                    6          7          8          9         10
     6  H    0.000000
     7  H    2.804565   0.000000
     8  H    2.881990   2.269512   0.000000
     9  H    3.541764   2.495201   3.426580   0.000000
    10  H    2.412672   3.059938   3.469463   1.769074   0.000000
    11  H    2.739106   3.169387   4.703230   3.088502   2.531178
    12  H    3.998050   3.801438   5.336182   2.509355   2.519061
    13  H    3.772921   2.619372   4.666490   2.533053   3.094372
                   11         12         13
    11  H    0.000000
    12  H    1.778620   0.000000
    13  H    1.778017   1.778074   0.000000
 Stoichiometry    C3H8O2
 Framework group  C1[X(C3H8O2)]
 Deg. of freedom    33
 Full point group                 C1      NOp   1
 RotChk:  IX=0 Diff= 1.67D-03
 Largest Abelian subgroup         C1      NOp   1
 Largest concise Abelian subgroup C1      NOp   1
                         Standard orientation:                         
 ---------------------------------------------------------------------
 Center     Atomic      Atomic             Coordinates (Angstroms)
 Number     Number       Type             X           Y           Z
 ---------------------------------------------------------------------
      1          8           0       -0.645992    1.336673   -0.069617
      2          6           0       -0.517141   -0.006681    0.324359
      3          8           0       -1.632404   -0.762937   -0.074270
      4          6           0        0.719180   -0.671447   -0.256303
      5          6           0        2.014114    0.038060    0.107012
      6          1           0       -0.594339    1.365613   -1.035312
      7          1           0       -0.451902    0.030139    1.426761
      8          1           0       -2.409777   -0.386692    0.357338
      9          1           0        0.738596   -1.713991    0.097568
     10          1           0        0.591566   -0.711400   -1.352541
     11          1           0        2.017565    1.073959   -0.263560
     12          1           0        2.881343   -0.479479   -0.328432
     13          1           0        2.157195    0.072371    1.198860
 ---------------------------------------------------------------------
 Rotational constants (GHZ):           8.5227782           3.5933479           2.7801417
 Leave Link  202 at Tue Oct 21 19:50:05 2025, MaxMem=  4294967296 cpu:               0.1 elap:               0.0
 (Enter /lrz/sys/applications/gaussian/g16.C.01/x86_64_legacy/exe/l301.exe)
 Standard basis: def2SVP (5D, 7F)
 Ernie: Thresh=  0.10000D-02 Tol=  0.10000D-05 Strict=F.
 There are   115 symmetry adapted cartesian basis functions of A   symmetry.
 There are   110 symmetry adapted basis functions of A   symmetry.
   110 basis functions,   181 primitive gaussians,   115 cartesian basis functions
    21 alpha electrons       21 beta electrons
       nuclear repulsion energy       195.1098391092 Hartrees.
 IExCor= 4639 DFT=T Ex+Corr=wB97XD ExCW=0 ScaHFX=  1.000000
 ScaDFX=  1.000000  1.000000  1.000000  1.000000 ScalE2=  1.000000  1.000000
 IRadAn=      5 IRanWt=     -1 IRanGd=            0 ICorTp=0 IEmpDi=121
 HFx  wShort=  0.000000 wLong=  0.200000 cFull=  0.222036 cShort=  0.000000 cLong=  0.777964
 DFx  wShort=  0.000000 wLong=  0.200000 cFull=  0.000000 cShort=  0.000000 cLong=  1.000000
 NAtoms=   13 NActive=   13 NUniq=   13 SFac= 1.00D+00 NAtFMM=   60 NAOKFM=F Big=F
 Integral buffers will be    131072 words long.
 Raffenetti 2 integral format.
 Two-electron integral symmetry is turned on.
 R6Disp:  Grimme-D2 Dispersion energy=       -0.0055747333 Hartrees.
 Nuclear repulsion after empirical dispersion term =      195.1042643759 Hartrees.
 ------------------------------------------------------------------------------
 Polarizable Continuum Model (PCM)
 =================================
 Model                : PCM.
 Atomic radii         : SMD-Coulomb.
 Polarization charges : Total charges.
 Charge compensation  : None.
 Solution method      : On-the-fly selection.
 Cavity type          : VdW (van der Waals Surface) (Alpha=1.000).
 Cavity algorithm     : GePol (No added spheres)
                        Default sphere list used, NSphG=   13.
                        Lebedev-Laikov grids with approx.  5.0 points / Ang**2.
                        Smoothing algorithm: York/Karplus (Gamma=1.0000).
                        Polarization charges: spherical gaussians, with
                                              point-specific exponents (IZeta= 3).
                        Self-potential: point-specific (ISelfS= 7).
                        Self-field    : sphere-specific E.n sum rule (ISelfD= 2).
 1st derivatives      : Analytical E(r).r(x)/FMM algorithm (CHGder, D1EAlg=3).
                        Cavity 1st derivative terms included.
 Solvent              : Water, Eps=  78.355300 Eps(inf)=   1.777849
 ------------------------------------------------------------------------------
 Spheres list:
 ISph  on   Nord     Re0    Alpha      Xe            Ye            Ze
    1   O      1    1.5200  1.000     -0.645992      1.336673     -0.069617
    2   C      2    1.8500  1.000     -0.517141     -0.006681      0.324359
    3   O      3    1.5200  1.000     -1.632404     -0.762937     -0.074270
    4   C      4    1.8500  1.000      0.719180     -0.671447     -0.256303
    5   C      5    1.8500  1.000      2.014114      0.038060      0.107012
    6   H      6    1.2000  1.000     -0.594339      1.365613     -1.035312
    7   H      7    1.2000  1.000     -0.451902      0.030139      1.426761
    8   H      8    1.2000  1.000     -2.409777     -0.386692      0.357338
    9   H      9    1.2000  1.000      0.738596     -1.713991      0.097568
   10   H     10    1.2000  1.000      0.591566     -0.711400     -1.352541
   11   H     11    1.2000  1.000      2.017565      1.073959     -0.263560
   12   H     12    1.2000  1.000      2.881343     -0.479479     -0.328432
   13   H     13    1.2000  1.000      2.157195      0.072371      1.198860
 ------------------------------------------------------------------------------
 GePol: Number of generator spheres                  =      13
 GePol: Total number of spheres                      =      13
 GePol: Number of exposed spheres                    =      13 (100.00%)
 GePol: Number of points                             =     912
 GePol: Average weight of points                     =       0.12
 GePol: Minimum weight of points                     =   0.26D-09
 GePol: Maximum weight of points                     =    0.21991
 GePol: Number of points with low weight             =      54
 GePol: Fraction of low-weight points (<1% of avg)   =       5.92%
 GePol: Cavity surface area                          =    111.023 Ang**2
 GePol: Cavity volume                                =     82.140 Ang**3
 ------------------------------------------------------------------------------
 Atomic radii for non-electrostatic terms: SMD-CDS.
 ------------------------------------------------------------------------------
 PCM non-electrostatic energy =         0.0046964516 Hartrees.
 Nuclear repulsion after PCM non-electrostatic terms =      195.1089608275 Hartrees.
 Leave Link  301 at Tue Oct 21 19:50:05 2025, MaxMem=  4294967296 cpu:               1.3 elap:               0.2
 (Enter /lrz/sys/applications/gaussian/g16.C.01/x86_64_legacy/exe/l302.exe)
 NPDir=0 NMtPBC=     1 NCelOv=     1 NCel=       1 NClECP=     1 NCelD=      1
         NCelK=      1 NCelE2=     1 NClLst=     1 CellRange=     0.0.
 One-electron integrals computed using PRISM.
 One-electron integral symmetry used in STVInt
   1 Symmetry operations used in ECPInt.
 ECPInt:  NShTT=    1485 NPrTT=    5139 LenC2=    1483 LenP2D=    4436.
 LDataN:  DoStor=T MaxTD1= 4 Len=   56
 NBasis=   110 RedAO= T EigKep=  2.28D-03  NBF=   110
 NBsUse=   110 1.00D-06 EigRej= -1.00D+00 NBFU=   110
 Precomputing XC quadrature grid using
 IXCGrd= 4 IRadAn=           5 IRanWt=          -1 IRanGd=           0 AccXCQ= 0.00D+00.
 Generated NRdTot=       0 NPtTot=           0 NUsed=           0 NTot=          32
 NSgBfM=   115   115   115   115   115 MxSgAt=    13 MxSgA2=    13.
 Leave Link  302 at Tue Oct 21 19:50:05 2025, MaxMem=  4294967296 cpu:               1.2 elap:               0.2
 (Enter /lrz/sys/applications/gaussian/g16.C.01/x86_64_legacy/exe/l303.exe)
 DipDrv:  MaxL=1.
 Leave Link  303 at Tue Oct 21 19:50:05 2025, MaxMem=  4294967296 cpu:               0.2 elap:               0.0
 (Enter /lrz/sys/applications/gaussian/g16.C.01/x86_64_legacy/exe/l401.exe)
 Initial guess from the checkpoint file:  "g16_C3-w_1.chk"
 B after Tr=     0.000000    0.000000   -0.000000
         Rot=    1.000000    0.000135    0.000240    0.000418 Ang=   0.06 deg.
 Guess basis will be translated and rotated to current coordinates.
 JPrj=2 DoOrth=T DoCkMO=T.
 Leave Link  401 at Tue Oct 21 19:50:05 2025, MaxMem=  4294967296 cpu:               0.7 elap:               0.1
 (Enter /lrz/sys/applications/gaussian/g16.C.01/x86_64_legacy/exe/l502.exe)
 Integral symmetry usage will be decided dynamically.
 Closed shell SCF:
 Using DIIS extrapolation, IDIIS=  1040.
 NGot=  4294967296 LenX=  4294938204 LenY=  4294924538
 Requested convergence on RMS density matrix=1.00D-08 within 128 cycles.
 Requested convergence on MAX density matrix=1.00D-06.
 Requested convergence on             energy=1.00D-06.
 No special actions if energy rises.
 Fock matrices will be formed incrementally for  20 cycles.

 Cycle   1  Pass 1  IDiag  1:
 FoFJK:  IHMeth= 1 ICntrl=       0 DoSepK=T KAlg= 0 I1Cent=           0 FoldK=F
 IRaf=         1 NMat=       1 IRICut=       1 DoRegI=T DoRafI=F ISym2E= 0 IDoP0=0 IntGTp=1.
 FoFCou: FMM=F IPFlag=           0 FMFlag=      100000 FMFlg1=           0
         NFxFlg=           0 DoJE=T BraDBF=F KetDBF=F FulRan=T
         wScrn=  0.000000 ICntrl=       500 IOpCl=  0 I1Cent=           0 NGrid=           0
         NMat0=    1 NMatS0=      1 NMatT0=    0 NMatD0=    1 NMtDS0=    0 NMtDT0=    0
 Symmetry not used in FoFCou.
 Inv3:  Mode=1 IEnd=     2495232.
 Iteration    1 A*A^-1 deviation from unit magnitude is 4.44D-15 for     17.
 Iteration    1 A*A^-1 deviation from orthogonality  is 2.85D-15 for    811    371.
 Iteration    1 A^-1*A deviation from unit magnitude is 4.44D-15 for     17.
 Iteration    1 A^-1*A deviation from orthogonality  is 2.79D-15 for    773    376.
 E= -269.317683012205    
 DIIS: error= 6.85D-04 at cycle   1 NSaved=   1.
 NSaved= 1 IEnMin= 1 EnMin= -269.317683012205     IErMin= 1 ErrMin= 6.85D-04
 ErrMax= 6.85D-04  0.00D+00 EMaxC= 1.00D-01 BMatC= 4.88D-05 BMatP= 4.88D-05
 IDIUse=3 WtCom= 9.93D-01 WtEn= 6.85D-03
 Coeff-Com:  0.100D+01
 Coeff-En:   0.100D+01
 Coeff:      0.100D+01
 Gap=     0.781 Goal=   None    Shift=    0.000
 RMSDP=9.66D-05 MaxDP=3.07D-03              OVMax= 2.01D-03

 Cycle   2  Pass 1  IDiag  1:
 RMSU=  9.66D-05    CP:  1.00D+00
 E= -269.317746856220     Delta-E=       -0.000063844015 Rises=F Damp=F
 DIIS: error= 1.08D-04 at cycle   2 NSaved=   2.
 NSaved= 2 IEnMin= 2 EnMin= -269.317746856220     IErMin= 2 ErrMin= 1.08D-04
 ErrMax= 1.08D-04  0.00D+00 EMaxC= 1.00D-01 BMatC= 1.48D-06 BMatP= 4.88D-05
 IDIUse=3 WtCom= 9.99D-01 WtEn= 1.08D-03
 Coeff-Com: -0.160D+00 0.116D+01
 Coeff-En:   0.000D+00 0.100D+01
 Coeff:     -0.160D+00 0.116D+01
 Gap=     0.516 Goal=   None    Shift=    0.000
 RMSDP=2.27D-05 MaxDP=6.35D-04 DE=-6.38D-05 OVMax= 6.88D-04

 Cycle   3  Pass 1  IDiag  1:
 RMSU=  1.19D-05    CP:  1.00D+00  1.20D+00
 E= -269.317749922180     Delta-E=       -0.000003065960 Rises=F Damp=F
 DIIS: error= 1.29D-05 at cycle   3 NSaved=   3.
 NSaved= 3 IEnMin= 3 EnMin= -269.317749922180     IErMin= 3 ErrMin= 1.29D-05
 ErrMax= 1.29D-05  0.00D+00 EMaxC= 1.00D-01 BMatC= 5.45D-08 BMatP= 1.48D-06
 IDIUse=1 WtCom= 1.00D+00 WtEn= 0.00D+00
 Coeff-Com: -0.947D-02 0.136D-01 0.996D+00
 Coeff:     -0.947D-02 0.136D-01 0.996D+00
 Gap=     0.516 Goal=   None    Shift=    0.000
 RMSDP=4.71D-06 MaxDP=7.33D-05 DE=-3.07D-06 OVMax= 1.41D-04

 Cycle   4  Pass 1  IDiag  1:
 RMSU=  3.10D-06    CP:  1.00D+00  1.22D+00  1.23D+00
 E= -269.317750012454     Delta-E=       -0.000000090274 Rises=F Damp=F
 DIIS: error= 1.36D-05 at cycle   4 NSaved=   4.
 NSaved= 4 IEnMin= 4 EnMin= -269.317750012454     IErMin= 3 ErrMin= 1.29D-05
 ErrMax= 1.36D-05  0.00D+00 EMaxC= 1.00D-01 BMatC= 3.28D-08 BMatP= 5.45D-08
 IDIUse=1 WtCom= 1.00D+00 WtEn= 0.00D+00
 Coeff-Com:  0.109D-01-0.107D+00 0.462D+00 0.634D+00
 Coeff:      0.109D-01-0.107D+00 0.462D+00 0.634D+00
 Gap=     0.516 Goal=   None    Shift=    0.000
 RMSDP=1.76D-06 MaxDP=3.46D-05 DE=-9.03D-08 OVMax= 5.17D-05

 Cycle   5  Pass 1  IDiag  1:
 RMSU=  1.07D-06    CP:  1.00D+00  1.23D+00  1.33D+00  8.18D-01
 E= -269.317750041753     Delta-E=       -0.000000029299 Rises=F Damp=F
 DIIS: error= 2.06D-06 at cycle   5 NSaved=   5.
 NSaved= 5 IEnMin= 5 EnMin= -269.317750041753     IErMin= 5 ErrMin= 2.06D-06
 ErrMax= 2.06D-06  0.00D+00 EMaxC= 1.00D-01 BMatC= 1.31D-09 BMatP= 3.28D-08
 IDIUse=1 WtCom= 1.00D+00 WtEn= 0.00D+00
 Coeff-Com:  0.404D-02-0.330D-01 0.149D-01 0.156D+00 0.858D+00
 Coeff:      0.404D-02-0.330D-01 0.149D-01 0.156D+00 0.858D+00
 Gap=     0.516 Goal=   None    Shift=    0.000
 RMSDP=6.64D-07 MaxDP=1.64D-05 DE=-2.93D-08 OVMax= 2.08D-05

 Cycle   6  Pass 1  IDiag  1:
 RMSU=  3.04D-07    CP:  1.00D+00  1.23D+00  1.36D+00  9.31D-01  1.18D+00
 E= -269.317750043764     Delta-E=       -0.000000002011 Rises=F Damp=F
 DIIS: error= 5.80D-07 at cycle   6 NSaved=   6.
 NSaved= 6 IEnMin= 6 EnMin= -269.317750043764     IErMin= 6 ErrMin= 5.80D-07
 ErrMax= 5.80D-07  0.00D+00 EMaxC= 1.00D-01 BMatC= 1.08D-10 BMatP= 1.31D-09
 IDIUse=1 WtCom= 1.00D+00 WtEn= 0.00D+00
 Coeff-Com:  0.174D-03 0.344D-03-0.326D-01-0.159D-01 0.193D+00 0.855D+00
 Coeff:      0.174D-03 0.344D-03-0.326D-01-0.159D-01 0.193D+00 0.855D+00
 Gap=     0.516 Goal=   None    Shift=    0.000
 RMSDP=2.10D-07 MaxDP=6.00D-06 DE=-2.01D-09 OVMax= 6.88D-06

 Cycle   7  Pass 1  IDiag  1:
 RMSU=  9.36D-08    CP:  1.00D+00  1.23D+00  1.36D+00  9.59D-01  1.30D+00
                    CP:  1.01D+00
 E= -269.317750043955     Delta-E=       -0.000000000191 Rises=F Damp=F
 DIIS: error= 1.74D-07 at cycle   7 NSaved=   7.
 NSaved= 7 IEnMin= 7 EnMin= -269.317750043955     IErMin= 7 ErrMin= 1.74D-07
 ErrMax= 1.74D-07  0.00D+00 EMaxC= 1.00D-01 BMatC= 1.19D-11 BMatP= 1.08D-10
 IDIUse=1 WtCom= 1.00D+00 WtEn= 0.00D+00
 Coeff-Com: -0.391D-03 0.382D-02-0.754D-02-0.220D-01-0.651D-01 0.211D+00
 Coeff-Com:  0.880D+00
 Coeff:     -0.391D-03 0.382D-02-0.754D-02-0.220D-01-0.651D-01 0.211D+00
 Coeff:      0.880D+00
 Gap=     0.516 Goal=   None    Shift=    0.000
 RMSDP=6.96D-08 MaxDP=2.09D-06 DE=-1.91D-10 OVMax= 2.44D-06

 Cycle   8  Pass 1  IDiag  1:
 RMSU=  2.24D-08    CP:  1.00D+00  1.23D+00  1.36D+00  9.66D-01  1.34D+00
                    CP:  1.15D+00  1.06D+00
 E= -269.317750043978     Delta-E=       -0.000000000023 Rises=F Damp=F
 DIIS: error= 3.42D-08 at cycle   8 NSaved=   8.
 NSaved= 8 IEnMin= 8 EnMin= -269.317750043978     IErMin= 8 ErrMin= 3.42D-08
 ErrMax= 3.42D-08  0.00D+00 EMaxC= 1.00D-01 BMatC= 2.05D-13 BMatP= 1.19D-11
 IDIUse=1 WtCom= 1.00D+00 WtEn= 0.00D+00
 Coeff-Com:  0.264D-04-0.334D-03 0.205D-02 0.194D-02-0.551D-02-0.475D-01
 Coeff-Com: -0.440D-01 0.109D+01
 Coeff:      0.264D-04-0.334D-03 0.205D-02 0.194D-02-0.551D-02-0.475D-01
 Coeff:     -0.440D-01 0.109D+01
 Gap=     0.516 Goal=   None    Shift=    0.000
 RMSDP=1.57D-08 MaxDP=4.00D-07 DE=-2.33D-11 OVMax= 5.35D-07

 Cycle   9  Pass 1  IDiag  1:
 RMSU=  4.39D-09    CP:  1.00D+00  1.23D+00  1.36D+00  9.66D-01  1.35D+00
                    CP:  1.17D+00  1.16D+00  1.31D+00
 E= -269.317750043976     Delta-E=        0.000000000003 Rises=F Damp=F
 DIIS: error= 1.32D-08 at cycle   9 NSaved=   9.
 NSaved= 9 IEnMin= 8 EnMin= -269.317750043978     IErMin= 9 ErrMin= 1.32D-08
 ErrMax= 1.32D-08  0.00D+00 EMaxC= 1.00D-01 BMatC= 4.23D-14 BMatP= 2.05D-13
 IDIUse=1 WtCom= 1.00D+00 WtEn= 0.00D+00
 Coeff-Com:  0.301D-04-0.323D-03 0.120D-02 0.182D-02 0.825D-03-0.283D-01
 Coeff-Com: -0.585D-01 0.405D+00 0.678D+00
 Coeff:      0.301D-04-0.323D-03 0.120D-02 0.182D-02 0.825D-03-0.283D-01
 Coeff:     -0.585D-01 0.405D+00 0.678D+00
 Gap=     0.516 Goal=   None    Shift=    0.000
 RMSDP=2.74D-09 MaxDP=3.98D-08 DE= 2.73D-12 OVMax= 6.86D-08

 Error on total polarization charges =  0.03205
 SCF Done:  E(RwB97XD) =  -269.317750044     A.U. after    9 cycles
            NFock=  9  Conv=0.27D-08     -V/T= 2.0096
 KE= 2.667623672508D+02 PE=-1.020189411201D+03 EE= 2.890003330785D+02
 SMD-CDS (non-electrostatic) energy       (kcal/mol) =       2.95
 (included in total energy above)
 Leave Link  502 at Tue Oct 21 19:50:18 2025, MaxMem=  4294967296 cpu:             101.2 elap:              12.7
 (Enter /lrz/sys/applications/gaussian/g16.C.01/x86_64_legacy/exe/l701.exe)
 ... and contract with generalized density number  0.
 Compute integral first derivatives.
 R6Disp: Adding Grimme-D2 dispersion energy 1st derivatives to the gradient.
   1 Symmetry operations used in ECPInt.
 ECPInt:  NShTT=    1485 NPrTT=    5139 LenC2=    1483 LenP2D=    4436.
 LDataN:  DoStor=T MaxTD1= 5 Len=  102
 D1PCM: PCM CHGder 1st derivatives, ID1Alg=3 FixD1E=F DoIter=F DoCFld=F I1PDM=0.
 GePol: Maximum number of non-zero 1st derivatives   =     247
 Leave Link  701 at Tue Oct 21 19:50:19 2025, MaxMem=  4294967296 cpu:               4.3 elap:               0.6
 (Enter /lrz/sys/applications/gaussian/g16.C.01/x86_64_legacy/exe/l702.exe)
 L702 exits ... SP integral derivatives will be done elsewhere.
 Leave Link  702 at Tue Oct 21 19:50:19 2025, MaxMem=  4294967296 cpu:               0.2 elap:               0.0
 (Enter /lrz/sys/applications/gaussian/g16.C.01/x86_64_legacy/exe/l703.exe)
 Integral derivatives from FoFJK, PRISM(SPDF).
 Compute integral first derivatives, UseDBF=F ICtDFT=           0.
 Calling FoFJK, ICntrl=      2127 FMM=F ISym2X=0 I1Cent= 0 IOpClX= 0 NMat=1 NMatS=1 NMatT=0.
 FoFJK:  IHMeth= 1 ICntrl=    2127 DoSepK=T KAlg= 0 I1Cent=           0 FoldK=F
 IRaf=         1 NMat=       1 IRICut=       1 DoRegI=T DoRafI=F ISym2E= 0 IDoP0=0 IntGTp=1.
 FoFCou: FMM=F IPFlag=           0 FMFlag=      100000 FMFlg1=         800
         NFxFlg=           0 DoJE=F BraDBF=F KetDBF=F FulRan=T
         wScrn=  0.000000 ICntrl=      2527 IOpCl=  0 I1Cent=           0 NGrid=           0
         NMat0=    1 NMatS0=      1 NMatT0=    0 NMatD0=    1 NMtDS0=    0 NMtDT0=    0
 Symmetry not used in FoFCou.
 Leave Link  703 at Tue Oct 21 19:50:21 2025, MaxMem=  4294967296 cpu:              17.1 elap:               2.2
 (Enter /lrz/sys/applications/gaussian/g16.C.01/x86_64_legacy/exe/l716.exe)
 Dipole        = 4.50791362D-02 2.06302980D-03-6.39459065D-02
 ***** Axes restored to original set *****
 -------------------------------------------------------------------
 Center     Atomic                   Forces (Hartrees/Bohr)
 Number     Number              X              Y              Z
 -------------------------------------------------------------------
      1        8           0.000079396   -0.000098561    0.000079930
      2        6          -0.000168199   -0.000145829   -0.000054008
      3        8           0.000043547    0.000019570    0.000058791
      4        6          -0.000107836    0.000403321    0.000185475
      5        6           0.000253932   -0.000187018   -0.000148986
      6        1           0.000026158   -0.000029937   -0.000059894
      7        1           0.000037527    0.000021639    0.000022339
      8        1           0.000056547    0.000072275   -0.000066001
      9        1          -0.000000316   -0.000073842   -0.000027526
     10        1           0.000024012   -0.000089013   -0.000046701
     11        1          -0.000093726    0.000049795   -0.000007714
     12        1          -0.000091587    0.000000471    0.000013537
     13        1          -0.000059455    0.000057130    0.000050759
 -------------------------------------------------------------------
 Cartesian Forces:  Max     0.000403321 RMS     0.000110645
 Leave Link  716 at Tue Oct 21 19:50:21 2025, MaxMem=  4294967296 cpu:               0.2 elap:               0.0
 (Enter /lrz/sys/applications/gaussian/g16.C.01/x86_64_legacy/exe/l103.exe)

 GradGradGradGradGradGradGradGradGradGradGradGradGradGradGradGradGradGrad
 Berny optimization.
 Using GEDIIS/GDIIS optimizer.
 FormGI is forming the generalized inverse of G from B-inverse, IUseBI=4.
 Internal  Forces:  Max     0.000231145 RMS     0.000065630
 Search for a local minimum.
 Step number   5 out of a maximum of   66
 All quantities printed in internal units (Hartrees-Bohrs-Radians)
 RMS Force = .65630D-04 SwitMx=.10000D-02 MixMth= 2
 Mixed Optimization -- En-DIIS/RFO-DIIS
 Swapping is turned off.
 Update second derivatives using D2CorX and points    1    2    3    4    5
 DE= -8.86D-06 DEPred=-5.53D-06 R= 1.60D+00
 TightC=F SS=  1.41D+00  RLast= 4.52D-02 DXNew= 8.4853D-01 1.3555D-01
 Trust test= 1.60D+00 RLast= 4.52D-02 DXMaxT set to 5.05D-01
 ITU=  1  1  1  1  0
     Eigenvalues ---    0.00278   0.00410   0.00762   0.01698   0.03528
     Eigenvalues ---    0.04766   0.05557   0.05589   0.05640   0.06247
     Eigenvalues ---    0.08610   0.10083   0.12314   0.15377   0.15999
     Eigenvalues ---    0.16003   0.16103   0.16509   0.20154   0.21337
     Eigenvalues ---    0.22753   0.29780   0.31047   0.33621   0.34596
     Eigenvalues ---    0.34887   0.35120   0.35198   0.38549   0.44879
     Eigenvalues ---    0.46980   0.54068   0.54521
 En-DIIS/RFO-DIIS/Sim-DIIS IScMMF=       -3 using points:     5    4    3    2
 RFO step:  Lambda=-3.50464055D-06.
 NNeg= 0 NGDIIS= 4 SimSw=  2.50D-01 Rises=F DC= -8.86D-06 SmlDif=  1.00D-05
 NRisDI= 0 DoIntr=F SqrtH=F CThrHd= 10.0 CDAdj=  3.0
 RMS Error=  0.2554595321D-02 NUsed= 4 OKEnD=F EnDIS=F
 InvSVX:  RCond= 6.45D-06 Info=           0 Equed=N FErr=  1.91D-13 BErr=  2.46D-17
 DidBck=F Rises=F RFO-DIIS coefs:    1.54370   -0.69144    0.20549   -0.05775
 Iteration  1 RMS(Cart)=  0.00279650 RMS(Int)=  0.00001277
 Iteration  2 RMS(Cart)=  0.00001184 RMS(Int)=  0.00000065
 Iteration  3 RMS(Cart)=  0.00000000 RMS(Int)=  0.00000065
 ITry= 1 IFail=0 DXMaxC= 1.15D-02 DCOld= 1.00D+10 DXMaxT= 5.05D-01 DXLimC= 3.00D+00 Rises=F
 Variable       Old X    -DE/DX   Delta X   Delta X   Delta X     New X
                                 (Linear)    (Quad)   (Total)
    R1        2.65668   0.00011  -0.00066   0.00087   0.00021   2.65688
    R2        1.82833  -0.00005  -0.00004  -0.00007  -0.00011   1.82822
    R3        2.65548  -0.00003  -0.00015   0.00001  -0.00014   2.65534
    R4        2.87063   0.00001   0.00108  -0.00081   0.00027   2.87089
    R5        2.08804  -0.00002  -0.00013  -0.00004  -0.00017   2.08788
    R6        1.82450  -0.00004  -0.00002  -0.00007  -0.00009   1.82440
    R7        2.87353   0.00007   0.00068  -0.00051   0.00016   2.87370
    R8        2.08085  -0.00006  -0.00027  -0.00006  -0.00033   2.08051
    R9        2.08695  -0.00005  -0.00022  -0.00005  -0.00027   2.08668
   R10        2.07906  -0.00005  -0.00022  -0.00008  -0.00030   2.07876
   R11        2.07831  -0.00007  -0.00011  -0.00024  -0.00035   2.07796
   R12        2.08194  -0.00006  -0.00020  -0.00012  -0.00032   2.08162
    A1        1.87906   0.00004   0.00061  -0.00007   0.00054   1.87959
    A2        1.94122   0.00016  -0.00096   0.00199   0.00103   1.94226
    A3        1.96669  -0.00005  -0.00039   0.00010  -0.00028   1.96640
    A4        1.82675   0.00001  -0.00003   0.00024   0.00021   1.82696
    A5        1.87757  -0.00011   0.00069  -0.00112  -0.00043   1.87714
    A6        1.92604   0.00001   0.00011  -0.00028  -0.00016   1.92588
    A7        1.92612  -0.00002   0.00056  -0.00092  -0.00036   1.92577
    A8        1.87810  -0.00003   0.00126  -0.00081   0.00045   1.87855
    A9        1.97966  -0.00023  -0.00012  -0.00127  -0.00139   1.97827
   A10        1.88161   0.00008  -0.00026   0.00071   0.00045   1.88206
   A11        1.87677   0.00006  -0.00001   0.00006   0.00005   1.87682
   A12        1.92833   0.00006   0.00015   0.00013   0.00027   1.92861
   A13        1.93099   0.00005  -0.00024   0.00002  -0.00023   1.93076
   A14        1.86167   0.00000   0.00053   0.00047   0.00099   1.86266
   A15        1.94070  -0.00011  -0.00019  -0.00048  -0.00067   1.94003
   A16        1.93622  -0.00005   0.00005  -0.00039  -0.00034   1.93588
   A17        1.94112  -0.00006  -0.00062   0.00004  -0.00058   1.94054
   A18        1.88309   0.00008   0.00043   0.00024   0.00068   1.88377
   A19        1.87976   0.00008   0.00009   0.00035   0.00044   1.88020
   A20        1.88035   0.00007   0.00028   0.00029   0.00057   1.88092
    D1       -1.18467   0.00004  -0.00250  -0.00042  -0.00292  -1.18759
    D2        0.92530  -0.00002  -0.00258  -0.00035  -0.00293   0.92238
    D3        3.01870  -0.00006  -0.00213  -0.00126  -0.00338   3.01532
    D4       -1.06512  -0.00011  -0.00789  -0.00336  -0.01125  -1.07637
    D5        3.05654  -0.00008  -0.00726  -0.00401  -0.01126   3.04527
    D6        0.95432   0.00000  -0.00843  -0.00204  -0.01047   0.94386
    D7        1.00458  -0.00004   0.00087  -0.00155  -0.00068   1.00389
    D8       -3.13764  -0.00007   0.00079  -0.00171  -0.00092  -3.13856
    D9       -1.13629   0.00001   0.00127  -0.00079   0.00048  -1.13581
   D10       -3.13265   0.00005  -0.00011   0.00024   0.00014  -3.13251
   D11       -0.99167   0.00003  -0.00019   0.00008  -0.00010  -0.99178
   D12        1.00967   0.00010   0.00029   0.00101   0.00130   1.01097
   D13       -1.03049  -0.00001   0.00078  -0.00132  -0.00054  -1.03102
   D14        1.11049  -0.00004   0.00070  -0.00148  -0.00078   1.10971
   D15        3.11183   0.00003   0.00118  -0.00056   0.00063   3.11245
   D16       -1.05164   0.00002  -0.00235   0.00256   0.00021  -1.05143
   D17        3.13579   0.00003  -0.00280   0.00283   0.00003   3.13582
   D18        1.04321   0.00001  -0.00278   0.00270  -0.00008   1.04313
   D19        3.11662   0.00004  -0.00204   0.00243   0.00040   3.11701
   D20        1.02086   0.00004  -0.00249   0.00271   0.00022   1.02107
   D21       -1.07172   0.00003  -0.00247   0.00258   0.00011  -1.07161
   D22        1.05897  -0.00002  -0.00263   0.00177  -0.00086   1.05811
   D23       -1.03679  -0.00002  -0.00308   0.00204  -0.00104  -1.03783
   D24       -3.12937  -0.00003  -0.00306   0.00191  -0.00115  -3.13052
         Item               Value     Threshold  Converged?
 Maximum Force            0.000231     0.000450     YES
 RMS     Force            0.000066     0.000300     YES
 Maximum Displacement     0.011497     0.001800     NO 
 RMS     Displacement     0.002796     0.001200     NO 
 Predicted change in Energy=-1.743580D-06
 Lowest energy point so far.  Saving SCF results.
 GradGradGradGradGradGradGradGradGradGradGradGradGradGradGradGradGradGrad

 Leave Link  103 at Tue Oct 21 19:50:21 2025, MaxMem=  4294967296 cpu:               0.2 elap:               0.0
 (Enter /lrz/sys/applications/gaussian/g16.C.01/x86_64_legacy/exe/l202.exe)
                          Input orientation:                          
 ---------------------------------------------------------------------
 Center     Atomic      Atomic             Coordinates (Angstroms)
 Number     Number       Type             X           Y           Z
 ---------------------------------------------------------------------
      1          8           0       -0.591710   -1.331302    0.030604
      2          6           0       -0.457724    0.023394   -0.320929
      3          8           0       -1.569706    0.772027    0.100350
      4          6           0        0.781002    0.664684    0.280989
      5          6           0        2.072234   -0.040067   -0.104441
      6          1           0       -0.537973   -1.391595    0.994677
      7          1           0       -0.391639    0.021203   -1.423805
      8          1           0       -2.347249    0.419833   -0.350700
      9          1           0        0.805607    1.717450   -0.040243
     10          1           0        0.653261    0.670061    1.377784
     11          1           0        2.069412   -1.086822    0.233739
     12          1           0        2.941810    0.459193    0.346903
     13          1           0        2.214557   -0.040865   -1.196753
 ---------------------------------------------------------------------
                    Distance matrix (angstroms):
                    1          2          3          4          5
     1  O    0.000000
     2  C    1.405963   0.000000
     3  O    2.320633   1.405145   0.000000
     4  C    2.435363   1.519211   2.360081   0.000000
     5  C    2.963465   2.539997   3.736999   1.520694   0.000000
     6  H    0.967450   1.933767   2.558428   2.545060   3.138132
     7  H    1.996148   1.104856   2.067517   2.166906   2.795559
     8  H    2.508742   1.930895   0.965433   3.200772   4.450167
     9  H    3.354460   2.131810   2.560411   1.100959   2.167333
    10  H    2.714830   2.130280   2.565895   1.104221   2.171349
    11  H    2.680039   2.815432   4.088557   2.174858   1.100032
    12  H    3.973875   3.491812   4.529065   2.171557   1.099607
    13  H    3.323668   2.812879   4.082146   2.176374   1.101545
                    6          7          8          9         10
     6  H    0.000000
     7  H    2.804722   0.000000
     8  H    2.892195   2.266025   0.000000
     9  H    3.541529   2.494974   3.423551   0.000000
    10  H    2.411687   3.059695   3.471791   1.769473   0.000000
    11  H    2.733198   3.167325   4.703029   3.088075   2.530012
    12  H    3.994236   3.799885   5.335012   2.509273   2.518856
    13  H    3.768722   2.616805   4.662417   2.532652   3.093752
                   11         12         13
    11  H    0.000000
    12  H    1.778777   0.000000
    13  H    1.778033   1.778154   0.000000
 Stoichiometry    C3H8O2
 Framework group  C1[X(C3H8O2)]
 Deg. of freedom    33
 Full point group                 C1      NOp   1
 RotChk:  IX=0 Diff= 7.19D-04
 Largest Abelian subgroup         C1      NOp   1
 Largest concise Abelian subgroup C1      NOp   1
                         Standard orientation:                         
 ---------------------------------------------------------------------
 Center     Atomic      Atomic             Coordinates (Angstroms)
 Number     Number       Type             X           Y           Z
 ---------------------------------------------------------------------
      1          8           0       -0.643832    1.337578   -0.069688
      2          6           0       -0.517329   -0.006250    0.323829
      3          8           0       -1.632980   -0.761683   -0.075013
      4          6           0        0.718399   -0.672475   -0.256793
      5          6           0        2.013089    0.037034    0.107739
      6          1           0       -0.589072    1.367637   -1.035120
      7          1           0       -0.452038    0.029815    1.426165
      8          1           0       -2.408963   -0.391539    0.364197
      9          1           0        0.737155   -1.714881    0.096972
     10          1           0        0.591431   -0.711208   -1.353006
     11          1           0        2.016096    1.072791   -0.262759
     12          1           0        2.880319   -0.480600   -0.327119
     13          1           0        2.154618    0.070973    1.199628
 ---------------------------------------------------------------------
 Rotational constants (GHZ):           8.5168402           3.5959991           2.7813070
 Leave Link  202 at Tue Oct 21 19:50:21 2025, MaxMem=  4294967296 cpu:               0.0 elap:               0.0
 (Enter /lrz/sys/applications/gaussian/g16.C.01/x86_64_legacy/exe/l301.exe)
 Standard basis: def2SVP (5D, 7F)
 Ernie: Thresh=  0.10000D-02 Tol=  0.10000D-05 Strict=F.
 There are   115 symmetry adapted cartesian basis functions of A   symmetry.
 There are   110 symmetry adapted basis functions of A   symmetry.
   110 basis functions,   181 primitive gaussians,   115 cartesian basis functions
    21 alpha electrons       21 beta electrons
       nuclear repulsion energy       195.1213856999 Hartrees.
 IExCor= 4639 DFT=T Ex+Corr=wB97XD ExCW=0 ScaHFX=  1.000000
 ScaDFX=  1.000000  1.000000  1.000000  1.000000 ScalE2=  1.000000  1.000000
 IRadAn=      5 IRanWt=     -1 IRanGd=            0 ICorTp=0 IEmpDi=121
 HFx  wShort=  0.000000 wLong=  0.200000 cFull=  0.222036 cShort=  0.000000 cLong=  0.777964
 DFx  wShort=  0.000000 wLong=  0.200000 cFull=  0.000000 cShort=  0.000000 cLong=  1.000000
 NAtoms=   13 NActive=   13 NUniq=   13 SFac= 1.00D+00 NAtFMM=   60 NAOKFM=F Big=F
 Integral buffers will be    131072 words long.
 Raffenetti 2 integral format.
 Two-electron integral symmetry is turned on.
 R6Disp:  Grimme-D2 Dispersion energy=       -0.0055773953 Hartrees.
 Nuclear repulsion after empirical dispersion term =      195.1158083046 Hartrees.
 ------------------------------------------------------------------------------
 Polarizable Continuum Model (PCM)
 =================================
 Model                : PCM.
 Atomic radii         : SMD-Coulomb.
 Polarization charges : Total charges.
 Charge compensation  : None.
 Solution method      : On-the-fly selection.
 Cavity type          : VdW (van der Waals Surface) (Alpha=1.000).
 Cavity algorithm     : GePol (No added spheres)
                        Default sphere list used, NSphG=   13.
                        Lebedev-Laikov grids with approx.  5.0 points / Ang**2.
                        Smoothing algorithm: York/Karplus (Gamma=1.0000).
                        Polarization charges: spherical gaussians, with
                                              point-specific exponents (IZeta= 3).
                        Self-potential: point-specific (ISelfS= 7).
                        Self-field    : sphere-specific E.n sum rule (ISelfD= 2).
 1st derivatives      : Analytical E(r).r(x)/FMM algorithm (CHGder, D1EAlg=3).
                        Cavity 1st derivative terms included.
 Solvent              : Water, Eps=  78.355300 Eps(inf)=   1.777849
 ------------------------------------------------------------------------------
 Spheres list:
 ISph  on   Nord     Re0    Alpha      Xe            Ye            Ze
    1   O      1    1.5200  1.000     -0.643832      1.337578     -0.069688
    2   C      2    1.8500  1.000     -0.517329     -0.006250      0.323829
    3   O      3    1.5200  1.000     -1.632980     -0.761683     -0.075013
    4   C      4    1.8500  1.000      0.718399     -0.672475     -0.256793
    5   C      5    1.8500  1.000      2.013089      0.037034      0.107739
    6   H      6    1.2000  1.000     -0.589072      1.367637     -1.035120
    7   H      7    1.2000  1.000     -0.452038      0.029815      1.426165
    8   H      8    1.2000  1.000     -2.408963     -0.391539      0.364197
    9   H      9    1.2000  1.000      0.737155     -1.714881      0.096972
   10   H     10    1.2000  1.000      0.591431     -0.711208     -1.353006
   11   H     11    1.2000  1.000      2.016096      1.072791     -0.262759
   12   H     12    1.2000  1.000      2.880319     -0.480600     -0.327119
   13   H     13    1.2000  1.000      2.154618      0.070973      1.199628
 ------------------------------------------------------------------------------
 GePol: Number of generator spheres                  =      13
 GePol: Total number of spheres                      =      13
 GePol: Number of exposed spheres                    =      13 (100.00%)
 GePol: Number of points                             =     909
 GePol: Average weight of points                     =       0.12
 GePol: Minimum weight of points                     =   0.43D-08
 GePol: Maximum weight of points                     =    0.21991
 GePol: Number of points with low weight             =      51
 GePol: Fraction of low-weight points (<1% of avg)   =       5.61%
 GePol: Cavity surface area                          =    111.058 Ang**2
 GePol: Cavity volume                                =     82.167 Ang**3
 ------------------------------------------------------------------------------
 Atomic radii for non-electrostatic terms: SMD-CDS.
 ------------------------------------------------------------------------------
 PCM non-electrostatic energy =         0.0046964249 Hartrees.
 Nuclear repulsion after PCM non-electrostatic terms =      195.1205047294 Hartrees.
 Leave Link  301 at Tue Oct 21 19:50:21 2025, MaxMem=  4294967296 cpu:               0.5 elap:               0.1
 (Enter /lrz/sys/applications/gaussian/g16.C.01/x86_64_legacy/exe/l302.exe)
 NPDir=0 NMtPBC=     1 NCelOv=     1 NCel=       1 NClECP=     1 NCelD=      1
         NCelK=      1 NCelE2=     1 NClLst=     1 CellRange=     0.0.
 One-electron integrals computed using PRISM.
 One-electron integral symmetry used in STVInt
   1 Symmetry operations used in ECPInt.
 ECPInt:  NShTT=    1485 NPrTT=    5139 LenC2=    1483 LenP2D=    4436.
 LDataN:  DoStor=T MaxTD1= 4 Len=   56
 NBasis=   110 RedAO= T EigKep=  2.28D-03  NBF=   110
 NBsUse=   110 1.00D-06 EigRej= -1.00D+00 NBFU=   110
 Precomputing XC quadrature grid using
 IXCGrd= 4 IRadAn=           5 IRanWt=          -1 IRanGd=           0 AccXCQ= 0.00D+00.
 Generated NRdTot=       0 NPtTot=           0 NUsed=           0 NTot=          32
 NSgBfM=   115   115   115   115   115 MxSgAt=    13 MxSgA2=    13.
 Leave Link  302 at Tue Oct 21 19:50:21 2025, MaxMem=  4294967296 cpu:               1.2 elap:               0.2
 (Enter /lrz/sys/applications/gaussian/g16.C.01/x86_64_legacy/exe/l303.exe)
 DipDrv:  MaxL=1.
 Leave Link  303 at Tue Oct 21 19:50:21 2025, MaxMem=  4294967296 cpu:               0.2 elap:               0.0
 (Enter /lrz/sys/applications/gaussian/g16.C.01/x86_64_legacy/exe/l401.exe)
 Initial guess from the checkpoint file:  "g16_C3-w_1.chk"
 B after Tr=    -0.000000   -0.000000    0.000000
         Rot=    1.000000   -0.000141    0.000097    0.000354 Ang=  -0.05 deg.
 Guess basis will be translated and rotated to current coordinates.
 JPrj=2 DoOrth=T DoCkMO=T.
 Leave Link  401 at Tue Oct 21 19:50:22 2025, MaxMem=  4294967296 cpu:               0.8 elap:               0.1
 (Enter /lrz/sys/applications/gaussian/g16.C.01/x86_64_legacy/exe/l502.exe)
 Integral symmetry usage will be decided dynamically.
 Closed shell SCF:
 Using DIIS extrapolation, IDIIS=  1040.
 NGot=  4294967296 LenX=  4294938204 LenY=  4294924538
 Requested convergence on RMS density matrix=1.00D-08 within 128 cycles.
 Requested convergence on MAX density matrix=1.00D-06.
 Requested convergence on             energy=1.00D-06.
 No special actions if energy rises.
 Fock matrices will be formed incrementally for  20 cycles.

 Cycle   1  Pass 1  IDiag  1:
 FoFJK:  IHMeth= 1 ICntrl=       0 DoSepK=T KAlg= 0 I1Cent=           0 FoldK=F
 IRaf=         1 NMat=       1 IRICut=       1 DoRegI=T DoRafI=F ISym2E= 0 IDoP0=0 IntGTp=1.
 FoFCou: FMM=F IPFlag=           0 FMFlag=      100000 FMFlg1=           0
         NFxFlg=           0 DoJE=T BraDBF=F KetDBF=F FulRan=T
         wScrn=  0.000000 ICntrl=       500 IOpCl=  0 I1Cent=           0 NGrid=           0
         NMat0=    1 NMatS0=      1 NMatT0=    0 NMatD0=    1 NMtDS0=    0 NMtDT0=    0
 Symmetry not used in FoFCou.
 Inv3:  Mode=1 IEnd=     2478843.
 Iteration    1 A*A^-1 deviation from unit magnitude is 5.33D-15 for    519.
 Iteration    1 A*A^-1 deviation from orthogonality  is 2.40D-15 for    750     74.
 Iteration    1 A^-1*A deviation from unit magnitude is 4.66D-15 for    177.
 Iteration    1 A^-1*A deviation from orthogonality  is 2.07D-15 for    533     27.
 E= -269.317735217692    
 DIIS: error= 3.83D-04 at cycle   1 NSaved=   1.
 NSaved= 1 IEnMin= 1 EnMin= -269.317735217692     IErMin= 1 ErrMin= 3.83D-04
 ErrMax= 3.83D-04  0.00D+00 EMaxC= 1.00D-01 BMatC= 1.28D-05 BMatP= 1.28D-05
 IDIUse=3 WtCom= 9.96D-01 WtEn= 3.83D-03
 Coeff-Com:  0.100D+01
 Coeff-En:   0.100D+01
 Coeff:      0.100D+01
 Gap=     0.782 Goal=   None    Shift=    0.000
 RMSDP=5.06D-05 MaxDP=1.76D-03              OVMax= 1.16D-03

 Cycle   2  Pass 1  IDiag  1:
 RMSU=  5.06D-05    CP:  1.00D+00
 E= -269.317751448000     Delta-E=       -0.000016230307 Rises=F Damp=F
 DIIS: error= 6.04D-05 at cycle   2 NSaved=   2.
 NSaved= 2 IEnMin= 2 EnMin= -269.317751448000     IErMin= 2 ErrMin= 6.04D-05
 ErrMax= 6.04D-05  0.00D+00 EMaxC= 1.00D-01 BMatC= 3.66D-07 BMatP= 1.28D-05
 IDIUse=1 WtCom= 1.00D+00 WtEn= 0.00D+00
 Coeff-Com: -0.154D+00 0.115D+01
 Coeff:     -0.154D+00 0.115D+01
 Gap=     0.516 Goal=   None    Shift=    0.000
 RMSDP=1.17D-05 MaxDP=3.64D-04 DE=-1.62D-05 OVMax= 3.96D-04

 Cycle   3  Pass 1  IDiag  1:
 RMSU=  5.98D-06    CP:  1.00D+00  1.20D+00
 E= -269.317752187948     Delta-E=       -0.000000739948 Rises=F Damp=F
 DIIS: error= 9.67D-06 at cycle   3 NSaved=   3.
 NSaved= 3 IEnMin= 3 EnMin= -269.317752187948     IErMin= 3 ErrMin= 9.67D-06
 ErrMax= 9.67D-06  0.00D+00 EMaxC= 1.00D-01 BMatC= 1.26D-08 BMatP= 3.66D-07
 IDIUse=1 WtCom= 1.00D+00 WtEn= 0.00D+00
 Coeff-Com: -0.504D-02-0.155D-01 0.102D+01
 Coeff:     -0.504D-02-0.155D-01 0.102D+01
 Gap=     0.516 Goal=   None    Shift=    0.000
 RMSDP=2.39D-06 MaxDP=4.31D-05 DE=-7.40D-07 OVMax= 8.48D-05

 Cycle   4  Pass 1  IDiag  1:
 RMSU=  1.44D-06    CP:  1.00D+00  1.22D+00  1.25D+00
 E= -269.317752210501     Delta-E=       -0.000000022553 Rises=F Damp=F
 DIIS: error= 6.35D-06 at cycle   4 NSaved=   4.
 NSaved= 4 IEnMin= 4 EnMin= -269.317752210501     IErMin= 4 ErrMin= 6.35D-06
 ErrMax= 6.35D-06  0.00D+00 EMaxC= 1.00D-01 BMatC= 7.40D-09 BMatP= 1.26D-08
 IDIUse=1 WtCom= 1.00D+00 WtEn= 0.00D+00
 Coeff-Com:  0.114D-01-0.112D+00 0.466D+00 0.635D+00
 Coeff:      0.114D-01-0.112D+00 0.466D+00 0.635D+00
 Gap=     0.516 Goal=   None    Shift=    0.000
 RMSDP=8.09D-07 MaxDP=1.57D-05 DE=-2.26D-08 OVMax= 2.43D-05

 Cycle   5  Pass 1  IDiag  1:
 RMSU=  5.20D-07    CP:  1.00D+00  1.23D+00  1.33D+00  8.33D-01
 E= -269.317752217337     Delta-E=       -0.000000006836 Rises=F Damp=F
 DIIS: error= 1.03D-06 at cycle   5 NSaved=   5.
 NSaved= 5 IEnMin= 5 EnMin= -269.317752217337     IErMin= 5 ErrMin= 1.03D-06
 ErrMax= 1.03D-06  0.00D+00 EMaxC= 1.00D-01 BMatC= 2.38D-10 BMatP= 7.40D-09
 IDIUse=1 WtCom= 1.00D+00 WtEn= 0.00D+00
 Coeff-Com:  0.293D-02-0.233D-01-0.180D-01 0.110D+00 0.929D+00
 Coeff:      0.293D-02-0.233D-01-0.180D-01 0.110D+00 0.929D+00
 Gap=     0.516 Goal=   None    Shift=    0.000
 RMSDP=3.37D-07 MaxDP=9.61D-06 DE=-6.84D-09 OVMax= 1.20D-05

 Cycle   6  Pass 1  IDiag  1:
 RMSU=  1.19D-07    CP:  1.00D+00  1.23D+00  1.36D+00  9.56D-01  1.25D+00
 E= -269.317752217802     Delta-E=       -0.000000000466 Rises=F Damp=F
 DIIS: error= 2.69D-07 at cycle   6 NSaved=   6.
 NSaved= 6 IEnMin= 6 EnMin= -269.317752217802     IErMin= 6 ErrMin= 2.69D-07
 ErrMax= 2.69D-07  0.00D+00 EMaxC= 1.00D-01 BMatC= 1.90D-11 BMatP= 2.38D-10
 IDIUse=1 WtCom= 1.00D+00 WtEn= 0.00D+00
 Coeff-Com: -0.156D-03 0.320D-02-0.348D-01-0.254D-01 0.155D+00 0.902D+00
 Coeff:     -0.156D-03 0.320D-02-0.348D-01-0.254D-01 0.155D+00 0.902D+00
 Gap=     0.516 Goal=   None    Shift=    0.000
 RMSDP=9.89D-08 MaxDP=3.01D-06 DE=-4.66D-10 OVMax= 3.54D-06

 Cycle   7  Pass 1  IDiag  1:
 RMSU=  4.23D-08    CP:  1.00D+00  1.23D+00  1.37D+00  9.88D-01  1.38D+00
                    CP:  1.03D+00
 E= -269.317752217841     Delta-E=       -0.000000000038 Rises=F Damp=F
 DIIS: error= 1.08D-07 at cycle   7 NSaved=   7.
 NSaved= 7 IEnMin= 7 EnMin= -269.317752217841     IErMin= 7 ErrMin= 1.08D-07
 ErrMax= 1.08D-07  0.00D+00 EMaxC= 1.00D-01 BMatC= 3.96D-12 BMatP= 1.90D-11
 IDIUse=1 WtCom= 1.00D+00 WtEn= 0.00D+00
 Coeff-Com: -0.365D-03 0.369D-02-0.793D-02-0.210D-01-0.664D-01 0.321D+00
 Coeff-Com:  0.771D+00
 Coeff:     -0.365D-03 0.369D-02-0.793D-02-0.210D-01-0.664D-01 0.321D+00
 Coeff:      0.771D+00
 Gap=     0.516 Goal=   None    Shift=    0.000
 RMSDP=2.97D-08 MaxDP=8.70D-07 DE=-3.82D-11 OVMax= 9.90D-07

 Cycle   8  Pass 1  IDiag  1:
 RMSU=  1.10D-08    CP:  1.00D+00  1.23D+00  1.37D+00  9.94D-01  1.41D+00
                    CP:  1.17D+00  9.41D-01
 E= -269.317752217843     Delta-E=       -0.000000000002 Rises=F Damp=F
 DIIS: error= 3.09D-08 at cycle   8 NSaved=   8.
 NSaved= 8 IEnMin= 8 EnMin= -269.317752217843     IErMin= 8 ErrMin= 3.09D-08
 ErrMax= 3.09D-08  0.00D+00 EMaxC= 1.00D-01 BMatC= 1.89D-13 BMatP= 3.96D-12
 IDIUse=1 WtCom= 1.00D+00 WtEn= 0.00D+00
 Coeff-Com: -0.846D-04 0.780D-03-0.187D-03-0.443D-02-0.284D-01 0.466D-01
 Coeff-Com:  0.219D+00 0.766D+00
 Coeff:     -0.846D-04 0.780D-03-0.187D-03-0.443D-02-0.284D-01 0.466D-01
 Coeff:      0.219D+00 0.766D+00
 Gap=     0.516 Goal=   None    Shift=    0.000
 RMSDP=6.66D-09 MaxDP=1.34D-07 DE=-2.16D-12 OVMax= 2.18D-07

 Error on total polarization charges =  0.03204
 SCF Done:  E(RwB97XD) =  -269.317752218     A.U. after    8 cycles
            NFock=  8  Conv=0.67D-08     -V/T= 2.0096
 KE= 2.667632512593D+02 PE=-1.020214614400D+03 EE= 2.890131061937D+02
 SMD-CDS (non-electrostatic) energy       (kcal/mol) =       2.95
 (included in total energy above)
 Leave Link  502 at Tue Oct 21 19:50:33 2025, MaxMem=  4294967296 cpu:              94.6 elap:              11.9
 (Enter /lrz/sys/applications/gaussian/g16.C.01/x86_64_legacy/exe/l701.exe)
 ... and contract with generalized density number  0.
 Compute integral first derivatives.
 R6Disp: Adding Grimme-D2 dispersion energy 1st derivatives to the gradient.
   1 Symmetry operations used in ECPInt.
 ECPInt:  NShTT=    1485 NPrTT=    5139 LenC2=    1483 LenP2D=    4436.
 LDataN:  DoStor=T MaxTD1= 5 Len=  102
 D1PCM: PCM CHGder 1st derivatives, ID1Alg=3 FixD1E=F DoIter=F DoCFld=F I1PDM=0.
 GePol: Maximum number of non-zero 1st derivatives   =     247
 Leave Link  701 at Tue Oct 21 19:50:34 2025, MaxMem=  4294967296 cpu:               4.2 elap:               0.5
 (Enter /lrz/sys/applications/gaussian/g16.C.01/x86_64_legacy/exe/l702.exe)
 L702 exits ... SP integral derivatives will be done elsewhere.
 Leave Link  702 at Tue Oct 21 19:50:34 2025, MaxMem=  4294967296 cpu:               0.2 elap:               0.0
 (Enter /lrz/sys/applications/gaussian/g16.C.01/x86_64_legacy/exe/l703.exe)
 Integral derivatives from FoFJK, PRISM(SPDF).
 Compute integral first derivatives, UseDBF=F ICtDFT=           0.
 Calling FoFJK, ICntrl=      2127 FMM=F ISym2X=0 I1Cent= 0 IOpClX= 0 NMat=1 NMatS=1 NMatT=0.
 FoFJK:  IHMeth= 1 ICntrl=    2127 DoSepK=T KAlg= 0 I1Cent=           0 FoldK=F
 IRaf=         1 NMat=       1 IRICut=       1 DoRegI=T DoRafI=F ISym2E= 0 IDoP0=0 IntGTp=1.
 FoFCou: FMM=F IPFlag=           0 FMFlag=      100000 FMFlg1=         800
         NFxFlg=           0 DoJE=F BraDBF=F KetDBF=F FulRan=T
         wScrn=  0.000000 ICntrl=      2527 IOpCl=  0 I1Cent=           0 NGrid=           0
         NMat0=    1 NMatS0=      1 NMatT0=    0 NMatD0=    1 NMtDS0=    0 NMtDT0=    0
 Symmetry not used in FoFCou.
 Leave Link  703 at Tue Oct 21 19:50:36 2025, MaxMem=  4294967296 cpu:              17.2 elap:               2.2
 (Enter /lrz/sys/applications/gaussian/g16.C.01/x86_64_legacy/exe/l716.exe)
 Dipole        = 4.65586688D-02-2.65198124D-03-5.75241848D-02
 ***** Axes restored to original set *****
 -------------------------------------------------------------------
 Center     Atomic                   Forces (Hartrees/Bohr)
 Number     Number              X              Y              Z
 -------------------------------------------------------------------
      1        8          -0.000012143    0.000009474   -0.000022158
      2        6          -0.000011304    0.000013519    0.000037921
      3        8          -0.000037807   -0.000034556    0.000024004
      4        6          -0.000080457    0.000011562    0.000033932
      5        6           0.000092955   -0.000017067   -0.000045968
      6        1           0.000007781    0.000007178   -0.000011357
      7        1           0.000006396   -0.000007549   -0.000006291
      8        1           0.000007051    0.000013228   -0.000016499
      9        1          -0.000019910    0.000014430   -0.000024984
     10        1           0.000005211   -0.000013710    0.000039101
     11        1          -0.000017173   -0.000034205    0.000002604
     12        1           0.000047167    0.000003288    0.000034355
     13        1           0.000012234    0.000034408   -0.000044660
 -------------------------------------------------------------------
 Cartesian Forces:  Max     0.000092955 RMS     0.000030611
 Leave Link  716 at Tue Oct 21 19:50:36 2025, MaxMem=  4294967296 cpu:               0.2 elap:               0.0
 (Enter /lrz/sys/applications/gaussian/g16.C.01/x86_64_legacy/exe/l103.exe)

 GradGradGradGradGradGradGradGradGradGradGradGradGradGradGradGradGradGrad
 Berny optimization.
 Using GEDIIS/GDIIS optimizer.
 FormGI is forming the generalized inverse of G from B-inverse, IUseBI=4.
 Internal  Forces:  Max     0.000139661 RMS     0.000026556
 Search for a local minimum.
 Step number   6 out of a maximum of   66
 All quantities printed in internal units (Hartrees-Bohrs-Radians)
 RMS Force = .26556D-04 SwitMx=.10000D-02 MixMth= 2
 Mixed Optimization -- En-DIIS/RFO-DIIS
 Swapping is turned off.
 Update second derivatives using D2CorX and points    1    2    3    4    5
                                                      6
 DE= -2.17D-06 DEPred=-1.74D-06 R= 1.25D+00
 TightC=F SS=  1.41D+00  RLast= 2.02D-02 DXNew= 8.4853D-01 6.0552D-02
 Trust test= 1.25D+00 RLast= 2.02D-02 DXMaxT set to 5.05D-01
 ITU=  1  1  1  1  1  0
     Eigenvalues ---    0.00290   0.00415   0.00539   0.01698   0.03557
     Eigenvalues ---    0.04642   0.05561   0.05594   0.05650   0.06222
     Eigenvalues ---    0.08612   0.10032   0.12309   0.15278   0.16002
     Eigenvalues ---    0.16020   0.16160   0.16529   0.20173   0.21271
     Eigenvalues ---    0.23406   0.30307   0.30862   0.33626   0.34671
     Eigenvalues ---    0.34890   0.35121   0.35206   0.40203   0.44904
     Eigenvalues ---    0.47484   0.54070   0.54489
 En-DIIS/RFO-DIIS/Sim-DIIS IScMMF=       -3 using points:     6    5    4    3    2
 RFO step:  Lambda=-5.75955111D-07.
 NNeg= 0 NGDIIS= 5 SimSw=  2.50D-01 Rises=F DC= -2.17D-06 SmlDif=  1.00D-05
 NRisDI= 0 DoIntr=F SqrtH=F CThrHd= 10.0 CDAdj=  3.0
 RMS Error=  0.1354852689D-02 NUsed= 5 OKEnD=F EnDIS=F
 InvSVX:  RCond= 2.61D-06 Info=           0 Equed=N FErr=  1.32D-13 BErr=  4.64D-17
 DidBck=F Rises=F RFO-DIIS coefs:    1.52388   -0.51054   -0.15286    0.15817   -0.01866
 Iteration  1 RMS(Cart)=  0.00199712 RMS(Int)=  0.00000215
 Iteration  2 RMS(Cart)=  0.00000249 RMS(Int)=  0.00000025
 Iteration  3 RMS(Cart)=  0.00000000 RMS(Int)=  0.00000025
 ITry= 1 IFail=0 DXMaxC= 6.93D-03 DCOld= 1.00D+10 DXMaxT= 5.05D-01 DXLimC= 3.00D+00 Rises=F
 Variable       Old X    -DE/DX   Delta X   Delta X   Delta X     New X
                                 (Linear)    (Quad)   (Total)
    R1        2.65688  -0.00003  -0.00011   0.00006  -0.00005   2.65683
    R2        1.82822  -0.00000  -0.00005   0.00003  -0.00002   1.82820
    R3        2.65534   0.00001  -0.00009   0.00011   0.00002   2.65536
    R4        2.87089   0.00002   0.00050  -0.00035   0.00015   2.87104
    R5        2.08788   0.00001   0.00002  -0.00002  -0.00001   2.08787
    R6        1.82440  -0.00000  -0.00001  -0.00000  -0.00001   1.82439
    R7        2.87370   0.00014   0.00044   0.00014   0.00058   2.87428
    R8        2.08051   0.00002  -0.00015   0.00016   0.00001   2.08052
    R9        2.08668   0.00003  -0.00008   0.00014   0.00006   2.08674
   R10        2.07876   0.00004  -0.00006   0.00012   0.00006   2.07882
   R11        2.07796   0.00005  -0.00007   0.00017   0.00010   2.07805
   R12        2.08162   0.00004  -0.00010   0.00017   0.00008   2.08169
    A1        1.87959  -0.00003   0.00028  -0.00046  -0.00018   1.87942
    A2        1.94226  -0.00003   0.00005  -0.00006  -0.00001   1.94224
    A3        1.96640   0.00000  -0.00016   0.00017   0.00001   1.96641
    A4        1.82696   0.00000   0.00016  -0.00023  -0.00007   1.82689
    A5        1.87714   0.00004   0.00007   0.00017   0.00025   1.87739
    A6        1.92588  -0.00000   0.00006  -0.00008  -0.00002   1.92586
    A7        1.92577  -0.00002  -0.00018   0.00002  -0.00017   1.92560
    A8        1.87855  -0.00001   0.00022  -0.00017   0.00005   1.87860
    A9        1.97827   0.00003  -0.00104   0.00096  -0.00008   1.97819
   A10        1.88206  -0.00002   0.00025  -0.00046  -0.00021   1.88185
   A11        1.87682  -0.00001   0.00009  -0.00003   0.00006   1.87688
   A12        1.92861  -0.00001   0.00015  -0.00025  -0.00010   1.92850
   A13        1.93076  -0.00001  -0.00025   0.00027   0.00002   1.93078
   A14        1.86266   0.00001   0.00092  -0.00059   0.00034   1.86300
   A15        1.94003  -0.00003  -0.00082   0.00044  -0.00038   1.93965
   A16        1.93588   0.00003  -0.00001   0.00015   0.00014   1.93602
   A17        1.94054  -0.00000  -0.00051   0.00043  -0.00008   1.94046
   A18        1.88377  -0.00000   0.00049  -0.00046   0.00003   1.88380
   A19        1.88020   0.00002   0.00044  -0.00024   0.00020   1.88040
   A20        1.88092  -0.00001   0.00049  -0.00038   0.00010   1.88102
    D1       -1.18759  -0.00002  -0.00052  -0.00011  -0.00063  -1.18822
    D2        0.92238   0.00002  -0.00050   0.00019  -0.00031   0.92206
    D3        3.01532  -0.00000  -0.00071   0.00015  -0.00056   3.01476
    D4       -1.07637  -0.00001  -0.00250  -0.00008  -0.00258  -1.07894
    D5        3.04527  -0.00002  -0.00238  -0.00037  -0.00275   3.04252
    D6        0.94386  -0.00002  -0.00223  -0.00045  -0.00269   0.94117
    D7        1.00389   0.00001   0.00176   0.00024   0.00200   1.00589
    D8       -3.13856   0.00000   0.00144   0.00022   0.00166  -3.13690
    D9       -1.13581   0.00000   0.00268  -0.00070   0.00198  -1.13384
   D10       -3.13251   0.00000   0.00177   0.00040   0.00216  -3.13035
   D11       -0.99178  -0.00000   0.00145   0.00038   0.00182  -0.98995
   D12        1.01097  -0.00000   0.00269  -0.00055   0.00214   1.01311
   D13       -1.03102   0.00001   0.00178   0.00042   0.00220  -1.02883
   D14        1.10971   0.00001   0.00146   0.00040   0.00186   1.11157
   D15        3.11245   0.00001   0.00270  -0.00053   0.00217   3.11463
   D16       -1.05143   0.00000   0.00309  -0.00021   0.00288  -1.04855
   D17        3.13582   0.00001   0.00303  -0.00003   0.00299   3.13881
   D18        1.04313   0.00000   0.00276   0.00006   0.00282   1.04595
   D19        3.11701   0.00002   0.00339  -0.00011   0.00328   3.12030
   D20        1.02107   0.00002   0.00332   0.00008   0.00340   1.02447
   D21       -1.07161   0.00001   0.00305   0.00017   0.00323  -1.06839
   D22        1.05811   0.00001   0.00231   0.00061   0.00292   1.06103
   D23       -1.03783   0.00001   0.00224   0.00079   0.00303  -1.03480
   D24       -3.13052   0.00001   0.00197   0.00089   0.00286  -3.12766
         Item               Value     Threshold  Converged?
 Maximum Force            0.000140     0.000450     YES
 RMS     Force            0.000027     0.000300     YES
 Maximum Displacement     0.006930     0.001800     NO 
 RMS     Displacement     0.001997     0.001200     NO 
 Predicted change in Energy=-2.731295D-07
 Lowest energy point so far.  Saving SCF results.
 GradGradGradGradGradGradGradGradGradGradGradGradGradGradGradGradGradGrad

 Leave Link  103 at Tue Oct 21 19:50:36 2025, MaxMem=  4294967296 cpu:               0.2 elap:               0.0
 (Enter /lrz/sys/applications/gaussian/g16.C.01/x86_64_legacy/exe/l202.exe)
                          Input orientation:                          
 ---------------------------------------------------------------------
 Center     Atomic      Atomic             Coordinates (Angstroms)
 Number     Number       Type             X           Y           Z
 ---------------------------------------------------------------------
      1          8           0       -0.592256   -1.331527    0.032880
      2          6           0       -0.457829    0.022696   -0.320203
      3          8           0       -1.569953    0.772018    0.099514
      4          6           0        0.780941    0.664431    0.281354
      5          6           0        2.072545   -0.039661   -0.105245
      6          1           0       -0.538517   -1.390560    0.997022
      7          1           0       -0.391163    0.019085   -1.423037
      8          1           0       -2.346954    0.420959   -0.353341
      9          1           0        0.804778    1.717235   -0.039829
     10          1           0        0.653846    0.669297    1.378258
     11          1           0        2.068838   -1.087367    0.230071
     12          1           0        2.942037    0.457924    0.348233
     13          1           0        2.215571   -0.037334   -1.197504
 ---------------------------------------------------------------------
                    Distance matrix (angstroms):
                    1          2          3          4          5
     1  O    0.000000
     2  C    1.405936   0.000000
     3  O    2.320610   1.405157   0.000000
     4  C    2.435417   1.519290   2.360369   0.000000
     5  C    2.964652   2.540253   3.737451   1.521002   0.000000
     6  H    0.967442   1.933619   2.558539   2.544825   3.139676
     7  H    1.996067   1.104853   2.067514   2.166851   2.794617
     8  H    2.509848   1.930934   0.965427   3.200912   4.450359
     9  H    3.354391   2.131724   2.559727   1.100965   2.167532
    10  H    2.714058   2.130419   2.567299   1.104254   2.171661
    11  H    2.679537   2.814087   4.088417   2.174880   1.100063
    12  H    3.974017   3.492179   4.529743   2.171970   1.099659
    13  H    3.327563   2.814307   4.082584   2.176616   1.101585
                    6          7          8          9         10
     6  H    0.000000
     7  H    2.804549   0.000000
     8  H    2.894050   2.265142   0.000000
     9  H    3.540888   2.495446   3.422285   0.000000
    10  H    2.410411   3.059750   3.473458   1.769724   0.000000
    11  H    2.734673   3.163638   4.702620   3.088120   2.531087
    12  H    3.994005   3.800026   5.335447   2.510843   2.518223
    13  H    3.772554   2.617080   4.662540   2.531612   3.094004
                   11         12         13
    11  H    0.000000
    12  H    1.778865   0.000000
    13  H    1.778221   1.778296   0.000000
 Stoichiometry    C3H8O2
 Framework group  C1[X(C3H8O2)]
 Deg. of freedom    33
 Full point group                 C1      NOp   1
 RotChk:  IX=0 Diff= 1.95D-03
 Largest Abelian subgroup         C1      NOp   1
 Largest concise Abelian subgroup C1      NOp   1
                         Standard orientation:                         
 ---------------------------------------------------------------------
 Center     Atomic      Atomic             Coordinates (Angstroms)
 Number     Number       Type             X           Y           Z
 ---------------------------------------------------------------------
      1          8           0       -0.644583    1.337585   -0.069768
      2          6           0       -0.517251   -0.006224    0.323451
      3          8           0       -1.632952   -0.762018   -0.074606
      4          6           0        0.718557   -0.671817   -0.257933
      5          6           0        2.013524    0.036872    0.108489
      6          1           0       -0.590022    1.367695   -1.035200
      7          1           0       -0.451164    0.029787    1.425738
      8          1           0       -2.408399   -0.393728    0.367090
      9          1           0        0.736855   -1.714730    0.094377
     10          1           0        0.592033   -0.708601   -1.354297
     11          1           0        2.015338    1.074167   -0.257783
     12          1           0        2.880714   -0.478365   -0.329417
     13          1           0        2.155945    0.066246    1.200434
 ---------------------------------------------------------------------
 Rotational constants (GHZ):           8.5160113           3.5947311           2.7807712
 Leave Link  202 at Tue Oct 21 19:50:36 2025, MaxMem=  4294967296 cpu:               0.1 elap:               0.0
 (Enter /lrz/sys/applications/gaussian/g16.C.01/x86_64_legacy/exe/l301.exe)
 Standard basis: def2SVP (5D, 7F)
 Ernie: Thresh=  0.10000D-02 Tol=  0.10000D-05 Strict=F.
 There are   115 symmetry adapted cartesian basis functions of A   symmetry.
 There are   110 symmetry adapted basis functions of A   symmetry.
   110 basis functions,   181 primitive gaussians,   115 cartesian basis functions
    21 alpha electrons       21 beta electrons
       nuclear repulsion energy       195.1083273918 Hartrees.
 IExCor= 4639 DFT=T Ex+Corr=wB97XD ExCW=0 ScaHFX=  1.000000
 ScaDFX=  1.000000  1.000000  1.000000  1.000000 ScalE2=  1.000000  1.000000
 IRadAn=      5 IRanWt=     -1 IRanGd=            0 ICorTp=0 IEmpDi=121
 HFx  wShort=  0.000000 wLong=  0.200000 cFull=  0.222036 cShort=  0.000000 cLong=  0.777964
 DFx  wShort=  0.000000 wLong=  0.200000 cFull=  0.000000 cShort=  0.000000 cLong=  1.000000
 NAtoms=   13 NActive=   13 NUniq=   13 SFac= 1.00D+00 NAtFMM=   60 NAOKFM=F Big=F
 Integral buffers will be    131072 words long.
 Raffenetti 2 integral format.
 Two-electron integral symmetry is turned on.
 R6Disp:  Grimme-D2 Dispersion energy=       -0.0055767288 Hartrees.
 Nuclear repulsion after empirical dispersion term =      195.1027506630 Hartrees.
 ------------------------------------------------------------------------------
 Polarizable Continuum Model (PCM)
 =================================
 Model                : PCM.
 Atomic radii         : SMD-Coulomb.
 Polarization charges : Total charges.
 Charge compensation  : None.
 Solution method      : On-the-fly selection.
 Cavity type          : VdW (van der Waals Surface) (Alpha=1.000).
 Cavity algorithm     : GePol (No added spheres)
                        Default sphere list used, NSphG=   13.
                        Lebedev-Laikov grids with approx.  5.0 points / Ang**2.
                        Smoothing algorithm: York/Karplus (Gamma=1.0000).
                        Polarization charges: spherical gaussians, with
                                              point-specific exponents (IZeta= 3).
                        Self-potential: point-specific (ISelfS= 7).
                        Self-field    : sphere-specific E.n sum rule (ISelfD= 2).
 1st derivatives      : Analytical E(r).r(x)/FMM algorithm (CHGder, D1EAlg=3).
                        Cavity 1st derivative terms included.
 Solvent              : Water, Eps=  78.355300 Eps(inf)=   1.777849
 ------------------------------------------------------------------------------
 Spheres list:
 ISph  on   Nord     Re0    Alpha      Xe            Ye            Ze
    1   O      1    1.5200  1.000     -0.644583      1.337585     -0.069768
    2   C      2    1.8500  1.000     -0.517251     -0.006224      0.323451
    3   O      3    1.5200  1.000     -1.632952     -0.762018     -0.074606
    4   C      4    1.8500  1.000      0.718557     -0.671817     -0.257933
    5   C      5    1.8500  1.000      2.013524      0.036872      0.108489
    6   H      6    1.2000  1.000     -0.590022      1.367695     -1.035200
    7   H      7    1.2000  1.000     -0.451164      0.029787      1.425738
    8   H      8    1.2000  1.000     -2.408399     -0.393728      0.367090
    9   H      9    1.2000  1.000      0.736855     -1.714730      0.094377
   10   H     10    1.2000  1.000      0.592033     -0.708601     -1.354297
   11   H     11    1.2000  1.000      2.015338      1.074167     -0.257783
   12   H     12    1.2000  1.000      2.880714     -0.478365     -0.329417
   13   H     13    1.2000  1.000      2.155945      0.066246      1.200434
 ------------------------------------------------------------------------------
 GePol: Number of generator spheres                  =      13
 GePol: Total number of spheres                      =      13
 GePol: Number of exposed spheres                    =      13 (100.00%)
 GePol: Number of points                             =     909
 GePol: Average weight of points                     =       0.12
 GePol: Minimum weight of points                     =   0.57D-08
 GePol: Maximum weight of points                     =    0.21991
 GePol: Number of points with low weight             =      53
 GePol: Fraction of low-weight points (<1% of avg)   =       5.83%
 GePol: Cavity surface area                          =    111.067 Ang**2
 GePol: Cavity volume                                =     82.172 Ang**3
 ------------------------------------------------------------------------------
 Atomic radii for non-electrostatic terms: SMD-CDS.
 ------------------------------------------------------------------------------
 PCM non-electrostatic energy =         0.0046976164 Hartrees.
 Nuclear repulsion after PCM non-electrostatic terms =      195.1074482794 Hartrees.
 Leave Link  301 at Tue Oct 21 19:50:36 2025, MaxMem=  4294967296 cpu:               0.5 elap:               0.1
 (Enter /lrz/sys/applications/gaussian/g16.C.01/x86_64_legacy/exe/l302.exe)
 NPDir=0 NMtPBC=     1 NCelOv=     1 NCel=       1 NClECP=     1 NCelD=      1
         NCelK=      1 NCelE2=     1 NClLst=     1 CellRange=     0.0.
 One-electron integrals computed using PRISM.
 One-electron integral symmetry used in STVInt
   1 Symmetry operations used in ECPInt.
 ECPInt:  NShTT=    1485 NPrTT=    5139 LenC2=    1483 LenP2D=    4436.
 LDataN:  DoStor=T MaxTD1= 4 Len=   56
 NBasis=   110 RedAO= T EigKep=  2.29D-03  NBF=   110
 NBsUse=   110 1.00D-06 EigRej= -1.00D+00 NBFU=   110
 Precomputing XC quadrature grid using
 IXCGrd= 4 IRadAn=           5 IRanWt=          -1 IRanGd=           0 AccXCQ= 0.00D+00.
 Generated NRdTot=       0 NPtTot=           0 NUsed=           0 NTot=          32
 NSgBfM=   115   115   115   115   115 MxSgAt=    13 MxSgA2=    13.
 Leave Link  302 at Tue Oct 21 19:50:37 2025, MaxMem=  4294967296 cpu:               1.2 elap:               0.2
 (Enter /lrz/sys/applications/gaussian/g16.C.01/x86_64_legacy/exe/l303.exe)
 DipDrv:  MaxL=1.
 Leave Link  303 at Tue Oct 21 19:50:37 2025, MaxMem=  4294967296 cpu:               0.3 elap:               0.0
 (Enter /lrz/sys/applications/gaussian/g16.C.01/x86_64_legacy/exe/l401.exe)
 Initial guess from the checkpoint file:  "g16_C3-w_1.chk"
 B after Tr=    -0.000000    0.000000    0.000000
         Rot=    1.000000   -0.000331   -0.000045   -0.000104 Ang=  -0.04 deg.
 Guess basis will be translated and rotated to current coordinates.
 JPrj=2 DoOrth=T DoCkMO=T.
 Leave Link  401 at Tue Oct 21 19:50:37 2025, MaxMem=  4294967296 cpu:               0.7 elap:               0.1
 (Enter /lrz/sys/applications/gaussian/g16.C.01/x86_64_legacy/exe/l502.exe)
 Integral symmetry usage will be decided dynamically.
 Closed shell SCF:
 Using DIIS extrapolation, IDIIS=  1040.
 NGot=  4294967296 LenX=  4294938204 LenY=  4294924538
 Requested convergence on RMS density matrix=1.00D-08 within 128 cycles.
 Requested convergence on MAX density matrix=1.00D-06.
 Requested convergence on             energy=1.00D-06.
 No special actions if energy rises.
 Fock matrices will be formed incrementally for  20 cycles.

 Cycle   1  Pass 1  IDiag  1:
 FoFJK:  IHMeth= 1 ICntrl=       0 DoSepK=T KAlg= 0 I1Cent=           0 FoldK=F
 IRaf=         1 NMat=       1 IRICut=       1 DoRegI=T DoRafI=F ISym2E= 0 IDoP0=0 IntGTp=1.
 FoFCou: FMM=F IPFlag=           0 FMFlag=      100000 FMFlg1=           0
         NFxFlg=           0 DoJE=T BraDBF=F KetDBF=F FulRan=T
         wScrn=  0.000000 ICntrl=       500 IOpCl=  0 I1Cent=           0 NGrid=           0
         NMat0=    1 NMatS0=      1 NMatT0=    0 NMatD0=    1 NMtDS0=    0 NMtDT0=    0
 Symmetry not used in FoFCou.
 Inv3:  Mode=1 IEnd=     2478843.
 Iteration    1 A*A^-1 deviation from unit magnitude is 5.33D-15 for    240.
 Iteration    1 A*A^-1 deviation from orthogonality  is 2.80D-15 for    807    610.
 Iteration    1 A^-1*A deviation from unit magnitude is 5.77D-15 for    240.
 Iteration    1 A^-1*A deviation from orthogonality  is 1.96D-15 for    725    404.
 E= -269.317748341486    
 DIIS: error= 1.21D-04 at cycle   1 NSaved=   1.
 NSaved= 1 IEnMin= 1 EnMin= -269.317748341486     IErMin= 1 ErrMin= 1.21D-04
 ErrMax= 1.21D-04  0.00D+00 EMaxC= 1.00D-01 BMatC= 2.75D-06 BMatP= 2.75D-06
 IDIUse=3 WtCom= 9.99D-01 WtEn= 1.21D-03
 Coeff-Com:  0.100D+01
 Coeff-En:   0.100D+01
 Coeff:      0.100D+01
 Gap=     0.782 Goal=   None    Shift=    0.000
 RMSDP=2.32D-05 MaxDP=4.95D-04              OVMax= 4.49D-04

 Cycle   2  Pass 1  IDiag  1:
 RMSU=  2.32D-05    CP:  1.00D+00
 E= -269.317752654759     Delta-E=       -0.000004313272 Rises=F Damp=F
 DIIS: error= 2.42D-05 at cycle   2 NSaved=   2.
 NSaved= 2 IEnMin= 2 EnMin= -269.317752654759     IErMin= 2 ErrMin= 2.42D-05
 ErrMax= 2.42D-05  0.00D+00 EMaxC= 1.00D-01 BMatC= 1.00D-07 BMatP= 2.75D-06
 IDIUse=1 WtCom= 1.00D+00 WtEn= 0.00D+00
 Coeff-Com: -0.189D+00 0.119D+01
 Coeff:     -0.189D+00 0.119D+01
 Gap=     0.516 Goal=   None    Shift=    0.000
 RMSDP=6.38D-06 MaxDP=1.21D-04 DE=-4.31D-06 OVMax= 1.63D-04

 Cycle   3  Pass 1  IDiag  1:
 RMSU=  3.27D-06    CP:  1.00D+00  1.24D+00
 E= -269.317752902722     Delta-E=       -0.000000247963 Rises=F Damp=F
 DIIS: error= 4.82D-06 at cycle   3 NSaved=   3.
 NSaved= 3 IEnMin= 3 EnMin= -269.317752902722     IErMin= 3 ErrMin= 4.82D-06
 ErrMax= 4.82D-06  0.00D+00 EMaxC= 1.00D-01 BMatC= 4.58D-09 BMatP= 1.00D-07
 IDIUse=1 WtCom= 1.00D+00 WtEn= 0.00D+00
 Coeff-Com: -0.243D-01 0.878D-01 0.936D+00
 Coeff:     -0.243D-01 0.878D-01 0.936D+00
 Gap=     0.516 Goal=   None    Shift=    0.000
 RMSDP=1.26D-06 MaxDP=1.90D-05 DE=-2.48D-07 OVMax= 2.72D-05

 Cycle   4  Pass 1  IDiag  1:
 RMSU=  8.93D-07    CP:  1.00D+00  1.26D+00  1.22D+00
 E= -269.317752908799     Delta-E=       -0.000000006077 Rises=F Damp=F
 DIIS: error= 2.65D-06 at cycle   4 NSaved=   4.
 NSaved= 4 IEnMin= 4 EnMin= -269.317752908799     IErMin= 4 ErrMin= 2.65D-06
 ErrMax= 2.65D-06  0.00D+00 EMaxC= 1.00D-01 BMatC= 2.37D-09 BMatP= 4.58D-09
 IDIUse=1 WtCom= 1.00D+00 WtEn= 0.00D+00
 Coeff-Com:  0.151D-01-0.128D+00 0.440D+00 0.673D+00
 Coeff:      0.151D-01-0.128D+00 0.440D+00 0.673D+00
 Gap=     0.516 Goal=   None    Shift=    0.000
 RMSDP=5.01D-07 MaxDP=9.85D-06 DE=-6.08D-09 OVMax= 1.06D-05

 Cycle   5  Pass 1  IDiag  1:
 RMSU=  2.33D-07    CP:  1.00D+00  1.26D+00  1.34D+00  8.23D-01
 E= -269.317752911015     Delta-E=       -0.000000002216 Rises=F Damp=F
 DIIS: error= 4.78D-07 at cycle   5 NSaved=   5.
 NSaved= 5 IEnMin= 5 EnMin= -269.317752911015     IErMin= 5 ErrMin= 4.78D-07
 ErrMax= 4.78D-07  0.00D+00 EMaxC= 1.00D-01 BMatC= 5.64D-11 BMatP= 2.37D-09
 IDIUse=1 WtCom= 1.00D+00 WtEn= 0.00D+00
 Coeff-Com:  0.545D-02-0.412D-01 0.864D-01 0.192D+00 0.757D+00
 Coeff:      0.545D-02-0.412D-01 0.864D-01 0.192D+00 0.757D+00
 Gap=     0.516 Goal=   None    Shift=    0.000
 RMSDP=1.13D-07 MaxDP=1.87D-06 DE=-2.22D-09 OVMax= 2.48D-06

 Cycle   6  Pass 1  IDiag  1:
 RMSU=  7.50D-08    CP:  1.00D+00  1.27D+00  1.36D+00  8.58D-01  1.08D+00
 E= -269.317752911076     Delta-E=       -0.000000000061 Rises=F Damp=F
 DIIS: error= 1.45D-07 at cycle   6 NSaved=   6.
 NSaved= 6 IEnMin= 6 EnMin= -269.317752911076     IErMin= 6 ErrMin= 1.45D-07
 ErrMax= 1.45D-07  0.00D+00 EMaxC= 1.00D-01 BMatC= 7.22D-12 BMatP= 5.64D-11
 IDIUse=1 WtCom= 1.00D+00 WtEn= 0.00D+00
 Coeff-Com: -0.492D-03 0.579D-02-0.386D-01-0.404D-01 0.221D+00 0.852D+00
 Coeff:     -0.492D-03 0.579D-02-0.386D-01-0.404D-01 0.221D+00 0.852D+00
 Gap=     0.516 Goal=   None    Shift=    0.000
 RMSDP=5.22D-08 MaxDP=1.11D-06 DE=-6.13D-11 OVMax= 1.39D-06

 Cycle   7  Pass 1  IDiag  1:
 RMSU=  1.60D-08    CP:  1.00D+00  1.27D+00  1.37D+00  8.82D-01  1.23D+00
                    CP:  9.93D-01
 E= -269.317752911084     Delta-E=       -0.000000000008 Rises=F Damp=F
 DIIS: error= 3.24D-08 at cycle   7 NSaved=   7.
 NSaved= 7 IEnMin= 7 EnMin= -269.317752911084     IErMin= 7 ErrMin= 3.24D-08
 ErrMax= 3.24D-08  0.00D+00 EMaxC= 1.00D-01 BMatC= 3.17D-13 BMatP= 7.22D-12
 IDIUse=1 WtCom= 1.00D+00 WtEn= 0.00D+00
 Coeff-Com: -0.320D-03 0.289D-02-0.108D-01-0.160D-01 0.163D-02 0.161D+00
 Coeff-Com:  0.862D+00
 Coeff:     -0.320D-03 0.289D-02-0.108D-01-0.160D-01 0.163D-02 0.161D+00
 Coeff:      0.862D+00
 Gap=     0.516 Goal=   None    Shift=    0.000
 RMSDP=1.13D-08 MaxDP=3.11D-07 DE=-7.56D-12 OVMax= 3.84D-07

 Cycle   8  Pass 1  IDiag  1:
 RMSU=  6.72D-09    CP:  1.00D+00  1.27D+00  1.37D+00  8.84D-01  1.25D+00
                    CP:  1.06D+00  1.18D+00
 E= -269.317752911086     Delta-E=       -0.000000000002 Rises=F Damp=F
 DIIS: error= 2.05D-08 at cycle   8 NSaved=   8.
 NSaved= 8 IEnMin= 8 EnMin= -269.317752911086     IErMin= 8 ErrMin= 2.05D-08
 ErrMax= 2.05D-08  0.00D+00 EMaxC= 1.00D-01 BMatC= 1.01D-13 BMatP= 3.17D-13
 IDIUse=1 WtCom= 1.00D+00 WtEn= 0.00D+00
 Coeff-Com: -0.517D-04 0.327D-03 0.803D-03-0.965D-03-0.287D-01-0.434D-01
 Coeff-Com:  0.371D+00 0.701D+00
 Coeff:     -0.517D-04 0.327D-03 0.803D-03-0.965D-03-0.287D-01-0.434D-01
 Coeff:      0.371D+00 0.701D+00
 Gap=     0.516 Goal=   None    Shift=    0.000
 RMSDP=4.16D-09 MaxDP=1.03D-07 DE=-2.10D-12 OVMax= 1.38D-07

 Error on total polarization charges =  0.03204
 SCF Done:  E(RwB97XD) =  -269.317752911     A.U. after    8 cycles
            NFock=  8  Conv=0.42D-08     -V/T= 2.0096
 KE= 2.667624562657D+02 PE=-1.020188076384D+03 EE= 2.890004189275D+02
 SMD-CDS (non-electrostatic) energy       (kcal/mol) =       2.95
 (included in total energy above)
 Leave Link  502 at Tue Oct 21 19:50:49 2025, MaxMem=  4294967296 cpu:              97.8 elap:              12.3
 (Enter /lrz/sys/applications/gaussian/g16.C.01/x86_64_legacy/exe/l701.exe)
 ... and contract with generalized density number  0.
 Compute integral first derivatives.
 R6Disp: Adding Grimme-D2 dispersion energy 1st derivatives to the gradient.
   1 Symmetry operations used in ECPInt.
 ECPInt:  NShTT=    1485 NPrTT=    5139 LenC2=    1483 LenP2D=    4436.
 LDataN:  DoStor=T MaxTD1= 5 Len=  102
 D1PCM: PCM CHGder 1st derivatives, ID1Alg=3 FixD1E=F DoIter=F DoCFld=F I1PDM=0.
 GePol: Maximum number of non-zero 1st derivatives   =     248
 Leave Link  701 at Tue Oct 21 19:50:50 2025, MaxMem=  4294967296 cpu:               4.7 elap:               0.6
 (Enter /lrz/sys/applications/gaussian/g16.C.01/x86_64_legacy/exe/l702.exe)
 L702 exits ... SP integral derivatives will be done elsewhere.
 Leave Link  702 at Tue Oct 21 19:50:50 2025, MaxMem=  4294967296 cpu:               0.2 elap:               0.0
 (Enter /lrz/sys/applications/gaussian/g16.C.01/x86_64_legacy/exe/l703.exe)
 Integral derivatives from FoFJK, PRISM(SPDF).
 Compute integral first derivatives, UseDBF=F ICtDFT=           0.
 Calling FoFJK, ICntrl=      2127 FMM=F ISym2X=0 I1Cent= 0 IOpClX= 0 NMat=1 NMatS=1 NMatT=0.
 FoFJK:  IHMeth= 1 ICntrl=    2127 DoSepK=T KAlg= 0 I1Cent=           0 FoldK=F
 IRaf=         1 NMat=       1 IRICut=       1 DoRegI=T DoRafI=F ISym2E= 0 IDoP0=0 IntGTp=1.
 FoFCou: FMM=F IPFlag=           0 FMFlag=      100000 FMFlg1=         800
         NFxFlg=           0 DoJE=F BraDBF=F KetDBF=F FulRan=T
         wScrn=  0.000000 ICntrl=      2527 IOpCl=  0 I1Cent=           0 NGrid=           0
         NMat0=    1 NMatS0=      1 NMatT0=    0 NMatD0=    1 NMtDS0=    0 NMtDT0=    0
 Symmetry not used in FoFCou.
 Leave Link  703 at Tue Oct 21 19:50:52 2025, MaxMem=  4294967296 cpu:              18.6 elap:               2.3
 (Enter /lrz/sys/applications/gaussian/g16.C.01/x86_64_legacy/exe/l716.exe)
 Dipole        = 4.71519860D-02-3.87008849D-03-5.59662333D-02
 ***** Axes restored to original set *****
 -------------------------------------------------------------------
 Center     Atomic                   Forces (Hartrees/Bohr)
 Number     Number              X              Y              Z
 -------------------------------------------------------------------
      1        8           0.000005727   -0.000008178    0.000000012
      2        6           0.000015765    0.000033394   -0.000017746
      3        8           0.000006676   -0.000015265    0.000022380
      4        6          -0.000003987   -0.000050973   -0.000018821
      5        6          -0.000044253    0.000028469    0.000003211
      6        1          -0.000000182   -0.000013135   -0.000004104
      7        1          -0.000003444    0.000010458   -0.000007267
      8        1           0.000003417   -0.000002558   -0.000000571
      9        1          -0.000007330    0.000015345    0.000008213
     10        1           0.000010150    0.000000366    0.000016813
     11        1           0.000003146   -0.000018570   -0.000008257
     12        1           0.000008753    0.000001685    0.000015310
     13        1           0.000005561    0.000018961   -0.000009174
 -------------------------------------------------------------------
 Cartesian Forces:  Max     0.000050973 RMS     0.000016517
 Leave Link  716 at Tue Oct 21 19:50:52 2025, MaxMem=  4294967296 cpu:               0.2 elap:               0.0
 (Enter /lrz/sys/applications/gaussian/g16.C.01/x86_64_legacy/exe/l103.exe)

 GradGradGradGradGradGradGradGradGradGradGradGradGradGradGradGradGradGrad
 Berny optimization.
 Using GEDIIS/GDIIS optimizer.
 FormGI is forming the generalized inverse of G from B-inverse, IUseBI=4.
 Internal  Forces:  Max     0.000032227 RMS     0.000008678
 Search for a local minimum.
 Step number   7 out of a maximum of   66
 All quantities printed in internal units (Hartrees-Bohrs-Radians)
 RMS Force = .86779D-05 SwitMx=.10000D-02 MixMth= 2
 Mixed Optimization -- En-DIIS/RFO-DIIS
 Swapping is turned off.
 Update second derivatives using D2CorX and points    1    2    3    4    5
                                                      6    7
 DE= -6.93D-07 DEPred=-2.73D-07 R= 2.54D+00
 Trust test= 2.54D+00 RLast= 1.20D-02 DXMaxT set to 5.05D-01
 ITU=  0  1  1  1  1  1  0
     Eigenvalues ---    0.00245   0.00380   0.00474   0.01696   0.03567
     Eigenvalues ---    0.04819   0.05576   0.05580   0.05677   0.06391
     Eigenvalues ---    0.08639   0.10130   0.12304   0.15689   0.16002
     Eigenvalues ---    0.16030   0.16153   0.16316   0.20199   0.21377
     Eigenvalues ---    0.24030   0.30766   0.32729   0.33652   0.34643
     Eigenvalues ---    0.34894   0.35161   0.35215   0.37141   0.44967
     Eigenvalues ---    0.47921   0.54091   0.54533
 En-DIIS/RFO-DIIS/Sim-DIIS IScMMF=       -3 using points:     7    6    5    4    3    2
 RFO step:  Lambda=-7.92183277D-08.
 NNeg= 0 NGDIIS= 6 SimSw=  2.50D-01 Rises=F DC= -6.93D-07 SmlDif=  1.00D-05
 NRisDI= 0 DoIntr=F SqrtH=F CThrHd= 10.0 CDAdj=  3.0
 RMS Error=  0.6095799115D-03 NUsed= 6 OKEnD=F EnDIS=F
 InvSVX:  RCond= 1.94D-07 Info=           0 Equed=N FErr=  3.46D-13 BErr=  8.49D-17
 DidBck=F Rises=F RFO-DIIS coefs:    1.29614   -0.14327   -0.24380    0.05638    0.07139
                  RFO-DIIS coefs:   -0.03684
 Iteration  1 RMS(Cart)=  0.00068114 RMS(Int)=  0.00000052
 Iteration  2 RMS(Cart)=  0.00000043 RMS(Int)=  0.00000031
 ITry= 1 IFail=0 DXMaxC= 2.32D-03 DCOld= 1.00D+10 DXMaxT= 5.05D-01 DXLimC= 3.00D+00 Rises=F
 Variable       Old X    -DE/DX   Delta X   Delta X   Delta X     New X
                                 (Linear)    (Quad)   (Total)
    R1        2.65683   0.00001   0.00011  -0.00007   0.00004   2.65688
    R2        1.82820   0.00001   0.00001   0.00000   0.00002   1.82822
    R3        2.65536  -0.00001   0.00002  -0.00004  -0.00002   2.65534
    R4        2.87104  -0.00003  -0.00004  -0.00007  -0.00012   2.87093
    R5        2.08787   0.00001   0.00006  -0.00005   0.00002   2.08789
    R6        1.82439  -0.00000   0.00003  -0.00003  -0.00000   1.82439
    R7        2.87428  -0.00003  -0.00001  -0.00006  -0.00007   2.87421
    R8        2.08052   0.00002   0.00007  -0.00002   0.00005   2.08057
    R9        2.08674   0.00001   0.00014  -0.00010   0.00004   2.08678
   R10        2.07882   0.00002   0.00011  -0.00005   0.00006   2.07888
   R11        2.07805   0.00001   0.00010  -0.00005   0.00004   2.07810
   R12        2.08169   0.00001   0.00011  -0.00009   0.00003   2.08172
    A1        1.87942   0.00001  -0.00012   0.00012   0.00000   1.87942
    A2        1.94224  -0.00000  -0.00015   0.00005  -0.00010   1.94215
    A3        1.96641  -0.00001   0.00005  -0.00013  -0.00008   1.96634
    A4        1.82689   0.00001   0.00001   0.00006   0.00007   1.82695
    A5        1.87739  -0.00000   0.00010  -0.00013  -0.00003   1.87736
    A6        1.92586   0.00000  -0.00003   0.00010   0.00007   1.92593
    A7        1.92560   0.00001   0.00001   0.00006   0.00007   1.92567
    A8        1.87860  -0.00001  -0.00008   0.00002  -0.00006   1.87854
    A9        1.97819  -0.00000  -0.00005   0.00008   0.00003   1.97822
   A10        1.88185  -0.00000   0.00009  -0.00012  -0.00003   1.88182
   A11        1.87688   0.00001   0.00012  -0.00003   0.00010   1.87698
   A12        1.92850   0.00000  -0.00012   0.00014   0.00002   1.92852
   A13        1.93078  -0.00001  -0.00007   0.00000  -0.00007   1.93071
   A14        1.86300  -0.00000   0.00005  -0.00010  -0.00005   1.86295
   A15        1.93965   0.00000  -0.00020   0.00019  -0.00001   1.93963
   A16        1.93602  -0.00000   0.00012  -0.00013  -0.00001   1.93601
   A17        1.94046   0.00000   0.00001   0.00003   0.00004   1.94050
   A18        1.88380  -0.00000  -0.00004  -0.00002  -0.00006   1.88374
   A19        1.88040  -0.00000   0.00011  -0.00007   0.00004   1.88044
   A20        1.88102   0.00000   0.00001  -0.00000   0.00001   1.88103
    D1       -1.18822   0.00001  -0.00012   0.00027   0.00015  -1.18807
    D2        0.92206  -0.00000  -0.00006   0.00005  -0.00001   0.92205
    D3        3.01476   0.00000  -0.00001   0.00009   0.00008   3.01484
    D4       -1.07894  -0.00001  -0.00051  -0.00017  -0.00068  -1.07962
    D5        3.04252   0.00000  -0.00055   0.00005  -0.00050   3.04202
    D6        0.94117  -0.00000  -0.00061  -0.00001  -0.00061   0.94056
    D7        1.00589   0.00000   0.00007   0.00000   0.00007   1.00596
    D8       -3.13690   0.00001  -0.00006   0.00015   0.00009  -3.13680
    D9       -1.13384   0.00001   0.00011  -0.00004   0.00007  -1.13377
   D10       -3.13035  -0.00001  -0.00001  -0.00011  -0.00012  -3.13047
   D11       -0.98995  -0.00001  -0.00014   0.00004  -0.00010  -0.99005
   D12        1.01311  -0.00001   0.00003  -0.00015  -0.00012   1.01299
   D13       -1.02883  -0.00000   0.00002  -0.00003  -0.00001  -1.02884
   D14        1.11157   0.00000  -0.00011   0.00012   0.00001   1.11158
   D15        3.11463   0.00000   0.00006  -0.00007  -0.00001   3.11462
   D16       -1.04855   0.00000   0.00155  -0.00000   0.00155  -1.04700
   D17        3.13881   0.00000   0.00165  -0.00001   0.00164   3.14045
   D18        1.04595   0.00000   0.00156   0.00006   0.00161   1.04757
   D19        3.12030   0.00000   0.00156  -0.00001   0.00155   3.12185
   D20        1.02447   0.00000   0.00166  -0.00002   0.00164   1.02611
   D21       -1.06839   0.00000   0.00157   0.00005   0.00161  -1.06677
   D22        1.06103   0.00001   0.00162   0.00002   0.00165   1.06267
   D23       -1.03480   0.00001   0.00173   0.00001   0.00174  -1.03306
   D24       -3.12766   0.00001   0.00163   0.00008   0.00171  -3.12595
         Item               Value     Threshold  Converged?
 Maximum Force            0.000032     0.000450     YES
 RMS     Force            0.000009     0.000300     YES
 Maximum Displacement     0.002323     0.001800     NO 
 RMS     Displacement     0.000681     0.001200     YES
 Predicted change in Energy=-3.634545D-08
 Lowest energy point so far.  Saving SCF results.
 GradGradGradGradGradGradGradGradGradGradGradGradGradGradGradGradGradGrad

 Leave Link  103 at Tue Oct 21 19:50:52 2025, MaxMem=  4294967296 cpu:               0.2 elap:               0.1
 (Enter /lrz/sys/applications/gaussian/g16.C.01/x86_64_legacy/exe/l202.exe)
                          Input orientation:                          
 ---------------------------------------------------------------------
 Center     Atomic      Atomic             Coordinates (Angstroms)
 Number     Number       Type             X           Y           Z
 ---------------------------------------------------------------------
      1          8           0       -0.592160   -1.331565    0.033372
      2          6           0       -0.457840    0.022575   -0.320159
      3          8           0       -1.569942    0.771878    0.099609
      4          6           0        0.780899    0.664457    0.281146
      5          6           0        2.072493   -0.039633   -0.105346
      6          1           0       -0.538352   -1.390285    0.997538
      7          1           0       -0.391324    0.018696   -1.423011
      8          1           0       -2.346883    0.420979   -0.353470
      9          1           0        0.804644    1.717216   -0.040275
     10          1           0        0.653971    0.669614    1.378090
     11          1           0        2.068198   -1.087732    0.228842
     12          1           0        2.941853    0.457125    0.349347
     13          1           0        2.216326   -0.036129   -1.197510
 ---------------------------------------------------------------------
                    Distance matrix (angstroms):
                    1          2          3          4          5
     1  O    0.000000
     2  C    1.405959   0.000000
     3  O    2.320543   1.405145   0.000000
     4  C    2.435320   1.519229   2.360286   0.000000
     5  C    2.964576   2.540198   3.737365   1.520965   0.000000
     6  H    0.967450   1.933645   2.558399   2.544721   3.139607
     7  H    1.996144   1.104862   2.067558   2.166856   2.794645
     8  H    2.510002   1.930885   0.965426   3.200787   4.450237
     9  H    3.354333   2.131669   2.559667   1.100990   2.167532
    10  H    2.714005   2.130454   2.567248   1.104275   2.171594
    11  H    2.678650   2.813370   4.087898   2.174865   1.100096
    12  H    3.973474   3.492132   4.529650   2.171948   1.099682
    13  H    3.328786   2.815024   4.083041   2.176625   1.101599
                    6          7          8          9         10
     6  H    0.000000
     7  H    2.804622   0.000000
     8  H    2.894250   2.264941   0.000000
     9  H    3.540800   2.495449   3.422053   0.000000
    10  H    2.410319   3.059821   3.473506   1.769727   0.000000
    11  H    2.734325   3.162601   4.701939   3.088158   2.531614
    12  H    3.993107   3.800466   5.335352   2.511432   2.517511
    13  H    3.773622   2.617957   4.663070   2.531059   3.093985
                   11         12         13
    11  H    0.000000
    12  H    1.778869   0.000000
    13  H    1.778282   1.778329   0.000000
 Stoichiometry    C3H8O2
 Framework group  C1[X(C3H8O2)]
 Deg. of freedom    33
 Full point group                 C1      NOp   1
 RotChk:  IX=0 Diff= 4.10D-04
 Largest Abelian subgroup         C1      NOp   1
 Largest concise Abelian subgroup C1      NOp   1
                         Standard orientation:                         
 ---------------------------------------------------------------------
 Center     Atomic      Atomic             Coordinates (Angstroms)
 Number     Number       Type             X           Y           Z
 ---------------------------------------------------------------------
      1          8           0       -0.644537    1.337573   -0.069769
      2          6           0       -0.517238   -0.006243    0.323517
      3          8           0       -1.632931   -0.761945   -0.074699
      4          6           0        0.718506   -0.671781   -0.257906
      5          6           0        2.013476    0.036842    0.108486
      6          1           0       -0.589998    1.367635   -1.035213
      7          1           0       -0.451201    0.029737    1.425817
      8          1           0       -2.408288   -0.393951    0.367398
      9          1           0        0.736774   -1.714737    0.094354
     10          1           0        0.592049   -0.708560   -1.354300
     11          1           0        2.014639    1.074665   -0.256386
     12          1           0        2.880513   -0.477459   -0.330878
     13          1           0        2.156796    0.064739    1.200366
 ---------------------------------------------------------------------
 Rotational constants (GHZ):           8.5162756           3.5948664           2.7809142
 Leave Link  202 at Tue Oct 21 19:50:52 2025, MaxMem=  4294967296 cpu:               0.0 elap:               0.0
 (Enter /lrz/sys/applications/gaussian/g16.C.01/x86_64_legacy/exe/l301.exe)
 Standard basis: def2SVP (5D, 7F)
 Ernie: Thresh=  0.10000D-02 Tol=  0.10000D-05 Strict=F.
 There are   115 symmetry adapted cartesian basis functions of A   symmetry.
 There are   110 symmetry adapted basis functions of A   symmetry.
   110 basis functions,   181 primitive gaussians,   115 cartesian basis functions
    21 alpha electrons       21 beta electrons
       nuclear repulsion energy       195.1108563093 Hartrees.
 IExCor= 4639 DFT=T Ex+Corr=wB97XD ExCW=0 ScaHFX=  1.000000
 ScaDFX=  1.000000  1.000000  1.000000  1.000000 ScalE2=  1.000000  1.000000
 IRadAn=      5 IRanWt=     -1 IRanGd=            0 ICorTp=0 IEmpDi=121
 HFx  wShort=  0.000000 wLong=  0.200000 cFull=  0.222036 cShort=  0.000000 cLong=  0.777964
 DFx  wShort=  0.000000 wLong=  0.200000 cFull=  0.000000 cShort=  0.000000 cLong=  1.000000
 NAtoms=   13 NActive=   13 NUniq=   13 SFac= 1.00D+00 NAtFMM=   60 NAOKFM=F Big=F
 Integral buffers will be    131072 words long.
 Raffenetti 2 integral format.
 Two-electron integral symmetry is turned on.
 R6Disp:  Grimme-D2 Dispersion energy=       -0.0055765291 Hartrees.
 Nuclear repulsion after empirical dispersion term =      195.1052797803 Hartrees.
 ------------------------------------------------------------------------------
 Polarizable Continuum Model (PCM)
 =================================
 Model                : PCM.
 Atomic radii         : SMD-Coulomb.
 Polarization charges : Total charges.
 Charge compensation  : None.
 Solution method      : On-the-fly selection.
 Cavity type          : VdW (van der Waals Surface) (Alpha=1.000).
 Cavity algorithm     : GePol (No added spheres)
                        Default sphere list used, NSphG=   13.
                        Lebedev-Laikov grids with approx.  5.0 points / Ang**2.
                        Smoothing algorithm: York/Karplus (Gamma=1.0000).
                        Polarization charges: spherical gaussians, with
                                              point-specific exponents (IZeta= 3).
                        Self-potential: point-specific (ISelfS= 7).
                        Self-field    : sphere-specific E.n sum rule (ISelfD= 2).
 1st derivatives      : Analytical E(r).r(x)/FMM algorithm (CHGder, D1EAlg=3).
                        Cavity 1st derivative terms included.
 Solvent              : Water, Eps=  78.355300 Eps(inf)=   1.777849
 ------------------------------------------------------------------------------
 Spheres list:
 ISph  on   Nord     Re0    Alpha      Xe            Ye            Ze
    1   O      1    1.5200  1.000     -0.644537      1.337573     -0.069769
    2   C      2    1.8500  1.000     -0.517238     -0.006243      0.323517
    3   O      3    1.5200  1.000     -1.632931     -0.761945     -0.074699
    4   C      4    1.8500  1.000      0.718506     -0.671781     -0.257906
    5   C      5    1.8500  1.000      2.013476      0.036842      0.108486
    6   H      6    1.2000  1.000     -0.589998      1.367635     -1.035213
    7   H      7    1.2000  1.000     -0.451201      0.029737      1.425817
    8   H      8    1.2000  1.000     -2.408288     -0.393951      0.367398
    9   H      9    1.2000  1.000      0.736774     -1.714737      0.094354
   10   H     10    1.2000  1.000      0.592049     -0.708560     -1.354300
   11   H     11    1.2000  1.000      2.014639      1.074665     -0.256386
   12   H     12    1.2000  1.000      2.880513     -0.477459     -0.330878
   13   H     13    1.2000  1.000      2.156796      0.064739      1.200366
 ------------------------------------------------------------------------------
 GePol: Number of generator spheres                  =      13
 GePol: Total number of spheres                      =      13
 GePol: Number of exposed spheres                    =      13 (100.00%)
 GePol: Number of points                             =     908
 GePol: Average weight of points                     =       0.12
 GePol: Minimum weight of points                     =   0.10D-07
 GePol: Maximum weight of points                     =    0.21991
 GePol: Number of points with low weight             =      52
 GePol: Fraction of low-weight points (<1% of avg)   =       5.73%
 GePol: Cavity surface area                          =    111.062 Ang**2
 GePol: Cavity volume                                =     82.170 Ang**3
 ------------------------------------------------------------------------------
 Atomic radii for non-electrostatic terms: SMD-CDS.
 ------------------------------------------------------------------------------
 PCM non-electrostatic energy =         0.0046976083 Hartrees.
 Nuclear repulsion after PCM non-electrostatic terms =      195.1099773885 Hartrees.
 Leave Link  301 at Tue Oct 21 19:50:52 2025, MaxMem=  4294967296 cpu:               0.5 elap:               0.1
 (Enter /lrz/sys/applications/gaussian/g16.C.01/x86_64_legacy/exe/l302.exe)
 NPDir=0 NMtPBC=     1 NCelOv=     1 NCel=       1 NClECP=     1 NCelD=      1
         NCelK=      1 NCelE2=     1 NClLst=     1 CellRange=     0.0.
 One-electron integrals computed using PRISM.
 One-electron integral symmetry used in STVInt
   1 Symmetry operations used in ECPInt.
 ECPInt:  NShTT=    1485 NPrTT=    5139 LenC2=    1483 LenP2D=    4436.
 LDataN:  DoStor=T MaxTD1= 4 Len=   56
 NBasis=   110 RedAO= T EigKep=  2.28D-03  NBF=   110
 NBsUse=   110 1.00D-06 EigRej= -1.00D+00 NBFU=   110
 Precomputing XC quadrature grid using
 IXCGrd= 4 IRadAn=           5 IRanWt=          -1 IRanGd=           0 AccXCQ= 0.00D+00.
 Generated NRdTot=       0 NPtTot=           0 NUsed=           0 NTot=          32
 NSgBfM=   115   115   115   115   115 MxSgAt=    13 MxSgA2=    13.
 Leave Link  302 at Tue Oct 21 19:50:52 2025, MaxMem=  4294967296 cpu:               1.2 elap:               0.2
 (Enter /lrz/sys/applications/gaussian/g16.C.01/x86_64_legacy/exe/l303.exe)
 DipDrv:  MaxL=1.
 Leave Link  303 at Tue Oct 21 19:50:52 2025, MaxMem=  4294967296 cpu:               0.2 elap:               0.0
 (Enter /lrz/sys/applications/gaussian/g16.C.01/x86_64_legacy/exe/l401.exe)
 Initial guess from the checkpoint file:  "g16_C3-w_1.chk"
 B after Tr=     0.000000    0.000000   -0.000000
         Rot=    1.000000   -0.000070   -0.000014    0.000001 Ang=  -0.01 deg.
 Guess basis will be translated and rotated to current coordinates.
 JPrj=2 DoOrth=T DoCkMO=T.
 Leave Link  401 at Tue Oct 21 19:50:53 2025, MaxMem=  4294967296 cpu:               0.7 elap:               0.1
 (Enter /lrz/sys/applications/gaussian/g16.C.01/x86_64_legacy/exe/l502.exe)
 Integral symmetry usage will be decided dynamically.
 Closed shell SCF:
 Using DIIS extrapolation, IDIIS=  1040.
 NGot=  4294967296 LenX=  4294938204 LenY=  4294924538
 Requested convergence on RMS density matrix=1.00D-08 within 128 cycles.
 Requested convergence on MAX density matrix=1.00D-06.
 Requested convergence on             energy=1.00D-06.
 No special actions if energy rises.
 Fock matrices will be formed incrementally for  20 cycles.

 Cycle   1  Pass 1  IDiag  1:
 FoFJK:  IHMeth= 1 ICntrl=       0 DoSepK=T KAlg= 0 I1Cent=           0 FoldK=F
 IRaf=         1 NMat=       1 IRICut=       1 DoRegI=T DoRafI=F ISym2E= 0 IDoP0=0 IntGTp=1.
 FoFCou: FMM=F IPFlag=           0 FMFlag=      100000 FMFlg1=           0
         NFxFlg=           0 DoJE=T BraDBF=F KetDBF=F FulRan=T
         wScrn=  0.000000 ICntrl=       500 IOpCl=  0 I1Cent=           0 NGrid=           0
         NMat0=    1 NMatS0=      1 NMatT0=    0 NMatD0=    1 NMtDS0=    0 NMtDT0=    0
 Symmetry not used in FoFCou.
 Inv3:  Mode=1 IEnd=     2473392.
 Iteration    1 A*A^-1 deviation from unit magnitude is 4.00D-15 for     29.
 Iteration    1 A*A^-1 deviation from orthogonality  is 2.80D-15 for    845    487.
 Iteration    1 A^-1*A deviation from unit magnitude is 4.44D-15 for    234.
 Iteration    1 A^-1*A deviation from orthogonality  is 1.89D-15 for    598      8.
 E= -269.317752533192    
 DIIS: error= 4.49D-05 at cycle   1 NSaved=   1.
 NSaved= 1 IEnMin= 1 EnMin= -269.317752533192     IErMin= 1 ErrMin= 4.49D-05
 ErrMax= 4.49D-05  0.00D+00 EMaxC= 1.00D-01 BMatC= 2.74D-07 BMatP= 2.74D-07
 IDIUse=1 WtCom= 1.00D+00 WtEn= 0.00D+00
 Coeff-Com:  0.100D+01
 Coeff:      0.100D+01
 Gap=     0.782 Goal=   None    Shift=    0.000
 RMSDP=6.50D-06 MaxDP=1.65D-04              OVMax= 1.89D-04

 Cycle   2  Pass 1  IDiag  1:
 RMSU=  6.50D-06    CP:  1.00D+00
 E= -269.317752990349     Delta-E=       -0.000000457156 Rises=F Damp=F
 DIIS: error= 8.85D-06 at cycle   2 NSaved=   2.
 NSaved= 2 IEnMin= 2 EnMin= -269.317752990349     IErMin= 2 ErrMin= 8.85D-06
 ErrMax= 8.85D-06  0.00D+00 EMaxC= 1.00D-01 BMatC= 1.09D-08 BMatP= 2.74D-07
 IDIUse=1 WtCom= 1.00D+00 WtEn= 0.00D+00
 Coeff-Com: -0.206D+00 0.121D+01
 Coeff:     -0.206D+00 0.121D+01
 Gap=     0.516 Goal=   None    Shift=    0.000
 RMSDP=2.06D-06 MaxDP=4.27D-05 DE=-4.57D-07 OVMax= 6.98D-05

 Cycle   3  Pass 1  IDiag  1:
 RMSU=  1.02D-06    CP:  1.00D+00  1.27D+00
 E= -269.317753018724     Delta-E=       -0.000000028376 Rises=F Damp=F
 DIIS: error= 1.53D-06 at cycle   3 NSaved=   3.
 NSaved= 3 IEnMin= 3 EnMin= -269.317753018724     IErMin= 3 ErrMin= 1.53D-06
 ErrMax= 1.53D-06  0.00D+00 EMaxC= 1.00D-01 BMatC= 3.25D-10 BMatP= 1.09D-08
 IDIUse=1 WtCom= 1.00D+00 WtEn= 0.00D+00
 Coeff-Com: -0.641D-02-0.244D-01 0.103D+01
 Coeff:     -0.641D-02-0.244D-01 0.103D+01
 Gap=     0.516 Goal=   None    Shift=    0.000
 RMSDP=4.30D-07 MaxDP=7.35D-06 DE=-2.84D-08 OVMax= 1.11D-05

 Cycle   4  Pass 1  IDiag  1:
 RMSU=  2.29D-07    CP:  1.00D+00  1.31D+00  1.30D+00
 E= -269.317753019273     Delta-E=       -0.000000000548 Rises=F Damp=F
 DIIS: error= 1.02D-06 at cycle   4 NSaved=   4.
 NSaved= 4 IEnMin= 4 EnMin= -269.317753019273     IErMin= 4 ErrMin= 1.02D-06
 ErrMax= 1.02D-06  0.00D+00 EMaxC= 1.00D-01 BMatC= 2.16D-10 BMatP= 3.25D-10
 IDIUse=1 WtCom= 1.00D+00 WtEn= 0.00D+00
 Coeff-Com:  0.180D-01-0.138D+00 0.516D+00 0.604D+00
 Coeff:      0.180D-01-0.138D+00 0.516D+00 0.604D+00
 Gap=     0.516 Goal=   None    Shift=    0.000
 RMSDP=1.37D-07 MaxDP=3.09D-06 DE=-5.48D-10 OVMax= 2.75D-06

 Cycle   5  Pass 1  IDiag  1:
 RMSU=  5.85D-08    CP:  1.00D+00  1.31D+00  1.40D+00  7.36D-01
 E= -269.317753019453     Delta-E=       -0.000000000180 Rises=F Damp=F
 DIIS: error= 1.12D-07 at cycle   5 NSaved=   5.
 NSaved= 5 IEnMin= 5 EnMin= -269.317753019453     IErMin= 5 ErrMin= 1.12D-07
 ErrMax= 1.12D-07  0.00D+00 EMaxC= 1.00D-01 BMatC= 2.87D-12 BMatP= 2.16D-10
 IDIUse=1 WtCom= 1.00D+00 WtEn= 0.00D+00
 Coeff-Com:  0.368D-02-0.251D-01 0.418D-01 0.112D+00 0.868D+00
 Coeff:      0.368D-02-0.251D-01 0.418D-01 0.112D+00 0.868D+00
 Gap=     0.516 Goal=   None    Shift=    0.000
 RMSDP=3.52D-08 MaxDP=5.59D-07 DE=-1.80D-10 OVMax= 7.26D-07

 Cycle   6  Pass 1  IDiag  1:
 RMSU=  1.77D-08    CP:  1.00D+00  1.31D+00  1.42D+00  7.84D-01  1.09D+00
 E= -269.317753019453     Delta-E=       -0.000000000000 Rises=F Damp=F
 DIIS: error= 4.94D-08 at cycle   6 NSaved=   6.
 NSaved= 6 IEnMin= 6 EnMin= -269.317753019453     IErMin= 6 ErrMin= 4.94D-08
 ErrMax= 4.94D-08  0.00D+00 EMaxC= 1.00D-01 BMatC= 5.15D-13 BMatP= 2.87D-12
 IDIUse=1 WtCom= 1.00D+00 WtEn= 0.00D+00
 Coeff-Com: -0.312D-03 0.365D-02-0.333D-01-0.161D-01 0.312D+00 0.734D+00
 Coeff:     -0.312D-03 0.365D-02-0.333D-01-0.161D-01 0.312D+00 0.734D+00
 Gap=     0.516 Goal=   None    Shift=    0.000
 RMSDP=1.08D-08 MaxDP=1.89D-07 DE=-1.71D-13 OVMax= 2.00D-07

 Cycle   7  Pass 1  IDiag  1:
 RMSU=  3.95D-09    CP:  1.00D+00  1.31D+00  1.43D+00  7.97D-01  1.19D+00
                    CP:  8.42D-01
 E= -269.317753019459     Delta-E=       -0.000000000006 Rises=F Damp=F
 DIIS: error= 6.44D-09 at cycle   7 NSaved=   7.
 NSaved= 7 IEnMin= 7 EnMin= -269.317753019459     IErMin= 7 ErrMin= 6.44D-09
 ErrMax= 6.44D-09  0.00D+00 EMaxC= 1.00D-01 BMatC= 1.42D-14 BMatP= 5.15D-13
 IDIUse=1 WtCom= 1.00D+00 WtEn= 0.00D+00
 Coeff-Com: -0.251D-03 0.202D-02-0.795D-02-0.872D-02 0.439D-03 0.132D+00
 Coeff-Com:  0.882D+00
 Coeff:     -0.251D-03 0.202D-02-0.795D-02-0.872D-02 0.439D-03 0.132D+00
 Coeff:      0.882D+00
 Gap=     0.516 Goal=   None    Shift=    0.000
 RMSDP=2.43D-09 MaxDP=4.86D-08 DE=-5.80D-12 OVMax= 6.18D-08

 Error on total polarization charges =  0.03204
 SCF Done:  E(RwB97XD) =  -269.317753019     A.U. after    7 cycles
            NFock=  7  Conv=0.24D-08     -V/T= 2.0096
 KE= 2.667624635197D+02 PE=-1.020193223070D+03 EE= 2.890030291422D+02
 SMD-CDS (non-electrostatic) energy       (kcal/mol) =       2.95
 (included in total energy above)
 Leave Link  502 at Tue Oct 21 19:51:04 2025, MaxMem=  4294967296 cpu:              86.9 elap:              10.9
 (Enter /lrz/sys/applications/gaussian/g16.C.01/x86_64_legacy/exe/l701.exe)
 ... and contract with generalized density number  0.
 Compute integral first derivatives.
 R6Disp: Adding Grimme-D2 dispersion energy 1st derivatives to the gradient.
   1 Symmetry operations used in ECPInt.
 ECPInt:  NShTT=    1485 NPrTT=    5139 LenC2=    1483 LenP2D=    4436.
 LDataN:  DoStor=T MaxTD1= 5 Len=  102
 D1PCM: PCM CHGder 1st derivatives, ID1Alg=3 FixD1E=F DoIter=F DoCFld=F I1PDM=0.
 GePol: Maximum number of non-zero 1st derivatives   =     248
 Leave Link  701 at Tue Oct 21 19:51:04 2025, MaxMem=  4294967296 cpu:               4.2 elap:               0.5
 (Enter /lrz/sys/applications/gaussian/g16.C.01/x86_64_legacy/exe/l702.exe)
 L702 exits ... SP integral derivatives will be done elsewhere.
 Leave Link  702 at Tue Oct 21 19:51:04 2025, MaxMem=  4294967296 cpu:               0.2 elap:               0.0
 (Enter /lrz/sys/applications/gaussian/g16.C.01/x86_64_legacy/exe/l703.exe)
 Integral derivatives from FoFJK, PRISM(SPDF).
 Compute integral first derivatives, UseDBF=F ICtDFT=           0.
 Calling FoFJK, ICntrl=      2127 FMM=F ISym2X=0 I1Cent= 0 IOpClX= 0 NMat=1 NMatS=1 NMatT=0.
 FoFJK:  IHMeth= 1 ICntrl=    2127 DoSepK=T KAlg= 0 I1Cent=           0 FoldK=F
 IRaf=         1 NMat=       1 IRICut=       1 DoRegI=T DoRafI=F ISym2E= 0 IDoP0=0 IntGTp=1.
 FoFCou: FMM=F IPFlag=           0 FMFlag=      100000 FMFlg1=         800
         NFxFlg=           0 DoJE=F BraDBF=F KetDBF=F FulRan=T
         wScrn=  0.000000 ICntrl=      2527 IOpCl=  0 I1Cent=           0 NGrid=           0
         NMat0=    1 NMatS0=      1 NMatT0=    0 NMatD0=    1 NMtDS0=    0 NMtDT0=    0
 Symmetry not used in FoFCou.
 Leave Link  703 at Tue Oct 21 19:51:06 2025, MaxMem=  4294967296 cpu:              18.0 elap:               2.3
 (Enter /lrz/sys/applications/gaussian/g16.C.01/x86_64_legacy/exe/l716.exe)
 Dipole        = 4.71001362D-02-4.29576928D-03-5.55269399D-02
 ***** Axes restored to original set *****
 -------------------------------------------------------------------
 Center     Atomic                   Forces (Hartrees/Bohr)
 Number     Number              X              Y              Z
 -------------------------------------------------------------------
      1        8           0.000003810   -0.000010660   -0.000014731
      2        6          -0.000002088    0.000000063    0.000013066
      3        8          -0.000003918   -0.000003290   -0.000000189
      4        6           0.000019254   -0.000007492   -0.000000862
      5        6          -0.000008044    0.000013325    0.000000089
      6        1           0.000000195   -0.000008785   -0.000014343
      7        1          -0.000005424    0.000007902    0.000002258
      8        1          -0.000003150   -0.000000376    0.000005976
      9        1          -0.000001097    0.000002480    0.000016100
     10        1          -0.000002442   -0.000008312    0.000001661
     11        1           0.000003071    0.000003147   -0.000012444
     12        1          -0.000001455    0.000000437    0.000002391
     13        1           0.000001288    0.000011562    0.000001028
 -------------------------------------------------------------------
 Cartesian Forces:  Max     0.000019254 RMS     0.000007688
 Leave Link  716 at Tue Oct 21 19:51:06 2025, MaxMem=  4294967296 cpu:               0.2 elap:               0.0
 (Enter /lrz/sys/applications/gaussian/g16.C.01/x86_64_legacy/exe/l103.exe)

 GradGradGradGradGradGradGradGradGradGradGradGradGradGradGradGradGradGrad
 Berny optimization.
 Using GEDIIS/GDIIS optimizer.
 FormGI is forming the generalized inverse of G from B-inverse, IUseBI=4.
 Internal  Forces:  Max     0.000012803 RMS     0.000003689
 Search for a local minimum.
 Step number   8 out of a maximum of   66
 All quantities printed in internal units (Hartrees-Bohrs-Radians)
 RMS Force = .36886D-05 SwitMx=.10000D-02 MixMth= 2
 Mixed Optimization -- En-DIIS/RFO-DIIS
 Swapping is turned off.
 Update second derivatives using D2CorX and points    1    2    3    4    5
                                                      6    7    8
 DE= -1.08D-07 DEPred=-3.63D-08 R= 2.98D+00
 Trust test= 2.98D+00 RLast= 5.03D-03 DXMaxT set to 5.05D-01
 ITU=  0  0  1  1  1  1  1  0
     Eigenvalues ---    0.00215   0.00359   0.00456   0.01681   0.03572
     Eigenvalues ---    0.04669   0.05551   0.05578   0.05682   0.06787
     Eigenvalues ---    0.08657   0.10083   0.12494   0.15346   0.16001
     Eigenvalues ---    0.16074   0.16217   0.16480   0.20295   0.21587
     Eigenvalues ---    0.23208   0.31340   0.32197   0.33667   0.34637
     Eigenvalues ---    0.34891   0.35163   0.35259   0.38934   0.45239
     Eigenvalues ---    0.47712   0.54123   0.54540
 En-DIIS/RFO-DIIS/Sim-DIIS IScMMF=       -3 using points:     8    7    6    5    4    3    2
 RFO step:  Lambda=-3.19031820D-09.
 NNeg= 0 NGDIIS= 7 SimSw=  2.50D-01 Rises=F DC= -1.08D-07 SmlDif=  1.00D-05
 NRisDI= 0 DoIntr=F SqrtH=F CThrHd= 10.0 CDAdj=  3.0
 RMS Error=  0.1200551293D-03 NUsed= 7 OKEnD=F EnDIS=F
 InvSVX:  RCond= 1.55D-08 Info=           0 Equed=N FErr=  5.28D-13 BErr=  4.36D-17
 DIIS inversion failure, remove point   7.
 InvSVX:  RCond= 4.92D-08 Info=           0 Equed=N FErr=  1.45D-13 BErr=  3.80D-17
 DIIS inversion failure, remove point   6.
 InvSVX:  RCond= 1.40D-07 Info=           0 Equed=N FErr=  2.27D-14 BErr=  1.02D-16
 RFO-DIIS uses    5 points instead of    7
 DidBck=F Rises=F RFO-DIIS coefs:    1.02276    0.01633   -0.03802   -0.01196    0.01089
                  RFO-DIIS coefs:    0.00000    0.00000
 Iteration  1 RMS(Cart)=  0.00013160 RMS(Int)=  0.00000001
 Iteration  2 RMS(Cart)=  0.00000001 RMS(Int)=  0.00000000
 ITry= 1 IFail=0 DXMaxC= 4.48D-04 DCOld= 1.00D+10 DXMaxT= 5.05D-01 DXLimC= 3.00D+00 Rises=F
 Variable       Old X    -DE/DX   Delta X   Delta X   Delta X     New X
                                 (Linear)    (Quad)   (Total)
    R1        2.65688   0.00001   0.00001   0.00000   0.00001   2.65689
    R2        1.82822  -0.00000   0.00000  -0.00001  -0.00000   1.82821
    R3        2.65534   0.00000   0.00000   0.00000   0.00001   2.65535
    R4        2.87093   0.00001  -0.00001   0.00005   0.00003   2.87096
    R5        2.08789  -0.00000   0.00001  -0.00001  -0.00000   2.08788
    R6        1.82439   0.00000   0.00000  -0.00000   0.00000   1.82439
    R7        2.87421  -0.00001   0.00001  -0.00004  -0.00003   2.87418
    R8        2.08057   0.00000   0.00001  -0.00000   0.00001   2.08058
    R9        2.08678  -0.00000   0.00001  -0.00001  -0.00000   2.08677
   R10        2.07888  -0.00000   0.00001  -0.00001   0.00000   2.07888
   R11        2.07810  -0.00000   0.00001  -0.00001   0.00000   2.07810
   R12        2.08172  -0.00000   0.00001  -0.00001  -0.00000   2.08172
    A1        1.87942  -0.00000  -0.00002   0.00001  -0.00001   1.87941
    A2        1.94215   0.00000   0.00000   0.00002   0.00002   1.94217
    A3        1.96634   0.00001   0.00001   0.00004   0.00004   1.96638
    A4        1.82695  -0.00001  -0.00000  -0.00004  -0.00004   1.82691
    A5        1.87736  -0.00000   0.00000   0.00001   0.00001   1.87737
    A6        1.92593  -0.00000   0.00000  -0.00004  -0.00004   1.92589
    A7        1.92567   0.00000  -0.00001   0.00001   0.00000   1.92567
    A8        1.87854   0.00001  -0.00002   0.00005   0.00002   1.87857
    A9        1.97822   0.00001  -0.00000   0.00005   0.00004   1.97827
   A10        1.88182   0.00000  -0.00000   0.00002   0.00002   1.88184
   A11        1.87698  -0.00001   0.00001  -0.00003  -0.00002   1.87695
   A12        1.92852  -0.00000  -0.00001  -0.00000  -0.00001   1.92851
   A13        1.93071   0.00000   0.00000   0.00000   0.00000   1.93071
   A14        1.86295  -0.00000   0.00001  -0.00004  -0.00003   1.86292
   A15        1.93963   0.00000  -0.00002   0.00002  -0.00000   1.93963
   A16        1.93601  -0.00000   0.00001  -0.00001  -0.00000   1.93601
   A17        1.94050   0.00000   0.00001   0.00002   0.00002   1.94052
   A18        1.88374  -0.00000  -0.00001  -0.00000  -0.00001   1.88372
   A19        1.88044  -0.00000   0.00001  -0.00002  -0.00001   1.88043
   A20        1.88103  -0.00000   0.00000   0.00000   0.00000   1.88103
    D1       -1.18807  -0.00000   0.00004   0.00004   0.00008  -1.18798
    D2        0.92205   0.00000   0.00005   0.00010   0.00015   0.92220
    D3        3.01484   0.00000   0.00004   0.00011   0.00015   3.01499
    D4       -1.07962   0.00001   0.00009   0.00002   0.00011  -1.07951
    D5        3.04202  -0.00000   0.00008  -0.00005   0.00003   3.04205
    D6        0.94056  -0.00000   0.00009  -0.00005   0.00005   0.94060
    D7        1.00596  -0.00000   0.00008  -0.00004   0.00004   1.00601
    D8       -3.13680  -0.00000   0.00007  -0.00000   0.00007  -3.13673
    D9       -1.13377  -0.00000   0.00008  -0.00005   0.00003  -1.13374
   D10       -3.13047   0.00000   0.00009   0.00002   0.00011  -3.13036
   D11       -0.99005   0.00000   0.00008   0.00006   0.00014  -0.98991
   D12        1.01299   0.00000   0.00009   0.00001   0.00010   1.01308
   D13       -1.02884   0.00000   0.00009  -0.00002   0.00007  -1.02877
   D14        1.11158   0.00000   0.00007   0.00002   0.00010   1.11167
   D15        3.11462  -0.00000   0.00008  -0.00003   0.00005   3.11467
   D16       -1.04700   0.00000   0.00024   0.00002   0.00026  -1.04674
   D17        3.14045   0.00000   0.00026   0.00002   0.00028   3.14073
   D18        1.04757   0.00000   0.00025   0.00002   0.00026   1.04783
   D19        3.12185  -0.00000   0.00025  -0.00004   0.00021   3.12206
   D20        1.02611  -0.00000   0.00027  -0.00003   0.00023   1.02635
   D21       -1.06677  -0.00000   0.00026  -0.00004   0.00022  -1.06655
   D22        1.06267   0.00000   0.00025   0.00001   0.00026   1.06293
   D23       -1.03306   0.00000   0.00027   0.00001   0.00028  -1.03278
   D24       -3.12595   0.00000   0.00025   0.00001   0.00026  -3.12568
         Item               Value     Threshold  Converged?
 Maximum Force            0.000013     0.000450     YES
 RMS     Force            0.000004     0.000300     YES
 Maximum Displacement     0.000448     0.001800     YES
 RMS     Displacement     0.000132     0.001200     YES
 Predicted change in Energy=-3.097958D-09
 Optimization completed.
    -- Stationary point found.
                           ----------------------------
                           !   Optimized Parameters   !
                           ! (Angstroms and Degrees)  !
 --------------------------                            --------------------------
 ! Name  Definition              Value          Derivative Info.                !
 --------------------------------------------------------------------------------
 ! R1    R(1,2)                  1.406          -DE/DX =    0.0                 !
 ! R2    R(1,6)                  0.9674         -DE/DX =    0.0                 !
 ! R3    R(2,3)                  1.4051         -DE/DX =    0.0                 !
 ! R4    R(2,4)                  1.5192         -DE/DX =    0.0                 !
 ! R5    R(2,7)                  1.1049         -DE/DX =    0.0                 !
 ! R6    R(3,8)                  0.9654         -DE/DX =    0.0                 !
 ! R7    R(4,5)                  1.521          -DE/DX =    0.0                 !
 ! R8    R(4,9)                  1.101          -DE/DX =    0.0                 !
 ! R9    R(4,10)                 1.1043         -DE/DX =    0.0                 !
 ! R10   R(5,11)                 1.1001         -DE/DX =    0.0                 !
 ! R11   R(5,12)                 1.0997         -DE/DX =    0.0                 !
 ! R12   R(5,13)                 1.1016         -DE/DX =    0.0                 !
 ! A1    A(2,1,6)              107.6826         -DE/DX =    0.0                 !
 ! A2    A(1,2,3)              111.2767         -DE/DX =    0.0                 !
 ! A3    A(1,2,4)              112.6628         -DE/DX =    0.0                 !
 ! A4    A(1,2,7)              104.6767         -DE/DX =    0.0                 !
 ! A5    A(3,2,4)              107.5648         -DE/DX =    0.0                 !
 ! A6    A(3,2,7)              110.3475         -DE/DX =    0.0                 !
 ! A7    A(4,2,7)              110.3327         -DE/DX =    0.0                 !
 ! A8    A(2,3,8)              107.6325         -DE/DX =    0.0                 !
 ! A9    A(2,4,5)              113.3438         -DE/DX =    0.0                 !
 ! A10   A(2,4,9)              107.8204         -DE/DX =    0.0                 !
 ! A11   A(2,4,10)             107.543          -DE/DX =    0.0                 !
 ! A12   A(5,4,9)              110.4961         -DE/DX =    0.0                 !
 ! A13   A(5,4,10)             110.6215         -DE/DX =    0.0                 !
 ! A14   A(9,4,10)             106.7391         -DE/DX =    0.0                 !
 ! A15   A(4,5,11)             111.1329         -DE/DX =    0.0                 !
 ! A16   A(4,5,12)             110.9253         -DE/DX =    0.0                 !
 ! A17   A(4,5,13)             111.1824         -DE/DX =    0.0                 !
 ! A18   A(11,5,12)            107.9302         -DE/DX =    0.0                 !
 ! A19   A(11,5,13)            107.7412         -DE/DX =    0.0                 !
 ! A20   A(12,5,13)            107.7749         -DE/DX =    0.0                 !
 ! D1    D(6,1,2,3)            -68.0712         -DE/DX =    0.0                 !
 ! D2    D(6,1,2,4)             52.8298         -DE/DX =    0.0                 !
 ! D3    D(6,1,2,7)            172.7376         -DE/DX =    0.0                 !
 ! D4    D(1,2,3,8)            -61.8578         -DE/DX =    0.0                 !
 ! D5    D(4,2,3,8)            174.2951         -DE/DX =    0.0                 !
 ! D6    D(7,2,3,8)             53.89           -DE/DX =    0.0                 !
 ! D7    D(1,2,4,5)             57.6375         -DE/DX =    0.0                 !
 ! D8    D(1,2,4,9)           -179.7256         -DE/DX =    0.0                 !
 ! D9    D(1,2,4,10)           -64.96           -DE/DX =    0.0                 !
 ! D10   D(3,2,4,5)           -179.3626         -DE/DX =    0.0                 !
 ! D11   D(3,2,4,9)            -56.7257         -DE/DX =    0.0                 !
 ! D12   D(3,2,4,10)            58.0398         -DE/DX =    0.0                 !
 ! D13   D(7,2,4,5)            -58.9482         -DE/DX =    0.0                 !
 ! D14   D(7,2,4,9)             63.6887         -DE/DX =    0.0                 !
 ! D15   D(7,2,4,10)           178.4543         -DE/DX =    0.0                 !
 ! D16   D(2,4,5,11)           -59.9888         -DE/DX =    0.0                 !
 ! D17   D(2,4,5,12)           179.9347         -DE/DX =    0.0                 !
 ! D18   D(2,4,5,13)            60.0211         -DE/DX =    0.0                 !
 ! D19   D(9,4,5,11)           178.8686         -DE/DX =    0.0                 !
 ! D20   D(9,4,5,12)            58.7921         -DE/DX =    0.0                 !
 ! D21   D(9,4,5,13)           -61.1215         -DE/DX =    0.0                 !
 ! D22   D(10,4,5,11)           60.8866         -DE/DX =    0.0                 !
 ! D23   D(10,4,5,12)          -59.1899         -DE/DX =    0.0                 !
 ! D24   D(10,4,5,13)         -179.1035         -DE/DX =    0.0                 !
 --------------------------------------------------------------------------------
 Lowest energy point so far.  Saving SCF results.
 Largest change from initial coordinates is atom   11       0.131 Angstoms.
 GradGradGradGradGradGradGradGradGradGradGradGradGradGradGradGradGradGrad

 Leave Link  103 at Tue Oct 21 19:51:06 2025, MaxMem=  4294967296 cpu:               0.2 elap:               0.0
 (Enter /lrz/sys/applications/gaussian/g16.C.01/x86_64_legacy/exe/l202.exe)
                          Input orientation:                          
 ---------------------------------------------------------------------
 Center     Atomic      Atomic             Coordinates (Angstroms)
 Number     Number       Type             X           Y           Z
 ---------------------------------------------------------------------
      1          8           0       -0.592160   -1.331565    0.033372
      2          6           0       -0.457840    0.022575   -0.320159
      3          8           0       -1.569942    0.771878    0.099609
      4          6           0        0.780899    0.664457    0.281146
      5          6           0        2.072493   -0.039633   -0.105346
      6          1           0       -0.538352   -1.390285    0.997538
      7          1           0       -0.391324    0.018696   -1.423011
      8          1           0       -2.346883    0.420979   -0.353470
      9          1           0        0.804644    1.717216   -0.040275
     10          1           0        0.653971    0.669614    1.378090
     11          1           0        2.068198   -1.087732    0.228842
     12          1           0        2.941853    0.457125    0.349347
     13          1           0        2.216326   -0.036129   -1.197510
 ---------------------------------------------------------------------
                    Distance matrix (angstroms):
                    1          2          3          4          5
     1  O    0.000000
     2  C    1.405959   0.000000
     3  O    2.320543   1.405145   0.000000
     4  C    2.435320   1.519229   2.360286   0.000000
     5  C    2.964576   2.540198   3.737365   1.520965   0.000000
     6  H    0.967450   1.933645   2.558399   2.544721   3.139607
     7  H    1.996144   1.104862   2.067558   2.166856   2.794645
     8  H    2.510002   1.930885   0.965426   3.200787   4.450237
     9  H    3.354333   2.131669   2.559667   1.100990   2.167532
    10  H    2.714005   2.130454   2.567248   1.104275   2.171594
    11  H    2.678650   2.813370   4.087898   2.174865   1.100096
    12  H    3.973474   3.492132   4.529650   2.171948   1.099682
    13  H    3.328786   2.815024   4.083041   2.176625   1.101599
                    6          7          8          9         10
     6  H    0.000000
     7  H    2.804622   0.000000
     8  H    2.894250   2.264941   0.000000
     9  H    3.540800   2.495449   3.422053   0.000000
    10  H    2.410319   3.059821   3.473506   1.769727   0.000000
    11  H    2.734325   3.162601   4.701939   3.088158   2.531614
    12  H    3.993107   3.800466   5.335352   2.511432   2.517511
    13  H    3.773622   2.617957   4.663070   2.531059   3.093985
                   11         12         13
    11  H    0.000000
    12  H    1.778869   0.000000
    13  H    1.778282   1.778329   0.000000
 Stoichiometry    C3H8O2
 Framework group  C1[X(C3H8O2)]
 Deg. of freedom    33
 Full point group                 C1      NOp   1
 RotChk:  IX=0 Diff= 5.45D-16
 Largest Abelian subgroup         C1      NOp   1
 Largest concise Abelian subgroup C1      NOp   1
                         Standard orientation:                         
 ---------------------------------------------------------------------
 Center     Atomic      Atomic             Coordinates (Angstroms)
 Number     Number       Type             X           Y           Z
 ---------------------------------------------------------------------
      1          8           0       -0.644537    1.337573   -0.069769
      2          6           0       -0.517238   -0.006243    0.323517
      3          8           0       -1.632931   -0.761945   -0.074699
      4          6           0        0.718506   -0.671781   -0.257906
      5          6           0        2.013476    0.036842    0.108486
      6          1           0       -0.589998    1.367635   -1.035213
      7          1           0       -0.451201    0.029737    1.425817
      8          1           0       -2.408288   -0.393951    0.367398
      9          1           0        0.736774   -1.714737    0.094354
     10          1           0        0.592049   -0.708560   -1.354300
     11          1           0        2.014639    1.074665   -0.256386
     12          1           0        2.880513   -0.477459   -0.330878
     13          1           0        2.156796    0.064739    1.200366
 ---------------------------------------------------------------------
 Rotational constants (GHZ):           8.5162756           3.5948664           2.7809142
 Leave Link  202 at Tue Oct 21 19:51:07 2025, MaxMem=  4294967296 cpu:               0.1 elap:               0.0
 (Enter /lrz/sys/applications/gaussian/g16.C.01/x86_64_legacy/exe/l601.exe)
 Copying SCF densities to generalized density rwf, IOpCl= 0 IROHF=0.

 **********************************************************************

            Population analysis using the SCF Density.

 **********************************************************************

 Orbital symmetries:
       Occupied  (A) (A) (A) (A) (A) (A) (A) (A) (A) (A) (A) (A)
                 (A) (A) (A) (A) (A) (A) (A) (A) (A)
       Virtual   (A) (A) (A) (A) (A) (A) (A) (A) (A) (A) (A) (A)
                 (A) (A) (A) (A) (A) (A) (A) (A) (A) (A) (A) (A)
                 (A) (A) (A) (A) (A) (A) (A) (A) (A) (A) (A) (A)
                 (A) (A) (A) (A) (A) (A) (A) (A) (A) (A) (A) (A)
                 (A) (A) (A) (A) (A) (A) (A) (A) (A) (A) (A) (A)
                 (A) (A) (A) (A) (A) (A) (A) (A) (A) (A) (A) (A)
                 (A) (A) (A) (A) (A) (A) (A) (A) (A) (A) (A) (A)
                 (A) (A) (A) (A) (A)
 The electronic state is 1-A.
 Alpha  occ. eigenvalues --  -19.25743 -19.25619 -10.38369 -10.28647 -10.28240
 Alpha  occ. eigenvalues --   -1.14981  -1.07798  -0.86268  -0.75480  -0.68773
 Alpha  occ. eigenvalues --   -0.62183  -0.57114  -0.54815  -0.50444  -0.49806
 Alpha  occ. eigenvalues --   -0.45855  -0.44280  -0.41527  -0.39693  -0.39352
 Alpha  occ. eigenvalues --   -0.36593
 Alpha virt. eigenvalues --    0.15044   0.16899   0.17789   0.20488   0.21579
 Alpha virt. eigenvalues --    0.22979   0.24331   0.25193   0.30328   0.31980
 Alpha virt. eigenvalues --    0.34588   0.36648   0.51828   0.52559   0.54137
 Alpha virt. eigenvalues --    0.58114   0.60177   0.63893   0.68284   0.70463
 Alpha virt. eigenvalues --    0.71626   0.73396   0.74729   0.75212   0.76618
 Alpha virt. eigenvalues --    0.77921   0.79096   0.80362   0.80948   0.83866
 Alpha virt. eigenvalues --    0.97150   1.05455   1.07569   1.08845   1.10432
 Alpha virt. eigenvalues --    1.12897   1.18930   1.31999   1.33932   1.36260
 Alpha virt. eigenvalues --    1.44140   1.45357   1.49946   1.53657   1.60403
 Alpha virt. eigenvalues --    1.63149   1.65095   1.69808   1.74910   1.80141
 Alpha virt. eigenvalues --    1.83035   1.86516   1.88495   1.90529   1.91044
 Alpha virt. eigenvalues --    1.92838   1.95888   1.98348   2.04466   2.04878
 Alpha virt. eigenvalues --    2.07200   2.12074   2.18040   2.22746   2.31246
 Alpha virt. eigenvalues --    2.32228   2.37789   2.41725   2.47299   2.49812
 Alpha virt. eigenvalues --    2.60239   2.63629   2.67792   2.84791   2.85965
 Alpha virt. eigenvalues --    2.89016   2.98424   3.03710   3.04091   3.06030
 Alpha virt. eigenvalues --    3.08300   3.11084   3.16188   3.25144   3.25471
 Alpha virt. eigenvalues --    3.45680   3.49613   3.85019   3.86903
          Condensed to atoms (all electrons):
               1          2          3          4          5          6
     1  O    7.872912   0.317840  -0.065314  -0.048808  -0.000811   0.328119
     2  C    0.317840   4.418406   0.344527   0.366397  -0.040368  -0.023376
     3  O   -0.065314   0.344527   7.846571  -0.078029   0.005017   0.004625
     4  C   -0.048808   0.366397  -0.078029   4.908992   0.358373  -0.011080
     5  C   -0.000811  -0.040368   0.005017   0.358373   4.623951  -0.001511
     6  H    0.328119  -0.023376   0.004625  -0.011080  -0.001511   0.473467
     7  H   -0.042845   0.410685  -0.029819  -0.053756  -0.002102   0.009192
     8  H    0.006119  -0.014718   0.323550   0.010275  -0.000583  -0.000811
     9  H    0.005313  -0.013385   0.006896   0.355397  -0.014101  -0.000142
    10  H   -0.005951  -0.008452   0.004365   0.351663  -0.019938   0.006762
    11  H    0.015258  -0.010455   0.000330  -0.023650   0.391426   0.001081
    12  H    0.000188   0.005936  -0.000097  -0.010992   0.386529  -0.000076
    13  H   -0.001266  -0.003923  -0.000081  -0.025584   0.396754   0.000141
               7          8          9         10         11         12
     1  O   -0.042845   0.006119   0.005313  -0.005951   0.015258   0.000188
     2  C    0.410685  -0.014718  -0.013385  -0.008452  -0.010455   0.005936
     3  O   -0.029819   0.323550   0.006896   0.004365   0.000330  -0.000097
     4  C   -0.053756   0.010275   0.355397   0.351663  -0.023650  -0.010992
     5  C   -0.002102  -0.000583  -0.014101  -0.019938   0.391426   0.386529
     6  H    0.009192  -0.000811  -0.000142   0.006762   0.001081  -0.000076
     7  H    0.678286  -0.008035  -0.006050   0.009100  -0.001332  -0.000154
     8  H   -0.008035   0.471860  -0.000529  -0.000565  -0.000034   0.000013
     9  H   -0.006050  -0.000529   0.649415  -0.022880   0.007635  -0.006233
    10  H    0.009100  -0.000565  -0.022880   0.653750  -0.008177  -0.006435
    11  H   -0.001332  -0.000034   0.007635  -0.008177   0.635340  -0.019853
    12  H   -0.000154   0.000013  -0.006233  -0.006435  -0.019853   0.622435
    13  H    0.005676  -0.000000  -0.007788   0.007285  -0.023765  -0.021451
              13
     1  O   -0.001266
     2  C   -0.003923
     3  O   -0.000081
     4  C   -0.025584
     5  C    0.396754
     6  H    0.000141
     7  H    0.005676
     8  H   -0.000000
     9  H   -0.007788
    10  H    0.007285
    11  H   -0.023765
    12  H   -0.021451
    13  H    0.630296
 Mulliken charges:
               1
     1  O   -0.380753
     2  C    0.250887
     3  O   -0.362540
     4  C   -0.099199
     5  C   -0.082635
     6  H    0.213607
     7  H    0.031153
     8  H    0.213458
     9  H    0.046452
    10  H    0.039473
    11  H    0.036198
    12  H    0.050191
    13  H    0.043706
 Sum of Mulliken charges =  -0.00000
 Mulliken charges with hydrogens summed into heavy atoms:
               1
     1  O   -0.167146
     2  C    0.282040
     3  O   -0.149082
     4  C   -0.013273
     5  C    0.047460
 Electronic spatial extent (au):  <R**2>=            476.7693
 Charge=             -0.0000 electrons
 Dipole moment (field-independent basis, Debye):
    X=              0.1197    Y=             -0.0109    Z=             -0.1411  Tot=              0.1854
 Quadrupole moment (field-independent basis, Debye-Ang):
   XX=            -28.2703   YY=            -35.5034   ZZ=            -28.2774
   XY=             -1.4631   XZ=             -1.8529   YZ=             -3.1376
 Traceless Quadrupole moment (field-independent basis, Debye-Ang):
   XX=              2.4134   YY=             -4.8197   ZZ=              2.4063
   XY=             -1.4631   XZ=             -1.8529   YZ=             -3.1376
 Octapole moment (field-independent basis, Debye-Ang**2):
  XXX=            -24.7812  YYY=              0.3722  ZZZ=             -1.9157  XYY=              1.5121
  XXY=              1.0864  XXZ=              4.5491  XZZ=             -5.1526  YZZ=              4.0542
  YYZ=             -3.8545  XYZ=              2.5590
 Hexadecapole moment (field-independent basis, Debye-Ang**3):
 XXXX=           -331.2860 YYYY=           -154.9375 ZZZZ=            -55.5423 XXXY=             -1.0178
 XXXZ=            -15.1893 YYYX=              0.3024 YYYZ=             -9.1869 ZZZX=              1.2143
 ZZZY=             -5.1189 XXYY=            -93.8791 XXZZ=            -71.0892 YYZZ=            -31.4638
 XXYZ=             -3.4013 YYXZ=              1.3376 ZZXY=             -1.7593
 N-N= 1.951099773885D+02 E-N=-1.020193222543D+03  KE= 2.667624635197D+02
 No NMR shielding tensors so no spin-rotation constants.
 Leave Link  601 at Tue Oct 21 19:51:07 2025, MaxMem=  4294967296 cpu:               0.7 elap:               0.1
 (Enter /lrz/sys/applications/gaussian/g16.C.01/x86_64_legacy/exe/l9999.exe)
 Unable to Open any file for archive entry.
 1\1\GINC-CM4R13C06S02\FOpt\RwB97XD\def2SVP\C3H8O2\GO29TIZ2\21-Oct-2025
 \0\\#p opt freq wb97xd scrf=(smd,solvent=water) def2svp\\g16_C3-w_1\\0
 ,1\O,-0.5921598311,-1.3315650635,0.0333724097\C,-0.4578404842,0.022574
 7925,-0.3201592808\O,-1.5699424611,0.7718780413,0.09960935\C,0.7808987
 027,0.6644565489,0.2811462198\C,2.0724934427,-0.0396327959,-0.10534641
 53\H,-0.5383518698,-1.3902854871,0.9975381871\H,-0.39132432,0.01869596
 13,-1.4230106329\H,-2.3468826392,0.4209785441,-0.3534700259\H,0.804644
 401,1.7172159345,-0.0402754219\H,0.6539714531,0.6696136019,1.378090174
 3\H,2.0681978355,-1.0877315576,0.2288418472\H,2.9418525427,0.457125060
 9,0.3493468494\H,2.2163262277,-0.0361294814,-1.1975099607\\Version=EM6
 4L-G16RevC.01\State=1-A\HF=-269.317753\RMSD=2.434e-09\RMSF=7.688e-06\D
 ipole=0.0470879,0.0024222,0.0556505\Quadrupole=1.8035401,-3.4519861,1.
 648446,1.0213423,1.3964723,-2.4932448\PG=C01 [X(C3H8O2)]\\@
 The archive entry for this job was punched.


 WHAT, THEN, IS TIME?  IF NO ONE ASKS ME, I KNOW WHAT IT IS.
 IF I WISH TO EXPLAIN WHAT IT IS TO HIM WHO ASKS ME, I DO NOT KNOW.
                                   -- ST. AUGUSTINE (FIFTH CENTURY)
 Leave Link 9999 at Tue Oct 21 19:51:07 2025, MaxMem=  4294967296 cpu:               0.2 elap:               0.0
 Job cpu time:       0 days  0 hours 18 minutes  8.5 seconds.
 Elapsed time:       0 days  0 hours  2 minutes 18.5 seconds.
 File lengths (MBytes):  RWF=    272 Int=      0 D2E=      0 Chk=      8 Scr=     32
 Normal termination of Gaussian 16 at Tue Oct 21 19:51:07 2025.
 (Enter /lrz/sys/applications/gaussian/g16.C.01/x86_64_legacy/exe/l1.exe)
 Link1:  Proceeding to internal job step number  2.
 --------------------------------------------------------------------
 #P Geom=AllCheck Guess=TCheck SCRF=Check GenChk RwB97XD/def2SVP Freq
 --------------------------------------------------------------------
 1/10=4,29=7,30=1,38=1,40=1/1,3;
 2/12=2,40=1/2;
 3/5=43,7=101,11=2,14=-4,25=1,30=1,70=2,71=2,74=-58,116=1,140=1/1,2,3;
 4/5=101/1;
 5/5=2,38=6,98=1/2;
 8/6=4,10=90,11=11/1;
 11/6=1,8=1,9=11,15=111,16=1/1,2,10;
 10/6=1/2;
 6/7=2,8=2,9=2,10=2,28=1/1;
 7/8=1,10=1,25=1/1,2,3,16;
 1/10=4,30=1/3;
 99//99;
 Leave Link    1 at Tue Oct 21 19:51:07 2025, MaxMem=  4294967296 cpu:               0.2 elap:               0.0
 (Enter /lrz/sys/applications/gaussian/g16.C.01/x86_64_legacy/exe/l101.exe)
 Structure from the checkpoint file:  "g16_C3-w_1.chk"
 ----------
 g16_C3-w_1
 ----------
 Charge =  0 Multiplicity = 1
 Redundant internal coordinates found in file.  (old form).
 O,0,-0.5921598311,-1.3315650635,0.0333724097
 C,0,-0.4578404842,0.0225747925,-0.3201592808
 O,0,-1.5699424611,0.7718780413,0.09960935
 C,0,0.7808987027,0.6644565489,0.2811462198
 C,0,2.0724934427,-0.0396327959,-0.1053464153
 H,0,-0.5383518698,-1.3902854871,0.9975381871
 H,0,-0.39132432,0.0186959613,-1.4230106329
 H,0,-2.3468826392,0.4209785441,-0.3534700259
 H,0,0.804644401,1.7172159345,-0.0402754219
 H,0,0.6539714531,0.6696136019,1.3780901743
 H,0,2.0681978355,-1.0877315576,0.2288418472
 H,0,2.9418525427,0.4571250609,0.3493468494
 H,0,2.2163262277,-0.0361294814,-1.1975099607
 Recover connectivity data from disk.
 ITRead=  0  0  0  0  0  0  0  0  0  0  0  0  0
 MicOpt= -1 -1 -1 -1 -1 -1 -1 -1 -1 -1 -1 -1 -1
 NAtoms=     13 NQM=       13 NQMF=       0 NMMI=      0 NMMIF=      0
                NMic=       0 NMicF=      0.
                    Isotopes and Nuclear Properties:
 (Nuclear quadrupole moments (NQMom) in fm**2, nuclear magnetic moments (NMagM)
  in nuclear magnetons)

  Atom         1           2           3           4           5           6           7           8           9          10
 IAtWgt=          16          12          16          12          12           1           1           1           1           1
 AtmWgt=  15.9949146  12.0000000  15.9949146  12.0000000  12.0000000   1.0078250   1.0078250   1.0078250   1.0078250   1.0078250
 NucSpn=           0           0           0           0           0           1           1           1           1           1
 AtZEff=   5.6000000   3.6000000   5.6000000   3.6000000   3.6000000   1.0000000   1.0000000   1.0000000   1.0000000   1.0000000
 NQMom=    0.0000000   0.0000000   0.0000000   0.0000000   0.0000000   0.0000000   0.0000000   0.0000000   0.0000000   0.0000000
 NMagM=    0.0000000   0.0000000   0.0000000   0.0000000   0.0000000   2.7928460   2.7928460   2.7928460   2.7928460   2.7928460
 AtZNuc=   8.0000000   6.0000000   8.0000000   6.0000000   6.0000000   1.0000000   1.0000000   1.0000000   1.0000000   1.0000000

  Atom        11          12          13
 IAtWgt=           1           1           1
 AtmWgt=   1.0078250   1.0078250   1.0078250
 NucSpn=           1           1           1
 AtZEff=   1.0000000   1.0000000   1.0000000
 NQMom=    0.0000000   0.0000000   0.0000000
 NMagM=    2.7928460   2.7928460   2.7928460
 AtZNuc=   1.0000000   1.0000000   1.0000000
 Leave Link  101 at Tue Oct 21 19:51:07 2025, MaxMem=  4294967296 cpu:               3.3 elap:               0.4
 (Enter /lrz/sys/applications/gaussian/g16.C.01/x86_64_legacy/exe/l103.exe)

 GradGradGradGradGradGradGradGradGradGradGradGradGradGradGradGradGradGrad
 Berny optimization.
 Initialization pass.
                           ----------------------------
                           !    Initial Parameters    !
                           ! (Angstroms and Degrees)  !
 --------------------------                            --------------------------
 ! Name  Definition              Value          Derivative Info.                !
 --------------------------------------------------------------------------------
 ! R1    R(1,2)                  1.406          calculate D2E/DX2 analytically  !
 ! R2    R(1,6)                  0.9674         calculate D2E/DX2 analytically  !
 ! R3    R(2,3)                  1.4051         calculate D2E/DX2 analytically  !
 ! R4    R(2,4)                  1.5192         calculate D2E/DX2 analytically  !
 ! R5    R(2,7)                  1.1049         calculate D2E/DX2 analytically  !
 ! R6    R(3,8)                  0.9654         calculate D2E/DX2 analytically  !
 ! R7    R(4,5)                  1.521          calculate D2E/DX2 analytically  !
 ! R8    R(4,9)                  1.101          calculate D2E/DX2 analytically  !
 ! R9    R(4,10)                 1.1043         calculate D2E/DX2 analytically  !
 ! R10   R(5,11)                 1.1001         calculate D2E/DX2 analytically  !
 ! R11   R(5,12)                 1.0997         calculate D2E/DX2 analytically  !
 ! R12   R(5,13)                 1.1016         calculate D2E/DX2 analytically  !
 ! A1    A(2,1,6)              107.6826         calculate D2E/DX2 analytically  !
 ! A2    A(1,2,3)              111.2767         calculate D2E/DX2 analytically  !
 ! A3    A(1,2,4)              112.6628         calculate D2E/DX2 analytically  !
 ! A4    A(1,2,7)              104.6767         calculate D2E/DX2 analytically  !
 ! A5    A(3,2,4)              107.5648         calculate D2E/DX2 analytically  !
 ! A6    A(3,2,7)              110.3475         calculate D2E/DX2 analytically  !
 ! A7    A(4,2,7)              110.3327         calculate D2E/DX2 analytically  !
 ! A8    A(2,3,8)              107.6325         calculate D2E/DX2 analytically  !
 ! A9    A(2,4,5)              113.3438         calculate D2E/DX2 analytically  !
 ! A10   A(2,4,9)              107.8204         calculate D2E/DX2 analytically  !
 ! A11   A(2,4,10)             107.543          calculate D2E/DX2 analytically  !
 ! A12   A(5,4,9)              110.4961         calculate D2E/DX2 analytically  !
 ! A13   A(5,4,10)             110.6215         calculate D2E/DX2 analytically  !
 ! A14   A(9,4,10)             106.7391         calculate D2E/DX2 analytically  !
 ! A15   A(4,5,11)             111.1329         calculate D2E/DX2 analytically  !
 ! A16   A(4,5,12)             110.9253         calculate D2E/DX2 analytically  !
 ! A17   A(4,5,13)             111.1824         calculate D2E/DX2 analytically  !
 ! A18   A(11,5,12)            107.9302         calculate D2E/DX2 analytically  !
 ! A19   A(11,5,13)            107.7412         calculate D2E/DX2 analytically  !
 ! A20   A(12,5,13)            107.7749         calculate D2E/DX2 analytically  !
 ! D1    D(6,1,2,3)            -68.0712         calculate D2E/DX2 analytically  !
 ! D2    D(6,1,2,4)             52.8298         calculate D2E/DX2 analytically  !
 ! D3    D(6,1,2,7)            172.7376         calculate D2E/DX2 analytically  !
 ! D4    D(1,2,3,8)            -61.8578         calculate D2E/DX2 analytically  !
 ! D5    D(4,2,3,8)            174.2951         calculate D2E/DX2 analytically  !
 ! D6    D(7,2,3,8)             53.89           calculate D2E/DX2 analytically  !
 ! D7    D(1,2,4,5)             57.6375         calculate D2E/DX2 analytically  !
 ! D8    D(1,2,4,9)           -179.7256         calculate D2E/DX2 analytically  !
 ! D9    D(1,2,4,10)           -64.96           calculate D2E/DX2 analytically  !
 ! D10   D(3,2,4,5)           -179.3626         calculate D2E/DX2 analytically  !
 ! D11   D(3,2,4,9)            -56.7257         calculate D2E/DX2 analytically  !
 ! D12   D(3,2,4,10)            58.0398         calculate D2E/DX2 analytically  !
 ! D13   D(7,2,4,5)            -58.9482         calculate D2E/DX2 analytically  !
 ! D14   D(7,2,4,9)             63.6887         calculate D2E/DX2 analytically  !
 ! D15   D(7,2,4,10)           178.4543         calculate D2E/DX2 analytically  !
 ! D16   D(2,4,5,11)           -59.9888         calculate D2E/DX2 analytically  !
 ! D17   D(2,4,5,12)           179.9347         calculate D2E/DX2 analytically  !
 ! D18   D(2,4,5,13)            60.0211         calculate D2E/DX2 analytically  !
 ! D19   D(9,4,5,11)           178.8686         calculate D2E/DX2 analytically  !
 ! D20   D(9,4,5,12)            58.7921         calculate D2E/DX2 analytically  !
 ! D21   D(9,4,5,13)           -61.1215         calculate D2E/DX2 analytically  !
 ! D22   D(10,4,5,11)           60.8866         calculate D2E/DX2 analytically  !
 ! D23   D(10,4,5,12)          -59.1899         calculate D2E/DX2 analytically  !
 ! D24   D(10,4,5,13)         -179.1035         calculate D2E/DX2 analytically  !
 --------------------------------------------------------------------------------
 Trust Radius=3.00D-01 FncErr=1.00D-07 GrdErr=1.00D-07 EigMax=2.50D+02 EigMin=1.00D-04
 Number of steps in this run=      2 maximum allowed number of steps=      2.
 GradGradGradGradGradGradGradGradGradGradGradGradGradGradGradGradGradGrad

 Leave Link  103 at Tue Oct 21 19:51:07 2025, MaxMem=  4294967296 cpu:               0.1 elap:               0.0
 (Enter /lrz/sys/applications/gaussian/g16.C.01/x86_64_legacy/exe/l202.exe)
                          Input orientation:                          
 ---------------------------------------------------------------------
 Center     Atomic      Atomic             Coordinates (Angstroms)
 Number     Number       Type             X           Y           Z
 ---------------------------------------------------------------------
      1          8           0       -0.592160   -1.331565    0.033372
      2          6           0       -0.457840    0.022575   -0.320159
      3          8           0       -1.569942    0.771878    0.099609
      4          6           0        0.780899    0.664457    0.281146
      5          6           0        2.072493   -0.039633   -0.105346
      6          1           0       -0.538352   -1.390285    0.997538
      7          1           0       -0.391324    0.018696   -1.423011
      8          1           0       -2.346883    0.420979   -0.353470
      9          1           0        0.804644    1.717216   -0.040275
     10          1           0        0.653971    0.669614    1.378090
     11          1           0        2.068198   -1.087732    0.228842
     12          1           0        2.941853    0.457125    0.349347
     13          1           0        2.216326   -0.036129   -1.197510
 ---------------------------------------------------------------------
                    Distance matrix (angstroms):
                    1          2          3          4          5
     1  O    0.000000
     2  C    1.405959   0.000000
     3  O    2.320543   1.405145   0.000000
     4  C    2.435320   1.519229   2.360286   0.000000
     5  C    2.964576   2.540198   3.737365   1.520965   0.000000
     6  H    0.967450   1.933645   2.558399   2.544721   3.139607
     7  H    1.996144   1.104862   2.067558   2.166856   2.794645
     8  H    2.510002   1.930885   0.965426   3.200787   4.450237
     9  H    3.354333   2.131669   2.559667   1.100990   2.167532
    10  H    2.714005   2.130454   2.567248   1.104275   2.171594
    11  H    2.678650   2.813370   4.087898   2.174865   1.100096
    12  H    3.973474   3.492132   4.529650   2.171948   1.099682
    13  H    3.328786   2.815024   4.083041   2.176625   1.101599
                    6          7          8          9         10
     6  H    0.000000
     7  H    2.804622   0.000000
     8  H    2.894250   2.264941   0.000000
     9  H    3.540800   2.495449   3.422053   0.000000
    10  H    2.410319   3.059821   3.473506   1.769727   0.000000
    11  H    2.734325   3.162601   4.701939   3.088158   2.531614
    12  H    3.993107   3.800466   5.335352   2.511432   2.517511
    13  H    3.773622   2.617957   4.663070   2.531059   3.093985
                   11         12         13
    11  H    0.000000
    12  H    1.778869   0.000000
    13  H    1.778282   1.778329   0.000000
 Stoichiometry    C3H8O2
 Framework group  C1[X(C3H8O2)]
 Deg. of freedom    33
 Full point group                 C1      NOp   1
 RotChk:  IX=0 Diff= 1.10D-15
 Largest Abelian subgroup         C1      NOp   1
 Largest concise Abelian subgroup C1      NOp   1
                         Standard orientation:                         
 ---------------------------------------------------------------------
 Center     Atomic      Atomic             Coordinates (Angstroms)
 Number     Number       Type             X           Y           Z
 ---------------------------------------------------------------------
      1          8           0       -0.644537    1.337573   -0.069769
      2          6           0       -0.517238   -0.006243    0.323517
      3          8           0       -1.632931   -0.761945   -0.074699
      4          6           0        0.718506   -0.671781   -0.257906
      5          6           0        2.013476    0.036842    0.108486
      6          1           0       -0.589998    1.367635   -1.035213
      7          1           0       -0.451201    0.029737    1.425817
      8          1           0       -2.408288   -0.393951    0.367398
      9          1           0        0.736774   -1.714737    0.094354
     10          1           0        0.592049   -0.708560   -1.354300
     11          1           0        2.014639    1.074665   -0.256386
     12          1           0        2.880513   -0.477459   -0.330878
     13          1           0        2.156796    0.064739    1.200366
 ---------------------------------------------------------------------
 Rotational constants (GHZ):           8.5162756           3.5948664           2.7809142
 Leave Link  202 at Tue Oct 21 19:51:07 2025, MaxMem=  4294967296 cpu:               0.1 elap:               0.0
 (Enter /lrz/sys/applications/gaussian/g16.C.01/x86_64_legacy/exe/l301.exe)
 Standard basis: def2SVP (5D, 7F)
 Ernie: Thresh=  0.10000D-02 Tol=  0.10000D-05 Strict=F.
 There are   115 symmetry adapted cartesian basis functions of A   symmetry.
 There are   110 symmetry adapted basis functions of A   symmetry.
   110 basis functions,   181 primitive gaussians,   115 cartesian basis functions
    21 alpha electrons       21 beta electrons
       nuclear repulsion energy       195.1108563093 Hartrees.
 IExCor= 4639 DFT=T Ex+Corr=wB97XD ExCW=0 ScaHFX=  1.000000
 ScaDFX=  1.000000  1.000000  1.000000  1.000000 ScalE2=  1.000000  1.000000
 IRadAn=      5 IRanWt=     -1 IRanGd=            0 ICorTp=0 IEmpDi=121
 HFx  wShort=  0.000000 wLong=  0.200000 cFull=  0.222036 cShort=  0.000000 cLong=  0.777964
 DFx  wShort=  0.000000 wLong=  0.200000 cFull=  0.000000 cShort=  0.000000 cLong=  1.000000
 NAtoms=   13 NActive=   13 NUniq=   13 SFac= 1.00D+00 NAtFMM=   60 NAOKFM=F Big=F
 Integral buffers will be    131072 words long.
 Raffenetti 2 integral format.
 Two-electron integral symmetry is turned on.
 R6Disp:  Grimme-D2 Dispersion energy=       -0.0055765291 Hartrees.
 Nuclear repulsion after empirical dispersion term =      195.1052797803 Hartrees.
 Force inversion solution in PCM.
 ------------------------------------------------------------------------------
 Polarizable Continuum Model (PCM)
 =================================
 Model                : PCM.
 Atomic radii         : SMD-Coulomb.
 Polarization charges : Total charges.
 Charge compensation  : None.
 Solution method      : Matrix inversion.
 Cavity type          : VdW (van der Waals Surface) (Alpha=1.000).
 Cavity algorithm     : GePol (No added spheres)
                        Default sphere list used, NSphG=   13.
                        Lebedev-Laikov grids with approx.  5.0 points / Ang**2.
                        Smoothing algorithm: York/Karplus (Gamma=1.0000).
                        Polarization charges: spherical gaussians, with
                                              point-specific exponents (IZeta= 3).
                        Self-potential: point-specific (ISelfS= 7).
                        Self-field    : sphere-specific E.n sum rule (ISelfD= 2).
 1st derivatives      : Analytical E(r).r(x)/FMM algorithm (CHGder, D1EAlg=3).
                        Cavity 1st derivative terms included.
 2nd derivatives      : Analytical E(r).r(xy)/FMM algorithm (CHGder, D2EAlg=3).
                        Cavity 2nd derivative terms included.
 Solvent              : Water, Eps=  78.355300 Eps(inf)=   1.777849
 ------------------------------------------------------------------------------
 Spheres list:
 ISph  on   Nord     Re0    Alpha      Xe            Ye            Ze
    1   O      1    1.5200  1.000     -0.644537      1.337573     -0.069769
    2   C      2    1.8500  1.000     -0.517238     -0.006243      0.323517
    3   O      3    1.5200  1.000     -1.632931     -0.761945     -0.074699
    4   C      4    1.8500  1.000      0.718506     -0.671781     -0.257906
    5   C      5    1.8500  1.000      2.013476      0.036842      0.108486
    6   H      6    1.2000  1.000     -0.589998      1.367635     -1.035213
    7   H      7    1.2000  1.000     -0.451201      0.029737      1.425817
    8   H      8    1.2000  1.000     -2.408288     -0.393951      0.367398
    9   H      9    1.2000  1.000      0.736774     -1.714737      0.094354
   10   H     10    1.2000  1.000      0.592049     -0.708560     -1.354300
   11   H     11    1.2000  1.000      2.014639      1.074665     -0.256386
   12   H     12    1.2000  1.000      2.880513     -0.477459     -0.330878
   13   H     13    1.2000  1.000      2.156796      0.064739      1.200366
 ------------------------------------------------------------------------------
 GePol: Number of generator spheres                  =      13
 GePol: Total number of spheres                      =      13
 GePol: Number of exposed spheres                    =      13 (100.00%)
 GePol: Number of points                             =     908
 GePol: Average weight of points                     =       0.12
 GePol: Minimum weight of points                     =   0.10D-07
 GePol: Maximum weight of points                     =    0.21991
 GePol: Number of points with low weight             =      52
 GePol: Fraction of low-weight points (<1% of avg)   =       5.73%
 GePol: Cavity surface area                          =    111.062 Ang**2
 GePol: Cavity volume                                =     82.170 Ang**3
 ------------------------------------------------------------------------------
 Atomic radii for non-electrostatic terms: SMD-CDS.
 ------------------------------------------------------------------------------
 PCM non-electrostatic energy =         0.0046976083 Hartrees.
 Nuclear repulsion after PCM non-electrostatic terms =      195.1099773885 Hartrees.
 Leave Link  301 at Tue Oct 21 19:51:07 2025, MaxMem=  4294967296 cpu:               0.5 elap:               0.1
 (Enter /lrz/sys/applications/gaussian/g16.C.01/x86_64_legacy/exe/l302.exe)
 NPDir=0 NMtPBC=     1 NCelOv=     1 NCel=       1 NClECP=     1 NCelD=      1
         NCelK=      1 NCelE2=     1 NClLst=     1 CellRange=     0.0.
 One-electron integrals computed using PRISM.
 One-electron integral symmetry used in STVInt
   1 Symmetry operations used in ECPInt.
 ECPInt:  NShTT=    1485 NPrTT=    5139 LenC2=    1483 LenP2D=    4436.
 LDataN:  DoStor=T MaxTD1= 4 Len=   56
 NBasis=   110 RedAO= T EigKep=  2.28D-03  NBF=   110
 NBsUse=   110 1.00D-06 EigRej= -1.00D+00 NBFU=   110
 Precomputing XC quadrature grid using
 IXCGrd= 4 IRadAn=           5 IRanWt=          -1 IRanGd=           0 AccXCQ= 0.00D+00.
 Generated NRdTot=       0 NPtTot=           0 NUsed=           0 NTot=          32
 NSgBfM=   115   115   115   115   115 MxSgAt=    13 MxSgA2=    13.
 Leave Link  302 at Tue Oct 21 19:51:07 2025, MaxMem=  4294967296 cpu:               1.2 elap:               0.2
 (Enter /lrz/sys/applications/gaussian/g16.C.01/x86_64_legacy/exe/l303.exe)
 DipDrv:  MaxL=1.
 Leave Link  303 at Tue Oct 21 19:51:08 2025, MaxMem=  4294967296 cpu:               0.2 elap:               0.0
 (Enter /lrz/sys/applications/gaussian/g16.C.01/x86_64_legacy/exe/l401.exe)
 Initial guess from the checkpoint file:  "g16_C3-w_1.chk"
 B after Tr=     0.000000    0.000000   -0.000000
         Rot=    1.000000   -0.000000    0.000000   -0.000000 Ang=   0.00 deg.
 Guess basis will be translated and rotated to current coordinates.
 JPrj=2 DoOrth=T DoCkMO=T.
 Leave Link  401 at Tue Oct 21 19:51:08 2025, MaxMem=  4294967296 cpu:               0.7 elap:               0.1
 (Enter /lrz/sys/applications/gaussian/g16.C.01/x86_64_legacy/exe/l502.exe)
 Integral symmetry usage will be decided dynamically.
 Closed shell SCF:
 Using DIIS extrapolation, IDIIS=  1040.
 NGot=  4294967296 LenX=  4294938204 LenY=  4294924538
 Requested convergence on RMS density matrix=1.00D-08 within 128 cycles.
 Requested convergence on MAX density matrix=1.00D-06.
 Requested convergence on             energy=1.00D-06.
 No special actions if energy rises.
 Fock matrices will be formed incrementally for  20 cycles.

 Cycle   1  Pass 1  IDiag  1:
 FoFJK:  IHMeth= 1 ICntrl=       0 DoSepK=T KAlg= 0 I1Cent=           0 FoldK=F
 IRaf=         1 NMat=       1 IRICut=       1 DoRegI=T DoRafI=F ISym2E= 0 IDoP0=0 IntGTp=1.
 FoFCou: FMM=F IPFlag=           0 FMFlag=      100000 FMFlg1=           0
         NFxFlg=           0 DoJE=T BraDBF=F KetDBF=F FulRan=T
         wScrn=  0.000000 ICntrl=       500 IOpCl=  0 I1Cent=           0 NGrid=           0
         NMat0=    1 NMatS0=      1 NMatT0=    0 NMatD0=    1 NMtDS0=    0 NMtDT0=    0
 Symmetry not used in FoFCou.
 Inv3:  Mode=1 IEnd=     2473392.
 Iteration    1 A*A^-1 deviation from unit magnitude is 5.22D-15 for    539.
 Iteration    1 A*A^-1 deviation from orthogonality  is 2.72D-15 for    787    412.
 Iteration    1 A^-1*A deviation from unit magnitude is 4.66D-15 for    234.
 Iteration    1 A^-1*A deviation from orthogonality  is 2.32D-15 for    472    349.
 E= -269.317753019459    
 DIIS: error= 3.09D-09 at cycle   1 NSaved=   1.
 NSaved= 1 IEnMin= 1 EnMin= -269.317753019459     IErMin= 1 ErrMin= 3.09D-09
 ErrMax= 3.09D-09  0.00D+00 EMaxC= 1.00D-01 BMatC= 2.54D-15 BMatP= 2.54D-15
 IDIUse=1 WtCom= 1.00D+00 WtEn= 0.00D+00
 Coeff-Com:  0.100D+01
 Coeff:      0.100D+01
 Gap=     0.516 Goal=   None    Shift=    0.000
 RMSDP=8.63D-10 MaxDP=1.76D-08              OVMax= 2.26D-08

 Error on total polarization charges =  0.03204
 SCF Done:  E(RwB97XD) =  -269.317753019     A.U. after    1 cycles
            NFock=  1  Conv=0.86D-09     -V/T= 2.0096
 KE= 2.667624640557D+02 PE=-1.020193223079D+03 EE= 2.890030286155D+02
 SMD-CDS (non-electrostatic) energy       (kcal/mol) =       2.95
 (included in total energy above)
 Leave Link  502 at Tue Oct 21 19:51:11 2025, MaxMem=  4294967296 cpu:              24.6 elap:               3.1
 (Enter /lrz/sys/applications/gaussian/g16.C.01/x86_64_legacy/exe/l801.exe)
 DoSCS=F DFT=T ScalE2(SS,OS)=  1.000000  1.000000
 Range of M.O.s used for correlation:     1   110
 NBasis=   110 NAE=    21 NBE=    21 NFC=     0 NFV=     0
 NROrb=    110 NOA=    21 NOB=    21 NVA=    89 NVB=    89
 Leave Link  801 at Tue Oct 21 19:51:11 2025, MaxMem=  4294967296 cpu:               0.2 elap:               0.0
 (Enter /lrz/sys/applications/gaussian/g16.C.01/x86_64_legacy/exe/l1101.exe)
 Using compressed storage, NAtomX=    13.
 Will process     14 centers per pass.
   1 Symmetry operations used in ECPInt.
 ECPInt:  NShTT=    1485 NPrTT=    5139 LenC2=    1483 LenP2D=    4436.
 LDataN:  DoStor=T MaxTD1= 5 Len=  102
 R6Disp: Adding Grimme-D2 dispersion energy 1st derivatives to the gradient.
 Leave Link 1101 at Tue Oct 21 19:51:11 2025, MaxMem=  4294967296 cpu:               0.9 elap:               0.1
 (Enter /lrz/sys/applications/gaussian/g16.C.01/x86_64_legacy/exe/l1102.exe)
 Symmetrizing basis deriv contribution to polar:
 IMax=3 JMax=2 DiffMx= 0.00D+00
 Leave Link 1102 at Tue Oct 21 19:51:11 2025, MaxMem=  4294967296 cpu:               0.2 elap:               0.0
 (Enter /lrz/sys/applications/gaussian/g16.C.01/x86_64_legacy/exe/l1110.exe)
 Forming Gx(P) for the SCF density, NAtomX=    13.
 Integral derivatives from FoFJK, PRISM(SPDF).
 Do as many integral derivatives as possible in FoFJK.
 G2DrvN: MDV=    4294965821.
 G2DrvN: will do    14 centers at a time, making    1 passes.
 Calling FoFCou, ICntrl=  3107 FMM=F I1Cent=   0 AccDes= 0.00D+00.
 FoFJK:  IHMeth= 1 ICntrl=    3107 DoSepK=T KAlg= 0 I1Cent=           0 FoldK=F
 IRaf=         1 NMat=       1 IRICut=       1 DoRegI=T DoRafI=F ISym2E= 0 IDoP0=0 IntGTp=1.
 FoFCou: FMM=F IPFlag=           0 FMFlag=      100000 FMFlg1=           0
         NFxFlg=           0 DoJE=F BraDBF=F KetDBF=F FulRan=T
         wScrn=  0.000000 ICntrl=      3507 IOpCl=  0 I1Cent=           0 NGrid=           0
         NMat0=    1 NMatS0=      1 NMatT0=    0 NMatD0=    1 NMtDS0=    0 NMtDT0=    0
 Symmetry not used in FoFCou.
 NEqPCM:  Using equilibrium solvation (IEInf=0, Eps=  78.3553, EpsInf=   1.7778)
 G2PCM: DoFxE=T DoFxN=T DoGrad=T DoDP/DQ/DG/TGxP=FFFF NFrqRd=   0 IEInf=0 SqF1=F DoCFld=F IF1Alg=4.
 GePol: Maximum number of non-zero 1st derivatives   =     248
 End of G2Drv F.D. properties file   721 does not exist.
 End of G2Drv F.D. properties file   722 does not exist.
 End of G2Drv F.D. properties file   788 does not exist.
 Leave Link 1110 at Tue Oct 21 19:51:31 2025, MaxMem=  4294967296 cpu:             156.9 elap:              19.6
 (Enter /lrz/sys/applications/gaussian/g16.C.01/x86_64_legacy/exe/l1002.exe)
 Minotr:  Closed shell wavefunction.
          IDoAtm=1111111111111
 NEqPCM:  Using equilibrium solvation (IEInf=0, Eps=  78.3553, EpsInf=   1.7778)
          Direct CPHF calculation.
          Differentiating once with respect to electric field.
                with respect to dipole field.
          Differentiating once with respect to nuclear coordinates.
          Requested convergence is 1.0D-08 RMS, and 1.0D-07 maximum.
          Secondary convergence is 1.0D-12 RMS, and 1.0D-12 maximum.
          NewPWx=T KeepS1=F KeepF1=F KeepIn=T MapXYZ=F SortEE=F KeepMc=T.
         3861 words used for storage of precomputed grid.
 Keep R1 ints in memory in canonical form, NReq=45462283.
 FoFCou: FMM=F IPFlag=           0 FMFlag=           0 FMFlg1=           0
         NFxFlg=           0 DoJE=F BraDBF=F KetDBF=F FulRan=T
         wScrn=  0.000000 ICntrl=       600 IOpCl=  0 I1Cent=           0 NGrid=           0
         NMat0=    1 NMatS0=   6105 NMatT0=    0 NMatD0=    1 NMtDS0=    0 NMtDT0=    0
 Symmetry not used in FoFCou.
 Two-electron integral symmetry not used.
          MDV=    4294967296 using IRadAn=       1.
          Solving linear equations simultaneously, MaxMat=       0.
          There are    42 degrees of freedom in the 1st order CPHF.  IDoFFX=6 NUNeed=     3.
     39 vectors produced by pass  0 Test12= 4.45D-15 2.38D-09 XBig12= 1.30D+01 1.25D+00.
 AX will form    39 AO Fock derivatives at one time.
     39 vectors produced by pass  1 Test12= 4.45D-15 2.38D-09 XBig12= 8.74D-01 1.33D-01.
     39 vectors produced by pass  2 Test12= 4.45D-15 2.38D-09 XBig12= 1.85D-02 1.51D-02.
     39 vectors produced by pass  3 Test12= 4.45D-15 2.38D-09 XBig12= 8.55D-05 1.21D-03.
     39 vectors produced by pass  4 Test12= 4.45D-15 2.38D-09 XBig12= 3.95D-07 1.11D-04.
     39 vectors produced by pass  5 Test12= 4.45D-15 2.38D-09 XBig12= 1.97D-09 6.36D-06.
     19 vectors produced by pass  6 Test12= 4.45D-15 2.38D-09 XBig12= 7.34D-12 3.15D-07.
      3 vectors produced by pass  7 Test12= 4.45D-15 2.38D-09 XBig12= 2.93D-14 2.16D-08.
 InvSVY:  IOpt=1 It=  1 EMax= 2.22D-15
 Solved reduced A of dimension   256 with    42 vectors.
 FullF1:  Do perturbations      1 to       3.
 Isotropic polarizability for W=    0.000000       52.33 Bohr**3.
 End of Minotr F.D. properties file   721 does not exist.
 End of Minotr F.D. properties file   722 does not exist.
 End of Minotr F.D. properties file   788 does not exist.
 Leave Link 1002 at Tue Oct 21 19:51:50 2025, MaxMem=  4294967296 cpu:             156.6 elap:              19.6
 (Enter /lrz/sys/applications/gaussian/g16.C.01/x86_64_legacy/exe/l601.exe)
 Copying SCF densities to generalized density rwf, IOpCl= 0 IROHF=0.

 **********************************************************************

            Population analysis using the SCF Density.

 **********************************************************************

 Orbital symmetries:
       Occupied  (A) (A) (A) (A) (A) (A) (A) (A) (A) (A) (A) (A)
                 (A) (A) (A) (A) (A) (A) (A) (A) (A)
       Virtual   (A) (A) (A) (A) (A) (A) (A) (A) (A) (A) (A) (A)
                 (A) (A) (A) (A) (A) (A) (A) (A) (A) (A) (A) (A)
                 (A) (A) (A) (A) (A) (A) (A) (A) (A) (A) (A) (A)
                 (A) (A) (A) (A) (A) (A) (A) (A) (A) (A) (A) (A)
                 (A) (A) (A) (A) (A) (A) (A) (A) (A) (A) (A) (A)
                 (A) (A) (A) (A) (A) (A) (A) (A) (A) (A) (A) (A)
                 (A) (A) (A) (A) (A) (A) (A) (A) (A) (A) (A) (A)
                 (A) (A) (A) (A) (A)
 The electronic state is 1-A.
 Alpha  occ. eigenvalues --  -19.25743 -19.25619 -10.38369 -10.28647 -10.28240
 Alpha  occ. eigenvalues --   -1.14981  -1.07798  -0.86268  -0.75480  -0.68773
 Alpha  occ. eigenvalues --   -0.62183  -0.57114  -0.54815  -0.50444  -0.49806
 Alpha  occ. eigenvalues --   -0.45855  -0.44280  -0.41527  -0.39693  -0.39352
 Alpha  occ. eigenvalues --   -0.36593
 Alpha virt. eigenvalues --    0.15044   0.16899   0.17789   0.20488   0.21579
 Alpha virt. eigenvalues --    0.22979   0.24331   0.25193   0.30328   0.31980
 Alpha virt. eigenvalues --    0.34588   0.36648   0.51828   0.52559   0.54137
 Alpha virt. eigenvalues --    0.58114   0.60177   0.63893   0.68284   0.70463
 Alpha virt. eigenvalues --    0.71626   0.73396   0.74729   0.75212   0.76618
 Alpha virt. eigenvalues --    0.77921   0.79096   0.80362   0.80948   0.83866
 Alpha virt. eigenvalues --    0.97150   1.05455   1.07569   1.08845   1.10432
 Alpha virt. eigenvalues --    1.12897   1.18930   1.31999   1.33932   1.36260
 Alpha virt. eigenvalues --    1.44140   1.45357   1.49946   1.53657   1.60403
 Alpha virt. eigenvalues --    1.63149   1.65095   1.69808   1.74910   1.80141
 Alpha virt. eigenvalues --    1.83035   1.86516   1.88495   1.90529   1.91044
 Alpha virt. eigenvalues --    1.92838   1.95888   1.98348   2.04466   2.04878
 Alpha virt. eigenvalues --    2.07200   2.12074   2.18040   2.22746   2.31246
 Alpha virt. eigenvalues --    2.32228   2.37789   2.41725   2.47299   2.49812
 Alpha virt. eigenvalues --    2.60239   2.63629   2.67792   2.84791   2.85965
 Alpha virt. eigenvalues --    2.89016   2.98424   3.03710   3.04091   3.06030
 Alpha virt. eigenvalues --    3.08300   3.11084   3.16188   3.25144   3.25471
 Alpha virt. eigenvalues --    3.45680   3.49613   3.85019   3.86903
          Condensed to atoms (all electrons):
               1          2          3          4          5          6
     1  O    7.872912   0.317840  -0.065314  -0.048808  -0.000811   0.328119
     2  C    0.317840   4.418406   0.344527   0.366397  -0.040368  -0.023376
     3  O   -0.065314   0.344527   7.846571  -0.078029   0.005017   0.004625
     4  C   -0.048808   0.366397  -0.078029   4.908992   0.358373  -0.011080
     5  C   -0.000811  -0.040368   0.005017   0.358373   4.623951  -0.001511
     6  H    0.328119  -0.023376   0.004625  -0.011080  -0.001511   0.473467
     7  H   -0.042845   0.410685  -0.029819  -0.053756  -0.002102   0.009192
     8  H    0.006119  -0.014718   0.323550   0.010275  -0.000583  -0.000811
     9  H    0.005313  -0.013385   0.006896   0.355397  -0.014101  -0.000142
    10  H   -0.005951  -0.008452   0.004365   0.351663  -0.019938   0.006762
    11  H    0.015258  -0.010455   0.000330  -0.023650   0.391426   0.001081
    12  H    0.000188   0.005936  -0.000097  -0.010992   0.386529  -0.000076
    13  H   -0.001266  -0.003923  -0.000081  -0.025584   0.396754   0.000141
               7          8          9         10         11         12
     1  O   -0.042845   0.006119   0.005313  -0.005951   0.015258   0.000188
     2  C    0.410685  -0.014718  -0.013385  -0.008452  -0.010455   0.005936
     3  O   -0.029819   0.323550   0.006896   0.004365   0.000330  -0.000097
     4  C   -0.053756   0.010275   0.355397   0.351663  -0.023650  -0.010992
     5  C   -0.002102  -0.000583  -0.014101  -0.019938   0.391426   0.386529
     6  H    0.009192  -0.000811  -0.000142   0.006762   0.001081  -0.000076
     7  H    0.678286  -0.008035  -0.006050   0.009100  -0.001332  -0.000154
     8  H   -0.008035   0.471860  -0.000529  -0.000565  -0.000034   0.000013
     9  H   -0.006050  -0.000529   0.649415  -0.022880   0.007635  -0.006233
    10  H    0.009100  -0.000565  -0.022880   0.653750  -0.008177  -0.006435
    11  H   -0.001332  -0.000034   0.007635  -0.008177   0.635340  -0.019853
    12  H   -0.000154   0.000013  -0.006233  -0.006435  -0.019853   0.622435
    13  H    0.005676  -0.000000  -0.007788   0.007285  -0.023765  -0.021451
              13
     1  O   -0.001266
     2  C   -0.003923
     3  O   -0.000081
     4  C   -0.025584
     5  C    0.396754
     6  H    0.000141
     7  H    0.005676
     8  H   -0.000000
     9  H   -0.007788
    10  H    0.007285
    11  H   -0.023765
    12  H   -0.021451
    13  H    0.630296
 Mulliken charges:
               1
     1  O   -0.380753
     2  C    0.250887
     3  O   -0.362540
     4  C   -0.099199
     5  C   -0.082635
     6  H    0.213607
     7  H    0.031153
     8  H    0.213458
     9  H    0.046452
    10  H    0.039473
    11  H    0.036198
    12  H    0.050191
    13  H    0.043706
 Sum of Mulliken charges =   0.00000
 Mulliken charges with hydrogens summed into heavy atoms:
               1
     1  O   -0.167146
     2  C    0.282040
     3  O   -0.149082
     4  C   -0.013273
     5  C    0.047460
 APT charges:
               1
     1  O   -0.937897
     2  C    1.270085
     3  O   -0.948815
     4  C    0.024222
     5  C    0.051808
     6  H    0.370863
     7  H   -0.098399
     8  H    0.365515
     9  H   -0.023867
    10  H   -0.036888
    11  H   -0.004793
    12  H   -0.011662
    13  H   -0.020173
 Sum of APT charges =   0.00000
 APT charges with hydrogens summed into heavy atoms:
               1
     1  O   -0.567034
     2  C    1.171686
     3  O   -0.583300
     4  C   -0.036532
     5  C    0.015180
 Electronic spatial extent (au):  <R**2>=            476.7693
 Charge=              0.0000 electrons
 Dipole moment (field-independent basis, Debye):
    X=              0.1197    Y=             -0.0109    Z=             -0.1411  Tot=              0.1854
 Quadrupole moment (field-independent basis, Debye-Ang):
   XX=            -28.2703   YY=            -35.5034   ZZ=            -28.2774
   XY=             -1.4631   XZ=             -1.8529   YZ=             -3.1376
 Traceless Quadrupole moment (field-independent basis, Debye-Ang):
   XX=              2.4134   YY=             -4.8197   ZZ=              2.4063
   XY=             -1.4631   XZ=             -1.8529   YZ=             -3.1376
 Octapole moment (field-independent basis, Debye-Ang**2):
  XXX=            -24.7812  YYY=              0.3722  ZZZ=             -1.9157  XYY=              1.5121
  XXY=              1.0864  XXZ=              4.5491  XZZ=             -5.1526  YZZ=              4.0542
  YYZ=             -3.8545  XYZ=              2.5590
 Hexadecapole moment (field-independent basis, Debye-Ang**3):
 XXXX=           -331.2860 YYYY=           -154.9375 ZZZZ=            -55.5423 XXXY=             -1.0178
 XXXZ=            -15.1893 YYYX=              0.3024 YYYZ=             -9.1869 ZZZX=              1.2143
 ZZZY=             -5.1189 XXYY=            -93.8791 XXZZ=            -71.0892 YYZZ=            -31.4638
 XXYZ=             -3.4013 YYXZ=              1.3376 ZZXY=             -1.7593
 N-N= 1.951099773885D+02 E-N=-1.020193223420D+03  KE= 2.667624640557D+02
  Exact polarizability:      53.381       0.682      50.645      -0.619      -0.812      52.962
 Approx polarizability:      40.659       0.536      40.819      -0.422      -0.205      41.299
 No NMR shielding tensors so no spin-rotation constants.
 Leave Link  601 at Tue Oct 21 19:51:50 2025, MaxMem=  4294967296 cpu:               0.7 elap:               0.1
 (Enter /lrz/sys/applications/gaussian/g16.C.01/x86_64_legacy/exe/l701.exe)
 ... and contract with generalized density number  0.
 Compute integral second derivatives.
 R6Disp: Adding Grimme-D2 dispersion energy 2nd derivatives to the Hessian.
   1 Symmetry operations used in ECPInt.
 ECPInt:  NShTT=    1485 NPrTT=    5139 LenC2=    1483 LenP2D=    4436.
 LDataN:  DoStor=T MaxTD1= 6 Len=  172
 D2PCM: PCM CHGder 2nd derivatives, FixD1E=F FixD2E=F DoIter=F DoCFld=F I1PDM=0
 GePol: Maximum number of non-zero 2nd derivatives   =     248
 Leave Link  701 at Tue Oct 21 19:51:54 2025, MaxMem=  4294967296 cpu:              26.5 elap:               3.3
 (Enter /lrz/sys/applications/gaussian/g16.C.01/x86_64_legacy/exe/l702.exe)
 L702 exits ... SP integral derivatives will be done elsewhere.
 Leave Link  702 at Tue Oct 21 19:51:54 2025, MaxMem=  4294967296 cpu:               0.2 elap:               0.0
 (Enter /lrz/sys/applications/gaussian/g16.C.01/x86_64_legacy/exe/l703.exe)
 Integral derivatives from FoFJK, PRISM(SPDF).
 Compute integral second derivatives, UseDBF=F ICtDFT=           0.
 Calling FoFJK, ICntrl=    100127 FMM=F ISym2X=0 I1Cent= 0 IOpClX= 0 NMat=1 NMatS=1 NMatT=0.
 FoFJK:  IHMeth= 1 ICntrl=  100127 DoSepK=T KAlg= 0 I1Cent=           0 FoldK=F
 IRaf=         1 NMat=       1 IRICut=       1 DoRegI=T DoRafI=F ISym2E= 0 IDoP0=0 IntGTp=1.
 FoFCou: FMM=F IPFlag=           0 FMFlag=      100000 FMFlg1=         800
         NFxFlg=           0 DoJE=F BraDBF=F KetDBF=F FulRan=T
         wScrn=  0.000000 ICntrl=    100527 IOpCl=  0 I1Cent=           0 NGrid=           0
         NMat0=    1 NMatS0=      1 NMatT0=    0 NMatD0=    1 NMtDS0=    0 NMtDT0=    0
 Symmetry not used in FoFCou.
 Leave Link  703 at Tue Oct 21 19:52:19 2025, MaxMem=  4294967296 cpu:             203.7 elap:              25.5
 (Enter /lrz/sys/applications/gaussian/g16.C.01/x86_64_legacy/exe/l716.exe)
 Dipole        = 4.71001498D-02-4.29572330D-03-5.55269027D-02
 Polarizability= 5.33809696D+01 6.81963539D-01 5.06448934D+01
                -6.19255186D-01-8.11969314D-01 5.29622900D+01
 Full mass-weighted force constant matrix:
 Low frequencies ---  -23.3055   -2.3464   -0.0009    0.0010    0.0011   19.8155
 Low frequencies ---  123.9148  241.8261  265.8050
 Diagonal vibrational polarizability:
       50.8899586      31.3273392      31.8689182
 Harmonic frequencies (cm**-1), IR intensities (KM/Mole), Raman scattering
 activities (A**4/AMU), depolarization ratios for plane and unpolarized
 incident light, reduced masses (AMU), force constants (mDyne/A),
 and normal coordinates:
                      1                      2                      3
                      A                      A                      A
 Frequencies --    123.8260               241.7969               265.7931
 Red. masses --      1.9918                 1.1527                 2.9247
 Frc consts  --      0.0180                 0.0397                 0.1217
 IR Inten    --      0.2173                 0.4207                 5.0764
  Atom  AN      X      Y      Z        X      Y      Z        X      Y      Z
     1   8    -0.07   0.01  -0.09    -0.01   0.01   0.02     0.20  -0.08  -0.03
     2   6     0.03   0.04  -0.04     0.02  -0.01  -0.03     0.03  -0.10  -0.04
     3   8     0.02  -0.03   0.12    -0.00  -0.01   0.03    -0.10   0.05   0.07
     4   6     0.01   0.08  -0.13     0.01   0.02  -0.09     0.00  -0.06  -0.11
     5   6     0.03  -0.10   0.12    -0.01  -0.01   0.04    -0.16   0.16   0.07
     6   1    -0.19  -0.04  -0.10    -0.10   0.04   0.01     0.34  -0.06  -0.02
     7   1     0.14   0.09  -0.05     0.09  -0.03  -0.04     0.11  -0.12  -0.05
     8   1     0.04  -0.01   0.14     0.04  -0.06   0.14     0.02   0.02   0.31
     9   1    -0.08  -0.00  -0.36    -0.02   0.00  -0.14     0.12  -0.09  -0.18
    10   1     0.06   0.34  -0.14     0.05   0.09  -0.09     0.05   0.03  -0.12
    11   1     0.05   0.04   0.51     0.26  -0.15  -0.36    -0.39   0.21   0.23
    12   1     0.02   0.05  -0.07     0.07  -0.31   0.53     0.01   0.44   0.07
    13   1     0.04  -0.51   0.13    -0.37   0.39   0.07    -0.27   0.04   0.09
                      4                      5                      6
                      A                      A                      A
 Frequencies --    330.5927               360.8787               460.4418
 Red. masses --      1.1039                 1.1432                 4.1499
 Frc consts  --      0.0711                 0.0877                 0.5184
 IR Inten    --    152.4346               185.6329                52.3892
  Atom  AN      X      Y      Z        X      Y      Z        X      Y      Z
     1   8    -0.01  -0.04   0.01    -0.02  -0.01  -0.01     0.11   0.14   0.02
     2   6     0.04  -0.03   0.01    -0.02   0.01   0.02     0.06   0.12   0.02
     3   8    -0.01   0.03   0.03     0.01  -0.06   0.04     0.27  -0.14  -0.00
     4   6     0.03  -0.03  -0.02    -0.03   0.05  -0.02    -0.16  -0.06  -0.02
     5   6    -0.01   0.02   0.01    -0.00  -0.00  -0.01    -0.27  -0.05  -0.01
     6   1    -0.45  -0.10  -0.01     0.83   0.11   0.05    -0.26   0.12  -0.00
     7   1     0.09  -0.02   0.01    -0.03   0.02   0.02     0.07   0.18   0.02
     8   1    -0.08   0.62  -0.60    -0.08   0.28  -0.39     0.06  -0.21  -0.32
     9   1     0.05  -0.03  -0.03    -0.03   0.02  -0.11    -0.28  -0.03   0.06
    10   1     0.02  -0.01  -0.02    -0.06   0.13  -0.02    -0.26  -0.10  -0.01
    11   1    -0.05   0.02  -0.00     0.07  -0.02  -0.05    -0.39  -0.03   0.04
    12   1     0.03   0.06   0.04    -0.02  -0.07   0.02    -0.16   0.08   0.05
    13   1    -0.05   0.04   0.01    -0.03   0.02  -0.01    -0.38  -0.06   0.01
                      7                      8                      9
                      A                      A                      A
 Frequencies --    499.0072               609.1224               801.4172
 Red. masses --      2.1864                 4.1145                 1.2417
 Frc consts  --      0.3208                 0.8995                 0.4699
 IR Inten    --     69.5166                70.7356                11.0108
  Atom  AN      X      Y      Z        X      Y      Z        X      Y      Z
     1   8     0.16  -0.06  -0.05    -0.17  -0.16  -0.06     0.01  -0.05   0.01
     2   6    -0.08  -0.02   0.14     0.14  -0.02   0.21     0.02  -0.02   0.00
     3   8    -0.02  -0.05  -0.03     0.16   0.24  -0.09     0.01   0.01  -0.00
     4   6    -0.08   0.15   0.04    -0.03  -0.03  -0.00    -0.04   0.10  -0.04
     5   6     0.02   0.02  -0.02    -0.09  -0.03  -0.02    -0.03   0.03  -0.03
     6   1    -0.32  -0.37  -0.09     0.32  -0.46  -0.04     0.01  -0.11   0.00
     7   1    -0.23   0.02   0.14     0.11  -0.02   0.21     0.09  -0.08  -0.00
     8   1    -0.11  -0.14  -0.12     0.22  -0.03   0.23     0.03   0.04   0.01
     9   1     0.00   0.03  -0.34    -0.04  -0.12  -0.26     0.15   0.27   0.44
    10   1    -0.21   0.52   0.04    -0.24   0.27   0.01    -0.16  -0.43  -0.01
    11   1     0.21  -0.01  -0.10    -0.19  -0.04  -0.06     0.40   0.12   0.24
    12   1    -0.11  -0.18  -0.04    -0.01   0.04   0.07    -0.11  -0.20   0.09
    13   1     0.11   0.05  -0.03    -0.18   0.05  -0.01    -0.23  -0.33   0.01
                     10                     11                     12
                      A                      A                      A
 Frequencies --    887.0059              1029.2357              1083.4204
 Red. masses --      1.7040                 1.5241                 1.3291
 Frc consts  --      0.7899                 0.9513                 0.9192
 IR Inten    --     31.0592                21.1081                51.9662
  Atom  AN      X      Y      Z        X      Y      Z        X      Y      Z
     1   8    -0.00   0.06  -0.01    -0.02   0.07  -0.02     0.00   0.03   0.00
     2   6    -0.07   0.05   0.13    -0.01  -0.02   0.04    -0.04   0.04   0.08
     3   8    -0.02  -0.01  -0.01    -0.01   0.00   0.00    -0.01   0.01   0.00
     4   6     0.04  -0.10  -0.08     0.13  -0.06   0.03     0.02   0.01  -0.11
     5   6     0.11   0.00  -0.05    -0.12   0.01  -0.03    -0.02  -0.02   0.06
     6   1     0.02  -0.15  -0.02    -0.00   0.07  -0.02     0.09  -0.46  -0.01
     7   1    -0.19   0.11   0.13    -0.13   0.09   0.05     0.21  -0.12   0.08
     8   1    -0.18  -0.18  -0.13    -0.05  -0.05  -0.03    -0.24  -0.25  -0.19
     9   1     0.15  -0.08  -0.04     0.70  -0.13  -0.20    -0.04   0.09   0.15
    10   1    -0.30  -0.17  -0.04     0.17   0.13   0.02     0.48  -0.26  -0.16
    11   1    -0.00   0.10   0.22     0.23   0.02   0.01    -0.08  -0.09  -0.16
    12   1     0.46   0.29   0.31    -0.33  -0.32  -0.05    -0.14  -0.02  -0.17
    13   1    -0.39  -0.11   0.02    -0.07  -0.24  -0.03     0.26   0.14   0.02
                     13                     14                     15
                      A                      A                      A
 Frequencies --   1096.0678              1204.3044              1245.1725
 Red. masses --      2.2138                 1.9254                 1.3708
 Frc consts  --      1.5670                 1.6453                 1.2522
 IR Inten    --      9.9698               188.7232                 5.0502
  Atom  AN      X      Y      Z        X      Y      Z        X      Y      Z
     1   8     0.01  -0.01   0.01    -0.02   0.17  -0.02    -0.01  -0.00   0.01
     2   6     0.01   0.02   0.01     0.11  -0.08   0.05     0.08   0.05  -0.01
     3   8    -0.05  -0.03  -0.01    -0.06  -0.09  -0.05    -0.06  -0.01  -0.01
     4   6     0.16   0.18   0.06    -0.01  -0.01   0.01     0.01  -0.03   0.10
     5   6    -0.07  -0.17  -0.09     0.00   0.02   0.02    -0.01   0.05  -0.08
     6   1     0.01  -0.12   0.00     0.08  -0.54  -0.05     0.03  -0.11   0.00
     7   1    -0.12  -0.04   0.01     0.11  -0.40   0.05     0.58  -0.03  -0.04
     8   1     0.06   0.11   0.07     0.35   0.42   0.28    -0.29  -0.28  -0.19
     9   1     0.04   0.23   0.19    -0.12  -0.01   0.00    -0.35  -0.09  -0.07
    10   1     0.27   0.08   0.06    -0.24   0.01   0.04     0.21   0.24   0.07
    11   1    -0.58  -0.15  -0.02     0.02   0.01  -0.01     0.15   0.13   0.15
    12   1     0.20   0.19   0.05    -0.05  -0.04  -0.01     0.02  -0.10   0.15
    13   1    -0.49  -0.02  -0.04     0.04  -0.00   0.01    -0.20  -0.21  -0.04
                     16                     17                     18
                      A                      A                      A
 Frequencies --   1258.7127              1305.6446              1353.4465
 Red. masses --      1.3250                 2.0594                 1.4446
 Frc consts  --      1.2369                 2.0684                 1.5591
 IR Inten    --     16.4729               190.3305               101.7699
  Atom  AN      X      Y      Z        X      Y      Z        X      Y      Z
     1   8     0.00  -0.00   0.03     0.01  -0.08   0.03    -0.00   0.03  -0.01
     2   6    -0.10   0.01  -0.05     0.11   0.15   0.07    -0.02  -0.08  -0.05
     3   8     0.07   0.02   0.03    -0.09  -0.07  -0.05     0.03   0.06   0.06
     4   6    -0.01  -0.04   0.02     0.11  -0.04  -0.08     0.13   0.01  -0.01
     5   6    -0.00   0.04  -0.06    -0.04   0.05   0.03     0.01   0.04   0.03
     6   1     0.04  -0.34   0.01    -0.02   0.05   0.04    -0.00  -0.03  -0.02
     7   1    -0.45  -0.14  -0.02    -0.40   0.54   0.09    -0.28  -0.33  -0.03
     8   1     0.21   0.21   0.12     0.14   0.17   0.15    -0.25  -0.26  -0.19
     9   1    -0.33  -0.08  -0.08    -0.49  -0.00   0.08    -0.45   0.00   0.02
    10   1     0.55   0.03  -0.05    -0.08  -0.05  -0.06    -0.44  -0.03   0.06
    11   1     0.18   0.11   0.12     0.12  -0.01  -0.13    -0.16  -0.04  -0.17
    12   1     0.04  -0.05   0.11    -0.20  -0.12  -0.08    -0.21  -0.20  -0.12
    13   1    -0.12  -0.15  -0.04     0.07  -0.14   0.01    -0.14  -0.19   0.04
                     19                     20                     21
                      A                      A                      A
 Frequencies --   1361.3791              1402.6652              1443.5124
 Red. masses --      1.7037                 1.3178                 1.2660
 Frc consts  --      1.8603                 1.5276                 1.5543
 IR Inten    --     10.8256                 1.9510                62.7054
  Atom  AN      X      Y      Z        X      Y      Z        X      Y      Z
     1   8     0.00   0.04  -0.08    -0.00   0.00  -0.01     0.00   0.02   0.02
     2   6     0.01  -0.15   0.16     0.02  -0.00  -0.01    -0.06  -0.09  -0.01
     3   8     0.00   0.01  -0.02    -0.00   0.01   0.02     0.01   0.01  -0.01
     4   6    -0.01   0.02  -0.03     0.07   0.00  -0.00     0.06   0.06   0.03
     5   6     0.00   0.02  -0.02    -0.14  -0.06  -0.03    -0.03  -0.02  -0.01
     6   1    -0.11   0.73  -0.05    -0.01   0.03  -0.01     0.03  -0.12   0.01
     7   1     0.00  -0.06   0.17    -0.13  -0.22   0.00     0.23   0.52  -0.04
     8   1     0.04   0.05   0.02    -0.09  -0.08  -0.06     0.04   0.03   0.03
     9   1    -0.37   0.06   0.13    -0.12   0.05   0.11    -0.23  -0.12  -0.47
    10   1     0.42  -0.03  -0.07    -0.15   0.11   0.02    -0.08  -0.52   0.06
    11   1     0.03   0.04   0.04     0.50  -0.00   0.11     0.08   0.04   0.15
    12   1     0.01  -0.03   0.04     0.28   0.39   0.25    -0.00   0.01   0.03
    13   1    -0.05  -0.05  -0.02     0.48   0.14  -0.11     0.08   0.15  -0.03
                     22                     23                     24
                      A                      A                      A
 Frequencies --   1457.3756              1462.4539              1472.3602
 Red. masses --      1.1522                 1.0721                 1.2520
 Frc consts  --      1.4418                 1.3510                 1.5992
 IR Inten    --     19.4831                 7.9775                71.0451
  Atom  AN      X      Y      Z        X      Y      Z        X      Y      Z
     1   8    -0.01  -0.00  -0.01    -0.00  -0.01  -0.01    -0.01   0.04   0.02
     2   6     0.09   0.03   0.00     0.04   0.04   0.01     0.03  -0.12  -0.03
     3   8    -0.02  -0.00   0.01    -0.01  -0.00   0.00     0.00   0.02   0.01
     4   6    -0.02   0.00   0.02    -0.01   0.02  -0.01    -0.01  -0.03  -0.04
     5   6     0.02  -0.04  -0.00     0.00   0.01  -0.04     0.01  -0.02  -0.02
     6   1    -0.02   0.05  -0.01    -0.01   0.05  -0.00     0.05  -0.23   0.01
     7   1    -0.29  -0.21   0.03    -0.15  -0.17   0.02    -0.13   0.53  -0.05
     8   1    -0.11  -0.11  -0.07    -0.04  -0.03  -0.02    -0.08  -0.09  -0.06
     9   1    -0.00  -0.07  -0.19     0.05  -0.02  -0.12    -0.03   0.14   0.45
    10   1     0.08  -0.18   0.01    -0.02  -0.16  -0.01    -0.00   0.43  -0.05
    11   1     0.22   0.10   0.37    -0.43   0.14   0.35    -0.06   0.10   0.30
    12   1    -0.15   0.03  -0.40    -0.02  -0.44   0.45    -0.06  -0.14  -0.00
    13   1    -0.31   0.53   0.03     0.39   0.11  -0.08     0.02   0.28  -0.02
                     25                     26                     27
                      A                      A                      A
 Frequencies --   1493.2452              3053.2155              3056.1632
 Red. masses --      1.6330                 1.0473                 1.0660
 Frc consts  --      2.1453                 5.7524                 5.8664
 IR Inten    --     97.6871                32.2179                21.5948
  Atom  AN      X      Y      Z        X      Y      Z        X      Y      Z
     1   8    -0.02   0.03   0.01     0.00  -0.00  -0.00    -0.00   0.00   0.00
     2   6     0.17  -0.07  -0.03     0.00   0.00   0.02     0.00  -0.00  -0.05
     3   8    -0.03   0.01   0.02     0.00   0.00  -0.00    -0.00  -0.00   0.00
     4   6    -0.11   0.05   0.03    -0.00  -0.02  -0.03     0.00   0.02   0.04
     5   6     0.00   0.02   0.01    -0.03  -0.02  -0.02    -0.02  -0.01  -0.02
     6   1     0.01  -0.13   0.00     0.00   0.00   0.01     0.00  -0.00  -0.01
     7   1    -0.47   0.23  -0.02    -0.01  -0.01  -0.29     0.03   0.02   0.57
     8   1    -0.23  -0.22  -0.15     0.00   0.00  -0.00    -0.00  -0.00  -0.00
     9   1     0.13  -0.01  -0.19    -0.01   0.21  -0.08     0.01  -0.22   0.08
    10   1     0.23  -0.21   0.00     0.05   0.01   0.43    -0.06  -0.01  -0.53
    11   1    -0.01  -0.11  -0.35    -0.01   0.42  -0.15    -0.00   0.29  -0.11
    12   1     0.19   0.19   0.15     0.35  -0.22  -0.18     0.21  -0.13  -0.11
    13   1     0.07  -0.37   0.01     0.06   0.01   0.52     0.05   0.01   0.40
                     28                     29                     30
                      A                      A                      A
 Frequencies --   3060.9207              3123.9076              3147.7449
 Red. masses --      1.0774                 1.1022                 1.1041
 Frc consts  --      5.9477                 6.3375                 6.4454
 IR Inten    --    104.1114                21.7881                49.8739
  Atom  AN      X      Y      Z        X      Y      Z        X      Y      Z
     1   8     0.00   0.00   0.00    -0.00   0.00  -0.00    -0.00  -0.00   0.00
     2   6    -0.00  -0.00  -0.06    -0.00  -0.00   0.01    -0.00   0.00  -0.00
     3   8    -0.00  -0.00   0.00     0.00   0.00  -0.00     0.00  -0.00   0.00
     4   6    -0.00  -0.03  -0.03     0.01  -0.07   0.06    -0.00   0.01  -0.02
     5   6     0.00   0.00   0.00     0.00   0.02  -0.02     0.02   0.01  -0.09
     6   1     0.00  -0.01  -0.01    -0.00   0.00   0.00     0.00  -0.00   0.00
     7   1     0.04   0.02   0.75    -0.00  -0.00  -0.08    -0.00   0.00   0.01
     8   1    -0.00  -0.00   0.00    -0.00   0.00  -0.00     0.00  -0.00  -0.00
     9   1    -0.00   0.35  -0.13    -0.02   0.79  -0.27     0.00  -0.18   0.06
    10   1     0.05   0.01   0.53    -0.05  -0.02  -0.45     0.02   0.01   0.15
    11   1    -0.00  -0.06   0.02     0.00  -0.20   0.07     0.01  -0.41   0.13
    12   1    -0.03   0.01   0.01    -0.02   0.01   0.00    -0.37   0.23   0.18
    13   1    -0.01  -0.00  -0.09     0.02   0.01   0.17     0.09   0.02   0.72
                     31                     32                     33
                      A                      A                      A
 Frequencies --   3159.7200              3836.1768              3862.3945
 Red. masses --      1.1047                 1.0660                 1.0668
 Frc consts  --      6.4982                 9.2429                 9.3764
 IR Inten    --     33.8941               100.6189               121.9310
  Atom  AN      X      Y      Z        X      Y      Z        X      Y      Z
     1   8     0.00   0.00  -0.00     0.00   0.00  -0.06     0.00   0.00  -0.00
     2   6    -0.00  -0.00   0.00     0.00  -0.00  -0.00    -0.00   0.00   0.00
     3   8    -0.00   0.00   0.00     0.00  -0.00  -0.00    -0.05   0.02   0.03
     4   6     0.00  -0.01   0.01    -0.00  -0.00   0.00     0.00  -0.00  -0.00
     5   6     0.05  -0.08  -0.00    -0.00  -0.00  -0.00     0.00   0.00   0.00
     6   1    -0.00   0.00   0.00    -0.06  -0.04   0.99    -0.00  -0.00   0.03
     7   1    -0.00  -0.00  -0.01     0.00   0.00   0.01     0.00   0.00   0.00
     8   1     0.00  -0.00  -0.00    -0.03   0.01   0.01     0.81  -0.37  -0.45
     9   1    -0.00   0.13  -0.04     0.00  -0.00   0.00     0.00   0.00   0.00
    10   1    -0.01  -0.00  -0.04    -0.00   0.00  -0.00     0.00  -0.00  -0.00
    11   1     0.00   0.65  -0.23    -0.00   0.00  -0.00    -0.00   0.00   0.00
    12   1    -0.55   0.33   0.29     0.00  -0.00  -0.00     0.00  -0.00  -0.00
    13   1     0.00  -0.01  -0.01     0.00  -0.00   0.00    -0.00  -0.00  -0.00

 -------------------
 - Thermochemistry -
 -------------------
 Temperature   298.150 Kelvin.  Pressure   1.00000 Atm.
 Atom     1 has atomic number  8 and mass  15.99491
 Atom     2 has atomic number  6 and mass  12.00000
 Atom     3 has atomic number  8 and mass  15.99491
 Atom     4 has atomic number  6 and mass  12.00000
 Atom     5 has atomic number  6 and mass  12.00000
 Atom     6 has atomic number  1 and mass   1.00783
 Atom     7 has atomic number  1 and mass   1.00783
 Atom     8 has atomic number  1 and mass   1.00783
 Atom     9 has atomic number  1 and mass   1.00783
 Atom    10 has atomic number  1 and mass   1.00783
 Atom    11 has atomic number  1 and mass   1.00783
 Atom    12 has atomic number  1 and mass   1.00783
 Atom    13 has atomic number  1 and mass   1.00783
 Molecular mass:    76.05243 amu.
 Principal axes and moments of inertia in atomic units:
                           1         2         3
     Eigenvalues --   211.91672 502.03290 648.97406
           X            0.99996  -0.00832  -0.00413
           Y            0.00824   0.99980  -0.01829
           Z            0.00429   0.01826   0.99982
 This molecule is an asymmetric top.
 Rotational symmetry number  1.
 Rotational temperatures (Kelvin)      0.40872     0.17253     0.13346
 Rotational constants (GHZ):           8.51628     3.59487     2.78091
 Zero-point vibrational energy     302350.9 (Joules/Mol)
                                   72.26360 (Kcal/Mol)
 Warning -- explicit consideration of   8 degrees of freedom as
           vibrations may cause significant error
 Vibrational temperatures:    178.16   347.89   382.42   475.65   519.22
          (Kelvin)            662.47   717.96   876.39  1153.06  1276.20
                             1480.84  1558.80  1577.00  1732.73  1791.53
                             1811.01  1878.53  1947.31  1958.72  2018.12
                             2076.89  2096.84  2104.14  2118.40  2148.45
                             4392.90  4397.14  4403.98  4494.61  4528.90
                             4546.13  5519.40  5557.12
 
 Zero-point correction=                           0.115159 (Hartree/Particle)
 Thermal correction to Energy=                    0.121340
 Thermal correction to Enthalpy=                  0.122284
 Thermal correction to Gibbs Free Energy=         0.086100
 Sum of electronic and zero-point Energies=           -269.202594
 Sum of electronic and thermal Energies=              -269.196413
 Sum of electronic and thermal Enthalpies=            -269.195469
 Sum of electronic and thermal Free Energies=         -269.231654
 
                     E (Thermal)             CV                S
                      KCal/Mol        Cal/Mol-Kelvin    Cal/Mol-Kelvin
 Total                   76.142             21.730             76.157
 Electronic               0.000              0.000              0.000
 Translational            0.889              2.981             38.902
 Rotational               0.889              2.981             25.738
 Vibrational             74.365             15.768             11.517
 Vibration     1          0.610              1.929              3.040
 Vibration     2          0.658              1.776              1.790
 Vibration     3          0.672              1.736              1.623
 Vibration     4          0.713              1.614              1.257
 Vibration     5          0.735              1.553              1.118
 Vibration     6          0.818              1.338              0.765
 Vibration     7          0.854              1.252              0.661
 Vibration     8          0.968              1.012              0.434
                       Q            Log10(Q)             Ln(Q)
 Total Bot       0.249467D-39        -39.602987        -91.189247
 Total V=0       0.232595D+14         13.366600         30.777735
 Vib (Bot)       0.101738D-51        -51.992518       -119.717198
 Vib (Bot)    1  0.164887D+01          0.217187          0.500092
 Vib (Bot)    2  0.810265D+00         -0.091373         -0.210394
 Vib (Bot)    3  0.728661D+00         -0.137475         -0.316547
 Vib (Bot)    4  0.564979D+00         -0.247968         -0.570967
 Vib (Bot)    5  0.507603D+00         -0.294476         -0.678056
 Vib (Bot)    6  0.369266D+00         -0.432660         -0.996237
 Vib (Bot)    7  0.329650D+00         -0.481947         -1.109725
 Vib (Bot)    8  0.242836D+00         -0.614687         -1.415369
 Vib (V=0)       0.948569D+01          0.977069          2.249784
 Vib (V=0)    1  0.222302D+01          0.346943          0.798865
 Vib (V=0)    2  0.145212D+01          0.162002          0.373023
 Vib (V=0)    3  0.138371D+01          0.141046          0.324770
 Vib (V=0)    4  0.125445D+01          0.098455          0.226701
 Vib (V=0)    5  0.121250D+01          0.083683          0.192687
 Vib (V=0)    6  0.112158D+01          0.049829          0.114735
 Vib (V=0)    7  0.109889D+01          0.040954          0.094300
 Vib (V=0)    8  0.105585D+01          0.023602          0.054346
 Electronic      0.100000D+01          0.000000          0.000000
 Translational   0.260689D+08          7.416124         17.076255
 Rotational      0.940606D+05          4.973408         11.451695
 
                                                              g16_C3-w_1
                                                             IR Spectrum
 
     33                    333333                                                11111111 1111  11 1                                 
     88                    111000                                                44444433 3222  00 0   8  8     6   44   33 22  1    
     63                    642655                                                97654065 0540  98 2   8  0     0   96   63 64  2    
     26                    084163                                                32274313 6954  63 9   7  1     9   90   11 62  4    
 
     XX                    XXXXXX                                                XXXXXXXX XXXX  XX X   X  X     X   XX   XX XX  X    
     XX                    XXXXXX                                                XX XX  X XX X   X X   X        X   XX   XX          
     XX                    XX X X                                                XX  X  X X  X   X     X        X   XX   XX          
     XX                    XX X                                                  XX  X  X X  X   X              X   XX   XX          
     XX                     X X                                                  XX  X  X X  X   X              X   XX   XX          
     XX                       X                                                  XX  X  X X  X                  X   XX   XX          
     XX                       X                                                  XX  X  X X  X                  X   X    XX          
     XX                       X                                                  X      X X  X                           XX          
     XX                       X                                                  X      X X  X                           XX          
     XX                       X                                                  X      X X  X                           XX          
     XX                       X                                                         X X  X                           XX          
     X                                                                                    X  X                           XX          
     X                                                                                    X  X                           XX          
                                                                                          X  X                           XX          
                                                                                          X  X                           XX          
                                                                                          X  X                           XX          
                                                                                          X  X                           X           
                                                                                          X  X                           X           
                                                                                          X  X                           X           
                                                                                          X  X                           X           
 
 ***** Axes restored to original set *****
 -------------------------------------------------------------------
 Center     Atomic                   Forces (Hartrees/Bohr)
 Number     Number              X              Y              Z
 -------------------------------------------------------------------
      1        8           0.000003804   -0.000010656   -0.000014734
      2        6          -0.000002059    0.000000064    0.000013057
      3        8          -0.000003917   -0.000003286   -0.000000180
      4        6           0.000019240   -0.000007495   -0.000000861
      5        6          -0.000008046    0.000013326    0.000000089
      6        1           0.000000195   -0.000008787   -0.000014339
      7        1          -0.000005427    0.000007902    0.000002266
      8        1          -0.000003162   -0.000000379    0.000005969
      9        1          -0.000001096    0.000002478    0.000016100
     10        1          -0.000002440   -0.000008312    0.000001658
     11        1           0.000003071    0.000003145   -0.000012443
     12        1          -0.000001452    0.000000438    0.000002391
     13        1           0.000001289    0.000011561    0.000001028
 -------------------------------------------------------------------
 Cartesian Forces:  Max     0.000019240 RMS     0.000007686
 Force constants in Cartesian coordinates: 
                1             2             3             4             5 
      1  0.853871D-01
      2  0.399197D-01  0.467457D+00
      3  0.238264D-01 -0.949212D-01  0.628120D+00
      4 -0.757113D-01 -0.525823D-01  0.130238D-01  0.604357D+00
      5 -0.366415D-01 -0.308675D+00  0.815268D-01 -0.432018D-02  0.606839D+00
      6  0.191383D-02  0.428149D-01 -0.127847D+00 -0.233924D-01 -0.315363D-02
      7  0.264525D-03  0.321047D-01 -0.417820D-02 -0.257672D+00  0.101182D+00
      8  0.451889D-01 -0.636351D-01 -0.825531D-02  0.829099D-01 -0.137372D+00
      9 -0.492823D-02  0.577945D-03  0.154542D-01  0.516343D-01 -0.551610D-01
     10 -0.101997D-02 -0.698631D-02 -0.128334D-02 -0.157114D+00 -0.419897D-01
     11 -0.329064D-01 -0.387609D-01 -0.906329D-02 -0.465599D-01 -0.978742D-01
     12  0.102773D-01  0.113206D-01  0.647209D-02 -0.566430D-01 -0.281401D-01
     13 -0.201910D-03  0.232408D-02 -0.815079D-03 -0.277402D-01  0.115994D-01
     14 -0.146880D-02 -0.100988D-02  0.538852D-04 -0.683189D-02  0.945194D-02
     15 -0.100090D-02 -0.214031D-04  0.536141D-03 -0.764417D-02  0.882141D-02
     16 -0.995563D-02 -0.382150D-02 -0.359673D-01 -0.602252D-03  0.537881D-03
     17 -0.521325D-02 -0.429076D-01 -0.105759D-01  0.100852D-02 -0.113509D-01
     18 -0.288807D-01  0.372087D-01 -0.514266D+00 -0.608951D-03  0.325829D-02
     19  0.344457D-02 -0.273110D-02  0.612978D-02 -0.555507D-01 -0.342559D-02
     20 -0.181234D-02 -0.152367D-01  0.433522D-01 -0.359982D-02 -0.475294D-01
     21 -0.309923D-04  0.822985D-02 -0.118463D-01  0.604756D-02 -0.582473D-03
     22  0.394624D-02 -0.280640D-02  0.224385D-03 -0.341595D-01 -0.106222D-01
     23 -0.137222D-02  0.184482D-02 -0.190090D-03  0.255934D-01  0.474902D-02
     24  0.691445D-03 -0.211061D-02 -0.160096D-03  0.147871D-01  0.555308D-02
     25 -0.542257D-02 -0.626136D-02 -0.190461D-02  0.113157D-02 -0.223634D-01
     26 -0.386055D-02 -0.293787D-02 -0.107956D-02  0.416742D-02 -0.128155D-01
     27 -0.298220D-02 -0.296390D-02  0.761627D-03  0.189328D-03 -0.132755D-01
     28  0.109098D-02  0.230545D-02  0.859767D-03  0.724134D-03  0.534613D-03
     29  0.777823D-03  0.182717D-02 -0.357679D-03  0.757873D-03 -0.175422D-02
     30  0.121276D-03 -0.425264D-04  0.272393D-02  0.300901D-02  0.152345D-02
     31 -0.136031D-02 -0.731463D-03  0.311718D-03  0.126389D-02  0.109931D-02
     32 -0.194677D-02  0.125868D-02 -0.284728D-03 -0.134770D-02 -0.151975D-02
     33  0.296151D-03 -0.267394D-03  0.293284D-04 -0.604701D-04  0.841174D-03
     34 -0.319548D-03 -0.494974D-03  0.342150D-04 -0.427703D-03  0.445825D-02
     35 -0.686591D-03  0.689896D-03 -0.143746D-03  0.148402D-02 -0.235094D-02
     36  0.208111D-03 -0.124306D-03  0.898114D-04  0.932444D-03 -0.839048D-03
     37 -0.142169D-03 -0.238514D-03 -0.261526D-03  0.150081D-02 -0.484673D-04
     38  0.219807D-04  0.859459D-04 -0.612635D-04 -0.679300D-03  0.203052D-03
     39  0.488562D-03  0.299321D-03 -0.678653D-04 -0.127461D-02 -0.372466D-03
                6             7             8             9            10 
      6  0.695474D+00
      7  0.797970D-01  0.661550D+00
      8 -0.640900D-01 -0.557221D-02  0.288115D+00
      9 -0.122775D+00  0.107606D+00  0.183868D+00  0.240547D+00
     10 -0.422993D-01 -0.462351D-01 -0.718702D-02 -0.135661D-01  0.507258D+00
     11 -0.219218D-01  0.227670D-01  0.760040D-02  0.662789D-02 -0.704297D-02
     12 -0.120355D+00  0.146923D-01  0.353511D-02  0.794668D-02 -0.151306D-01
     13  0.830245D-02 -0.505065D-02 -0.172889D-02 -0.218414D-02 -0.181698D+00
     14  0.683174D-02 -0.586045D-02 -0.369065D-03 -0.155539D-02  0.569867D-01
     15  0.363621D-02 -0.505952D-02 -0.992141D-03 -0.595034D-03  0.318005D-01
     16  0.624805D-02  0.104944D-02 -0.168146D-02 -0.723618D-03  0.285925D-03
     17  0.495183D-01 -0.506840D-03  0.316484D-02 -0.192028D-02 -0.814936D-05
     18 -0.159444D-01  0.358468D-03 -0.288539D-02  0.135533D-02  0.167169D-04
     19 -0.188327D-03 -0.133128D-01  0.116580D-01  0.350211D-01  0.144933D-02
     20 -0.846491D-02  0.127180D-01 -0.245030D-02 -0.229937D-01 -0.581988D-03
     21 -0.304127D+00  0.957229D-02 -0.617210D-02 -0.694211D-02  0.644991D-03
     22 -0.158218D-01 -0.340611D+00 -0.122490D+00 -0.172293D+00 -0.335382D-02
     23  0.101090D-01 -0.161145D+00 -0.972752D-01 -0.111069D+00  0.209472D-02
     24  0.523050D-02 -0.204943D+00 -0.105291D+00 -0.137425D+00  0.165568D-02
     25  0.112441D-01  0.289295D-03  0.284559D-04 -0.101607D-03 -0.472870D-01
     26  0.655894D-02  0.103499D-02  0.155136D-02  0.338766D-04 -0.101269D-01
     27  0.331188D-02  0.873249D-03  0.127799D-03  0.384973D-03  0.203658D-02
     28 -0.297004D-01  0.231467D-02 -0.300587D-03  0.404288D-03 -0.502312D-01
     29 -0.166767D-01  0.125096D-02  0.262992D-03  0.114096D-02 -0.115160D-02
     30 -0.172575D-01  0.534738D-03  0.276907D-03  0.161088D-02  0.277290D-01
     31 -0.793616D-03  0.272046D-03 -0.401790D-03  0.179828D-03  0.110058D-02
     32 -0.290090D-03  0.590608D-03  0.194081D-03  0.870902D-04 -0.321042D-03
     33  0.421599D-04  0.000000D+00 -0.120628D-03 -0.605504D-04 -0.709311D-03
     34  0.304808D-02 -0.280931D-02 -0.466288D-03 -0.733542D-03 -0.198554D-01
     35 -0.138394D-02  0.143105D-02  0.306588D-03  0.287387D-03  0.149980D-01
     36  0.167272D-04  0.582098D-03 -0.398218D-04  0.263938D-03  0.869513D-02
     37  0.164234D-02 -0.486426D-04  0.427409D-04 -0.315771D-03 -0.329894D-02
     38  0.148124D-03  0.554570D-05 -0.933694D-04  0.762066D-04  0.131623D-02
     39  0.594051D-03  0.165578D-03  0.384412D-04  0.235226D-03  0.410067D-03
               11            12            13            14            15 
     11  0.589346D+00
     12 -0.307265D-01  0.587320D+00
     13  0.557854D-01  0.309465D-01  0.529847D+00
     14 -0.115129D+00 -0.189298D-01  0.373645D-01  0.568158D+00
     15 -0.191041D-01 -0.920936D-01  0.224379D-01 -0.927461D-02  0.576824D+00
     16  0.958954D-03  0.235757D-02 -0.312436D-03  0.179761D-03  0.858330D-04
     17  0.208056D-02  0.672204D-03 -0.307659D-03  0.202451D-03  0.388125D-04
     18 -0.231767D-02  0.378727D-02  0.219827D-03 -0.139399D-03 -0.205754D-03
     19 -0.466491D-03 -0.255841D-01  0.158346D-02 -0.260899D-03 -0.740277D-03
     20  0.174956D-02 -0.137022D-01  0.423459D-03  0.114754D-03  0.304018D-03
     21 -0.321344D-03 -0.111491D-01  0.384182D-03 -0.618396D-04  0.704950D-03
     22  0.369770D-02  0.298483D-02 -0.484778D-03 -0.929145D-03 -0.926614D-03
     23 -0.863663D-03 -0.118672D-02  0.587524D-03  0.635069D-03  0.957148D-05
     24 -0.175758D-02  0.320763D-03  0.703826D-03  0.983325D-04  0.843248D-03
     25 -0.694718D-02  0.864062D-03  0.180434D-03  0.282797D-01 -0.901372D-02
     26 -0.294059D+00  0.770206D-01 -0.937544D-03 -0.115467D-01  0.377514D-02
     27  0.806529D-01 -0.746233D-01 -0.362081D-03 -0.903896D-02  0.230564D-02
     28 -0.142822D-02  0.286094D-01 -0.337047D-02 -0.784677D-03  0.285994D-01
     29 -0.488448D-01  0.340912D-02  0.166398D-02 -0.258595D-03 -0.154948D-01
     30  0.201013D-02 -0.307470D+00 -0.583004D-04  0.374904D-03 -0.523936D-02
     31  0.273938D-01 -0.972862D-02 -0.459570D-01 -0.598703D-02  0.203876D-02
     32 -0.127581D-01  0.465804D-02 -0.391479D-02 -0.296515D+00  0.815983D-01
     33 -0.988326D-02  0.266110D-02  0.130356D-02  0.822826D-01 -0.750995D-01
     34 -0.139192D-01 -0.122569D-01 -0.216257D+00 -0.100135D+00 -0.911533D-01
     35  0.771052D-02  0.834088D-02 -0.102121D+00 -0.105910D+00 -0.541532D-01
     36  0.542939D-02  0.332162D-02 -0.927979D-01 -0.542246D-01 -0.956227D-01
     37 -0.133251D-02  0.286114D-01 -0.505382D-01 -0.552680D-03  0.305761D-01
     38 -0.197445D-03 -0.162713D-01 -0.738577D-03 -0.478234D-01  0.449301D-02
     39  0.375277D-03 -0.613797D-02  0.319193D-01  0.358317D-02 -0.315994D+00
               16            17            18            19            20 
     16  0.785109D-02
     17  0.552124D-02  0.546136D-01
     18  0.286926D-01 -0.378636D-01  0.524495D+00
     19  0.172170D-02 -0.966399D-03  0.275827D-03  0.616948D-01
     20 -0.183449D-02 -0.521371D-02  0.257297D-02 -0.217159D-02  0.687807D-01
     21  0.459567D-03  0.160891D-02  0.166392D-02 -0.143282D-01 -0.869652D-03
     22 -0.360887D-03  0.318182D-03 -0.255712D-03  0.246481D-02 -0.130186D-02
     23 -0.878540D-04 -0.103666D-03  0.375409D-03  0.440591D-03 -0.411280D-03
     24 -0.198553D-03  0.106713D-03 -0.320022D-03  0.612120D-03  0.885099D-03
     25  0.281219D-03  0.556401D-03 -0.830508D-03  0.635331D-03  0.517559D-03
     26  0.349436D-03  0.419616D-03 -0.702546D-03 -0.135067D-04  0.506434D-03
     27 -0.333063D-03 -0.341720D-03 -0.149514D-03  0.721354D-03  0.858096D-04
     28  0.104131D-03 -0.584090D-03  0.900769D-03 -0.394950D-02 -0.214548D-02
     29 -0.291543D-03 -0.754792D-03  0.505259D-03 -0.217551D-02 -0.377899D-03
     30 -0.417234D-03 -0.116789D-02 -0.427305D-03 -0.268316D-02 -0.147347D-02
     31 -0.308144D-03 -0.104552D-03  0.263623D-03  0.130607D-04 -0.157603D-03
     32  0.146007D-03 -0.782028D-04  0.992699D-05  0.967560D-04  0.617246D-04
     33 -0.238274D-05  0.514536D-04 -0.243953D-04  0.384089D-04 -0.552172D-04
     34  0.110619D-03  0.137593D-03 -0.122888D-03  0.581050D-04  0.829779D-05
     35  0.421334D-04 -0.138685D-04  0.292615D-05 -0.633072D-04 -0.762400D-04
     36 -0.670318D-04 -0.323958D-04 -0.155549D-04  0.196566D-03  0.114779D-03
     37  0.135221D-03  0.149003D-03 -0.290610D-04 -0.252103D-03 -0.621849D-04
     38 -0.185603D-04 -0.582869D-04 -0.248932D-04  0.790784D-04  0.823122D-04
     39 -0.134400D-03 -0.945676D-04  0.520399D-04  0.528917D-03  0.244302D-03
               21            22            23            24            25 
     21  0.330166D+00
     22 -0.433848D-03  0.372284D+00
     23 -0.672176D-03  0.133688D+00  0.914311D-01
     24  0.103279D-02  0.186218D+00  0.102728D+00  0.130259D+00
     25 -0.167789D-03  0.357866D-03  0.178307D-03 -0.353650D-04  0.533756D-01
     26 -0.232961D-03  0.127144D-04  0.311528D-03 -0.237637D-03  0.702721D-02
     27  0.410302D-03  0.100954D-03 -0.205316D-04 -0.185059D-03 -0.199804D-02
     28 -0.161206D-02  0.284008D-03 -0.119732D-03  0.363550D-03 -0.769027D-03
     29 -0.117665D-02  0.156449D-03 -0.185236D-03  0.111255D-03 -0.260236D-02
     30 -0.207455D-03  0.893165D-04 -0.422043D-04  0.483245D-03  0.407022D-03
     31  0.455550D-04 -0.752128D-04 -0.820856D-04 -0.282466D-04 -0.492097D-02
     32  0.966226D-05  0.493244D-04 -0.131369D-04 -0.278518D-04  0.287740D-02
     33  0.340432D-04 -0.268545D-04  0.303544D-04 -0.200217D-04  0.195812D-02
     34 -0.137402D-03 -0.326480D-03  0.206165D-03  0.299631D-03  0.106557D-02
     35  0.350042D-04  0.246263D-03 -0.106850D-03 -0.984458D-04 -0.536212D-03
     36  0.203996D-03  0.939106D-04 -0.710745D-04 -0.420241D-04 -0.457163D-03
     37 -0.443820D-03  0.349046D-04  0.180840D-04 -0.125402D-03  0.108271D-02
     38  0.205774D-03 -0.195331D-04 -0.125107D-04  0.403955D-04 -0.754499D-03
     39  0.551756D-04  0.467952D-04  0.000000D+00 -0.173346D-04  0.354449D-04
               26            27            28            29            30 
     26  0.316144D+00
     27 -0.827785D-01  0.734354D-01
     28  0.152656D-04  0.131111D-02  0.563540D-01
     29  0.161195D-02  0.285846D-01  0.369332D-04  0.479397D-01
     30 -0.124455D-02 -0.711365D-02 -0.302834D-01  0.815231D-03  0.331149D+00
     31  0.250776D-02  0.138059D-02  0.121116D-02 -0.776848D-03  0.118653D-05
     32 -0.352209D-03 -0.115261D-02 -0.141996D-03  0.571555D-03 -0.220733D-03
     33 -0.918544D-03  0.753200D-03 -0.724011D-03 -0.298443D-03  0.488102D-03
     34  0.651780D-04 -0.326296D-03  0.868621D-03 -0.416713D-03  0.263906D-03
     35  0.749375D-03  0.396579D-03 -0.658612D-03  0.367646D-03  0.149803D-04
     36  0.185762D-04  0.126842D-03 -0.245301D-03  0.522972D-03  0.541191D-03
     37 -0.241518D-03 -0.611485D-03 -0.463154D-02  0.277056D-02  0.128669D-02
     38  0.416059D-03 -0.275921D-03  0.327113D-02 -0.405527D-03 -0.824228D-03
     39 -0.212873D-03  0.581685D-03  0.151693D-02 -0.108505D-02  0.719212D-03
               31            32            33            34            35 
     31  0.492040D-01
     32  0.229047D-02  0.317640D+00
     33 -0.347856D-02 -0.872949D-01  0.738377D-01
     34  0.663859D-03  0.145628D-02  0.922788D-03  0.233227D+00
     35 -0.220892D-01 -0.105573D-01 -0.135164D-01  0.106012D+00  0.109140D+00
     36  0.928053D-02  0.448495D-02  0.424325D-02  0.975181D-01  0.589912D-01
     37 -0.110693D-02  0.165461D-03  0.483553D-03  0.400159D-02  0.194138D-02
     38 -0.296076D-02  0.206821D-02  0.291491D-01  0.308862D-02  0.517009D-04
     39  0.527252D-03 -0.157706D-02 -0.688444D-02  0.264362D-02  0.122673D-02
               36            37            38            39 
     36  0.968866D-01
     37 -0.239396D-01  0.532633D-01
     38 -0.142306D-01 -0.261136D-02  0.456833D-01
     39 -0.100137D-01 -0.368734D-01 -0.242448D-02  0.336878D+00
 FormGI is forming the generalized inverse of G from B-inverse, IUseBI=4.
 Leave Link  716 at Tue Oct 21 19:52:19 2025, MaxMem=  4294967296 cpu:               0.3 elap:               0.1
 (Enter /lrz/sys/applications/gaussian/g16.C.01/x86_64_legacy/exe/l103.exe)

 GradGradGradGradGradGradGradGradGradGradGradGradGradGradGradGradGradGrad
 Berny optimization.
 Red2BG is reusing G-inverse.
 Internal  Forces:  Max     0.000012791 RMS     0.000003688
 Search for a local minimum.
 Step number   1 out of a maximum of    2
 All quantities printed in internal units (Hartrees-Bohrs-Radians)
 Second derivative matrix not updated -- analytic derivatives used.
 ITU=  0
     Eigenvalues ---    0.00220   0.00358   0.00445   0.00501   0.03499
     Eigenvalues ---    0.03814   0.04424   0.04448   0.06290   0.06895
     Eigenvalues ---    0.07505   0.09906   0.10699   0.12082   0.14090
     Eigenvalues ---    0.15650   0.16479   0.16953   0.20037   0.22132
     Eigenvalues ---    0.23864   0.30788   0.32996   0.33332   0.33803
     Eigenvalues ---    0.34200   0.34380   0.34790   0.34792   0.44401
     Eigenvalues ---    0.52918   0.53685   0.54088
 Angle between quadratic step and forces=  74.01 degrees.
 Linear search not attempted -- first point.
 Iteration  1 RMS(Cart)=  0.00013164 RMS(Int)=  0.00000001
 Iteration  2 RMS(Cart)=  0.00000001 RMS(Int)=  0.00000000
 ITry= 1 IFail=0 DXMaxC= 5.85D-04 DCOld= 1.00D+10 DXMaxT= 3.00D-01 DXLimC= 3.00D+00 Rises=F
 Variable       Old X    -DE/DX   Delta X   Delta X   Delta X     New X
                                 (Linear)    (Quad)   (Total)
    R1        2.65688   0.00001   0.00000   0.00001   0.00001   2.65689
    R2        1.82822  -0.00000   0.00000  -0.00000  -0.00000   1.82821
    R3        2.65534   0.00000   0.00000  -0.00000  -0.00000   2.65534
    R4        2.87093   0.00001   0.00000   0.00003   0.00003   2.87096
    R5        2.08789  -0.00000   0.00000  -0.00001  -0.00001   2.08788
    R6        1.82439   0.00000   0.00000   0.00000   0.00000   1.82439
    R7        2.87421  -0.00001   0.00000  -0.00005  -0.00005   2.87416
    R8        2.08057   0.00000   0.00000   0.00000   0.00000   2.08057
    R9        2.08678  -0.00000   0.00000  -0.00001  -0.00001   2.08677
   R10        2.07888  -0.00000   0.00000  -0.00000  -0.00000   2.07888
   R11        2.07810  -0.00000   0.00000  -0.00000  -0.00000   2.07809
   R12        2.08172  -0.00000   0.00000  -0.00001  -0.00001   2.08171
    A1        1.87942  -0.00000   0.00000  -0.00001  -0.00001   1.87940
    A2        1.94215   0.00000   0.00000   0.00002   0.00002   1.94217
    A3        1.96634   0.00001   0.00000   0.00003   0.00003   1.96637
    A4        1.82695  -0.00001   0.00000  -0.00004  -0.00004   1.82691
    A5        1.87736  -0.00000   0.00000  -0.00000  -0.00000   1.87736
    A6        1.92593  -0.00000   0.00000  -0.00003  -0.00003   1.92590
    A7        1.92567   0.00000   0.00000   0.00002   0.00002   1.92569
    A8        1.87854   0.00001   0.00000   0.00003   0.00003   1.87857
    A9        1.97822   0.00001   0.00000   0.00006   0.00006   1.97828
   A10        1.88182   0.00000   0.00000   0.00001   0.00001   1.88183
   A11        1.87698  -0.00001   0.00000  -0.00004  -0.00004   1.87694
   A12        1.92852  -0.00000   0.00000  -0.00000  -0.00000   1.92852
   A13        1.93071   0.00000   0.00000   0.00001   0.00001   1.93072
   A14        1.86295  -0.00000   0.00000  -0.00004  -0.00004   1.86290
   A15        1.93963   0.00000   0.00000   0.00001   0.00001   1.93964
   A16        1.93601  -0.00000   0.00000  -0.00000  -0.00000   1.93601
   A17        1.94050   0.00000   0.00000   0.00003   0.00003   1.94053
   A18        1.88374  -0.00000   0.00000  -0.00002  -0.00002   1.88372
   A19        1.88044  -0.00000   0.00000  -0.00002  -0.00002   1.88042
   A20        1.88103  -0.00000   0.00000  -0.00000  -0.00000   1.88102
    D1       -1.18807  -0.00000   0.00000   0.00031   0.00031  -1.18775
    D2        0.92205   0.00000   0.00000   0.00035   0.00035   0.92240
    D3        3.01484   0.00000   0.00000   0.00036   0.00036   3.01520
    D4       -1.07962   0.00001   0.00000   0.00007   0.00007  -1.07955
    D5        3.04202  -0.00000   0.00000   0.00002   0.00002   3.04204
    D6        0.94056  -0.00000   0.00000   0.00002   0.00002   0.94057
    D7        1.00596  -0.00000   0.00000   0.00001   0.00001   1.00597
    D8       -3.13680  -0.00000   0.00000   0.00005   0.00005  -3.13675
    D9       -1.13377  -0.00000   0.00000  -0.00002  -0.00002  -1.13378
   D10       -3.13047   0.00000   0.00000   0.00006   0.00006  -3.13041
   D11       -0.99005   0.00000   0.00000   0.00010   0.00010  -0.98996
   D12        1.01299   0.00000   0.00000   0.00003   0.00003   1.01302
   D13       -1.02884   0.00000   0.00000   0.00003   0.00003  -1.02881
   D14        1.11158   0.00000   0.00000   0.00007   0.00007   1.11165
   D15        3.11462  -0.00000   0.00000   0.00001   0.00001   3.11462
   D16       -1.04700   0.00000   0.00000   0.00022   0.00022  -1.04679
   D17        3.14045   0.00000   0.00000   0.00023   0.00023   3.14069
   D18        1.04757   0.00000   0.00000   0.00022   0.00022   1.04778
   D19        3.12185  -0.00000   0.00000   0.00017   0.00017   3.12201
   D20        1.02611  -0.00000   0.00000   0.00018   0.00018   1.02630
   D21       -1.06677  -0.00000   0.00000   0.00017   0.00017  -1.06661
   D22        1.06267   0.00000   0.00000   0.00021   0.00021   1.06289
   D23       -1.03306   0.00000   0.00000   0.00023   0.00023  -1.03283
   D24       -3.12595   0.00000   0.00000   0.00021   0.00021  -3.12573
         Item               Value     Threshold  Converged?
 Maximum Force            0.000013     0.000450     YES
 RMS     Force            0.000004     0.000300     YES
 Maximum Displacement     0.000585     0.001800     YES
 RMS     Displacement     0.000132     0.001200     YES
 Predicted change in Energy=-3.352552D-09
 Optimization completed.
    -- Stationary point found.
                           ----------------------------
                           !   Optimized Parameters   !
                           ! (Angstroms and Degrees)  !
 --------------------------                            --------------------------
 ! Name  Definition              Value          Derivative Info.                !
 --------------------------------------------------------------------------------
 ! R1    R(1,2)                  1.406          -DE/DX =    0.0                 !
 ! R2    R(1,6)                  0.9674         -DE/DX =    0.0                 !
 ! R3    R(2,3)                  1.4051         -DE/DX =    0.0                 !
 ! R4    R(2,4)                  1.5192         -DE/DX =    0.0                 !
 ! R5    R(2,7)                  1.1049         -DE/DX =    0.0                 !
 ! R6    R(3,8)                  0.9654         -DE/DX =    0.0                 !
 ! R7    R(4,5)                  1.521          -DE/DX =    0.0                 !
 ! R8    R(4,9)                  1.101          -DE/DX =    0.0                 !
 ! R9    R(4,10)                 1.1043         -DE/DX =    0.0                 !
 ! R10   R(5,11)                 1.1001         -DE/DX =    0.0                 !
 ! R11   R(5,12)                 1.0997         -DE/DX =    0.0                 !
 ! R12   R(5,13)                 1.1016         -DE/DX =    0.0                 !
 ! A1    A(2,1,6)              107.6826         -DE/DX =    0.0                 !
 ! A2    A(1,2,3)              111.2767         -DE/DX =    0.0                 !
 ! A3    A(1,2,4)              112.6628         -DE/DX =    0.0                 !
 ! A4    A(1,2,7)              104.6767         -DE/DX =    0.0                 !
 ! A5    A(3,2,4)              107.5648         -DE/DX =    0.0                 !
 ! A6    A(3,2,7)              110.3475         -DE/DX =    0.0                 !
 ! A7    A(4,2,7)              110.3327         -DE/DX =    0.0                 !
 ! A8    A(2,3,8)              107.6325         -DE/DX =    0.0                 !
 ! A9    A(2,4,5)              113.3438         -DE/DX =    0.0                 !
 ! A10   A(2,4,9)              107.8204         -DE/DX =    0.0                 !
 ! A11   A(2,4,10)             107.543          -DE/DX =    0.0                 !
 ! A12   A(5,4,9)              110.4961         -DE/DX =    0.0                 !
 ! A13   A(5,4,10)             110.6215         -DE/DX =    0.0                 !
 ! A14   A(9,4,10)             106.7391         -DE/DX =    0.0                 !
 ! A15   A(4,5,11)             111.1329         -DE/DX =    0.0                 !
 ! A16   A(4,5,12)             110.9253         -DE/DX =    0.0                 !
 ! A17   A(4,5,13)             111.1824         -DE/DX =    0.0                 !
 ! A18   A(11,5,12)            107.9302         -DE/DX =    0.0                 !
 ! A19   A(11,5,13)            107.7412         -DE/DX =    0.0                 !
 ! A20   A(12,5,13)            107.7749         -DE/DX =    0.0                 !
 ! D1    D(6,1,2,3)            -68.0712         -DE/DX =    0.0                 !
 ! D2    D(6,1,2,4)             52.8298         -DE/DX =    0.0                 !
 ! D3    D(6,1,2,7)            172.7376         -DE/DX =    0.0                 !
 ! D4    D(1,2,3,8)            -61.8578         -DE/DX =    0.0                 !
 ! D5    D(4,2,3,8)            174.2951         -DE/DX =    0.0                 !
 ! D6    D(7,2,3,8)             53.89           -DE/DX =    0.0                 !
 ! D7    D(1,2,4,5)             57.6375         -DE/DX =    0.0                 !
 ! D8    D(1,2,4,9)           -179.7256         -DE/DX =    0.0                 !
 ! D9    D(1,2,4,10)           -64.96           -DE/DX =    0.0                 !
 ! D10   D(3,2,4,5)           -179.3626         -DE/DX =    0.0                 !
 ! D11   D(3,2,4,9)            -56.7257         -DE/DX =    0.0                 !
 ! D12   D(3,2,4,10)            58.0398         -DE/DX =    0.0                 !
 ! D13   D(7,2,4,5)            -58.9482         -DE/DX =    0.0                 !
 ! D14   D(7,2,4,9)             63.6887         -DE/DX =    0.0                 !
 ! D15   D(7,2,4,10)           178.4543         -DE/DX =    0.0                 !
 ! D16   D(2,4,5,11)           -59.9888         -DE/DX =    0.0                 !
 ! D17   D(2,4,5,12)           179.9347         -DE/DX =    0.0                 !
 ! D18   D(2,4,5,13)            60.0211         -DE/DX =    0.0                 !
 ! D19   D(9,4,5,11)           178.8686         -DE/DX =    0.0                 !
 ! D20   D(9,4,5,12)            58.7921         -DE/DX =    0.0                 !
 ! D21   D(9,4,5,13)           -61.1215         -DE/DX =    0.0                 !
 ! D22   D(10,4,5,11)           60.8866         -DE/DX =    0.0                 !
 ! D23   D(10,4,5,12)          -59.1899         -DE/DX =    0.0                 !
 ! D24   D(10,4,5,13)         -179.1035         -DE/DX =    0.0                 !
 --------------------------------------------------------------------------------
 GradGradGradGradGradGradGradGradGradGradGradGradGradGradGradGradGradGrad

 Leave Link  103 at Tue Oct 21 19:52:19 2025, MaxMem=  4294967296 cpu:               0.4 elap:               0.1
 (Enter /lrz/sys/applications/gaussian/g16.C.01/x86_64_legacy/exe/l9999.exe)

 ----------------------------------------------------------------------

 Electric dipole moment (input orientation):
 (Debye = 10**-18 statcoulomb cm , SI units = C m)
                  (au)            (Debye)         (10**-30 SI)
   Tot        0.729391D-01      0.185393D+00      0.618404D+00
   x          0.470879D-01      0.119686D+00      0.399228D+00
   y          0.242213D-02      0.615643D-02      0.205357D-01
   z          0.556505D-01      0.141449D+00      0.471824D+00

 Dipole polarizability, Alpha (input orientation).
 (esu units = cm**3 , SI units = C**2 m**2 J**-1)
 Alpha(0;0):
               (au)            (10**-24 esu)      (10**-40 SI)
   iso        0.523294D+02      0.775441D+01      0.862795D+01
   aniso      0.332256D+01      0.492353D+00      0.547816D+00
   xx         0.533733D+02      0.790910D+01      0.880006D+01
   yx        -0.713053D+00     -0.105664D+00     -0.117567D+00
   yy         0.507018D+02      0.751323D+01      0.835960D+01
   zx         0.594679D+00      0.881224D-01      0.980494D-01
   zy        -0.882038D+00     -0.130705D+00     -0.145428D+00
   zz         0.529131D+02      0.784091D+01      0.872419D+01

 ----------------------------------------------------------------------

 Dipole orientation:
     8         -0.86459516         -2.50320608         -0.75785825
     6         -0.27059436          0.07324539         -1.01874138
     8         -2.40466814          1.48755128         -1.72322144
     6          0.76857108          1.21926810          1.39972552
     6          3.12001649         -0.11586215          2.37399558
     1         -1.96185112         -2.67584308          0.69424237
     1          1.17091828          0.13359892         -2.52793686
     1         -2.96497982          0.87114788         -3.34633555
     1          1.17076762          3.22707517          1.03133022
     1         -0.75293668          1.16308747          2.82678440
     1          2.73020428         -2.11611553          2.78481881
     1          3.80836709          0.77377618          4.12133764
     1          4.65988781         -0.04401450          0.97499678

 Electric dipole moment (dipole orientation):
 (Debye = 10**-18 statcoulomb cm , SI units = C m)
                  (au)            (Debye)         (10**-30 SI)
   Tot        0.729391D-01      0.185393D+00      0.618404D+00
   x          0.000000D+00      0.000000D+00      0.000000D+00
   y          0.000000D+00      0.000000D+00      0.000000D+00
   z          0.729391D-01      0.185393D+00      0.618404D+00

 Dipole polarizability, Alpha (dipole orientation).
 (esu units = cm**3 , SI units = C**2 m**2 J**-1)
 Alpha(0;0):
               (au)            (10**-24 esu)      (10**-40 SI)
   iso        0.523294D+02      0.775441D+01      0.862795D+01
   aniso      0.332256D+01      0.492353D+00      0.547816D+00
   xx         0.525942D+02      0.779365D+01      0.867161D+01
   yx         0.366505D-01      0.543105D-02      0.604285D-02
   yy         0.507810D+02      0.752497D+01      0.837265D+01
   zx         0.340978D+00      0.505277D-01      0.562196D-01
   zy        -0.122660D+01     -0.181763D+00     -0.202238D+00
   zz         0.536130D+02      0.794463D+01      0.883959D+01

 ----------------------------------------------------------------------
 Unable to Open any file for archive entry.
 1\1\GINC-CM4R13C06S02\Freq\RwB97XD\def2SVP\C3H8O2\GO29TIZ2\21-Oct-2025
 \0\\#P Geom=AllCheck Guess=TCheck SCRF=Check GenChk RwB97XD/def2SVP Fr
 eq\\g16_C3-w_1\\0,1\O,-0.5921598311,-1.3315650635,0.0333724097\C,-0.45
 78404842,0.0225747925,-0.3201592808\O,-1.5699424611,0.7718780413,0.099
 60935\C,0.7808987027,0.6644565489,0.2811462198\C,2.0724934427,-0.03963
 27959,-0.1053464153\H,-0.5383518698,-1.3902854871,0.9975381871\H,-0.39
 132432,0.0186959613,-1.4230106329\H,-2.3468826392,0.4209785441,-0.3534
 700259\H,0.804644401,1.7172159345,-0.0402754219\H,0.6539714531,0.66961
 36019,1.3780901743\H,2.0681978355,-1.0877315576,0.2288418472\H,2.94185
 25427,0.4571250609,0.3493468494\H,2.2163262277,-0.0361294814,-1.197509
 9607\\Version=EM64L-G16RevC.01\State=1-A\HF=-269.317753\RMSD=8.629e-10
 \RMSF=7.686e-06\ZeroPoint=0.1151594\Thermal=0.12134\ETot=-269.1964131\
 HTot=-269.1954689\GTot=-269.2316535\Dipole=0.0470879,0.0024221,0.05565
 05\DipoleDeriv=-0.8956106,-0.1219014,0.0169555,0.0278991,-1.3370382,0.
 1934045,0.0270515,0.2827509,-0.5810429,1.3863621,-0.1722864,-0.1269621
 ,-0.2064786,1.5728242,-0.149229,-0.1108958,-0.1231434,0.8510695,-1.286
 5233,0.3959068,0.1325446,0.2764132,-0.8900448,0.095471,0.168037,-0.009
 5034,-0.6698766,-0.0523012,-0.0882732,-0.0377728,-0.0807015,0.0255667,
 0.0053945,-0.1225962,-0.0729605,0.0994019,0.0127507,0.0007296,-0.02688
 59,-0.0139768,0.0561894,-0.0093633,-0.018383,-0.0047766,0.086484,0.461
 3755,-0.0062723,-0.007715,-0.0031155,0.3696217,-0.083204,-0.0218827,-0
 .0289622,0.281593,-0.0292333,-0.0021335,-0.0081063,0.0191988,-0.017665
 ,-0.0243866,0.0352055,-0.0098154,-0.248299,0.3680582,-0.0143676,-0.007
 6813,-0.0451515,0.3568434,-0.0863652,-0.0125656,-0.0786914,0.3716421,0
 .030982,0.0305605,-0.0043449,0.0145041,-0.1684374,0.051801,-0.0006659,
 0.0746776,0.0658556,0.0085175,0.0039271,0.0801443,-0.0012521,0.0685026
 ,0.0035895,0.0449011,-0.0228345,-0.1876838,0.0747607,0.0050935,0.02544
 91,0.0576055,-0.1486913,0.0601202,0.0191803,0.063634,0.0595513,-0.1212
 414,-0.0577493,-0.0628212,-0.0779621,0.0359136,-0.0557407,-0.0781276,-
 0.0545837,0.0503412,0.0421031,0.0267661,0.0271961,0.0330172,0.0764151,
 -0.0014916,0.0707416,-0.0157916,-0.1790364\Polar=53.3732747,-0.7130535
 ,50.7017988,0.5946793,-0.8820382,52.9130795\Quadrupole=1.80354,-3.4519
 863,1.6484463,1.0213424,1.3964723,-2.4932448\PG=C01 [X(C3H8O2)]\NImag=
 0\\0.08538712,0.03991968,0.46745673,0.02382641,-0.09492125,0.62812037,
 -0.07571133,-0.05258235,0.01302382,0.60435706,-0.03664149,-0.30867525,
 0.08152678,-0.00432018,0.60683869,0.00191383,0.04281492,-0.12784698,-0
 .02339239,-0.00315363,0.69547406,0.00026453,0.03210475,-0.00417820,-0.
 25767193,0.10118161,0.07979703,0.66154951,0.04518886,-0.06363511,-0.00
 825531,0.08290993,-0.13737250,-0.06408999,-0.00557221,0.28811530,-0.00
 492823,0.00057794,0.01545424,0.05163434,-0.05516096,-0.12277516,0.1076
 0632,0.18386776,0.24054697,-0.00101997,-0.00698631,-0.00128334,-0.1571
 1374,-0.04198972,-0.04229933,-0.04623507,-0.00718702,-0.01356610,0.507
 25751,-0.03290637,-0.03876087,-0.00906329,-0.04655991,-0.09787425,-0.0
 2192177,0.02276702,0.00760040,0.00662789,-0.00704297,0.58934567,0.0102
 7725,0.01132061,0.00647209,-0.05664302,-0.02814009,-0.12035481,0.01469
 231,0.00353511,0.00794668,-0.01513060,-0.03072654,0.58731976,-0.000201
 91,0.00232408,-0.00081508,-0.02774023,0.01159938,0.00830245,-0.0050506
 5,-0.00172889,-0.00218414,-0.18169814,0.05578540,0.03094649,0.52984661
 ,-0.00146880,-0.00100988,0.00005389,-0.00683189,0.00945194,0.00683174,
 -0.00586045,-0.00036906,-0.00155539,0.05698670,-0.11512911,-0.01892980
 ,0.03736445,0.56815829,-0.00100090,-0.00002140,0.00053614,-0.00764417,
 0.00882141,0.00363621,-0.00505952,-0.00099214,-0.00059503,0.03180054,-
 0.01910407,-0.09209364,0.02243787,-0.00927461,0.57682384,-0.00995563,-
 0.00382150,-0.03596734,-0.00060225,0.00053788,0.00624805,0.00104944,-0
 .00168146,-0.00072362,0.00028593,0.00095895,0.00235757,-0.00031244,0.0
 0017976,0.00008583,0.00785109,-0.00521325,-0.04290759,-0.01057593,0.00
 100852,-0.01135094,0.04951831,-0.00050684,0.00316484,-0.00192028,-0.00
 000815,0.00208056,0.00067220,-0.00030766,0.00020245,0.00003881,0.00552
 124,0.05461358,-0.02888071,0.03720873,-0.51426634,-0.00060895,0.003258
 29,-0.01594441,0.00035847,-0.00288539,0.00135533,0.00001672,-0.0023176
 7,0.00378727,0.00021983,-0.00013940,-0.00020575,0.02869260,-0.03786362
 ,0.52449473,0.00344457,-0.00273110,0.00612978,-0.05555074,-0.00342559,
 -0.00018833,-0.01331277,0.01165798,0.03502112,0.00144933,-0.00046649,-
 0.02558410,0.00158346,-0.00026090,-0.00074028,0.00172170,-0.00096640,0
 .00027583,0.06169475,-0.00181234,-0.01523668,0.04335218,-0.00359982,-0
 .04752941,-0.00846491,0.01271805,-0.00245030,-0.02299375,-0.00058199,0
 .00174956,-0.01370216,0.00042346,0.00011475,0.00030402,-0.00183449,-0.
 00521371,0.00257297,-0.00217159,0.06878072,-0.00003099,0.00822985,-0.0
 1184627,0.00604756,-0.00058247,-0.30412669,0.00957229,-0.00617210,-0.0
 0694211,0.00064499,-0.00032134,-0.01114912,0.00038418,-0.00006184,0.00
 070495,0.00045957,0.00160891,0.00166392,-0.01432823,-0.00086965,0.3301
 6648,0.00394624,-0.00280640,0.00022438,-0.03415954,-0.01062216,-0.0158
 2184,-0.34061112,-0.12248973,-0.17229289,-0.00335382,0.00369770,0.0029
 8483,-0.00048478,-0.00092915,-0.00092661,-0.00036089,0.00031818,-0.000
 25571,0.00246481,-0.00130186,-0.00043385,0.37228401,-0.00137222,0.0018
 4482,-0.00019009,0.02559339,0.00474902,0.01010904,-0.16114509,-0.09727
 522,-0.11106874,0.00209472,-0.00086366,-0.00118672,0.00058752,0.000635
 07,0.00000957,-0.00008785,-0.00010367,0.00037541,0.00044059,-0.0004112
 8,-0.00067218,0.13368819,0.09143112,0.00069145,-0.00211061,-0.00016010
 ,0.01478711,0.00555308,0.00523050,-0.20494337,-0.10529065,-0.13742540,
 0.00165568,-0.00175758,0.00032076,0.00070383,0.00009833,0.00084325,-0.
 00019855,0.00010671,-0.00032002,0.00061212,0.00088510,0.00103279,0.186
 21757,0.10272790,0.13025942,-0.00542257,-0.00626136,-0.00190461,0.0011
 3157,-0.02236344,0.01124414,0.00028930,0.00002846,-0.00010161,-0.04728
 703,-0.00694718,0.00086406,0.00018043,0.02827972,-0.00901372,0.0002812
 2,0.00055640,-0.00083051,0.00063533,0.00051756,-0.00016779,0.00035787,
 0.00017831,-0.00003537,0.05337560,-0.00386055,-0.00293787,-0.00107956,
 0.00416742,-0.01281546,0.00655894,0.00103499,0.00155136,0.00003388,-0.
 01012686,-0.29405850,0.07702063,-0.00093754,-0.01154672,0.00377514,0.0
 0034944,0.00041962,-0.00070255,-0.00001351,0.00050643,-0.00023296,0.00
 001271,0.00031153,-0.00023764,0.00702721,0.31614445,-0.00298220,-0.002
 96390,0.00076163,0.00018933,-0.01327551,0.00331188,0.00087325,0.000127
 80,0.00038497,0.00203658,0.08065285,-0.07462331,-0.00036208,-0.0090389
 6,0.00230564,-0.00033306,-0.00034172,-0.00014951,0.00072135,0.00008581
 ,0.00041030,0.00010095,-0.00002053,-0.00018506,-0.00199804,-0.08277849
 ,0.07343538,0.00109098,0.00230545,0.00085977,0.00072413,0.00053461,-0.
 02970042,0.00231467,-0.00030059,0.00040429,-0.05023117,-0.00142822,0.0
 2860939,-0.00337047,-0.00078468,0.02859943,0.00010413,-0.00058409,0.00
 090077,-0.00394950,-0.00214548,-0.00161206,0.00028401,-0.00011973,0.00
 036355,-0.00076903,0.00001527,0.00131111,0.05635400,0.00077782,0.00182
 717,-0.00035768,0.00075787,-0.00175422,-0.01667674,0.00125096,0.000262
 99,0.00114096,-0.00115160,-0.04884477,0.00340912,0.00166398,-0.0002585
 9,-0.01549485,-0.00029154,-0.00075479,0.00050526,-0.00217551,-0.000377
 90,-0.00117665,0.00015645,-0.00018524,0.00011126,-0.00260236,0.0016119
 5,0.02858461,0.00003693,0.04793972,0.00012128,-0.00004253,0.00272393,0
 .00300901,0.00152345,-0.01725753,0.00053474,0.00027691,0.00161088,0.02
 772898,0.00201013,-0.30747043,-0.00005830,0.00037490,-0.00523936,-0.00
 041723,-0.00116789,-0.00042731,-0.00268316,-0.00147347,-0.00020745,0.0
 0008932,-0.00004220,0.00048324,0.00040702,-0.00124455,-0.00711365,-0.0
 3028344,0.00081523,0.33114917,-0.00136031,-0.00073146,0.00031172,0.001
 26389,0.00109931,-0.00079362,0.00027205,-0.00040179,0.00017983,0.00110
 058,0.02739382,-0.00972862,-0.04595699,-0.00598703,0.00203876,-0.00030
 814,-0.00010455,0.00026362,0.00001306,-0.00015760,0.00004556,-0.000075
 21,-0.00008209,-0.00002825,-0.00492097,0.00250776,0.00138059,0.0012111
 6,-0.00077685,0.00000119,0.04920396,-0.00194677,0.00125868,-0.00028473
 ,-0.00134770,-0.00151975,-0.00029009,0.00059061,0.00019408,0.00008709,
 -0.00032104,-0.01275811,0.00465804,-0.00391479,-0.29651546,0.08159828,
 0.00014601,-0.00007820,0.00000993,0.00009676,0.00006172,0.00000966,0.0
 0004932,-0.00001314,-0.00002785,0.00287740,-0.00035221,-0.00115261,-0.
 00014200,0.00057156,-0.00022073,0.00229047,0.31763990,0.00029615,-0.00
 026739,0.00002933,-0.00006047,0.00084117,0.00004216,-0.00000099,-0.000
 12063,-0.00006055,-0.00070931,-0.00988326,0.00266110,0.00130356,0.0822
 8261,-0.07509947,-0.00000238,0.00005145,-0.00002440,0.00003841,-0.0000
 5522,0.00003404,-0.00002685,0.00003035,-0.00002002,0.00195812,-0.00091
 854,0.00075320,-0.00072401,-0.00029844,0.00048810,-0.00347856,-0.08729
 486,0.07383770,-0.00031955,-0.00049497,0.00003421,-0.00042770,0.004458
 25,0.00304808,-0.00280931,-0.00046629,-0.00073354,-0.01985544,-0.01391
 925,-0.01225694,-0.21625666,-0.10013507,-0.09115333,0.00011062,0.00013
 759,-0.00012289,0.00005810,0.00000830,-0.00013740,-0.00032648,0.000206
 17,0.00029963,0.00106557,0.00006518,-0.00032630,0.00086862,-0.00041671
 ,0.00026391,0.00066386,0.00145628,0.00092279,0.23322678,-0.00068659,0.
 00068990,-0.00014375,0.00148402,-0.00235094,-0.00138394,0.00143105,0.0
 0030659,0.00028739,0.01499800,0.00771052,0.00834088,-0.10212081,-0.105
 91025,-0.05415316,0.00004213,-0.00001387,0.00000293,-0.00006331,-0.000
 07624,0.00003500,0.00024626,-0.00010685,-0.00009845,-0.00053621,0.0007
 4937,0.00039658,-0.00065861,0.00036765,0.00001498,-0.02208923,-0.01055
 729,-0.01351636,0.10601190,0.10913970,0.00020811,-0.00012431,0.0000898
 1,0.00093244,-0.00083905,0.00001673,0.00058210,-0.00003982,0.00026394,
 0.00869513,0.00542939,0.00332162,-0.09279788,-0.05422464,-0.09562270,-
 0.00006703,-0.00003240,-0.00001555,0.00019657,0.00011478,0.00020400,0.
 00009391,-0.00007107,-0.00004202,-0.00045716,0.00001858,0.00012684,-0.
 00024530,0.00052297,0.00054119,0.00928053,0.00448495,0.00424325,0.0975
 1815,0.05899117,0.09688662,-0.00014217,-0.00023851,-0.00026153,0.00150
 081,-0.00004847,0.00164234,-0.00004864,0.00004274,-0.00031577,-0.00329
 894,-0.00133251,0.02861138,-0.05053824,-0.00055268,0.03057609,0.000135
 22,0.00014900,-0.00002906,-0.00025210,-0.00006218,-0.00044382,0.000034
 90,0.00001808,-0.00012540,0.00108271,-0.00024152,-0.00061148,-0.004631
 54,0.00277056,0.00128669,-0.00110693,0.00016546,0.00048355,0.00400159,
 0.00194138,-0.02393956,0.05326333,0.00002198,0.00008595,-0.00006126,-0
 .00067930,0.00020305,0.00014812,0.00000555,-0.00009337,0.00007621,0.00
 131623,-0.00019745,-0.01627129,-0.00073858,-0.04782343,0.00449301,-0.0
 0001856,-0.00005829,-0.00002489,0.00007908,0.00008231,0.00020577,-0.00
 001953,-0.00001251,0.00004040,-0.00075450,0.00041606,-0.00027592,0.003
 27113,-0.00040553,-0.00082423,-0.00296076,0.00206821,0.02914912,0.0030
 8862,0.00005170,-0.01423055,-0.00261136,0.04568329,0.00048856,0.000299
 32,-0.00006787,-0.00127461,-0.00037247,0.00059405,0.00016558,0.0000384
 4,0.00023523,0.00041007,0.00037528,-0.00613797,0.03191927,0.00358317,-
 0.31599407,-0.00013440,-0.00009457,0.00005204,0.00052892,0.00024430,0.
 00005518,0.00004680,-0.00000074,-0.00001733,0.00003544,-0.00021287,0.0
 0058168,0.00151693,-0.00108505,0.00071921,0.00052725,-0.00157706,-0.00
 688444,0.00264362,0.00122673,-0.01001371,-0.03687343,-0.00242448,0.336
 87800\\-0.00000380,0.00001066,0.00001473,0.00000206,-0.00000006,-0.000
 01306,0.00000392,0.00000329,0.00000018,-0.00001924,0.00000749,0.000000
 86,0.00000805,-0.00001333,-0.00000009,-0.00000020,0.00000879,0.0000143
 4,0.00000543,-0.00000790,-0.00000227,0.00000316,0.00000038,-0.00000597
 ,0.00000110,-0.00000248,-0.00001610,0.00000244,0.00000831,-0.00000166,
 -0.00000307,-0.00000315,0.00001244,0.00000145,-0.00000044,-0.00000239,
 -0.00000129,-0.00001156,-0.00000103\\\@
 The archive entry for this job was punched.


 MARY HAD A LITTLE LAMB
      HIS FEET WERE BLACK AS SOOT,
           AND EVERYWHERE THAT MARY WENT
                HIS SOOTY FOOT HE PUT.

                    -- NONAME
 Job cpu time:       0 days  0 hours  9 minutes 37.7 seconds.
 Elapsed time:       0 days  0 hours  1 minutes 12.7 seconds.
 File lengths (MBytes):  RWF=   1312 Int=      0 D2E=      0 Chk=     12 Scr=     32
 Normal termination of Gaussian 16 at Tue Oct 21 19:52:19 2025.
