 Entering Gaussian System, Link 0=g16
 Input=../../g16_C3-w_3.com
 Output=../../g16_C3-w_3.log
 Initial command:
 /lrz/sys/applications/gaussian/g16.C.01/x86_64_legacy/exe/l1.exe "/dss/lxclscratch/0D/go29tiz2/Gau-211177.inp" -scrdir="/dss/lxclscratch/0D/go29tiz2/"
 Entering Link 1 = /lrz/sys/applications/gaussian/g16.C.01/x86_64_legacy/exe/l1.exe PID=    211178.
  
 Copyright (c) 1988-2019, Gaussian, Inc.  All Rights Reserved.
  
 This is part of the Gaussian(R) 16 program.  It is based on
 the Gaussian(R) 09 system (copyright 2009, Gaussian, Inc.),
 the Gaussian(R) 03 system (copyright 2003, Gaussian, Inc.),
 the Gaussian(R) 98 system (copyright 1998, Gaussian, Inc.),
 the Gaussian(R) 94 system (copyright 1995, Gaussian, Inc.),
 the Gaussian 92(TM) system (copyright 1992, Gaussian, Inc.),
 the Gaussian 90(TM) system (copyright 1990, Gaussian, Inc.),
 the Gaussian 88(TM) system (copyright 1988, Gaussian, Inc.),
 the Gaussian 86(TM) system (copyright 1986, Carnegie Mellon
 University), and the Gaussian 82(TM) system (copyright 1983,
 Carnegie Mellon University). Gaussian is a federally registered
 trademark of Gaussian, Inc.
  
 This software contains proprietary and confidential information,
 including trade secrets, belonging to Gaussian, Inc.
  
 This software is provided under written license and may be
 used, copied, transmitted, or stored only in accord with that
 written license.
  
 The following legend is applicable only to US Government
 contracts under FAR:
  
                    RESTRICTED RIGHTS LEGEND
  
 Use, reproduction and disclosure by the US Government is
 subject to restrictions as set forth in subparagraphs (a)
 and (c) of the Commercial Computer Software - Restricted
 Rights clause in FAR 52.227-19.
  
 Gaussian, Inc.
 340 Quinnipiac St., Bldg. 40, Wallingford CT 06492
  
  
 ---------------------------------------------------------------
 Warning -- This program may not be used in any manner that
 competes with the business of Gaussian, Inc. or will provide
 assistance to any competitor of Gaussian, Inc.  The licensee
 of this program is prohibited from giving any competitor of
 Gaussian, Inc. access to this program.  By using this program,
 the user acknowledges that Gaussian, Inc. is engaged in the
 business of creating and licensing software in the field of
 computational chemistry and represents and warrants to the
 licensee that it is not a competitor of Gaussian, Inc. and that
 it will not use this program in any manner prohibited above.
 ---------------------------------------------------------------
  

 Cite this work as:
 Gaussian 16, Revision C.01,
 M. J. Frisch, G. W. Trucks, H. B. Schlegel, G. E. Scuseria, 
 M. A. Robb, J. R. Cheeseman, G. Scalmani, V. Barone, 
 G. A. Petersson, H. Nakatsuji, X. Li, M. Caricato, A. V. Marenich, 
 J. Bloino, B. G. Janesko, R. Gomperts, B. Mennucci, H. P. Hratchian, 
 J. V. Ortiz, A. F. Izmaylov, J. L. Sonnenberg, D. Williams-Young, 
 F. Ding, F. Lipparini, F. Egidi, J. Goings, B. Peng, A. Petrone, 
 T. Henderson, D. Ranasinghe, V. G. Zakrzewski, J. Gao, N. Rega, 
 G. Zheng, W. Liang, M. Hada, M. Ehara, K. Toyota, R. Fukuda, 
 J. Hasegawa, M. Ishida, T. Nakajima, Y. Honda, O. Kitao, H. Nakai, 
 T. Vreven, K. Throssell, J. A. Montgomery, Jr., J. E. Peralta, 
 F. Ogliaro, M. J. Bearpark, J. J. Heyd, E. N. Brothers, K. N. Kudin, 
 V. N. Staroverov, T. A. Keith, R. Kobayashi, J. Normand, 
 K. Raghavachari, A. P. Rendell, J. C. Burant, S. S. Iyengar, 
 J. Tomasi, M. Cossi, J. M. Millam, M. Klene, C. Adamo, R. Cammi, 
 J. W. Ochterski, R. L. Martin, K. Morokuma, O. Farkas, 
 J. B. Foresman, and D. J. Fox, Gaussian, Inc., Wallingford CT, 2019.
 
 ******************************************
 Gaussian 16:  EM64L-G16RevC.01  3-Jul-2019
                21-Oct-2025 
 ******************************************
 %chk=g16_C3-w_3.chk
 %nprocshared=8
 Will use up to    8 processors via shared memory.
 %mem=32GB
 ---------------------------------------------------
 #p opt freq wb97xd scrf=(smd,solvent=water) def2svp
 ---------------------------------------------------
 1/18=20,19=15,26=3,38=1/1,3;
 2/9=110,12=2,17=6,18=5,40=1/2;
 3/5=43,7=101,11=2,25=1,30=1,70=32201,71=1,72=1,74=-58/1,2,3;
 4//1;
 5/5=2,38=5,53=1/2;
 6/7=2,8=2,9=2,10=2,28=1/1;
 7//1,2,3,16;
 1/18=20,19=15,26=3/3(2);
 2/9=110/2;
 99//99;
 2/9=110/2;
 3/5=43,7=101,11=2,25=1,30=1,70=32205,71=1,72=1,74=-58/1,2,3;
 4/5=5,16=3,69=1/1;
 5/5=2,38=5,53=1/2;
 7//1,2,3,16;
 1/18=20,19=15,26=3/3(-5);
 2/9=110/2;
 6/7=2,8=2,9=2,10=2,19=2,28=1/1;
 99/9=1/99;
 Leave Link    1 at Tue Oct 21 19:49:38 2025, MaxMem=  4294967296 cpu:               7.6 elap:               1.1
 (Enter /lrz/sys/applications/gaussian/g16.C.01/x86_64_legacy/exe/l101.exe)
 ----------
 g16_C3-w_3
 ----------
 Symbolic Z-matrix:
 Charge =  0 Multiplicity = 1
 O                    -0.6239   -1.35324  -0.04824 
 C                    -0.57657  -0.01292  -0.45619 
 O                    -1.2079    0.81977   0.47634 
 C                     0.89239   0.3575   -0.69685 
 C                     1.73314   0.27483   0.57361 
 H                    -1.54315  -1.60904   0.09785 
 H                    -1.1493    0.12885  -1.38643 
 H                    -0.69673   0.77955   1.29496 
 H                     1.28109  -0.33863  -1.43963 
 H                     0.92656   1.36627  -1.11001 
 H                     1.45062   1.04851   1.28581 
 H                     2.78306   0.41262   0.33035 
 H                     1.60909  -0.70118   1.03621 
 
 ITRead=  0  0  0  0  0  0  0  0  0  0  0  0  0
 MicOpt= -1 -1 -1 -1 -1 -1 -1 -1 -1 -1 -1 -1 -1
 NAtoms=     13 NQM=       13 NQMF=       0 NMMI=      0 NMMIF=      0
                NMic=       0 NMicF=      0.
                    Isotopes and Nuclear Properties:
 (Nuclear quadrupole moments (NQMom) in fm**2, nuclear magnetic moments (NMagM)
  in nuclear magnetons)

  Atom         1           2           3           4           5           6           7           8           9          10
 IAtWgt=          16          12          16          12          12           1           1           1           1           1
 AtmWgt=  15.9949146  12.0000000  15.9949146  12.0000000  12.0000000   1.0078250   1.0078250   1.0078250   1.0078250   1.0078250
 NucSpn=           0           0           0           0           0           1           1           1           1           1
 AtZEff=  -0.0000000  -0.0000000  -0.0000000  -0.0000000  -0.0000000  -0.0000000  -0.0000000  -0.0000000  -0.0000000  -0.0000000
 NQMom=    0.0000000   0.0000000   0.0000000   0.0000000   0.0000000   0.0000000   0.0000000   0.0000000   0.0000000   0.0000000
 NMagM=    0.0000000   0.0000000   0.0000000   0.0000000   0.0000000   2.7928460   2.7928460   2.7928460   2.7928460   2.7928460
 AtZNuc=   8.0000000   6.0000000   8.0000000   6.0000000   6.0000000   1.0000000   1.0000000   1.0000000   1.0000000   1.0000000

  Atom        11          12          13
 IAtWgt=           1           1           1
 AtmWgt=   1.0078250   1.0078250   1.0078250
 NucSpn=           1           1           1
 AtZEff=  -0.0000000  -0.0000000  -0.0000000
 NQMom=    0.0000000   0.0000000   0.0000000
 NMagM=    2.7928460   2.7928460   2.7928460
 AtZNuc=   1.0000000   1.0000000   1.0000000
 Leave Link  101 at Tue Oct 21 19:49:39 2025, MaxMem=  4294967296 cpu:               3.7 elap:               0.5
 (Enter /lrz/sys/applications/gaussian/g16.C.01/x86_64_legacy/exe/l103.exe)

 GradGradGradGradGradGradGradGradGradGradGradGradGradGradGradGradGradGrad
 Berny optimization.
 Initialization pass.
                           ----------------------------
                           !    Initial Parameters    !
                           ! (Angstroms and Degrees)  !
 --------------------------                            --------------------------
 ! Name  Definition              Value          Derivative Info.                !
 --------------------------------------------------------------------------------
 ! R1    R(1,2)                  1.4018         estimate D2E/DX2                !
 ! R2    R(1,6)                  0.9653         estimate D2E/DX2                !
 ! R3    R(2,3)                  1.4006         estimate D2E/DX2                !
 ! R4    R(2,4)                  1.5339         estimate D2E/DX2                !
 ! R5    R(2,7)                  1.1016         estimate D2E/DX2                !
 ! R6    R(3,8)                  0.9659         estimate D2E/DX2                !
 ! R7    R(4,5)                  1.5257         estimate D2E/DX2                !
 ! R8    R(4,9)                  1.0897         estimate D2E/DX2                !
 ! R9    R(4,10)                 1.0906         estimate D2E/DX2                !
 ! R10   R(5,11)                 1.0889         estimate D2E/DX2                !
 ! R11   R(5,12)                 1.0865         estimate D2E/DX2                !
 ! R12   R(5,13)                 1.0872         estimate D2E/DX2                !
 ! A1    A(2,1,6)              109.2426         estimate D2E/DX2                !
 ! A2    A(1,2,3)              111.0678         estimate D2E/DX2                !
 ! A3    A(1,2,4)              107.9918         estimate D2E/DX2                !
 ! A4    A(1,2,7)              110.5631         estimate D2E/DX2                !
 ! A5    A(3,2,4)              113.1147         estimate D2E/DX2                !
 ! A6    A(3,2,7)              104.5592         estimate D2E/DX2                !
 ! A7    A(4,2,7)              109.5317         estimate D2E/DX2                !
 ! A8    A(2,3,8)              107.5155         estimate D2E/DX2                !
 ! A9    A(2,4,5)              112.5804         estimate D2E/DX2                !
 ! A10   A(2,4,9)              107.1141         estimate D2E/DX2                !
 ! A11   A(2,4,10)             108.2273         estimate D2E/DX2                !
 ! A12   A(5,4,9)              109.6594         estimate D2E/DX2                !
 ! A13   A(5,4,10)             110.384          estimate D2E/DX2                !
 ! A14   A(9,4,10)             108.753          estimate D2E/DX2                !
 ! A15   A(4,5,11)             111.2949         estimate D2E/DX2                !
 ! A16   A(4,5,12)             109.8275         estimate D2E/DX2                !
 ! A17   A(4,5,13)             109.8824         estimate D2E/DX2                !
 ! A18   A(11,5,12)            107.882          estimate D2E/DX2                !
 ! A19   A(11,5,13)            109.2666         estimate D2E/DX2                !
 ! A20   A(12,5,13)            108.6252         estimate D2E/DX2                !
 ! D1    D(6,1,2,3)             56.1333         estimate D2E/DX2                !
 ! D2    D(6,1,2,4)           -179.2956         estimate D2E/DX2                !
 ! D3    D(6,1,2,7)            -59.476          estimate D2E/DX2                !
 ! D4    D(1,2,3,8)             64.9521         estimate D2E/DX2                !
 ! D5    D(4,2,3,8)            -56.6709         estimate D2E/DX2                !
 ! D6    D(7,2,3,8)           -175.7771         estimate D2E/DX2                !
 ! D7    D(1,2,4,5)            -63.3333         estimate D2E/DX2                !
 ! D8    D(1,2,4,9)             57.2831         estimate D2E/DX2                !
 ! D9    D(1,2,4,10)           174.3836         estimate D2E/DX2                !
 ! D10   D(3,2,4,5)             60.004          estimate D2E/DX2                !
 ! D11   D(3,2,4,9)           -179.3796         estimate D2E/DX2                !
 ! D12   D(3,2,4,10)           -62.2791         estimate D2E/DX2                !
 ! D13   D(7,2,4,5)            176.1991         estimate D2E/DX2                !
 ! D14   D(7,2,4,9)            -63.1845         estimate D2E/DX2                !
 ! D15   D(7,2,4,10)            53.916          estimate D2E/DX2                !
 ! D16   D(2,4,5,11)           -68.2379         estimate D2E/DX2                !
 ! D17   D(2,4,5,12)           172.3645         estimate D2E/DX2                !
 ! D18   D(2,4,5,13)            52.9305         estimate D2E/DX2                !
 ! D19   D(9,4,5,11)           172.6184         estimate D2E/DX2                !
 ! D20   D(9,4,5,12)            53.2208         estimate D2E/DX2                !
 ! D21   D(9,4,5,13)           -66.2132         estimate D2E/DX2                !
 ! D22   D(10,4,5,11)           52.8205         estimate D2E/DX2                !
 ! D23   D(10,4,5,12)          -66.5772         estimate D2E/DX2                !
 ! D24   D(10,4,5,13)          173.9889         estimate D2E/DX2                !
 --------------------------------------------------------------------------------
 Trust Radius=3.00D-01 FncErr=1.00D-07 GrdErr=1.00D-06 EigMax=2.50D+02 EigMin=1.00D-04
 Number of steps in this run=     66 maximum allowed number of steps=    100.
 GradGradGradGradGradGradGradGradGradGradGradGradGradGradGradGradGradGrad

 Leave Link  103 at Tue Oct 21 19:49:39 2025, MaxMem=  4294967296 cpu:               0.1 elap:               0.0
 (Enter /lrz/sys/applications/gaussian/g16.C.01/x86_64_legacy/exe/l202.exe)
                          Input orientation:                          
 ---------------------------------------------------------------------
 Center     Atomic      Atomic             Coordinates (Angstroms)
 Number     Number       Type             X           Y           Z
 ---------------------------------------------------------------------
      1          8           0       -0.623904   -1.353242   -0.048242
      2          6           0       -0.576567   -0.012916   -0.456185
      3          8           0       -1.207905    0.819775    0.476344
      4          6           0        0.892393    0.357502   -0.696852
      5          6           0        1.733140    0.274825    0.573609
      6          1           0       -1.543151   -1.609041    0.097849
      7          1           0       -1.149303    0.128853   -1.386428
      8          1           0       -0.696730    0.779549    1.294961
      9          1           0        1.281091   -0.338629   -1.439630
     10          1           0        0.926556    1.366267   -1.110009
     11          1           0        1.450618    1.048512    1.285810
     12          1           0        2.783057    0.412617    0.330348
     13          1           0        1.609095   -0.701179    1.036208
 ---------------------------------------------------------------------
                    Distance matrix (angstroms):
                    1          2          3          4          5
     1  O    0.000000
     2  C    1.401832   0.000000
     3  O    2.310465   1.400561   0.000000
     4  C    2.376236   1.533940   2.449762   0.000000
     5  C    2.931375   2.545195   2.992687   1.525701   0.000000
     6  H    0.965293   1.946498   2.480886   3.229662   3.809119
     7  H    2.064798   1.101579   1.987643   2.167099   3.488772
     8  H    2.521566   1.925865   0.965946   2.582780   2.584446
     9  H    2.567958   2.127004   3.347828   1.089681   2.152628
    10  H    3.305602   2.142197   2.714975   1.090629   2.162497
    11  H    3.442638   2.875875   2.788422   2.172570   1.088871
    12  H    3.856031   3.476606   4.014333   2.152391   1.086503
    13  H    2.566612   2.734604   3.249958   2.153592   1.087183
                    6          7          8          9         10
     6  H    0.000000
     7  H    2.319153   0.000000
     8  H    2.802654   2.796082   0.000000
     9  H    3.457475   2.475517   3.555290   0.000000
    10  H    4.051029   2.432445   2.960266   1.772291   0.000000
    11  H    4.175703   3.840080   2.164146   3.062829   2.472965
    12  H    4.780924   4.300151   3.629605   2.439897   2.535877
    13  H    3.411947   3.763890   2.752514   2.523648   3.057194
                   11         12         13
    11  H    0.000000
    12  H    1.758597   0.000000
    13  H    1.774495   1.765494   0.000000
 Stoichiometry    C3H8O2
 Framework group  C1[X(C3H8O2)]
 Deg. of freedom    33
 Full point group                 C1      NOp   1
 Largest Abelian subgroup         C1      NOp   1
 Largest concise Abelian subgroup C1      NOp   1
                         Standard orientation:                         
 ---------------------------------------------------------------------
 Center     Atomic      Atomic             Coordinates (Angstroms)
 Number     Number       Type             X           Y           Z
 ---------------------------------------------------------------------
      1          8           0        0.987152   -1.108392   -0.354978
      2          6           0        0.643409   -0.006934    0.441114
      3          8           0        1.005060    1.195339   -0.179627
      4          6           0       -0.855947   -0.096752    0.752300
      5          6           0       -1.721270    0.003497   -0.500269
      6          1           0        1.931405   -1.075668   -0.552732
      7          1           0        1.216035   -0.015923    1.382121
      8          1           0        0.473998    1.279429   -0.982094
      9          1           0       -1.025464   -1.056795    1.239111
     10          1           0       -1.107389    0.700690    1.452541
     11          1           0       -1.671536    0.999902   -0.936552
     12          1           0       -2.758643   -0.199161   -0.248723
     13          1           0       -1.393246   -0.726914   -1.235705
 ---------------------------------------------------------------------
 Rotational constants (GHZ):           6.9602272           4.0415709           3.3754886
 Leave Link  202 at Tue Oct 21 19:49:39 2025, MaxMem=  4294967296 cpu:               0.0 elap:               0.0
 (Enter /lrz/sys/applications/gaussian/g16.C.01/x86_64_legacy/exe/l301.exe)
 Standard basis: def2SVP (5D, 7F)
 Ernie: Thresh=  0.10000D-02 Tol=  0.10000D-05 Strict=F.
 There are   115 symmetry adapted cartesian basis functions of A   symmetry.
 There are   110 symmetry adapted basis functions of A   symmetry.
   110 basis functions,   181 primitive gaussians,   115 cartesian basis functions
    21 alpha electrons       21 beta electrons
       nuclear repulsion energy       197.7744528858 Hartrees.
 IExCor= 4639 DFT=T Ex+Corr=wB97XD ExCW=0 ScaHFX=  1.000000
 ScaDFX=  1.000000  1.000000  1.000000  1.000000 ScalE2=  1.000000  1.000000
 IRadAn=      5 IRanWt=     -1 IRanGd=            0 ICorTp=0 IEmpDi=121
 HFx  wShort=  0.000000 wLong=  0.200000 cFull=  0.222036 cShort=  0.000000 cLong=  0.777964
 DFx  wShort=  0.000000 wLong=  0.200000 cFull=  0.000000 cShort=  0.000000 cLong=  1.000000
 NAtoms=   13 NActive=   13 NUniq=   13 SFac= 1.00D+00 NAtFMM=   60 NAOKFM=F Big=F
 Integral buffers will be    131072 words long.
 Raffenetti 2 integral format.
 Two-electron integral symmetry is turned on.
 R6Disp:  Grimme-D2 Dispersion energy=       -0.0057202483 Hartrees.
 Nuclear repulsion after empirical dispersion term =      197.7687326374 Hartrees.
 ------------------------------------------------------------------------------
 Polarizable Continuum Model (PCM)
 =================================
 Model                : PCM.
 Atomic radii         : SMD-Coulomb.
 Polarization charges : Total charges.
 Charge compensation  : None.
 Solution method      : On-the-fly selection.
 Cavity type          : VdW (van der Waals Surface) (Alpha=1.000).
 Cavity algorithm     : GePol (No added spheres)
                        Default sphere list used, NSphG=   13.
                        Lebedev-Laikov grids with approx.  5.0 points / Ang**2.
                        Smoothing algorithm: York/Karplus (Gamma=1.0000).
                        Polarization charges: spherical gaussians, with
                                              point-specific exponents (IZeta= 3).
                        Self-potential: point-specific (ISelfS= 7).
                        Self-field    : sphere-specific E.n sum rule (ISelfD= 2).
 1st derivatives      : Analytical E(r).r(x)/FMM algorithm (CHGder, D1EAlg=3).
                        Cavity 1st derivative terms included.
 Solvent              : Water, Eps=  78.355300 Eps(inf)=   1.777849
 ------------------------------------------------------------------------------
 Spheres list:
 ISph  on   Nord     Re0    Alpha      Xe            Ye            Ze
    1   O      1    1.5200  1.000      0.987152     -1.108392     -0.354978
    2   C      2    1.8500  1.000      0.643409     -0.006934      0.441114
    3   O      3    1.5200  1.000      1.005060      1.195339     -0.179627
    4   C      4    1.8500  1.000     -0.855947     -0.096752      0.752300
    5   C      5    1.8500  1.000     -1.721270      0.003497     -0.500269
    6   H      6    1.2000  1.000      1.931405     -1.075668     -0.552732
    7   H      7    1.2000  1.000      1.216035     -0.015923      1.382121
    8   H      8    1.2000  1.000      0.473998      1.279429     -0.982094
    9   H      9    1.2000  1.000     -1.025464     -1.056795      1.239111
   10   H     10    1.2000  1.000     -1.107389      0.700690      1.452541
   11   H     11    1.2000  1.000     -1.671536      0.999902     -0.936552
   12   H     12    1.2000  1.000     -2.758643     -0.199161     -0.248723
   13   H     13    1.2000  1.000     -1.393246     -0.726914     -1.235705
 ------------------------------------------------------------------------------
 GePol: Number of generator spheres                  =      13
 GePol: Total number of spheres                      =      13
 GePol: Number of exposed spheres                    =      13 (100.00%)
 GePol: Number of points                             =     906
 GePol: Average weight of points                     =       0.12
 GePol: Minimum weight of points                     =   0.34D-08
 GePol: Maximum weight of points                     =    0.21991
 GePol: Number of points with low weight             =      49
 GePol: Fraction of low-weight points (<1% of avg)   =       5.41%
 GePol: Cavity surface area                          =    108.765 Ang**2
 GePol: Cavity volume                                =     81.675 Ang**3
 ------------------------------------------------------------------------------
 Atomic radii for non-electrostatic terms: SMD-CDS.
 ------------------------------------------------------------------------------
 PCM non-electrostatic energy =         0.0046058318 Hartrees.
 Nuclear repulsion after PCM non-electrostatic terms =      197.7733384692 Hartrees.
 Leave Link  301 at Tue Oct 21 19:49:39 2025, MaxMem=  4294967296 cpu:               0.6 elap:               0.1
 (Enter /lrz/sys/applications/gaussian/g16.C.01/x86_64_legacy/exe/l302.exe)
 NPDir=0 NMtPBC=     1 NCelOv=     1 NCel=       1 NClECP=     1 NCelD=      1
         NCelK=      1 NCelE2=     1 NClLst=     1 CellRange=     0.0.
 One-electron integrals computed using PRISM.
 One-electron integral symmetry used in STVInt
   1 Symmetry operations used in ECPInt.
 ECPInt:  NShTT=    1485 NPrTT=    5139 LenC2=    1483 LenP2D=    4470.
 LDataN:  DoStor=T MaxTD1= 4 Len=   56
 NBasis=   110 RedAO= T EigKep=  2.36D-03  NBF=   110
 NBsUse=   110 1.00D-06 EigRej= -1.00D+00 NBFU=   110
 Precomputing XC quadrature grid using
 IXCGrd= 4 IRadAn=           5 IRanWt=          -1 IRanGd=           0 AccXCQ= 0.00D+00.
 Generated NRdTot=       0 NPtTot=           0 NUsed=           0 NTot=          32
 NSgBfM=   115   115   115   115   115 MxSgAt=    13 MxSgA2=    13.
 Leave Link  302 at Tue Oct 21 19:49:39 2025, MaxMem=  4294967296 cpu:               1.2 elap:               0.2
 (Enter /lrz/sys/applications/gaussian/g16.C.01/x86_64_legacy/exe/l303.exe)
 DipDrv:  MaxL=1.
 Leave Link  303 at Tue Oct 21 19:49:39 2025, MaxMem=  4294967296 cpu:               0.2 elap:               0.0
 (Enter /lrz/sys/applications/gaussian/g16.C.01/x86_64_legacy/exe/l401.exe)
 ExpMin= 1.22D-01 ExpMax= 2.27D+03 ExpMxC= 3.41D+02 IAcc=3 IRadAn=         5 AccDes= 0.00D+00
 Harris functional with IExCor= 4639 and IRadAn=       5 diagonalized for initial guess.
 HarFok:  IExCor= 4639 AccDes= 0.00D+00 IRadAn=         5 IDoV= 1 UseB2=F ITyADJ=14
 ICtDFT=  3500011 ScaDFX=  1.000000  1.000000  1.000000  1.000000
 FoFCou: FMM=F IPFlag=           0 FMFlag=      100000 FMFlg1=           0
         NFxFlg=           0 DoJE=T BraDBF=F KetDBF=T FulRan=T
         wScrn=  0.000000 ICntrl=       500 IOpCl=  0 I1Cent=   200000004 NGrid=           0
         NMat0=    1 NMatS0=      1 NMatT0=    0 NMatD0=    1 NMtDS0=    0 NMtDT0=    0
 Petite list used in FoFCou.
 Harris En= -258.101461600784    
 JPrj=0 DoOrth=F DoCkMO=F.
 Leave Link  401 at Tue Oct 21 19:49:40 2025, MaxMem=  4294967296 cpu:               5.0 elap:               0.6
 (Enter /lrz/sys/applications/gaussian/g16.C.01/x86_64_legacy/exe/l502.exe)
 Integral symmetry usage will be decided dynamically.
 Closed shell SCF:
 Using DIIS extrapolation, IDIIS=  1040.
 NGot=  4294967296 LenX=  4294938204 LenY=  4294924538
 Requested convergence on RMS density matrix=1.00D-08 within 128 cycles.
 Requested convergence on MAX density matrix=1.00D-06.
 Requested convergence on             energy=1.00D-06.
 No special actions if energy rises.
 Fock matrices will be formed incrementally for  20 cycles.

 Cycle   1  Pass 1  IDiag  1:
 FoFJK:  IHMeth= 1 ICntrl=       0 DoSepK=T KAlg= 0 I1Cent=           0 FoldK=F
 IRaf=         1 NMat=       1 IRICut=       1 DoRegI=T DoRafI=F ISym2E= 0 IDoP0=0 IntGTp=1.
 FoFCou: FMM=F IPFlag=           0 FMFlag=      100000 FMFlg1=           0
         NFxFlg=           0 DoJE=T BraDBF=F KetDBF=F FulRan=T
         wScrn=  0.000000 ICntrl=       500 IOpCl=  0 I1Cent=           0 NGrid=           0
         NMat0=    1 NMatS0=      1 NMatT0=    0 NMatD0=    1 NMtDS0=    0 NMtDT0=    0
 Symmetry not used in FoFCou.
 Inv3:  Mode=1 IEnd=     2462508.
 Iteration    1 A*A^-1 deviation from unit magnitude is 4.44D-15 for     64.
 Iteration    1 A*A^-1 deviation from orthogonality  is 2.42D-15 for    589     27.
 Iteration    1 A^-1*A deviation from unit magnitude is 4.00D-15 for     52.
 Iteration    1 A^-1*A deviation from orthogonality  is 2.77D-15 for    779    358.
 E= -269.265702872622    
 DIIS: error= 3.42D-02 at cycle   1 NSaved=   1.
 NSaved= 1 IEnMin= 1 EnMin= -269.265702872622     IErMin= 1 ErrMin= 3.42D-02
 ErrMax= 3.42D-02  0.00D+00 EMaxC= 1.00D-01 BMatC= 1.18D-01 BMatP= 1.18D-01
 IDIUse=3 WtCom= 6.58D-01 WtEn= 3.42D-01
 Coeff-Com:  0.100D+01
 Coeff-En:   0.100D+01
 Coeff:      0.100D+01
 Gap=     0.564 Goal=   None    Shift=    0.000
 GapD=    0.564 DampG=2.000 DampE=0.500 DampFc=1.0000 IDamp=-1.
 RMSDP=3.79D-03 MaxDP=6.51D-02              OVMax= 6.55D-02

 Cycle   2  Pass 1  IDiag  1:
 RMSU=  3.77D-03    CP:  9.86D-01
 E= -269.293879221654     Delta-E=       -0.028176349032 Rises=F Damp=F
 DIIS: error= 1.03D-02 at cycle   2 NSaved=   2.
 NSaved= 2 IEnMin= 2 EnMin= -269.293879221654     IErMin= 2 ErrMin= 1.03D-02
 ErrMax= 1.03D-02  0.00D+00 EMaxC= 1.00D-01 BMatC= 2.77D-02 BMatP= 1.18D-01
 IDIUse=3 WtCom= 8.97D-01 WtEn= 1.03D-01
 Coeff-Com:  0.280D+00 0.720D+00
 Coeff-En:   0.190D+00 0.810D+00
 Coeff:      0.271D+00 0.729D+00
 Gap=     0.538 Goal=   None    Shift=    0.000
 RMSDP=1.52D-03 MaxDP=3.26D-02 DE=-2.82D-02 OVMax= 3.09D-02

 Cycle   3  Pass 1  IDiag  1:
 RMSU=  1.09D-03    CP:  9.89D-01  7.22D-01
 E= -269.312335275067     Delta-E=       -0.018456053413 Rises=F Damp=F
 DIIS: error= 4.51D-03 at cycle   3 NSaved=   3.
 NSaved= 3 IEnMin= 3 EnMin= -269.312335275067     IErMin= 3 ErrMin= 4.51D-03
 ErrMax= 4.51D-03  0.00D+00 EMaxC= 1.00D-01 BMatC= 4.58D-03 BMatP= 2.77D-02
 IDIUse=3 WtCom= 9.55D-01 WtEn= 4.51D-02
 Coeff-Com:  0.261D-02 0.286D+00 0.711D+00
 Coeff-En:   0.000D+00 0.337D-01 0.966D+00
 Coeff:      0.249D-02 0.275D+00 0.722D+00
 Gap=     0.508 Goal=   None    Shift=    0.000
 RMSDP=5.74D-04 MaxDP=1.12D-02 DE=-1.85D-02 OVMax= 1.13D-02

 Cycle   4  Pass 1  IDiag  1:
 RMSU=  2.39D-04    CP:  9.87D-01  8.48D-01  8.13D-01
 E= -269.315731333839     Delta-E=       -0.003396058772 Rises=F Damp=F
 DIIS: error= 7.74D-04 at cycle   4 NSaved=   4.
 NSaved= 4 IEnMin= 4 EnMin= -269.315731333839     IErMin= 4 ErrMin= 7.74D-04
 ErrMax= 7.74D-04  0.00D+00 EMaxC= 1.00D-01 BMatC= 1.45D-04 BMatP= 4.58D-03
 IDIUse=3 WtCom= 9.92D-01 WtEn= 7.74D-03
 Coeff-Com: -0.316D-02 0.101D+00 0.311D+00 0.591D+00
 Coeff-En:   0.000D+00 0.000D+00 0.000D+00 0.100D+01
 Coeff:     -0.314D-02 0.101D+00 0.308D+00 0.594D+00
 Gap=     0.506 Goal=   None    Shift=    0.000
 RMSDP=8.32D-05 MaxDP=3.04D-03 DE=-3.40D-03 OVMax= 1.85D-03

 Cycle   5  Pass 1  IDiag  1:
 RMSU=  6.80D-05    CP:  9.87D-01  8.50D-01  8.31D-01  8.21D-01
 E= -269.315840134333     Delta-E=       -0.000108800494 Rises=F Damp=F
 DIIS: error= 9.67D-05 at cycle   5 NSaved=   5.
 NSaved= 5 IEnMin= 5 EnMin= -269.315840134333     IErMin= 5 ErrMin= 9.67D-05
 ErrMax= 9.67D-05  0.00D+00 EMaxC= 1.00D-01 BMatC= 2.47D-06 BMatP= 1.45D-04
 IDIUse=1 WtCom= 1.00D+00 WtEn= 0.00D+00
 Coeff-Com: -0.458D-03-0.175D-01-0.321D-01 0.506D-01 0.999D+00
 Coeff:     -0.458D-03-0.175D-01-0.321D-01 0.506D-01 0.999D+00
 Gap=     0.506 Goal=   None    Shift=    0.000
 RMSDP=3.87D-05 MaxDP=5.65D-04 DE=-1.09D-04 OVMax= 7.51D-04

 Cycle   6  Pass 1  IDiag  1:
 RMSU=  1.22D-05    CP:  9.87D-01  8.55D-01  8.46D-01  9.18D-01  1.18D+00
 E= -269.315844043373     Delta-E=       -0.000003909040 Rises=F Damp=F
 DIIS: error= 1.95D-05 at cycle   6 NSaved=   6.
 NSaved= 6 IEnMin= 6 EnMin= -269.315844043373     IErMin= 6 ErrMin= 1.95D-05
 ErrMax= 1.95D-05  0.00D+00 EMaxC= 1.00D-01 BMatC= 1.01D-07 BMatP= 2.47D-06
 IDIUse=1 WtCom= 1.00D+00 WtEn= 0.00D+00
 Coeff-Com:  0.118D-03-0.758D-02-0.188D-01-0.241D-01 0.122D+00 0.928D+00
 Coeff:      0.118D-03-0.758D-02-0.188D-01-0.241D-01 0.122D+00 0.928D+00
 Gap=     0.506 Goal=   None    Shift=    0.000
 RMSDP=8.49D-06 MaxDP=1.16D-04 DE=-3.91D-06 OVMax= 1.98D-04

 Cycle   7  Pass 1  IDiag  1:
 RMSU=  2.93D-06    CP:  9.87D-01  8.56D-01  8.48D-01  9.35D-01  1.25D+00
                    CP:  1.18D+00
 E= -269.315844206077     Delta-E=       -0.000000162704 Rises=F Damp=F
 DIIS: error= 4.76D-06 at cycle   7 NSaved=   7.
 NSaved= 7 IEnMin= 7 EnMin= -269.315844206077     IErMin= 7 ErrMin= 4.76D-06
 ErrMax= 4.76D-06  0.00D+00 EMaxC= 1.00D-01 BMatC= 8.05D-09 BMatP= 1.01D-07
 IDIUse=1 WtCom= 1.00D+00 WtEn= 0.00D+00
 Coeff-Com:  0.233D-04-0.143D-02-0.356D-02-0.684D-02 0.129D-02 0.224D+00
 Coeff-Com:  0.786D+00
 Coeff:      0.233D-04-0.143D-02-0.356D-02-0.684D-02 0.129D-02 0.224D+00
 Coeff:      0.786D+00
 Gap=     0.506 Goal=   None    Shift=    0.000
 RMSDP=1.63D-06 MaxDP=2.95D-05 DE=-1.63D-07 OVMax= 4.40D-05

 Cycle   8  Pass 1  IDiag  1:
 RMSU=  1.00D-06    CP:  9.87D-01  8.56D-01  8.48D-01  9.37D-01  1.26D+00
                    CP:  1.25D+00  1.08D+00
 E= -269.315844216337     Delta-E=       -0.000000010260 Rises=F Damp=F
 DIIS: error= 3.22D-06 at cycle   8 NSaved=   8.
 NSaved= 8 IEnMin= 8 EnMin= -269.315844216337     IErMin= 8 ErrMin= 3.22D-06
 ErrMax= 3.22D-06  0.00D+00 EMaxC= 1.00D-01 BMatC= 1.83D-09 BMatP= 8.05D-09
 IDIUse=1 WtCom= 1.00D+00 WtEn= 0.00D+00
 Coeff-Com: -0.970D-05 0.912D-03 0.231D-02 0.232D-02-0.229D-01-0.981D-01
 Coeff-Com:  0.282D+00 0.833D+00
 Coeff:     -0.970D-05 0.912D-03 0.231D-02 0.232D-02-0.229D-01-0.981D-01
 Coeff:      0.282D+00 0.833D+00
 Gap=     0.506 Goal=   None    Shift=    0.000
 RMSDP=8.63D-07 MaxDP=1.53D-05 DE=-1.03D-08 OVMax= 2.46D-05

 Cycle   9  Pass 1  IDiag  1:
 RMSU=  3.23D-07    CP:  9.87D-01  8.56D-01  8.48D-01  9.38D-01  1.26D+00
                    CP:  1.29D+00  1.25D+00  1.08D+00
 E= -269.315844218515     Delta-E=       -0.000000002179 Rises=F Damp=F
 DIIS: error= 6.68D-07 at cycle   9 NSaved=   9.
 NSaved= 9 IEnMin= 9 EnMin= -269.315844218515     IErMin= 9 ErrMin= 6.68D-07
 ErrMax= 6.68D-07  0.00D+00 EMaxC= 1.00D-01 BMatC= 1.48D-10 BMatP= 1.83D-09
 IDIUse=1 WtCom= 1.00D+00 WtEn= 0.00D+00
 Coeff-Com: -0.373D-05 0.461D-03 0.116D-02 0.137D-02-0.946D-02-0.537D-01
 Coeff-Com:  0.701D-01 0.337D+00 0.653D+00
 Coeff:     -0.373D-05 0.461D-03 0.116D-02 0.137D-02-0.946D-02-0.537D-01
 Coeff:      0.701D-01 0.337D+00 0.653D+00
 Gap=     0.506 Goal=   None    Shift=    0.000
 RMSDP=1.69D-07 MaxDP=2.55D-06 DE=-2.18D-09 OVMax= 3.88D-06

 Cycle  10  Pass 1  IDiag  1:
 RMSU=  1.11D-07    CP:  9.87D-01  8.56D-01  8.48D-01  9.38D-01  1.26D+00
                    CP:  1.29D+00  1.28D+00  1.14D+00  1.01D+00
 E= -269.315844218671     Delta-E=       -0.000000000156 Rises=F Damp=F
 DIIS: error= 1.44D-07 at cycle  10 NSaved=  10.
 NSaved=10 IEnMin=10 EnMin= -269.315844218671     IErMin=10 ErrMin= 1.44D-07
 ErrMax= 1.44D-07  0.00D+00 EMaxC= 1.00D-01 BMatC= 6.49D-12 BMatP= 1.48D-10
 IDIUse=1 WtCom= 1.00D+00 WtEn= 0.00D+00
 Coeff-Com:  0.268D-06-0.792D-04-0.200D-03-0.177D-03 0.228D-02 0.841D-02
 Coeff-Com: -0.307D-01-0.836D-01 0.594D-01 0.104D+01
 Coeff:      0.268D-06-0.792D-04-0.200D-03-0.177D-03 0.228D-02 0.841D-02
 Coeff:     -0.307D-01-0.836D-01 0.594D-01 0.104D+01
 Gap=     0.506 Goal=   None    Shift=    0.000
 RMSDP=9.66D-08 MaxDP=1.80D-06 DE=-1.56D-10 OVMax= 2.39D-06

 Cycle  11  Pass 1  IDiag  1:
 RMSU=  2.43D-08    CP:  9.87D-01  8.56D-01  8.48D-01  9.38D-01  1.26D+00
                    CP:  1.29D+00  1.29D+00  1.19D+00  1.19D+00  1.24D+00
 E= -269.315844218690     Delta-E=       -0.000000000018 Rises=F Damp=F
 DIIS: error= 2.55D-08 at cycle  11 NSaved=  11.
 NSaved=11 IEnMin=11 EnMin= -269.315844218690     IErMin=11 ErrMin= 2.55D-08
 ErrMax= 2.55D-08  0.00D+00 EMaxC= 1.00D-01 BMatC= 1.82D-13 BMatP= 6.49D-12
 IDIUse=1 WtCom= 1.00D+00 WtEn= 0.00D+00
 Coeff-Com:  0.199D-06-0.231D-04-0.584D-04-0.624D-04 0.492D-03 0.254D-02
 Coeff-Com: -0.434D-02-0.176D-01-0.284D-01 0.326D-01 0.101D+01
 Coeff:      0.199D-06-0.231D-04-0.584D-04-0.624D-04 0.492D-03 0.254D-02
 Coeff:     -0.434D-02-0.176D-01-0.284D-01 0.326D-01 0.101D+01
 Gap=     0.506 Goal=   None    Shift=    0.000
 RMSDP=2.00D-08 MaxDP=3.39D-07 DE=-1.83D-11 OVMax= 4.56D-07

 Cycle  12  Pass 1  IDiag  1:
 RMSU=  5.07D-09    CP:  9.87D-01  8.56D-01  8.48D-01  9.38D-01  1.26D+00
                    CP:  1.29D+00  1.29D+00  1.20D+00  1.23D+00  1.34D+00
                    CP:  1.27D+00
 E= -269.315844218692     Delta-E=       -0.000000000003 Rises=F Damp=F
 DIIS: error= 8.88D-09 at cycle  12 NSaved=  12.
 NSaved=12 IEnMin=12 EnMin= -269.315844218692     IErMin=12 ErrMin= 8.88D-09
 ErrMax= 8.88D-09  0.00D+00 EMaxC= 1.00D-01 BMatC= 2.16D-14 BMatP= 1.82D-13
 IDIUse=1 WtCom= 1.00D+00 WtEn= 0.00D+00
 Coeff-Com:  0.456D-07-0.739D-06-0.194D-05-0.311D-05-0.152D-04 0.718D-04
 Coeff-Com:  0.691D-03 0.825D-03-0.922D-02-0.488D-01 0.227D+00 0.829D+00
 Coeff:      0.456D-07-0.739D-06-0.194D-05-0.311D-05-0.152D-04 0.718D-04
 Coeff:      0.691D-03 0.825D-03-0.922D-02-0.488D-01 0.227D+00 0.829D+00
 Gap=     0.506 Goal=   None    Shift=    0.000
 RMSDP=3.59D-09 MaxDP=6.12D-08 DE=-2.84D-12 OVMax= 8.30D-08

 Error on total polarization charges =  0.03147
 SCF Done:  E(RwB97XD) =  -269.315844219     A.U. after   12 cycles
            NFock= 12  Conv=0.36D-08     -V/T= 2.0093
 KE= 2.668379297696D+02 PE=-1.025567355545D+03 EE= 2.916402430870D+02
 SMD-CDS (non-electrostatic) energy       (kcal/mol) =       2.89
 (included in total energy above)
 Leave Link  502 at Tue Oct 21 19:49:57 2025, MaxMem=  4294967296 cpu:             135.3 elap:              17.0
 (Enter /lrz/sys/applications/gaussian/g16.C.01/x86_64_legacy/exe/l601.exe)
 Copying SCF densities to generalized density rwf, IOpCl= 0 IROHF=0.

 **********************************************************************

            Population analysis using the SCF Density.

 **********************************************************************

 Orbital symmetries:
       Occupied  (A) (A) (A) (A) (A) (A) (A) (A) (A) (A) (A) (A)
                 (A) (A) (A) (A) (A) (A) (A) (A) (A)
       Virtual   (A) (A) (A) (A) (A) (A) (A) (A) (A) (A) (A) (A)
                 (A) (A) (A) (A) (A) (A) (A) (A) (A) (A) (A) (A)
                 (A) (A) (A) (A) (A) (A) (A) (A) (A) (A) (A) (A)
                 (A) (A) (A) (A) (A) (A) (A) (A) (A) (A) (A) (A)
                 (A) (A) (A) (A) (A) (A) (A) (A) (A) (A) (A) (A)
                 (A) (A) (A) (A) (A) (A) (A) (A) (A) (A) (A) (A)
                 (A) (A) (A) (A) (A) (A) (A) (A) (A) (A) (A) (A)
                 (A) (A) (A) (A) (A)
 The electronic state is 1-A.
 Alpha  occ. eigenvalues --  -19.25737 -19.25597 -10.38338 -10.28435 -10.27872
 Alpha  occ. eigenvalues --   -1.15189  -1.07810  -0.86175  -0.76200  -0.67492
 Alpha  occ. eigenvalues --   -0.64162  -0.56185  -0.54250  -0.52052  -0.49360
 Alpha  occ. eigenvalues --   -0.46247  -0.43907  -0.42386  -0.39997  -0.39026
 Alpha  occ. eigenvalues --   -0.36125
 Alpha virt. eigenvalues --    0.14472   0.17371   0.19154   0.20591   0.21817
 Alpha virt. eigenvalues --    0.23362   0.24062   0.26605   0.29426   0.31449
 Alpha virt. eigenvalues --    0.33076   0.38171   0.52126   0.52886   0.53605
 Alpha virt. eigenvalues --    0.58216   0.60910   0.65196   0.67136   0.71849
 Alpha virt. eigenvalues --    0.72185   0.73671   0.74223   0.75712   0.78185
 Alpha virt. eigenvalues --    0.79152   0.80581   0.80594   0.81636   0.83202
 Alpha virt. eigenvalues --    0.92731   1.03306   1.09230   1.09931   1.13079
 Alpha virt. eigenvalues --    1.14800   1.18436   1.31137   1.33846   1.37320
 Alpha virt. eigenvalues --    1.43853   1.45938   1.53134   1.56567   1.60667
 Alpha virt. eigenvalues --    1.63760   1.64753   1.70193   1.75058   1.82420
 Alpha virt. eigenvalues --    1.83936   1.85459   1.88439   1.89257   1.91715
 Alpha virt. eigenvalues --    1.96036   1.96864   1.98072   2.00183   2.03903
 Alpha virt. eigenvalues --    2.08563   2.15010   2.21111   2.23357   2.29602
 Alpha virt. eigenvalues --    2.32381   2.34780   2.42437   2.46215   2.51142
 Alpha virt. eigenvalues --    2.65368   2.67297   2.68860   2.85306   2.86825
 Alpha virt. eigenvalues --    2.92572   2.98175   3.04330   3.06109   3.06995
 Alpha virt. eigenvalues --    3.09912   3.11888   3.17069   3.23495   3.25868
 Alpha virt. eigenvalues --    3.45704   3.51818   3.85945   3.87127
          Condensed to atoms (all electrons):
               1          2          3          4          5          6
     1  O    7.858800   0.332098  -0.067379  -0.076816  -0.009482   0.323479
     2  C    0.332098   4.436935   0.319209   0.357731  -0.032133  -0.012623
     3  O   -0.067379   0.319209   7.858234  -0.037026  -0.008388   0.006176
     4  C   -0.076816   0.357731  -0.037026   4.865912   0.368613   0.009538
     5  C   -0.009482  -0.032133  -0.008388   0.368613   4.624204  -0.000134
     6  H    0.323479  -0.012623   0.006176   0.009538  -0.000134   0.467533
     7  H   -0.029475   0.410132  -0.040145  -0.051774   0.009231  -0.006343
     8  H    0.005447  -0.021291   0.335002  -0.019445   0.010842  -0.000547
     9  H    0.004987  -0.013050   0.005000   0.360350  -0.022243  -0.000490
    10  H    0.004279  -0.011047   0.001366   0.369715  -0.024165  -0.000453
    11  H   -0.000194  -0.007275   0.006123  -0.022135   0.393322  -0.000138
    12  H   -0.000051   0.006161   0.000164  -0.013175   0.393373   0.000027
    13  H    0.019226  -0.004209  -0.001092  -0.041125   0.398849  -0.001010
               7          8          9         10         11         12
     1  O   -0.029475   0.005447   0.004987   0.004279  -0.000194  -0.000051
     2  C    0.410132  -0.021291  -0.013050  -0.011047  -0.007275   0.006161
     3  O   -0.040145   0.335002   0.005000   0.001366   0.006123   0.000164
     4  C   -0.051774  -0.019445   0.360350   0.369715  -0.022135  -0.013175
     5  C    0.009231   0.010842  -0.022243  -0.024165   0.393322   0.393373
     6  H   -0.006343  -0.000547  -0.000490  -0.000453  -0.000138   0.000027
     7  H    0.675536   0.009046  -0.004146  -0.004737  -0.000069  -0.000230
     8  H    0.009046   0.469331  -0.000054  -0.000538   0.004222  -0.000344
     9  H   -0.004146  -0.000054   0.650315  -0.017664   0.008064  -0.007825
    10  H   -0.004737  -0.000538  -0.017664   0.641863  -0.008496  -0.004533
    11  H   -0.000069   0.004222   0.008064  -0.008496   0.625996  -0.019444
    12  H   -0.000230  -0.000344  -0.007825  -0.004533  -0.019444   0.617031
    13  H    0.000774   0.000924  -0.006141   0.007992  -0.024664  -0.020532
              13
     1  O    0.019226
     2  C   -0.004209
     3  O   -0.001092
     4  C   -0.041125
     5  C    0.398849
     6  H   -0.001010
     7  H    0.000774
     8  H    0.000924
     9  H   -0.006141
    10  H    0.007992
    11  H   -0.024664
    12  H   -0.020532
    13  H    0.633924
 Mulliken charges:
               1
     1  O   -0.364918
     2  C    0.239363
     3  O   -0.377244
     4  C   -0.070362
     5  C   -0.101890
     6  H    0.214984
     7  H    0.032200
     8  H    0.207404
     9  H    0.042896
    10  H    0.046418
    11  H    0.044688
    12  H    0.049377
    13  H    0.037084
 Sum of Mulliken charges =  -0.00000
 Mulliken charges with hydrogens summed into heavy atoms:
               1
     1  O   -0.149934
     2  C    0.271563
     3  O   -0.169840
     4  C    0.018952
     5  C    0.029260
 Electronic spatial extent (au):  <R**2>=            441.4563
 Charge=             -0.0000 electrons
 Dipole moment (field-independent basis, Debye):
    X=             -0.1539    Y=              0.0421    Z=             -0.2589  Tot=              0.3041
 Quadrupole moment (field-independent basis, Debye-Ang):
   XX=            -28.1014   YY=            -34.6901   ZZ=            -29.0565
   XY=             -3.4711   XZ=             -0.8710   YZ=             -1.9652
 Traceless Quadrupole moment (field-independent basis, Debye-Ang):
   XX=              2.5146   YY=             -4.0741   ZZ=              1.5595
   XY=             -3.4711   XZ=             -0.8710   YZ=             -1.9652
 Octapole moment (field-independent basis, Debye-Ang**2):
  XXX=             17.4177  YYY=              1.0516  ZZZ=             -3.3972  XYY=             -0.7092
  XXY=             -8.8036  XXZ=             -1.9554  XZZ=              5.4931  YZZ=              2.6864
  YYZ=             -3.1275  XYZ=              0.9323
 Hexadecapole moment (field-independent basis, Debye-Ang**3):
 XXXX=           -273.5168 YYYY=           -145.7117 ZZZZ=           -101.5149 XXXY=            -18.4827
 XXXZ=            -11.1245 YYYX=             -6.4717 YYYZ=             -4.9872 ZZZX=             -4.1285
 ZZZY=             -2.1259 XXYY=            -73.2632 XXZZ=            -65.8038 YYZZ=            -35.5140
 XXYZ=              3.9195 YYXZ=             -3.6701 ZZXY=             -0.5962
 N-N= 1.977733384692D+02 E-N=-1.025567354785D+03  KE= 2.668379297696D+02
 No NMR shielding tensors so no spin-rotation constants.
 Leave Link  601 at Tue Oct 21 19:49:57 2025, MaxMem=  4294967296 cpu:               0.8 elap:               0.1
 (Enter /lrz/sys/applications/gaussian/g16.C.01/x86_64_legacy/exe/l701.exe)
 ... and contract with generalized density number  0.
 Compute integral first derivatives.
 R6Disp: Adding Grimme-D2 dispersion energy 1st derivatives to the gradient.
   1 Symmetry operations used in ECPInt.
 ECPInt:  NShTT=    1485 NPrTT=    5139 LenC2=    1483 LenP2D=    4470.
 LDataN:  DoStor=T MaxTD1= 5 Len=  102
 D1PCM: PCM CHGder 1st derivatives, ID1Alg=3 FixD1E=F DoIter=F DoCFld=F I1PDM=0.
 GePol: Maximum number of non-zero 1st derivatives   =     246
 Leave Link  701 at Tue Oct 21 19:49:57 2025, MaxMem=  4294967296 cpu:               4.2 elap:               0.5
 (Enter /lrz/sys/applications/gaussian/g16.C.01/x86_64_legacy/exe/l702.exe)
 L702 exits ... SP integral derivatives will be done elsewhere.
 Leave Link  702 at Tue Oct 21 19:49:57 2025, MaxMem=  4294967296 cpu:               0.2 elap:               0.0
 (Enter /lrz/sys/applications/gaussian/g16.C.01/x86_64_legacy/exe/l703.exe)
 Integral derivatives from FoFJK, PRISM(SPDF).
 Compute integral first derivatives, UseDBF=F ICtDFT=           0.
 Calling FoFJK, ICntrl=      2127 FMM=F ISym2X=0 I1Cent= 0 IOpClX= 0 NMat=1 NMatS=1 NMatT=0.
 FoFJK:  IHMeth= 1 ICntrl=    2127 DoSepK=T KAlg= 0 I1Cent=           0 FoldK=F
 IRaf=         1 NMat=       1 IRICut=       1 DoRegI=T DoRafI=F ISym2E= 0 IDoP0=0 IntGTp=1.
 FoFCou: FMM=F IPFlag=           0 FMFlag=      100000 FMFlg1=         800
         NFxFlg=           0 DoJE=F BraDBF=F KetDBF=F FulRan=T
         wScrn=  0.000000 ICntrl=      2527 IOpCl=  0 I1Cent=           0 NGrid=           0
         NMat0=    1 NMatS0=      1 NMatT0=    0 NMatD0=    1 NMtDS0=    0 NMtDT0=    0
 Symmetry not used in FoFCou.
 Leave Link  703 at Tue Oct 21 19:50:00 2025, MaxMem=  4294967296 cpu:              17.0 elap:               2.1
 (Enter /lrz/sys/applications/gaussian/g16.C.01/x86_64_legacy/exe/l716.exe)
 Dipole        =-6.05401213D-02 1.65685659D-02-1.01869578D-01
 ***** Axes restored to original set *****
 -------------------------------------------------------------------
 Center     Atomic                   Forces (Hartrees/Bohr)
 Number     Number              X              Y              Z
 -------------------------------------------------------------------
      1        8           0.002859455   -0.004725881    0.000863487
      2        6           0.003757662    0.001896918   -0.004782051
      3        8          -0.000979667    0.003137954    0.002641664
      4        6          -0.009287784   -0.005281469    0.012513443
      5        6          -0.005222391    0.000748761   -0.010654670
      6        1          -0.000694477    0.002551250   -0.001279006
      7        1          -0.000917630   -0.000563050   -0.001622583
      8        1          -0.000251368    0.000569891    0.001328559
      9        1           0.002697534   -0.002964251   -0.006669618
     10        1           0.000017815    0.005151752   -0.004013454
     11        1          -0.001533077    0.005075516    0.006575066
     12        1           0.008922764    0.001240788   -0.000207152
     13        1           0.000631166   -0.006838182    0.005306315
 -------------------------------------------------------------------
 Cartesian Forces:  Max     0.012513443 RMS     0.004661218
 Leave Link  716 at Tue Oct 21 19:50:00 2025, MaxMem=  4294967296 cpu:               0.2 elap:               0.0
 (Enter /lrz/sys/applications/gaussian/g16.C.01/x86_64_legacy/exe/l103.exe)

 GradGradGradGradGradGradGradGradGradGradGradGradGradGradGradGradGradGrad
 Berny optimization.
 FormGI is forming the generalized inverse of G from B-inverse, IUseBI=4.
 Internal  Forces:  Max     0.008829080 RMS     0.002881494
 Search for a local minimum.
 Step number   1 out of a maximum of   66
 All quantities printed in internal units (Hartrees-Bohrs-Radians)
 RMS Force = .28815D-02 SwitMx=.10000D-02 MixMth= 1
 Mixed Optimization -- RFO/linear search
 Second derivative matrix not updated -- first step.
 ITU=  0
     Eigenvalues ---    0.00317   0.00426   0.01668   0.01684   0.03628
     Eigenvalues ---    0.04894   0.05597   0.05615   0.05770   0.05841
     Eigenvalues ---    0.08252   0.09610   0.12134   0.16000   0.16000
     Eigenvalues ---    0.16000   0.16000   0.16000   0.19017   0.20829
     Eigenvalues ---    0.21994   0.29063   0.29824   0.33508   0.34740
     Eigenvalues ---    0.34850   0.34943   0.35140   0.35220   0.45318
     Eigenvalues ---    0.45528   0.54214   0.54350
 RFO step:  Lambda=-1.80541201D-03 EMin= 3.16981455D-03
 Linear search not attempted -- first point.
 Iteration  1 RMS(Cart)=  0.02729907 RMS(Int)=  0.00049561
 Iteration  2 RMS(Cart)=  0.00051657 RMS(Int)=  0.00008315
 Iteration  3 RMS(Cart)=  0.00000015 RMS(Int)=  0.00008315
 ITry= 1 IFail=0 DXMaxC= 1.19D-01 DCOld= 1.00D+10 DXMaxT= 3.00D-01 DXLimC= 3.00D+00 Rises=F
 Variable       Old X    -DE/DX   Delta X   Delta X   Delta X     New X
                                 (Linear)    (Quad)   (Total)
    R1        2.64908   0.00192   0.00000   0.00422   0.00422   2.65330
    R2        1.82414  -0.00022   0.00000  -0.00040  -0.00040   1.82374
    R3        2.64668   0.00540   0.00000   0.01181   0.01181   2.65849
    R4        2.89873  -0.00475   0.00000  -0.01623  -0.01623   2.88250
    R5        2.08168   0.00177   0.00000   0.00526   0.00526   2.08694
    R6        1.82537   0.00096   0.00000   0.00177   0.00177   1.82715
    R7        2.88316   0.00236   0.00000   0.00786   0.00786   2.89102
    R8        2.05920   0.00740   0.00000   0.02114   0.02114   2.08033
    R9        2.06099   0.00629   0.00000   0.01800   0.01800   2.07899
   R10        2.05767   0.00831   0.00000   0.02367   0.02367   2.08134
   R11        2.05319   0.00883   0.00000   0.02494   0.02494   2.07813
   R12        2.05448   0.00831   0.00000   0.02352   0.02352   2.07800
    A1        1.90664  -0.00521   0.00000  -0.03219  -0.03219   1.87445
    A2        1.93850   0.00110   0.00000   0.00737   0.00738   1.94588
    A3        1.88481  -0.00027   0.00000  -0.00172  -0.00173   1.88309
    A4        1.92969  -0.00056   0.00000  -0.00712  -0.00713   1.92256
    A5        1.97422  -0.00087   0.00000  -0.00273  -0.00273   1.97149
    A6        1.82490   0.00034   0.00000   0.00445   0.00446   1.82936
    A7        1.91169   0.00026   0.00000  -0.00045  -0.00046   1.91123
    A8        1.87650   0.00200   0.00000   0.01238   0.01238   1.88888
    A9        1.96490   0.00394   0.00000   0.02358   0.02340   1.98830
   A10        1.86949  -0.00065   0.00000   0.00578   0.00540   1.87490
   A11        1.88892  -0.00203   0.00000  -0.01572  -0.01572   1.87321
   A12        1.91392  -0.00048   0.00000   0.00867   0.00838   1.92229
   A13        1.92656  -0.00042   0.00000  -0.00125  -0.00111   1.92546
   A14        1.89810  -0.00049   0.00000  -0.02269  -0.02270   1.87540
   A15        1.94246   0.00099   0.00000   0.00502   0.00499   1.94746
   A16        1.91685   0.00179   0.00000   0.01155   0.01146   1.92831
   A17        1.91781   0.00286   0.00000   0.01825   0.01815   1.93596
   A18        1.88290  -0.00157   0.00000  -0.01082  -0.01084   1.87206
   A19        1.90706  -0.00217   0.00000  -0.01439  -0.01443   1.89264
   A20        1.89587  -0.00208   0.00000  -0.01067  -0.01082   1.88505
    D1        0.97971   0.00073   0.00000   0.01795   0.01794   0.99765
    D2       -3.12930   0.00017   0.00000   0.01819   0.01818  -3.11112
    D3       -1.03805  -0.00001   0.00000   0.01238   0.01240  -1.02566
    D4        1.13363  -0.00015   0.00000  -0.00240  -0.00241   1.13122
    D5       -0.98909   0.00001   0.00000  -0.00365  -0.00365  -0.99274
    D6       -3.06789  -0.00006   0.00000  -0.00446  -0.00445  -3.07234
    D7       -1.10537  -0.00067   0.00000  -0.01066  -0.01074  -1.11611
    D8        0.99978   0.00068   0.00000   0.01818   0.01821   1.01799
    D9        3.04357  -0.00128   0.00000  -0.01346  -0.01340   3.03017
   D10        1.04727  -0.00004   0.00000  -0.00432  -0.00440   1.04287
   D11       -3.13077   0.00131   0.00000   0.02451   0.02454  -3.10622
   D12       -1.08698  -0.00066   0.00000  -0.00712  -0.00706  -1.09404
   D13        3.07525   0.00003   0.00000  -0.00073  -0.00081   3.07444
   D14       -1.10278   0.00137   0.00000   0.02811   0.02814  -1.07464
   D15        0.94101  -0.00059   0.00000  -0.00353  -0.00347   0.93754
   D16       -1.19098   0.00072   0.00000   0.04369   0.04374  -1.14724
   D17        3.00833   0.00089   0.00000   0.04649   0.04657   3.05490
   D18        0.92381   0.00057   0.00000   0.04119   0.04121   0.96502
   D19        3.01276  -0.00066   0.00000   0.01546   0.01537   3.02813
   D20        0.92888  -0.00049   0.00000   0.01825   0.01821   0.94708
   D21       -1.15564  -0.00081   0.00000   0.01295   0.01285  -1.14279
   D22        0.92189   0.00051   0.00000   0.03880   0.03882   0.96071
   D23       -1.16199   0.00068   0.00000   0.04160   0.04166  -1.12033
   D24        3.03668   0.00037   0.00000   0.03630   0.03630   3.07298
         Item               Value     Threshold  Converged?
 Maximum Force            0.008829     0.000450     NO 
 RMS     Force            0.002881     0.000300     NO 
 Maximum Displacement     0.119379     0.001800     NO 
 RMS     Displacement     0.027238     0.001200     NO 
 Predicted change in Energy=-9.231743D-04
 Lowest energy point so far.  Saving SCF results.
 GradGradGradGradGradGradGradGradGradGradGradGradGradGradGradGradGradGrad

 Leave Link  103 at Tue Oct 21 19:50:00 2025, MaxMem=  4294967296 cpu:               0.2 elap:               0.0
 (Enter /lrz/sys/applications/gaussian/g16.C.01/x86_64_legacy/exe/l202.exe)
                          Input orientation:                          
 ---------------------------------------------------------------------
 Center     Atomic      Atomic             Coordinates (Angstroms)
 Number     Number       Type             X           Y           Z
 ---------------------------------------------------------------------
      1          8           0       -0.637946   -1.359943   -0.048523
      2          6           0       -0.580783   -0.017194   -0.454916
      3          8           0       -1.211313    0.829888    0.474599
      4          6           0        0.883773    0.340097   -0.687549
      5          6           0        1.746530    0.273344    0.574063
      6          1           0       -1.568631   -1.586288    0.069712
      7          1           0       -1.147495    0.121002   -1.392653
      8          1           0       -0.712882    0.794780    1.302367
      9          1           0        1.274323   -0.350440   -1.450788
     10          1           0        0.909898    1.353443   -1.115085
     11          1           0        1.447641    1.036252    1.310073
     12          1           0        2.803010    0.453747    0.327794
     13          1           0        1.672267   -0.715796    1.048690
 ---------------------------------------------------------------------
                    Distance matrix (angstroms):
                    1          2          3          4          5
     1  O    0.000000
     2  C    1.404064   0.000000
     3  O    2.323309   1.406810   0.000000
     4  C    2.369413   1.525352   2.445376   0.000000
     5  C    2.956512   2.561172   3.011390   1.529860   0.000000
     6  H    0.965084   1.926949   2.475786   3.209156   3.834435
     7  H    2.063862   1.104360   1.998305   2.161302   3.502366
     8  H    2.544278   1.940309   0.966884   2.591488   2.617448
     9  H    2.577249   2.131721   3.358374   1.100866   2.170739
    10  H    3.300885   2.129930   2.701989   1.100155   2.172507
    11  H    3.455026   2.887809   2.794752   2.189309   1.101397
    12  H    3.907846   3.504922   4.034578   2.174237   1.099701
    13  H    2.637401   2.797340   3.321709   2.179715   1.099629
                    6          7          8          9         10
     6  H    0.000000
     7  H    2.287074   0.000000
     8  H    2.814468   2.811761   0.000000
     9  H    3.452771   2.467963   3.583347   0.000000
    10  H    4.023539   2.414296   2.964725   1.774463   0.000000
    11  H    4.184986   3.857090   2.173989   3.094399   2.504230
    12  H    4.831106   4.321707   3.664368   2.479305   2.544646
    13  H    3.495651   3.822492   2.834630   2.557193   3.089479
                   11         12         13
    11  H    0.000000
    12  H    1.772345   0.000000
    13  H    1.785623   1.779353   0.000000
 Stoichiometry    C3H8O2
 Framework group  C1[X(C3H8O2)]
 Deg. of freedom    33
 Full point group                 C1      NOp   1
 RotChk:  IX=0 Diff= 1.61D-02
 Largest Abelian subgroup         C1      NOp   1
 Largest concise Abelian subgroup C1      NOp   1
                         Standard orientation:                         
 ---------------------------------------------------------------------
 Center     Atomic      Atomic             Coordinates (Angstroms)
 Number     Number       Type             X           Y           Z
 ---------------------------------------------------------------------
      1          8           0        0.993998   -1.109360   -0.371619
      2          6           0        0.648587   -0.013350    0.435134
      3          8           0        1.004037    1.205273   -0.171271
      4          6           0       -0.841654   -0.111092    0.745502
      5          6           0       -1.740954    0.007701   -0.486415
      6          1           0        1.942669   -1.055729   -0.540534
      7          1           0        1.223903   -0.038219    1.377474
      8          1           0        0.477570    1.307590   -0.975776
      9          1           0       -1.011311   -1.076309    1.246978
     10          1           0       -1.078354    0.682894    1.469311
     11          1           0       -1.675517    1.008897   -0.940728
     12          1           0       -2.792964   -0.158146   -0.212352
     13          1           0       -1.466147   -0.737835   -1.246573
 ---------------------------------------------------------------------
 Rotational constants (GHZ):           6.9252857           4.0091657           3.3373954
 Leave Link  202 at Tue Oct 21 19:50:00 2025, MaxMem=  4294967296 cpu:               0.1 elap:               0.0
 (Enter /lrz/sys/applications/gaussian/g16.C.01/x86_64_legacy/exe/l301.exe)
 Standard basis: def2SVP (5D, 7F)
 Ernie: Thresh=  0.10000D-02 Tol=  0.10000D-05 Strict=F.
 There are   115 symmetry adapted cartesian basis functions of A   symmetry.
 There are   110 symmetry adapted basis functions of A   symmetry.
   110 basis functions,   181 primitive gaussians,   115 cartesian basis functions
    21 alpha electrons       21 beta electrons
       nuclear repulsion energy       197.0640942663 Hartrees.
 IExCor= 4639 DFT=T Ex+Corr=wB97XD ExCW=0 ScaHFX=  1.000000
 ScaDFX=  1.000000  1.000000  1.000000  1.000000 ScalE2=  1.000000  1.000000
 IRadAn=      5 IRanWt=     -1 IRanGd=            0 ICorTp=0 IEmpDi=121
 HFx  wShort=  0.000000 wLong=  0.200000 cFull=  0.222036 cShort=  0.000000 cLong=  0.777964
 DFx  wShort=  0.000000 wLong=  0.200000 cFull=  0.000000 cShort=  0.000000 cLong=  1.000000
 NAtoms=   13 NActive=   13 NUniq=   13 SFac= 1.00D+00 NAtFMM=   60 NAOKFM=F Big=F
 Integral buffers will be    131072 words long.
 Raffenetti 2 integral format.
 Two-electron integral symmetry is turned on.
 R6Disp:  Grimme-D2 Dispersion energy=       -0.0057047153 Hartrees.
 Nuclear repulsion after empirical dispersion term =      197.0583895510 Hartrees.
 ------------------------------------------------------------------------------
 Polarizable Continuum Model (PCM)
 =================================
 Model                : PCM.
 Atomic radii         : SMD-Coulomb.
 Polarization charges : Total charges.
 Charge compensation  : None.
 Solution method      : On-the-fly selection.
 Cavity type          : VdW (van der Waals Surface) (Alpha=1.000).
 Cavity algorithm     : GePol (No added spheres)
                        Default sphere list used, NSphG=   13.
                        Lebedev-Laikov grids with approx.  5.0 points / Ang**2.
                        Smoothing algorithm: York/Karplus (Gamma=1.0000).
                        Polarization charges: spherical gaussians, with
                                              point-specific exponents (IZeta= 3).
                        Self-potential: point-specific (ISelfS= 7).
                        Self-field    : sphere-specific E.n sum rule (ISelfD= 2).
 1st derivatives      : Analytical E(r).r(x)/FMM algorithm (CHGder, D1EAlg=3).
                        Cavity 1st derivative terms included.
 Solvent              : Water, Eps=  78.355300 Eps(inf)=   1.777849
 ------------------------------------------------------------------------------
 Spheres list:
 ISph  on   Nord     Re0    Alpha      Xe            Ye            Ze
    1   O      1    1.5200  1.000      0.993998     -1.109360     -0.371619
    2   C      2    1.8500  1.000      0.648587     -0.013350      0.435134
    3   O      3    1.5200  1.000      1.004037      1.205273     -0.171271
    4   C      4    1.8500  1.000     -0.841654     -0.111092      0.745502
    5   C      5    1.8500  1.000     -1.740954      0.007701     -0.486415
    6   H      6    1.2000  1.000      1.942669     -1.055729     -0.540534
    7   H      7    1.2000  1.000      1.223903     -0.038219      1.377474
    8   H      8    1.2000  1.000      0.477570      1.307590     -0.975776
    9   H      9    1.2000  1.000     -1.011311     -1.076309      1.246978
   10   H     10    1.2000  1.000     -1.078354      0.682894      1.469311
   11   H     11    1.2000  1.000     -1.675517      1.008897     -0.940728
   12   H     12    1.2000  1.000     -2.792964     -0.158146     -0.212352
   13   H     13    1.2000  1.000     -1.466147     -0.737835     -1.246573
 ------------------------------------------------------------------------------
 GePol: Number of generator spheres                  =      13
 GePol: Total number of spheres                      =      13
 GePol: Number of exposed spheres                    =      13 (100.00%)
 GePol: Number of points                             =     908
 GePol: Average weight of points                     =       0.12
 GePol: Minimum weight of points                     =   0.92D-07
 GePol: Maximum weight of points                     =    0.21991
 GePol: Number of points with low weight             =      52
 GePol: Fraction of low-weight points (<1% of avg)   =       5.73%
 GePol: Cavity surface area                          =    109.408 Ang**2
 GePol: Cavity volume                                =     82.049 Ang**3
 ------------------------------------------------------------------------------
 Atomic radii for non-electrostatic terms: SMD-CDS.
 ------------------------------------------------------------------------------
 PCM non-electrostatic energy =         0.0045462868 Hartrees.
 Nuclear repulsion after PCM non-electrostatic terms =      197.0629358378 Hartrees.
 Leave Link  301 at Tue Oct 21 19:50:00 2025, MaxMem=  4294967296 cpu:               0.5 elap:               0.1
 (Enter /lrz/sys/applications/gaussian/g16.C.01/x86_64_legacy/exe/l302.exe)
 NPDir=0 NMtPBC=     1 NCelOv=     1 NCel=       1 NClECP=     1 NCelD=      1
         NCelK=      1 NCelE2=     1 NClLst=     1 CellRange=     0.0.
 One-electron integrals computed using PRISM.
 One-electron integral symmetry used in STVInt
   1 Symmetry operations used in ECPInt.
 ECPInt:  NShTT=    1485 NPrTT=    5139 LenC2=    1483 LenP2D=    4460.
 LDataN:  DoStor=T MaxTD1= 4 Len=   56
 NBasis=   110 RedAO= T EigKep=  2.40D-03  NBF=   110
 NBsUse=   110 1.00D-06 EigRej= -1.00D+00 NBFU=   110
 Precomputing XC quadrature grid using
 IXCGrd= 4 IRadAn=           5 IRanWt=          -1 IRanGd=           0 AccXCQ= 0.00D+00.
 Generated NRdTot=       0 NPtTot=           0 NUsed=           0 NTot=          32
 NSgBfM=   115   115   115   115   115 MxSgAt=    13 MxSgA2=    13.
 Leave Link  302 at Tue Oct 21 19:50:00 2025, MaxMem=  4294967296 cpu:               1.2 elap:               0.2
 (Enter /lrz/sys/applications/gaussian/g16.C.01/x86_64_legacy/exe/l303.exe)
 DipDrv:  MaxL=1.
 Leave Link  303 at Tue Oct 21 19:50:00 2025, MaxMem=  4294967296 cpu:               0.3 elap:               0.1
 (Enter /lrz/sys/applications/gaussian/g16.C.01/x86_64_legacy/exe/l401.exe)
 Initial guess from the checkpoint file:  "g16_C3-w_3.chk"
 B after Tr=     0.000000   -0.000000   -0.000000
         Rot=    0.999980   -0.005195   -0.003622   -0.000311 Ang=  -0.73 deg.
 Guess basis will be translated and rotated to current coordinates.
 JPrj=2 DoOrth=T DoCkMO=T.
 Generating alternative initial guess.
 ExpMin= 1.22D-01 ExpMax= 2.27D+03 ExpMxC= 3.41D+02 IAcc=3 IRadAn=         5 AccDes= 0.00D+00
 Harris functional with IExCor= 4639 and IRadAn=       5 diagonalized for initial guess.
 HarFok:  IExCor= 4639 AccDes= 0.00D+00 IRadAn=         5 IDoV= 1 UseB2=F ITyADJ=14
 ICtDFT=  3500011 ScaDFX=  1.000000  1.000000  1.000000  1.000000
 FoFCou: FMM=F IPFlag=           0 FMFlag=      100000 FMFlg1=           0
         NFxFlg=           0 DoJE=T BraDBF=F KetDBF=T FulRan=T
         wScrn=  0.000000 ICntrl=       500 IOpCl=  0 I1Cent=   200000004 NGrid=           0
         NMat0=    1 NMatS0=      1 NMatT0=    0 NMatD0=    1 NMtDS0=    0 NMtDT0=    0
 Petite list used in FoFCou.
 Harris En= -258.105239851627    
 Leave Link  401 at Tue Oct 21 19:50:01 2025, MaxMem=  4294967296 cpu:               6.2 elap:               0.8
 (Enter /lrz/sys/applications/gaussian/g16.C.01/x86_64_legacy/exe/l502.exe)
 Integral symmetry usage will be decided dynamically.
 Closed shell SCF:
 Using DIIS extrapolation, IDIIS=  1040.
 NGot=  4294967296 LenX=  4294938204 LenY=  4294924538
 Requested convergence on RMS density matrix=1.00D-08 within 128 cycles.
 Requested convergence on MAX density matrix=1.00D-06.
 Requested convergence on             energy=1.00D-06.
 No special actions if energy rises.
 Fock matrices will be formed incrementally for  20 cycles.

 Cycle   1  Pass 1  IDiag  1:
 FoFJK:  IHMeth= 1 ICntrl=       0 DoSepK=T KAlg= 0 I1Cent=           0 FoldK=F
 IRaf=         1 NMat=       1 IRICut=       1 DoRegI=T DoRafI=F ISym2E= 0 IDoP0=0 IntGTp=1.
 FoFCou: FMM=F IPFlag=           0 FMFlag=      100000 FMFlg1=           0
         NFxFlg=           0 DoJE=T BraDBF=F KetDBF=F FulRan=T
         wScrn=  0.000000 ICntrl=       500 IOpCl=  0 I1Cent=           0 NGrid=           0
         NMat0=    1 NMatS0=      1 NMatT0=    0 NMatD0=    1 NMtDS0=    0 NMtDT0=    0
 Symmetry not used in FoFCou.
 Inv3:  Mode=1 IEnd=     2473392.
 Iteration    1 A*A^-1 deviation from unit magnitude is 4.66D-15 for     10.
 Iteration    1 A*A^-1 deviation from orthogonality  is 2.79D-15 for    849    555.
 Iteration    1 A^-1*A deviation from unit magnitude is 4.22D-15 for    300.
 Iteration    1 A^-1*A deviation from orthogonality  is 2.13D-15 for    509    244.
 E= -269.315927417404    
 DIIS: error= 1.77D-03 at cycle   1 NSaved=   1.
 NSaved= 1 IEnMin= 1 EnMin= -269.315927417404     IErMin= 1 ErrMin= 1.77D-03
 ErrMax= 1.77D-03  0.00D+00 EMaxC= 1.00D-01 BMatC= 5.80D-04 BMatP= 5.80D-04
 IDIUse=3 WtCom= 9.82D-01 WtEn= 1.77D-02
 Coeff-Com:  0.100D+01
 Coeff-En:   0.100D+01
 Coeff:      0.100D+01
 Gap=     0.765 Goal=   None    Shift=    0.000
 GapD=    0.765 DampG=2.000 DampE=1.000 DampFc=2.0000 IDamp=-1.
 RMSDP=3.53D-04 MaxDP=6.70D-03              OVMax= 6.22D-03

 Cycle   2  Pass 1  IDiag  1:
 RMSU=  3.53D-04    CP:  1.00D+00
 E= -269.316728238298     Delta-E=       -0.000800820894 Rises=F Damp=F
 DIIS: error= 3.92D-04 at cycle   2 NSaved=   2.
 NSaved= 2 IEnMin= 2 EnMin= -269.316728238298     IErMin= 2 ErrMin= 3.92D-04
 ErrMax= 3.92D-04  0.00D+00 EMaxC= 1.00D-01 BMatC= 2.42D-05 BMatP= 5.80D-04
 IDIUse=3 WtCom= 9.96D-01 WtEn= 3.92D-03
 Coeff-Com: -0.111D+00 0.111D+01
 Coeff-En:   0.000D+00 0.100D+01
 Coeff:     -0.111D+00 0.111D+01
 Gap=     0.506 Goal=   None    Shift=    0.000
 RMSDP=9.58D-05 MaxDP=2.02D-03 DE=-8.01D-04 OVMax= 2.13D-03

 Cycle   3  Pass 1  IDiag  1:
 RMSU=  6.84D-05    CP:  1.00D+00  1.19D+00
 E= -269.316765633957     Delta-E=       -0.000037395659 Rises=F Damp=F
 DIIS: error= 2.28D-04 at cycle   3 NSaved=   3.
 NSaved= 3 IEnMin= 3 EnMin= -269.316765633957     IErMin= 3 ErrMin= 2.28D-04
 ErrMax= 2.28D-04  0.00D+00 EMaxC= 1.00D-01 BMatC= 7.92D-06 BMatP= 2.42D-05
 IDIUse=3 WtCom= 9.98D-01 WtEn= 2.28D-03
 Coeff-Com: -0.696D-01 0.426D+00 0.643D+00
 Coeff-En:   0.000D+00 0.000D+00 0.100D+01
 Coeff:     -0.695D-01 0.425D+00 0.644D+00
 Gap=     0.505 Goal=   None    Shift=    0.000
 RMSDP=2.63D-05 MaxDP=8.39D-04 DE=-3.74D-05 OVMax= 6.36D-04

 Cycle   4  Pass 1  IDiag  1:
 RMSU=  2.27D-05    CP:  1.00D+00  1.22D+00  9.16D-01
 E= -269.316773380912     Delta-E=       -0.000007746955 Rises=F Damp=F
 DIIS: error= 3.96D-05 at cycle   4 NSaved=   4.
 NSaved= 4 IEnMin= 4 EnMin= -269.316773380912     IErMin= 4 ErrMin= 3.96D-05
 ErrMax= 3.96D-05  0.00D+00 EMaxC= 1.00D-01 BMatC= 3.04D-07 BMatP= 7.92D-06
 IDIUse=1 WtCom= 1.00D+00 WtEn= 0.00D+00
 Coeff-Com: -0.721D-03-0.375D-01 0.992D-01 0.939D+00
 Coeff:     -0.721D-03-0.375D-01 0.992D-01 0.939D+00
 Gap=     0.505 Goal=   None    Shift=    0.000
 RMSDP=1.02D-05 MaxDP=1.61D-04 DE=-7.75D-06 OVMax= 1.78D-04

 Cycle   5  Pass 1  IDiag  1:
 RMSU=  5.47D-06    CP:  1.00D+00  1.23D+00  1.02D+00  1.14D+00
 E= -269.316773757599     Delta-E=       -0.000000376687 Rises=F Damp=F
 DIIS: error= 1.44D-05 at cycle   5 NSaved=   5.
 NSaved= 5 IEnMin= 5 EnMin= -269.316773757599     IErMin= 5 ErrMin= 1.44D-05
 ErrMax= 1.44D-05  0.00D+00 EMaxC= 1.00D-01 BMatC= 7.18D-08 BMatP= 3.04D-07
 IDIUse=1 WtCom= 1.00D+00 WtEn= 0.00D+00
 Coeff-Com:  0.429D-02-0.461D-01-0.923D-03 0.410D+00 0.633D+00
 Coeff:      0.429D-02-0.461D-01-0.923D-03 0.410D+00 0.633D+00
 Gap=     0.505 Goal=   None    Shift=    0.000
 RMSDP=3.06D-06 MaxDP=5.71D-05 DE=-3.77D-07 OVMax= 5.37D-05

 Cycle   6  Pass 1  IDiag  1:
 RMSU=  1.69D-06    CP:  1.00D+00  1.24D+00  1.04D+00  1.20D+00  8.50D-01
 E= -269.316773822019     Delta-E=       -0.000000064420 Rises=F Damp=F
 DIIS: error= 2.78D-06 at cycle   6 NSaved=   6.
 NSaved= 6 IEnMin= 6 EnMin= -269.316773822019     IErMin= 6 ErrMin= 2.78D-06
 ErrMax= 2.78D-06  0.00D+00 EMaxC= 1.00D-01 BMatC= 2.17D-09 BMatP= 7.18D-08
 IDIUse=1 WtCom= 1.00D+00 WtEn= 0.00D+00
 Coeff-Com:  0.961D-03-0.607D-02-0.951D-02-0.155D-01 0.115D+00 0.915D+00
 Coeff:      0.961D-03-0.607D-02-0.951D-02-0.155D-01 0.115D+00 0.915D+00
 Gap=     0.505 Goal=   None    Shift=    0.000
 RMSDP=1.08D-06 MaxDP=1.52D-05 DE=-6.44D-08 OVMax= 1.87D-05

 Cycle   7  Pass 1  IDiag  1:
 RMSU=  3.78D-07    CP:  1.00D+00  1.24D+00  1.05D+00  1.23D+00  9.54D-01
                    CP:  1.14D+00
 E= -269.316773825320     Delta-E=       -0.000000003301 Rises=F Damp=F
 DIIS: error= 6.96D-07 at cycle   7 NSaved=   7.
 NSaved= 7 IEnMin= 7 EnMin= -269.316773825320     IErMin= 7 ErrMin= 6.96D-07
 ErrMax= 6.96D-07  0.00D+00 EMaxC= 1.00D-01 BMatC= 1.52D-10 BMatP= 2.17D-09
 IDIUse=1 WtCom= 1.00D+00 WtEn= 0.00D+00
 Coeff-Com:  0.779D-05 0.973D-03-0.184D-02-0.245D-01-0.755D-02 0.202D+00
 Coeff-Com:  0.831D+00
 Coeff:      0.779D-05 0.973D-03-0.184D-02-0.245D-01-0.755D-02 0.202D+00
 Coeff:      0.831D+00
 Gap=     0.505 Goal=   None    Shift=    0.000
 RMSDP=2.44D-07 MaxDP=4.18D-06 DE=-3.30D-09 OVMax= 5.19D-06

 Cycle   8  Pass 1  IDiag  1:
 RMSU=  1.29D-07    CP:  1.00D+00  1.24D+00  1.05D+00  1.23D+00  9.73D-01
                    CP:  1.22D+00  1.06D+00
 E= -269.316773825501     Delta-E=       -0.000000000181 Rises=F Damp=F
 DIIS: error= 4.07D-07 at cycle   8 NSaved=   8.
 NSaved= 8 IEnMin= 8 EnMin= -269.316773825501     IErMin= 8 ErrMin= 4.07D-07
 ErrMax= 4.07D-07  0.00D+00 EMaxC= 1.00D-01 BMatC= 4.36D-11 BMatP= 1.52D-10
 IDIUse=1 WtCom= 1.00D+00 WtEn= 0.00D+00
 Coeff-Com: -0.113D-03 0.117D-02 0.346D-03-0.911D-02-0.172D-01-0.207D-01
 Coeff-Com:  0.372D+00 0.673D+00
 Coeff:     -0.113D-03 0.117D-02 0.346D-03-0.911D-02-0.172D-01-0.207D-01
 Coeff:      0.372D+00 0.673D+00
 Gap=     0.505 Goal=   None    Shift=    0.000
 RMSDP=7.97D-08 MaxDP=1.53D-06 DE=-1.81D-10 OVMax= 2.29D-06

 Cycle   9  Pass 1  IDiag  1:
 RMSU=  3.99D-08    CP:  1.00D+00  1.24D+00  1.05D+00  1.23D+00  9.78D-01
                    CP:  1.24D+00  1.18D+00  9.13D-01
 E= -269.316773825543     Delta-E=       -0.000000000042 Rises=F Damp=F
 DIIS: error= 9.02D-08 at cycle   9 NSaved=   9.
 NSaved= 9 IEnMin= 9 EnMin= -269.316773825543     IErMin= 9 ErrMin= 9.02D-08
 ErrMax= 9.02D-08  0.00D+00 EMaxC= 1.00D-01 BMatC= 1.17D-12 BMatP= 4.36D-11
 IDIUse=1 WtCom= 1.00D+00 WtEn= 0.00D+00
 Coeff-Com: -0.144D-04 0.797D-04 0.170D-03 0.632D-03-0.150D-02-0.183D-01
 Coeff-Com: -0.117D-01 0.894D-01 0.941D+00
 Coeff:     -0.144D-04 0.797D-04 0.170D-03 0.632D-03-0.150D-02-0.183D-01
 Coeff:     -0.117D-01 0.894D-01 0.941D+00
 Gap=     0.505 Goal=   None    Shift=    0.000
 RMSDP=2.76D-08 MaxDP=5.97D-07 DE=-4.18D-11 OVMax= 9.00D-07

 Cycle  10  Pass 1  IDiag  1:
 RMSU=  1.23D-08    CP:  1.00D+00  1.24D+00  1.05D+00  1.23D+00  9.79D-01
                    CP:  1.25D+00  1.21D+00  1.02D+00  1.25D+00
 E= -269.316773825547     Delta-E=       -0.000000000005 Rises=F Damp=F
 DIIS: error= 2.96D-08 at cycle  10 NSaved=  10.
 NSaved=10 IEnMin=10 EnMin= -269.316773825547     IErMin=10 ErrMin= 2.96D-08
 ErrMax= 2.96D-08  0.00D+00 EMaxC= 1.00D-01 BMatC= 2.10D-13 BMatP= 1.17D-12
 IDIUse=1 WtCom= 1.00D+00 WtEn= 0.00D+00
 Coeff-Com:  0.861D-05-0.116D-03 0.997D-05 0.129D-02 0.166D-02-0.337D-02
 Coeff-Com: -0.498D-01-0.524D-01 0.293D+00 0.810D+00
 Coeff:      0.861D-05-0.116D-03 0.997D-05 0.129D-02 0.166D-02-0.337D-02
 Coeff:     -0.498D-01-0.524D-01 0.293D+00 0.810D+00
 Gap=     0.505 Goal=   None    Shift=    0.000
 RMSDP=9.97D-09 MaxDP=1.82D-07 DE=-4.60D-12 OVMax= 3.30D-07

 Error on total polarization charges =  0.03182
 SCF Done:  E(RwB97XD) =  -269.316773826     A.U. after   10 cycles
            NFock= 10  Conv=0.10D-07     -V/T= 2.0096
 KE= 2.667485008043D+02 PE=-1.024085118012D+03 EE= 2.909569075439D+02
 SMD-CDS (non-electrostatic) energy       (kcal/mol) =       2.85
 (included in total energy above)
 Leave Link  502 at Tue Oct 21 19:50:15 2025, MaxMem=  4294967296 cpu:             115.9 elap:              14.6
 (Enter /lrz/sys/applications/gaussian/g16.C.01/x86_64_legacy/exe/l701.exe)
 ... and contract with generalized density number  0.
 Compute integral first derivatives.
 R6Disp: Adding Grimme-D2 dispersion energy 1st derivatives to the gradient.
   1 Symmetry operations used in ECPInt.
 ECPInt:  NShTT=    1485 NPrTT=    5139 LenC2=    1483 LenP2D=    4460.
 LDataN:  DoStor=T MaxTD1= 5 Len=  102
 D1PCM: PCM CHGder 1st derivatives, ID1Alg=3 FixD1E=F DoIter=F DoCFld=F I1PDM=0.
 GePol: Maximum number of non-zero 1st derivatives   =     238
 Leave Link  701 at Tue Oct 21 19:50:16 2025, MaxMem=  4294967296 cpu:               4.1 elap:               0.5
 (Enter /lrz/sys/applications/gaussian/g16.C.01/x86_64_legacy/exe/l702.exe)
 L702 exits ... SP integral derivatives will be done elsewhere.
 Leave Link  702 at Tue Oct 21 19:50:16 2025, MaxMem=  4294967296 cpu:               0.2 elap:               0.0
 (Enter /lrz/sys/applications/gaussian/g16.C.01/x86_64_legacy/exe/l703.exe)
 Integral derivatives from FoFJK, PRISM(SPDF).
 Compute integral first derivatives, UseDBF=F ICtDFT=           0.
 Calling FoFJK, ICntrl=      2127 FMM=F ISym2X=0 I1Cent= 0 IOpClX= 0 NMat=1 NMatS=1 NMatT=0.
 FoFJK:  IHMeth= 1 ICntrl=    2127 DoSepK=T KAlg= 0 I1Cent=           0 FoldK=F
 IRaf=         1 NMat=       1 IRICut=       1 DoRegI=T DoRafI=F ISym2E= 0 IDoP0=0 IntGTp=1.
 FoFCou: FMM=F IPFlag=           0 FMFlag=      100000 FMFlg1=         800
         NFxFlg=           0 DoJE=F BraDBF=F KetDBF=F FulRan=T
         wScrn=  0.000000 ICntrl=      2527 IOpCl=  0 I1Cent=           0 NGrid=           0
         NMat0=    1 NMatS0=      1 NMatT0=    0 NMatD0=    1 NMtDS0=    0 NMtDT0=    0
 Symmetry not used in FoFCou.
 Leave Link  703 at Tue Oct 21 19:50:18 2025, MaxMem=  4294967296 cpu:              17.1 elap:               2.2
 (Enter /lrz/sys/applications/gaussian/g16.C.01/x86_64_legacy/exe/l716.exe)
 Dipole        =-5.93272210D-02 3.16556748D-02-8.25936615D-02
 ***** Axes restored to original set *****
 -------------------------------------------------------------------
 Center     Atomic                   Forces (Hartrees/Bohr)
 Number     Number              X              Y              Z
 -------------------------------------------------------------------
      1        8          -0.000842397   -0.000596177    0.001387564
      2        6           0.002522781    0.001600066   -0.000847798
      3        8          -0.000015761   -0.000760157   -0.000740442
      4        6          -0.000993863   -0.000266526    0.003402161
      5        6          -0.001395322    0.000077363   -0.003446764
      6        1          -0.000500457   -0.000481358   -0.000206166
      7        1          -0.000247951    0.000243745    0.000568423
      8        1           0.000145512   -0.000322001   -0.000288462
      9        1           0.000213170    0.000490062   -0.000417971
     10        1           0.000854206    0.000159420   -0.000592718
     11        1          -0.000061280   -0.000295472    0.000452998
     12        1          -0.000084088    0.000107744    0.000222278
     13        1           0.000405450    0.000043289    0.000506897
 -------------------------------------------------------------------
 Cartesian Forces:  Max     0.003446764 RMS     0.001059242
 Leave Link  716 at Tue Oct 21 19:50:18 2025, MaxMem=  4294967296 cpu:               0.2 elap:               0.0
 (Enter /lrz/sys/applications/gaussian/g16.C.01/x86_64_legacy/exe/l103.exe)

 GradGradGradGradGradGradGradGradGradGradGradGradGradGradGradGradGradGrad
 Berny optimization.
 Using GEDIIS/GDIIS optimizer.
 FormGI is forming the generalized inverse of G from B-inverse, IUseBI=4.
 Internal  Forces:  Max     0.002522452 RMS     0.000610096
 Search for a local minimum.
 Step number   2 out of a maximum of   66
 All quantities printed in internal units (Hartrees-Bohrs-Radians)
 RMS Force = .61010D-03 SwitMx=.10000D-02 MixMth= 2
 Mixed Optimization -- En-DIIS/RFO-DIIS
 Update second derivatives using D2CorX and points    1    2
 DE= -9.30D-04 DEPred=-9.23D-04 R= 1.01D+00
 TightC=F SS=  1.41D+00  RLast= 1.44D-01 DXNew= 5.0454D-01 4.3167D-01
 Trust test= 1.01D+00 RLast= 1.44D-01 DXMaxT set to 4.32D-01
 ITU=  1  0
 Use linear search instead of GDIIS.
     Eigenvalues ---    0.00316   0.00416   0.01651   0.01684   0.03478
     Eigenvalues ---    0.04587   0.05496   0.05621   0.05641   0.05900
     Eigenvalues ---    0.08576   0.09596   0.12339   0.15293   0.16000
     Eigenvalues ---    0.16000   0.16000   0.16448   0.19318   0.20746
     Eigenvalues ---    0.21926   0.28301   0.30101   0.33515   0.34684
     Eigenvalues ---    0.34883   0.35012   0.35154   0.36474   0.45117
     Eigenvalues ---    0.47234   0.54229   0.54441
 RFO step:  Lambda=-1.69667078D-04 EMin= 3.15968574D-03
 Quartic linear search produced a step of  0.04587.
 Iteration  1 RMS(Cart)=  0.02166767 RMS(Int)=  0.00033220
 Iteration  2 RMS(Cart)=  0.00034284 RMS(Int)=  0.00001162
 Iteration  3 RMS(Cart)=  0.00000008 RMS(Int)=  0.00001162
 ITry= 1 IFail=0 DXMaxC= 7.07D-02 DCOld= 1.00D+10 DXMaxT= 4.32D-01 DXLimC= 3.00D+00 Rises=F
 Variable       Old X    -DE/DX   Delta X   Delta X   Delta X     New X
                                 (Linear)    (Quad)   (Total)
    R1        2.65330   0.00146   0.00019   0.00351   0.00370   2.65700
    R2        1.82374   0.00057  -0.00002   0.00107   0.00105   1.82480
    R3        2.65849  -0.00139   0.00054  -0.00276  -0.00222   2.65626
    R4        2.88250  -0.00096  -0.00074  -0.00404  -0.00478   2.87772
    R5        2.08694  -0.00033   0.00024  -0.00083  -0.00059   2.08635
    R6        1.82715  -0.00017   0.00008  -0.00026  -0.00018   1.82697
    R7        2.89102  -0.00252   0.00036  -0.00855  -0.00818   2.88283
    R8        2.08033   0.00006   0.00097   0.00096   0.00193   2.08226
    R9        2.07899   0.00039   0.00083   0.00184   0.00267   2.08166
   R10        2.08134   0.00012   0.00109   0.00123   0.00232   2.08366
   R11        2.07813  -0.00011   0.00114   0.00059   0.00173   2.07986
   R12        2.07800   0.00014   0.00108   0.00126   0.00234   2.08034
    A1        1.87445   0.00052  -0.00148   0.00218   0.00070   1.87516
    A2        1.94588  -0.00115   0.00034  -0.00646  -0.00612   1.93975
    A3        1.88309   0.00146  -0.00008   0.00886   0.00877   1.89186
    A4        1.92256  -0.00014  -0.00033   0.00125   0.00088   1.92344
    A5        1.97149   0.00002  -0.00013  -0.00019  -0.00031   1.97119
    A6        1.82936  -0.00010   0.00020  -0.00515  -0.00495   1.82441
    A7        1.91123  -0.00015  -0.00002   0.00139   0.00135   1.91258
    A8        1.88888  -0.00076   0.00057  -0.00451  -0.00394   1.88494
    A9        1.98830   0.00045   0.00107   0.00510   0.00615   1.99445
   A10        1.87490   0.00006   0.00025   0.00293   0.00315   1.87805
   A11        1.87321   0.00023  -0.00072   0.00354   0.00282   1.87603
   A12        1.92229  -0.00014   0.00038  -0.00060  -0.00026   1.92203
   A13        1.92546  -0.00031  -0.00005  -0.00236  -0.00243   1.92303
   A14        1.87540  -0.00031  -0.00104  -0.00928  -0.01033   1.86507
   A15        1.94746   0.00023   0.00023   0.00134   0.00156   1.94902
   A16        1.92831   0.00007   0.00053   0.00113   0.00164   1.92995
   A17        1.93596   0.00081   0.00083   0.00605   0.00687   1.94283
   A18        1.87206  -0.00017  -0.00050  -0.00170  -0.00220   1.86986
   A19        1.89264  -0.00062  -0.00066  -0.00509  -0.00576   1.88688
   A20        1.88505  -0.00038  -0.00050  -0.00219  -0.00270   1.88234
    D1        0.99765  -0.00020   0.00082   0.00927   0.01010   1.00775
    D2       -3.11112   0.00009   0.00083   0.01095   0.01177  -3.09935
    D3       -1.02566   0.00071   0.00057   0.01871   0.01928  -1.00637
    D4        1.13122   0.00060  -0.00011   0.00136   0.00123   1.13245
    D5       -0.99274  -0.00047  -0.00017  -0.00529  -0.00545  -0.99820
    D6       -3.07234  -0.00024  -0.00020  -0.00361  -0.00380  -3.07614
    D7       -1.11611   0.00038  -0.00049   0.02555   0.02506  -1.09105
    D8        1.01799   0.00053   0.00084   0.03023   0.03108   1.04906
    D9        3.03017   0.00032  -0.00061   0.02267   0.02206   3.05222
   D10        1.04287  -0.00002  -0.00020   0.02360   0.02340   1.06626
   D11       -3.10622   0.00013   0.00113   0.02828   0.02941  -3.07681
   D12       -1.09404  -0.00008  -0.00032   0.02072   0.02039  -1.07364
   D13        3.07444  -0.00023  -0.00004   0.01798   0.01793   3.09238
   D14       -1.07464  -0.00008   0.00129   0.02266   0.02395  -1.05069
   D15        0.93754  -0.00029  -0.00016   0.01510   0.01493   0.95247
   D16       -1.14724   0.00011   0.00201   0.03176   0.03377  -1.11347
   D17        3.05490   0.00013   0.00214   0.03228   0.03443   3.08933
   D18        0.96502   0.00004   0.00189   0.03037   0.03226   0.99728
   D19        3.02813  -0.00018   0.00071   0.02489   0.02559   3.05372
   D20        0.94708  -0.00016   0.00084   0.02541   0.02625   0.97333
   D21       -1.14279  -0.00025   0.00059   0.02349   0.02408  -1.11871
   D22        0.96071   0.00049   0.00178   0.03815   0.03993   1.00064
   D23       -1.12033   0.00051   0.00191   0.03868   0.04059  -1.07974
   D24        3.07298   0.00042   0.00167   0.03676   0.03842   3.11139
         Item               Value     Threshold  Converged?
 Maximum Force            0.002522     0.000450     NO 
 RMS     Force            0.000610     0.000300     NO 
 Maximum Displacement     0.070723     0.001800     NO 
 RMS     Displacement     0.021658     0.001200     NO 
 Predicted change in Energy=-8.601324D-05
 Lowest energy point so far.  Saving SCF results.
 GradGradGradGradGradGradGradGradGradGradGradGradGradGradGradGradGradGrad

 Leave Link  103 at Tue Oct 21 19:50:18 2025, MaxMem=  4294967296 cpu:               0.1 elap:               0.0
 (Enter /lrz/sys/applications/gaussian/g16.C.01/x86_64_legacy/exe/l202.exe)
                          Input orientation:                          
 ---------------------------------------------------------------------
 Center     Atomic      Atomic             Coordinates (Angstroms)
 Number     Number       Type             X           Y           Z
 ---------------------------------------------------------------------
      1          8           0       -0.646488   -1.356048   -0.024284
      2          6           0       -0.578915   -0.019135   -0.454404
      3          8           0       -1.217173    0.839560    0.457229
      4          6           0        0.883488    0.338837   -0.682924
      5          6           0        1.750241    0.265824    0.570330
      6          1           0       -1.580104   -1.579914    0.079190
      7          1           0       -1.142316    0.107632   -1.395376
      8          1           0       -0.724185    0.812557    1.288444
      9          1           0        1.276270   -0.341403   -1.455679
     10          1           0        0.913184    1.355129   -1.106856
     11          1           0        1.433339    1.001562    1.327985
     12          1           0        2.801357    0.483242    0.326939
     13          1           0        1.709692   -0.734950    1.027189
 ---------------------------------------------------------------------
                    Distance matrix (angstroms):
                    1          2          3          4          5
     1  O    0.000000
     2  C    1.406025   0.000000
     3  O    2.319101   1.405634   0.000000
     4  C    2.376398   1.522822   2.442018   0.000000
     5  C    2.954376   2.560517   3.024485   1.525528   0.000000
     6  H    0.965641   1.929543   2.475579   3.214298   3.839162
     7  H    2.065938   1.104047   1.993356   2.159844   3.500845
     8  H    2.536166   1.936578   0.966791   2.587531   2.633892
     9  H    2.602959   2.132632   3.357253   1.101887   2.167507
    10  H    3.309837   2.130881   2.692693   1.101567   2.167996
    11  H    3.422372   2.875395   2.794579   2.187532   1.102624
    12  H    3.923516   3.505584   4.036400   2.172303   1.100616
    13  H    2.653854   2.818729   3.372014   2.181770   1.100869
                    6          7          8          9         10
     6  H    0.000000
     7  H    2.283379   0.000000
     8  H    2.814038   2.806180   0.000000
     9  H    3.471110   2.460656   3.586594   0.000000
    10  H    4.029600   2.421688   2.951749   1.769670   0.000000
    11  H    4.159849   3.853545   2.166148   3.094675   2.514762
    12  H    4.849247   4.319724   3.669113   2.486696   2.526095
    13  H    3.526390   3.835717   2.895995   2.550955   3.091441
                   11         12         13
    11  H    0.000000
    12  H    1.772632   0.000000
    13  H    1.783907   1.779346   0.000000
 Stoichiometry    C3H8O2
 Framework group  C1[X(C3H8O2)]
 Deg. of freedom    33
 Full point group                 C1      NOp   1
 RotChk:  IX=0 Diff= 4.94D-02
 Largest Abelian subgroup         C1      NOp   1
 Largest concise Abelian subgroup C1      NOp   1
                         Standard orientation:                         
 ---------------------------------------------------------------------
 Center     Atomic      Atomic             Coordinates (Angstroms)
 Number     Number       Type             X           Y           Z
 ---------------------------------------------------------------------
      1          8           0        0.989817   -1.118732   -0.353734
      2          6           0        0.645245   -0.007653    0.436000
      3          8           0        1.017087    1.194456   -0.190479
      4          6           0       -0.844320   -0.080414    0.744038
      5          6           0       -1.743499   -0.005261   -0.486030
      6          1           0        1.942193   -1.079661   -0.508384
      7          1           0        1.219075   -0.017534    1.379156
      8          1           0        0.495431    1.283478   -0.999574
      9          1           0       -1.026251   -1.020209    1.289786
     10          1           0       -1.079522    0.742475    1.437568
     11          1           0       -1.647066    0.964272   -1.002253
     12          1           0       -2.800445   -0.116608   -0.199979
     13          1           0       -1.503202   -0.802035   -1.206669
 ---------------------------------------------------------------------
 Rotational constants (GHZ):           6.9507369           3.9954666           3.3311817
 Leave Link  202 at Tue Oct 21 19:50:18 2025, MaxMem=  4294967296 cpu:               0.1 elap:               0.0
 (Enter /lrz/sys/applications/gaussian/g16.C.01/x86_64_legacy/exe/l301.exe)
 Standard basis: def2SVP (5D, 7F)
 Ernie: Thresh=  0.10000D-02 Tol=  0.10000D-05 Strict=F.
 There are   115 symmetry adapted cartesian basis functions of A   symmetry.
 There are   110 symmetry adapted basis functions of A   symmetry.
   110 basis functions,   181 primitive gaussians,   115 cartesian basis functions
    21 alpha electrons       21 beta electrons
       nuclear repulsion energy       197.0395131032 Hartrees.
 IExCor= 4639 DFT=T Ex+Corr=wB97XD ExCW=0 ScaHFX=  1.000000
 ScaDFX=  1.000000  1.000000  1.000000  1.000000 ScalE2=  1.000000  1.000000
 IRadAn=      5 IRanWt=     -1 IRanGd=            0 ICorTp=0 IEmpDi=121
 HFx  wShort=  0.000000 wLong=  0.200000 cFull=  0.222036 cShort=  0.000000 cLong=  0.777964
 DFx  wShort=  0.000000 wLong=  0.200000 cFull=  0.000000 cShort=  0.000000 cLong=  1.000000
 NAtoms=   13 NActive=   13 NUniq=   13 SFac= 1.00D+00 NAtFMM=   60 NAOKFM=F Big=F
 Integral buffers will be    131072 words long.
 Raffenetti 2 integral format.
 Two-electron integral symmetry is turned on.
 R6Disp:  Grimme-D2 Dispersion energy=       -0.0056924991 Hartrees.
 Nuclear repulsion after empirical dispersion term =      197.0338206041 Hartrees.
 ------------------------------------------------------------------------------
 Polarizable Continuum Model (PCM)
 =================================
 Model                : PCM.
 Atomic radii         : SMD-Coulomb.
 Polarization charges : Total charges.
 Charge compensation  : None.
 Solution method      : On-the-fly selection.
 Cavity type          : VdW (van der Waals Surface) (Alpha=1.000).
 Cavity algorithm     : GePol (No added spheres)
                        Default sphere list used, NSphG=   13.
                        Lebedev-Laikov grids with approx.  5.0 points / Ang**2.
                        Smoothing algorithm: York/Karplus (Gamma=1.0000).
                        Polarization charges: spherical gaussians, with
                                              point-specific exponents (IZeta= 3).
                        Self-potential: point-specific (ISelfS= 7).
                        Self-field    : sphere-specific E.n sum rule (ISelfD= 2).
 1st derivatives      : Analytical E(r).r(x)/FMM algorithm (CHGder, D1EAlg=3).
                        Cavity 1st derivative terms included.
 Solvent              : Water, Eps=  78.355300 Eps(inf)=   1.777849
 ------------------------------------------------------------------------------
 Spheres list:
 ISph  on   Nord     Re0    Alpha      Xe            Ye            Ze
    1   O      1    1.5200  1.000      0.989817     -1.118732     -0.353734
    2   C      2    1.8500  1.000      0.645245     -0.007653      0.436000
    3   O      3    1.5200  1.000      1.017087      1.194456     -0.190479
    4   C      4    1.8500  1.000     -0.844320     -0.080414      0.744038
    5   C      5    1.8500  1.000     -1.743499     -0.005261     -0.486030
    6   H      6    1.2000  1.000      1.942193     -1.079661     -0.508384
    7   H      7    1.2000  1.000      1.219075     -0.017534      1.379156
    8   H      8    1.2000  1.000      0.495431      1.283478     -0.999574
    9   H      9    1.2000  1.000     -1.026251     -1.020209      1.289786
   10   H     10    1.2000  1.000     -1.079522      0.742475      1.437568
   11   H     11    1.2000  1.000     -1.647066      0.964272     -1.002253
   12   H     12    1.2000  1.000     -2.800445     -0.116608     -0.199979
   13   H     13    1.2000  1.000     -1.503202     -0.802035     -1.206669
 ------------------------------------------------------------------------------
 GePol: Number of generator spheres                  =      13
 GePol: Total number of spheres                      =      13
 GePol: Number of exposed spheres                    =      13 (100.00%)
 GePol: Number of points                             =     907
 GePol: Average weight of points                     =       0.12
 GePol: Minimum weight of points                     =   0.12D-10
 GePol: Maximum weight of points                     =    0.21991
 GePol: Number of points with low weight             =      47
 GePol: Fraction of low-weight points (<1% of avg)   =       5.18%
 GePol: Cavity surface area                          =    109.308 Ang**2
 GePol: Cavity volume                                =     81.992 Ang**3
 ------------------------------------------------------------------------------
 Atomic radii for non-electrostatic terms: SMD-CDS.
 ------------------------------------------------------------------------------
 PCM non-electrostatic energy =         0.0045350649 Hartrees.
 Nuclear repulsion after PCM non-electrostatic terms =      197.0383556690 Hartrees.
 Leave Link  301 at Tue Oct 21 19:50:18 2025, MaxMem=  4294967296 cpu:               0.5 elap:               0.1
 (Enter /lrz/sys/applications/gaussian/g16.C.01/x86_64_legacy/exe/l302.exe)
 NPDir=0 NMtPBC=     1 NCelOv=     1 NCel=       1 NClECP=     1 NCelD=      1
         NCelK=      1 NCelE2=     1 NClLst=     1 CellRange=     0.0.
 One-electron integrals computed using PRISM.
 One-electron integral symmetry used in STVInt
   1 Symmetry operations used in ECPInt.
 ECPInt:  NShTT=    1485 NPrTT=    5139 LenC2=    1483 LenP2D=    4460.
 LDataN:  DoStor=T MaxTD1= 4 Len=   56
 NBasis=   110 RedAO= T EigKep=  2.40D-03  NBF=   110
 NBsUse=   110 1.00D-06 EigRej= -1.00D+00 NBFU=   110
 Precomputing XC quadrature grid using
 IXCGrd= 4 IRadAn=           5 IRanWt=          -1 IRanGd=           0 AccXCQ= 0.00D+00.
 Generated NRdTot=       0 NPtTot=           0 NUsed=           0 NTot=          32
 NSgBfM=   115   115   115   115   115 MxSgAt=    13 MxSgA2=    13.
 Leave Link  302 at Tue Oct 21 19:50:19 2025, MaxMem=  4294967296 cpu:               1.2 elap:               0.2
 (Enter /lrz/sys/applications/gaussian/g16.C.01/x86_64_legacy/exe/l303.exe)
 DipDrv:  MaxL=1.
 Leave Link  303 at Tue Oct 21 19:50:19 2025, MaxMem=  4294967296 cpu:               0.3 elap:               0.1
 (Enter /lrz/sys/applications/gaussian/g16.C.01/x86_64_legacy/exe/l401.exe)
 Initial guess from the checkpoint file:  "g16_C3-w_3.chk"
 B after Tr=    -0.000000    0.000000    0.000000
         Rot=    0.999912    0.012905    0.000580    0.002926 Ang=   1.52 deg.
 Guess basis will be translated and rotated to current coordinates.
 JPrj=2 DoOrth=T DoCkMO=T.
 Generating alternative initial guess.
 ExpMin= 1.22D-01 ExpMax= 2.27D+03 ExpMxC= 3.41D+02 IAcc=3 IRadAn=         5 AccDes= 0.00D+00
 Harris functional with IExCor= 4639 and IRadAn=       5 diagonalized for initial guess.
 HarFok:  IExCor= 4639 AccDes= 0.00D+00 IRadAn=         5 IDoV= 1 UseB2=F ITyADJ=14
 ICtDFT=  3500011 ScaDFX=  1.000000  1.000000  1.000000  1.000000
 FoFCou: FMM=F IPFlag=           0 FMFlag=      100000 FMFlg1=           0
         NFxFlg=           0 DoJE=T BraDBF=F KetDBF=T FulRan=T
         wScrn=  0.000000 ICntrl=       500 IOpCl=  0 I1Cent=   200000004 NGrid=           0
         NMat0=    1 NMatS0=      1 NMatT0=    0 NMatD0=    1 NMtDS0=    0 NMtDT0=    0
 Petite list used in FoFCou.
 Harris En= -258.105135730439    
 Leave Link  401 at Tue Oct 21 19:50:19 2025, MaxMem=  4294967296 cpu:               5.6 elap:               0.7
 (Enter /lrz/sys/applications/gaussian/g16.C.01/x86_64_legacy/exe/l502.exe)
 Integral symmetry usage will be decided dynamically.
 Closed shell SCF:
 Using DIIS extrapolation, IDIIS=  1040.
 NGot=  4294967296 LenX=  4294938204 LenY=  4294924538
 Requested convergence on RMS density matrix=1.00D-08 within 128 cycles.
 Requested convergence on MAX density matrix=1.00D-06.
 Requested convergence on             energy=1.00D-06.
 No special actions if energy rises.
 Fock matrices will be formed incrementally for  20 cycles.

 Cycle   1  Pass 1  IDiag  1:
 FoFJK:  IHMeth= 1 ICntrl=       0 DoSepK=T KAlg= 0 I1Cent=           0 FoldK=F
 IRaf=         1 NMat=       1 IRICut=       1 DoRegI=T DoRafI=F ISym2E= 0 IDoP0=0 IntGTp=1.
 FoFCou: FMM=F IPFlag=           0 FMFlag=      100000 FMFlg1=           0
         NFxFlg=           0 DoJE=T BraDBF=F KetDBF=F FulRan=T
         wScrn=  0.000000 ICntrl=       500 IOpCl=  0 I1Cent=           0 NGrid=           0
         NMat0=    1 NMatS0=      1 NMatT0=    0 NMatD0=    1 NMtDS0=    0 NMtDT0=    0
 Symmetry not used in FoFCou.
 Inv3:  Mode=1 IEnd=     2467947.
 Iteration    1 A*A^-1 deviation from unit magnitude is 4.77D-15 for    704.
 Iteration    1 A*A^-1 deviation from orthogonality  is 3.25D-15 for    562     40.
 Iteration    1 A^-1*A deviation from unit magnitude is 4.77D-15 for    704.
 Iteration    1 A^-1*A deviation from orthogonality  is 2.40D-15 for    600    189.
 E= -269.316300266291    
 DIIS: error= 1.36D-03 at cycle   1 NSaved=   1.
 NSaved= 1 IEnMin= 1 EnMin= -269.316300266291     IErMin= 1 ErrMin= 1.36D-03
 ErrMax= 1.36D-03  0.00D+00 EMaxC= 1.00D-01 BMatC= 3.46D-04 BMatP= 3.46D-04
 IDIUse=3 WtCom= 9.86D-01 WtEn= 1.36D-02
 Coeff-Com:  0.100D+01
 Coeff-En:   0.100D+01
 Coeff:      0.100D+01
 Gap=     0.761 Goal=   None    Shift=    0.000
 GapD=    0.761 DampG=2.000 DampE=1.000 DampFc=2.0000 IDamp=-1.
 RMSDP=2.56D-04 MaxDP=5.13D-03              OVMax= 5.48D-03

 Cycle   2  Pass 1  IDiag  1:
 RMSU=  2.56D-04    CP:  1.00D+00
 E= -269.316851725978     Delta-E=       -0.000551459686 Rises=F Damp=F
 DIIS: error= 3.27D-04 at cycle   2 NSaved=   2.
 NSaved= 2 IEnMin= 2 EnMin= -269.316851725978     IErMin= 2 ErrMin= 3.27D-04
 ErrMax= 3.27D-04  0.00D+00 EMaxC= 1.00D-01 BMatC= 1.37D-05 BMatP= 3.46D-04
 IDIUse=3 WtCom= 9.97D-01 WtEn= 3.27D-03
 Coeff-Com: -0.187D+00 0.119D+01
 Coeff-En:   0.000D+00 0.100D+01
 Coeff:     -0.187D+00 0.119D+01
 Gap=     0.505 Goal=   None    Shift=    0.000
 RMSDP=7.75D-05 MaxDP=1.30D-03 DE=-5.51D-04 OVMax= 1.97D-03

 Cycle   3  Pass 1  IDiag  1:
 RMSU=  4.15D-05    CP:  1.00D+00  1.26D+00
 E= -269.316883671108     Delta-E=       -0.000031945131 Rises=F Damp=F
 DIIS: error= 7.67D-05 at cycle   3 NSaved=   3.
 NSaved= 3 IEnMin= 3 EnMin= -269.316883671108     IErMin= 3 ErrMin= 7.67D-05
 ErrMax= 7.67D-05  0.00D+00 EMaxC= 1.00D-01 BMatC= 1.53D-06 BMatP= 1.37D-05
 IDIUse=1 WtCom= 1.00D+00 WtEn= 0.00D+00
 Coeff-Com: -0.643D-01 0.328D+00 0.736D+00
 Coeff:     -0.643D-01 0.328D+00 0.736D+00
 Gap=     0.505 Goal=   None    Shift=    0.000
 RMSDP=1.57D-05 MaxDP=2.66D-04 DE=-3.19D-05 OVMax= 2.78D-04

 Cycle   4  Pass 1  IDiag  1:
 RMSU=  1.34D-05    CP:  1.00D+00  1.28D+00  1.09D+00
 E= -269.316885071510     Delta-E=       -0.000001400402 Rises=F Damp=F
 DIIS: error= 3.80D-05 at cycle   4 NSaved=   4.
 NSaved= 4 IEnMin= 4 EnMin= -269.316885071510     IErMin= 4 ErrMin= 3.80D-05
 ErrMax= 3.80D-05  0.00D+00 EMaxC= 1.00D-01 BMatC= 3.36D-07 BMatP= 1.53D-06
 IDIUse=1 WtCom= 1.00D+00 WtEn= 0.00D+00
 Coeff-Com:  0.115D-01-0.106D+00 0.285D+00 0.810D+00
 Coeff:      0.115D-01-0.106D+00 0.285D+00 0.810D+00
 Gap=     0.505 Goal=   None    Shift=    0.000
 RMSDP=7.83D-06 MaxDP=1.18D-04 DE=-1.40D-06 OVMax= 1.57D-04

 Cycle   5  Pass 1  IDiag  1:
 RMSU=  2.73D-06    CP:  1.00D+00  1.30D+00  1.25D+00  9.61D-01
 E= -269.316885414411     Delta-E=       -0.000000342901 Rises=F Damp=F
 DIIS: error= 4.49D-06 at cycle   5 NSaved=   5.
 NSaved= 5 IEnMin= 5 EnMin= -269.316885414411     IErMin= 5 ErrMin= 4.49D-06
 ErrMax= 4.49D-06  0.00D+00 EMaxC= 1.00D-01 BMatC= 7.21D-09 BMatP= 3.36D-07
 IDIUse=1 WtCom= 1.00D+00 WtEn= 0.00D+00
 Coeff-Com:  0.514D-02-0.393D-01 0.448D-01 0.202D+00 0.788D+00
 Coeff:      0.514D-02-0.393D-01 0.448D-01 0.202D+00 0.788D+00
 Gap=     0.505 Goal=   None    Shift=    0.000
 RMSDP=1.48D-06 MaxDP=2.36D-05 DE=-3.43D-07 OVMax= 3.02D-05

 Cycle   6  Pass 1  IDiag  1:
 RMSU=  9.10D-07    CP:  1.00D+00  1.30D+00  1.27D+00  9.98D-01  1.08D+00
 E= -269.316885422774     Delta-E=       -0.000000008363 Rises=F Damp=F
 DIIS: error= 1.61D-06 at cycle   6 NSaved=   6.
 NSaved= 6 IEnMin= 6 EnMin= -269.316885422774     IErMin= 6 ErrMin= 1.61D-06
 ErrMax= 1.61D-06  0.00D+00 EMaxC= 1.00D-01 BMatC= 8.56D-10 BMatP= 7.21D-09
 IDIUse=1 WtCom= 1.00D+00 WtEn= 0.00D+00
 Coeff-Com:  0.412D-03-0.141D-02-0.153D-01-0.200D-01 0.231D+00 0.805D+00
 Coeff:      0.412D-03-0.141D-02-0.153D-01-0.200D-01 0.231D+00 0.805D+00
 Gap=     0.505 Goal=   None    Shift=    0.000
 RMSDP=5.25D-07 MaxDP=8.72D-06 DE=-8.36D-09 OVMax= 9.77D-06

 Cycle   7  Pass 1  IDiag  1:
 RMSU=  1.99D-07    CP:  1.00D+00  1.30D+00  1.28D+00  1.01D+00  1.18D+00
                    CP:  9.56D-01
 E= -269.316885423815     Delta-E=       -0.000000001042 Rises=F Damp=F
 DIIS: error= 4.77D-07 at cycle   7 NSaved=   7.
 NSaved= 7 IEnMin= 7 EnMin= -269.316885423815     IErMin= 7 ErrMin= 4.77D-07
 ErrMax= 4.77D-07  0.00D+00 EMaxC= 1.00D-01 BMatC= 5.00D-11 BMatP= 8.56D-10
 IDIUse=1 WtCom= 1.00D+00 WtEn= 0.00D+00
 Coeff-Com: -0.223D-03 0.224D-02-0.642D-02-0.181D-01 0.220D-02 0.199D+00
 Coeff-Com:  0.821D+00
 Coeff:     -0.223D-03 0.224D-02-0.642D-02-0.181D-01 0.220D-02 0.199D+00
 Coeff:      0.821D+00
 Gap=     0.505 Goal=   None    Shift=    0.000
 RMSDP=1.25D-07 MaxDP=2.26D-06 DE=-1.04D-09 OVMax= 3.25D-06

 Cycle   8  Pass 1  IDiag  1:
 RMSU=  6.67D-08    CP:  1.00D+00  1.30D+00  1.28D+00  1.02D+00  1.21D+00
                    CP:  1.02D+00  1.04D+00
 E= -269.316885423865     Delta-E=       -0.000000000050 Rises=F Damp=F
 DIIS: error= 2.43D-07 at cycle   8 NSaved=   8.
 NSaved= 8 IEnMin= 8 EnMin= -269.316885423865     IErMin= 8 ErrMin= 2.43D-07
 ErrMax= 2.43D-07  0.00D+00 EMaxC= 1.00D-01 BMatC= 1.15D-11 BMatP= 5.00D-11
 IDIUse=1 WtCom= 1.00D+00 WtEn= 0.00D+00
 Coeff-Com: -0.122D-03 0.103D-02-0.150D-02-0.614D-02-0.173D-01 0.246D-01
 Coeff-Com:  0.370D+00 0.629D+00
 Coeff:     -0.122D-03 0.103D-02-0.150D-02-0.614D-02-0.173D-01 0.246D-01
 Coeff:      0.370D+00 0.629D+00
 Gap=     0.505 Goal=   None    Shift=    0.000
 RMSDP=3.56D-08 MaxDP=7.23D-07 DE=-4.98D-11 OVMax= 9.67D-07

 Cycle   9  Pass 1  IDiag  1:
 RMSU=  2.27D-08    CP:  1.00D+00  1.30D+00  1.28D+00  1.02D+00  1.21D+00
                    CP:  1.04D+00  1.15D+00  9.05D-01
 E= -269.316885423881     Delta-E=       -0.000000000016 Rises=F Damp=F
 DIIS: error= 5.34D-08 at cycle   9 NSaved=   9.
 NSaved= 9 IEnMin= 9 EnMin= -269.316885423881     IErMin= 9 ErrMin= 5.34D-08
 ErrMax= 5.34D-08  0.00D+00 EMaxC= 1.00D-01 BMatC= 3.65D-13 BMatP= 1.15D-11
 IDIUse=1 WtCom= 1.00D+00 WtEn= 0.00D+00
 Coeff-Com:  0.249D-04-0.262D-03 0.837D-03 0.220D-02-0.199D-02-0.265D-01
 Coeff-Com: -0.852D-01 0.318D-01 0.108D+01
 Coeff:      0.249D-04-0.262D-03 0.837D-03 0.220D-02-0.199D-02-0.265D-01
 Coeff:     -0.852D-01 0.318D-01 0.108D+01
 Gap=     0.505 Goal=   None    Shift=    0.000
 RMSDP=1.93D-08 MaxDP=4.91D-07 DE=-1.60D-11 OVMax= 6.89D-07

 Cycle  10  Pass 1  IDiag  1:
 RMSU=  4.15D-09    CP:  1.00D+00  1.30D+00  1.28D+00  1.02D+00  1.21D+00
                    CP:  1.04D+00  1.20D+00  1.07D+00  1.29D+00
 E= -269.316885423880     Delta-E=        0.000000000001 Rises=F Damp=F
 DIIS: error= 9.90D-09 at cycle  10 NSaved=  10.
 NSaved=10 IEnMin= 9 EnMin= -269.316885423881     IErMin=10 ErrMin= 9.90D-09
 ErrMax= 9.90D-09  0.00D+00 EMaxC= 1.00D-01 BMatC= 1.76D-14 BMatP= 3.65D-13
 IDIUse=1 WtCom= 1.00D+00 WtEn= 0.00D+00
 Coeff-Com:  0.913D-05-0.845D-04 0.197D-03 0.598D-03 0.307D-03-0.485D-02
 Coeff-Com: -0.265D-01-0.221D-01 0.125D+00 0.928D+00
 Coeff:      0.913D-05-0.845D-04 0.197D-03 0.598D-03 0.307D-03-0.485D-02
 Coeff:     -0.265D-01-0.221D-01 0.125D+00 0.928D+00
 Gap=     0.505 Goal=   None    Shift=    0.000
 RMSDP=3.72D-09 MaxDP=8.65D-08 DE= 1.14D-12 OVMax= 1.32D-07

 Error on total polarization charges =  0.03189
 SCF Done:  E(RwB97XD) =  -269.316885424     A.U. after   10 cycles
            NFock= 10  Conv=0.37D-08     -V/T= 2.0096
 KE= 2.667496657192D+02 PE=-1.024040456725D+03 EE= 2.909355499126D+02
 SMD-CDS (non-electrostatic) energy       (kcal/mol) =       2.85
 (included in total energy above)
 Leave Link  502 at Tue Oct 21 19:50:34 2025, MaxMem=  4294967296 cpu:             116.5 elap:              14.7
 (Enter /lrz/sys/applications/gaussian/g16.C.01/x86_64_legacy/exe/l701.exe)
 ... and contract with generalized density number  0.
 Compute integral first derivatives.
 R6Disp: Adding Grimme-D2 dispersion energy 1st derivatives to the gradient.
   1 Symmetry operations used in ECPInt.
 ECPInt:  NShTT=    1485 NPrTT=    5139 LenC2=    1483 LenP2D=    4460.
 LDataN:  DoStor=T MaxTD1= 5 Len=  102
 D1PCM: PCM CHGder 1st derivatives, ID1Alg=3 FixD1E=F DoIter=F DoCFld=F I1PDM=0.
 GePol: Maximum number of non-zero 1st derivatives   =     243
 Leave Link  701 at Tue Oct 21 19:50:34 2025, MaxMem=  4294967296 cpu:               4.2 elap:               0.5
 (Enter /lrz/sys/applications/gaussian/g16.C.01/x86_64_legacy/exe/l702.exe)
 L702 exits ... SP integral derivatives will be done elsewhere.
 Leave Link  702 at Tue Oct 21 19:50:35 2025, MaxMem=  4294967296 cpu:               0.2 elap:               0.0
 (Enter /lrz/sys/applications/gaussian/g16.C.01/x86_64_legacy/exe/l703.exe)
 Integral derivatives from FoFJK, PRISM(SPDF).
 Compute integral first derivatives, UseDBF=F ICtDFT=           0.
 Calling FoFJK, ICntrl=      2127 FMM=F ISym2X=0 I1Cent= 0 IOpClX= 0 NMat=1 NMatS=1 NMatT=0.
 FoFJK:  IHMeth= 1 ICntrl=    2127 DoSepK=T KAlg= 0 I1Cent=           0 FoldK=F
 IRaf=         1 NMat=       1 IRICut=       1 DoRegI=T DoRafI=F ISym2E= 0 IDoP0=0 IntGTp=1.
 FoFCou: FMM=F IPFlag=           0 FMFlag=      100000 FMFlg1=         800
         NFxFlg=           0 DoJE=F BraDBF=F KetDBF=F FulRan=T
         wScrn=  0.000000 ICntrl=      2527 IOpCl=  0 I1Cent=           0 NGrid=           0
         NMat0=    1 NMatS0=      1 NMatT0=    0 NMatD0=    1 NMtDS0=    0 NMtDT0=    0
 Symmetry not used in FoFCou.
 Leave Link  703 at Tue Oct 21 19:50:37 2025, MaxMem=  4294967296 cpu:              17.8 elap:               2.2
 (Enter /lrz/sys/applications/gaussian/g16.C.01/x86_64_legacy/exe/l716.exe)
 Dipole        =-6.45409433D-02 2.98468042D-02-6.81872453D-02
 ***** Axes restored to original set *****
 -------------------------------------------------------------------
 Center     Atomic                   Forces (Hartrees/Bohr)
 Number     Number              X              Y              Z
 -------------------------------------------------------------------
      1        8           0.000247275    0.000444680    0.000107661
      2        6          -0.000175634    0.000046938   -0.000418447
      3        8          -0.000008376    0.000416239    0.000484202
      4        6           0.000212109   -0.000317332    0.000221478
      5        6           0.000210049   -0.000175096   -0.000275216
      6        1           0.000089268   -0.000048165   -0.000297368
      7        1           0.000163900   -0.000216967    0.000003234
      8        1          -0.000141847   -0.000031989    0.000076485
      9        1          -0.000112487    0.000274854    0.000246716
     10        1          -0.000018540   -0.000465929    0.000080455
     11        1           0.000118833   -0.000490355   -0.000180024
     12        1          -0.000666984   -0.000012027    0.000153913
     13        1           0.000082435    0.000575150   -0.000203089
 -------------------------------------------------------------------
 Cartesian Forces:  Max     0.000666984 RMS     0.000274507
 Leave Link  716 at Tue Oct 21 19:50:37 2025, MaxMem=  4294967296 cpu:               0.2 elap:               0.0
 (Enter /lrz/sys/applications/gaussian/g16.C.01/x86_64_legacy/exe/l103.exe)

 GradGradGradGradGradGradGradGradGradGradGradGradGradGradGradGradGradGrad
 Berny optimization.
 Using GEDIIS/GDIIS optimizer.
 FormGI is forming the generalized inverse of G from B-inverse, IUseBI=4.
 Internal  Forces:  Max     0.000670406 RMS     0.000244969
 Search for a local minimum.
 Step number   3 out of a maximum of   66
 All quantities printed in internal units (Hartrees-Bohrs-Radians)
 RMS Force = .24497D-03 SwitMx=.10000D-02 MixMth= 2
 Mixed Optimization -- En-DIIS/RFO-DIIS
 Swapping is turned off.
 Update second derivatives using D2CorX and points    1    2    3
 DE= -1.12D-04 DEPred=-8.60D-05 R= 1.30D+00
 TightC=F SS=  1.41D+00  RLast= 1.27D-01 DXNew= 7.2598D-01 3.8244D-01
 Trust test= 1.30D+00 RLast= 1.27D-01 DXMaxT set to 4.32D-01
 ITU=  1  1  0
     Eigenvalues ---    0.00268   0.00359   0.01544   0.01685   0.03422
     Eigenvalues ---    0.04507   0.05456   0.05592   0.05707   0.06024
     Eigenvalues ---    0.08667   0.09927   0.12424   0.15176   0.16000
     Eigenvalues ---    0.16000   0.16078   0.16481   0.19638   0.21473
     Eigenvalues ---    0.22447   0.27944   0.30246   0.33541   0.34810
     Eigenvalues ---    0.34883   0.35013   0.35181   0.39134   0.45306
     Eigenvalues ---    0.49352   0.54232   0.54655
 En-DIIS/RFO-DIIS/Sim-DIIS IScMMF=       -3 using points:     3    2
 RFO step:  Lambda=-3.91571085D-05.
 NNeg= 0 NGDIIS= 2 SimSw=  2.50D-03 Rises=F DC= -1.12D-04 SmlDif=  1.00D-05
 NRisDI= 0 DoIntr=F SqrtH=F CThrHd= 10.0 CDAdj=  3.0
 RMS Error=  0.1229205919D-01 NUsed= 2 OKEnD=T EnDIS=F
 InvSVX:  RCond= 3.90D-03 Info=           0 Equed=N FErr=  3.27D-15 BErr=  6.31D-17
 DidBck=F Rises=F RFO-DIIS coefs:    1.70453   -0.70453
 Iteration  1 RMS(Cart)=  0.01481099 RMS(Int)=  0.00015951
 Iteration  2 RMS(Cart)=  0.00016888 RMS(Int)=  0.00000785
 Iteration  3 RMS(Cart)=  0.00000002 RMS(Int)=  0.00000785
 ITry= 1 IFail=0 DXMaxC= 4.95D-02 DCOld= 1.00D+10 DXMaxT= 4.32D-01 DXLimC= 3.00D+00 Rises=F
 Variable       Old X    -DE/DX   Delta X   Delta X   Delta X     New X
                                 (Linear)    (Quad)   (Total)
    R1        2.65700  -0.00043   0.00261  -0.00285  -0.00024   2.65677
    R2        1.82480  -0.00011   0.00074  -0.00077  -0.00003   1.82477
    R3        2.65626   0.00066  -0.00157   0.00308   0.00152   2.65778
    R4        2.87772  -0.00031  -0.00337   0.00077  -0.00260   2.87512
    R5        2.08635  -0.00011  -0.00042   0.00003  -0.00039   2.08596
    R6        1.82697  -0.00002  -0.00012   0.00010  -0.00003   1.82694
    R7        2.88283  -0.00057  -0.00577   0.00208  -0.00368   2.87915
    R8        2.08226  -0.00038   0.00136  -0.00172  -0.00036   2.08191
    R9        2.08166  -0.00047   0.00188  -0.00246  -0.00058   2.08108
   R10        2.08366  -0.00048   0.00163  -0.00218  -0.00055   2.08311
   R11        2.07986  -0.00067   0.00122  -0.00248  -0.00126   2.07860
   R12        2.08034  -0.00062   0.00165  -0.00267  -0.00102   2.07932
    A1        1.87516  -0.00000   0.00049  -0.00115  -0.00065   1.87451
    A2        1.93975   0.00017  -0.00431   0.00424  -0.00008   1.93967
    A3        1.89186  -0.00046   0.00618  -0.00780  -0.00163   1.89023
    A4        1.92344   0.00008   0.00062  -0.00146  -0.00087   1.92257
    A5        1.97119   0.00022  -0.00022   0.00152   0.00131   1.97250
    A6        1.82441   0.00008  -0.00349   0.00563   0.00214   1.82655
    A7        1.91258  -0.00006   0.00095  -0.00176  -0.00082   1.91176
    A8        1.88494   0.00020  -0.00278   0.00369   0.00091   1.88585
    A9        1.99445   0.00024   0.00433  -0.00097   0.00335   1.99780
   A10        1.87805   0.00002   0.00222  -0.00063   0.00158   1.87963
   A11        1.87603  -0.00018   0.00199  -0.00324  -0.00125   1.87477
   A12        1.92203  -0.00014  -0.00018  -0.00034  -0.00055   1.92148
   A13        1.92303   0.00005  -0.00171   0.00188   0.00015   1.92318
   A14        1.86507  -0.00000  -0.00728   0.00352  -0.00376   1.86132
   A15        1.94902   0.00013   0.00110   0.00015   0.00125   1.95027
   A16        1.92995  -0.00007   0.00116  -0.00091   0.00024   1.93020
   A17        1.94283   0.00011   0.00484  -0.00217   0.00266   1.94549
   A18        1.86986  -0.00003  -0.00155   0.00057  -0.00098   1.86888
   A19        1.88688  -0.00016  -0.00406   0.00114  -0.00292   1.88396
   A20        1.88234   0.00000  -0.00191   0.00140  -0.00051   1.88183
    D1        1.00775   0.00022   0.00712   0.00764   0.01476   1.02251
    D2       -3.09935   0.00028   0.00829   0.00695   0.01523  -3.08412
    D3       -1.00637  -0.00002   0.01359  -0.00088   0.01271  -0.99366
    D4        1.13245  -0.00025   0.00087  -0.00668  -0.00583   1.12662
    D5       -0.99820   0.00007  -0.00384  -0.00075  -0.00459  -1.00279
    D6       -3.07614  -0.00003  -0.00268  -0.00297  -0.00565  -3.08179
    D7       -1.09105  -0.00003   0.01765  -0.00405   0.01361  -1.07744
    D8        1.04906  -0.00003   0.02189  -0.00559   0.01632   1.06538
    D9        3.05222  -0.00011   0.01554  -0.00342   0.01212   3.06434
   D10        1.06626   0.00000   0.01648  -0.00327   0.01321   1.07948
   D11       -3.07681   0.00000   0.02072  -0.00481   0.01592  -3.06089
   D12       -1.07364  -0.00008   0.01437  -0.00264   0.01172  -1.06192
   D13        3.09238   0.00019   0.01263   0.00351   0.01614   3.10851
   D14       -1.05069   0.00019   0.01687   0.00197   0.01884  -1.03185
   D15        0.95247   0.00011   0.01052   0.00414   0.01465   0.96711
   D16       -1.11347   0.00012   0.02379   0.00304   0.02684  -1.08663
   D17        3.08933   0.00012   0.02426   0.00283   0.02709   3.11642
   D18        0.99728   0.00009   0.02273   0.00309   0.02582   1.02310
   D19        3.05372   0.00002   0.01803   0.00480   0.02283   3.07655
   D20        0.97333   0.00003   0.01849   0.00458   0.02308   0.99641
   D21       -1.11871  -0.00001   0.01696   0.00485   0.02181  -1.09690
   D22        1.00064   0.00008   0.02813  -0.00045   0.02767   1.02832
   D23       -1.07974   0.00009   0.02860  -0.00067   0.02792  -1.05182
   D24        3.11139   0.00005   0.02706  -0.00040   0.02666   3.13805
         Item               Value     Threshold  Converged?
 Maximum Force            0.000670     0.000450     NO 
 RMS     Force            0.000245     0.000300     YES
 Maximum Displacement     0.049494     0.001800     NO 
 RMS     Displacement     0.014810     0.001200     NO 
 Predicted change in Energy=-1.974543D-05
 Lowest energy point so far.  Saving SCF results.
 GradGradGradGradGradGradGradGradGradGradGradGradGradGradGradGradGradGrad

 Leave Link  103 at Tue Oct 21 19:50:37 2025, MaxMem=  4294967296 cpu:               0.2 elap:               0.0
 (Enter /lrz/sys/applications/gaussian/g16.C.01/x86_64_legacy/exe/l202.exe)
                          Input orientation:                          
 ---------------------------------------------------------------------
 Center     Atomic      Atomic             Coordinates (Angstroms)
 Number     Number       Type             X           Y           Z
 ---------------------------------------------------------------------
      1          8           0       -0.646540   -1.349857   -0.009186
      2          6           0       -0.579135   -0.017521   -0.452912
      3          8           0       -1.221508    0.850271    0.448396
      4          6           0        0.882856    0.336904   -0.680424
      5          6           0        1.752480    0.259894    0.568222
      6          1           0       -1.580662   -1.577397    0.080674
      7          1           0       -1.138165    0.097429   -1.397760
      8          1           0       -0.734664    0.828946    1.283373
      9          1           0        1.274525   -0.339606   -1.456741
     10          1           0        0.913702    1.353396   -1.102993
     11          1           0        1.423617    0.975371    1.339637
     12          1           0        2.797886    0.502600    0.327162
     13          1           0        1.733998   -0.747536    1.010335
 ---------------------------------------------------------------------
                    Distance matrix (angstroms):
                    1          2          3          4          5
     1  O    0.000000
     2  C    1.405900   0.000000
     3  O    2.319597   1.406436   0.000000
     4  C    2.373769   1.521446   2.442566   0.000000
     5  C    2.946184   2.560488   3.034387   1.523579   0.000000
     6  H    0.965625   1.928985   2.481488   3.211346   3.837079
     7  H    2.065058   1.103841   1.995497   2.157880   3.499615
     8  H    2.534888   1.937881   0.966777   2.591326   2.649744
     9  H    2.608930   2.132478   3.357906   1.101698   2.165252
    10  H    3.307317   2.128516   2.686831   1.101259   2.166161
    11  H    3.392869   2.865324   2.794037   2.186483   1.102333
    12  H    3.925405   3.504756   4.036223   2.170259   1.099950
    13  H    2.658793   2.832772   3.406432   2.181541   1.100328
                    6          7          8          9         10
     6  H    0.000000
     7  H    2.277413   0.000000
     8  H    2.820050   2.808273   0.000000
     9  H    3.471003   2.452661   3.593128   0.000000
    10  H    4.026471   2.423736   2.947354   1.766801   0.000000
    11  H    4.138514   3.850564   2.163973   3.093723   2.523758
    12  H    4.853743   4.316482   3.674200   2.492439   2.513831
    13  H    3.541174   3.842162   2.941792   2.542438   3.090786
                   11         12         13
    11  H    0.000000
    12  H    1.771224   0.000000
    13  H    1.781344   1.778039   0.000000
 Stoichiometry    C3H8O2
 Framework group  C1[X(C3H8O2)]
 Deg. of freedom    33
 Full point group                 C1      NOp   1
 RotChk:  IX=0 Diff= 2.85D-02
 Largest Abelian subgroup         C1      NOp   1
 Largest concise Abelian subgroup C1      NOp   1
                         Standard orientation:                         
 ---------------------------------------------------------------------
 Center     Atomic      Atomic             Coordinates (Angstroms)
 Number     Number       Type             X           Y           Z
 ---------------------------------------------------------------------
      1          8           0        0.977017   -1.126720   -0.346156
      2          6           0        0.645042   -0.006375    0.435620
      3          8           0        1.030499    1.187640   -0.199844
      4          6           0       -0.843916   -0.062674    0.743241
      5          6           0       -1.744429   -0.006629   -0.484450
      6          1           0        1.931724   -1.106195   -0.489489
      7          1           0        1.217611   -0.017915    1.379280
      8          1           0        0.513961    1.274812   -1.012400
      9          1           0       -1.033974   -0.988030    1.310103
     10          1           0       -1.072421    0.774882    1.420779
     11          1           0       -1.623798    0.939865   -1.036479
     12          1           0       -2.802369   -0.077333   -0.191784
     13          1           0       -1.531048   -0.833386   -1.178470
 ---------------------------------------------------------------------
 Rotational constants (GHZ):           6.9545544           3.9950750           3.3296377
 Leave Link  202 at Tue Oct 21 19:50:37 2025, MaxMem=  4294967296 cpu:               0.1 elap:               0.0
 (Enter /lrz/sys/applications/gaussian/g16.C.01/x86_64_legacy/exe/l301.exe)
 Standard basis: def2SVP (5D, 7F)
 Ernie: Thresh=  0.10000D-02 Tol=  0.10000D-05 Strict=F.
 There are   115 symmetry adapted cartesian basis functions of A   symmetry.
 There are   110 symmetry adapted basis functions of A   symmetry.
   110 basis functions,   181 primitive gaussians,   115 cartesian basis functions
    21 alpha electrons       21 beta electrons
       nuclear repulsion energy       197.0560591748 Hartrees.
 IExCor= 4639 DFT=T Ex+Corr=wB97XD ExCW=0 ScaHFX=  1.000000
 ScaDFX=  1.000000  1.000000  1.000000  1.000000 ScalE2=  1.000000  1.000000
 IRadAn=      5 IRanWt=     -1 IRanGd=            0 ICorTp=0 IEmpDi=121
 HFx  wShort=  0.000000 wLong=  0.200000 cFull=  0.222036 cShort=  0.000000 cLong=  0.777964
 DFx  wShort=  0.000000 wLong=  0.200000 cFull=  0.000000 cShort=  0.000000 cLong=  1.000000
 NAtoms=   13 NActive=   13 NUniq=   13 SFac= 1.00D+00 NAtFMM=   60 NAOKFM=F Big=F
 Integral buffers will be    131072 words long.
 Raffenetti 2 integral format.
 Two-electron integral symmetry is turned on.
 R6Disp:  Grimme-D2 Dispersion energy=       -0.0056873135 Hartrees.
 Nuclear repulsion after empirical dispersion term =      197.0503718614 Hartrees.
 ------------------------------------------------------------------------------
 Polarizable Continuum Model (PCM)
 =================================
 Model                : PCM.
 Atomic radii         : SMD-Coulomb.
 Polarization charges : Total charges.
 Charge compensation  : None.
 Solution method      : On-the-fly selection.
 Cavity type          : VdW (van der Waals Surface) (Alpha=1.000).
 Cavity algorithm     : GePol (No added spheres)
                        Default sphere list used, NSphG=   13.
                        Lebedev-Laikov grids with approx.  5.0 points / Ang**2.
                        Smoothing algorithm: York/Karplus (Gamma=1.0000).
                        Polarization charges: spherical gaussians, with
                                              point-specific exponents (IZeta= 3).
                        Self-potential: point-specific (ISelfS= 7).
                        Self-field    : sphere-specific E.n sum rule (ISelfD= 2).
 1st derivatives      : Analytical E(r).r(x)/FMM algorithm (CHGder, D1EAlg=3).
                        Cavity 1st derivative terms included.
 Solvent              : Water, Eps=  78.355300 Eps(inf)=   1.777849
 ------------------------------------------------------------------------------
 Spheres list:
 ISph  on   Nord     Re0    Alpha      Xe            Ye            Ze
    1   O      1    1.5200  1.000      0.977017     -1.126720     -0.346156
    2   C      2    1.8500  1.000      0.645042     -0.006375      0.435620
    3   O      3    1.5200  1.000      1.030499      1.187640     -0.199844
    4   C      4    1.8500  1.000     -0.843916     -0.062674      0.743241
    5   C      5    1.8500  1.000     -1.744429     -0.006629     -0.484450
    6   H      6    1.2000  1.000      1.931724     -1.106195     -0.489489
    7   H      7    1.2000  1.000      1.217611     -0.017915      1.379280
    8   H      8    1.2000  1.000      0.513961      1.274812     -1.012400
    9   H      9    1.2000  1.000     -1.033974     -0.988030      1.310103
   10   H     10    1.2000  1.000     -1.072421      0.774882      1.420779
   11   H     11    1.2000  1.000     -1.623798      0.939865     -1.036479
   12   H     12    1.2000  1.000     -2.802369     -0.077333     -0.191784
   13   H     13    1.2000  1.000     -1.531048     -0.833386     -1.178470
 ------------------------------------------------------------------------------
 GePol: Number of generator spheres                  =      13
 GePol: Total number of spheres                      =      13
 GePol: Number of exposed spheres                    =      13 (100.00%)
 GePol: Number of points                             =     907
 GePol: Average weight of points                     =       0.12
 GePol: Minimum weight of points                     =   0.27D-09
 GePol: Maximum weight of points                     =    0.21991
 GePol: Number of points with low weight             =      49
 GePol: Fraction of low-weight points (<1% of avg)   =       5.40%
 GePol: Cavity surface area                          =    109.314 Ang**2
 GePol: Cavity volume                                =     81.990 Ang**3
 ------------------------------------------------------------------------------
 Atomic radii for non-electrostatic terms: SMD-CDS.
 ------------------------------------------------------------------------------
 PCM non-electrostatic energy =         0.0045317833 Hartrees.
 Nuclear repulsion after PCM non-electrostatic terms =      197.0549036447 Hartrees.
 Leave Link  301 at Tue Oct 21 19:50:37 2025, MaxMem=  4294967296 cpu:               0.5 elap:               0.1
 (Enter /lrz/sys/applications/gaussian/g16.C.01/x86_64_legacy/exe/l302.exe)
 NPDir=0 NMtPBC=     1 NCelOv=     1 NCel=       1 NClECP=     1 NCelD=      1
         NCelK=      1 NCelE2=     1 NClLst=     1 CellRange=     0.0.
 One-electron integrals computed using PRISM.
 One-electron integral symmetry used in STVInt
   1 Symmetry operations used in ECPInt.
 ECPInt:  NShTT=    1485 NPrTT=    5139 LenC2=    1483 LenP2D=    4458.
 LDataN:  DoStor=T MaxTD1= 4 Len=   56
 NBasis=   110 RedAO= T EigKep=  2.40D-03  NBF=   110
 NBsUse=   110 1.00D-06 EigRej= -1.00D+00 NBFU=   110
 Precomputing XC quadrature grid using
 IXCGrd= 4 IRadAn=           5 IRanWt=          -1 IRanGd=           0 AccXCQ= 0.00D+00.
 Generated NRdTot=       0 NPtTot=           0 NUsed=           0 NTot=          32
 NSgBfM=   115   115   115   115   115 MxSgAt=    13 MxSgA2=    13.
 Leave Link  302 at Tue Oct 21 19:50:37 2025, MaxMem=  4294967296 cpu:               1.2 elap:               0.2
 (Enter /lrz/sys/applications/gaussian/g16.C.01/x86_64_legacy/exe/l303.exe)
 DipDrv:  MaxL=1.
 Leave Link  303 at Tue Oct 21 19:50:37 2025, MaxMem=  4294967296 cpu:               0.3 elap:               0.1
 (Enter /lrz/sys/applications/gaussian/g16.C.01/x86_64_legacy/exe/l401.exe)
 Initial guess from the checkpoint file:  "g16_C3-w_3.chk"
 B after Tr=    -0.000000   -0.000000    0.000000
         Rot=    0.999972    0.006444   -0.000171    0.003770 Ang=   0.86 deg.
 Guess basis will be translated and rotated to current coordinates.
 JPrj=2 DoOrth=T DoCkMO=T.
 Generating alternative initial guess.
 ExpMin= 1.22D-01 ExpMax= 2.27D+03 ExpMxC= 3.41D+02 IAcc=3 IRadAn=         5 AccDes= 0.00D+00
 Harris functional with IExCor= 4639 and IRadAn=       5 diagonalized for initial guess.
 HarFok:  IExCor= 4639 AccDes= 0.00D+00 IRadAn=         5 IDoV= 1 UseB2=F ITyADJ=14
 ICtDFT=  3500011 ScaDFX=  1.000000  1.000000  1.000000  1.000000
 FoFCou: FMM=F IPFlag=           0 FMFlag=      100000 FMFlg1=           0
         NFxFlg=           0 DoJE=T BraDBF=F KetDBF=T FulRan=T
         wScrn=  0.000000 ICntrl=       500 IOpCl=  0 I1Cent=   200000004 NGrid=           0
         NMat0=    1 NMatS0=      1 NMatT0=    0 NMatD0=    1 NMtDS0=    0 NMtDT0=    0
 Petite list used in FoFCou.
 Harris En= -258.104988108931    
 Leave Link  401 at Tue Oct 21 19:50:38 2025, MaxMem=  4294967296 cpu:               5.6 elap:               0.7
 (Enter /lrz/sys/applications/gaussian/g16.C.01/x86_64_legacy/exe/l502.exe)
 Integral symmetry usage will be decided dynamically.
 Closed shell SCF:
 Using DIIS extrapolation, IDIIS=  1040.
 NGot=  4294967296 LenX=  4294938204 LenY=  4294924538
 Requested convergence on RMS density matrix=1.00D-08 within 128 cycles.
 Requested convergence on MAX density matrix=1.00D-06.
 Requested convergence on             energy=1.00D-06.
 No special actions if energy rises.
 Fock matrices will be formed incrementally for  20 cycles.

 Cycle   1  Pass 1  IDiag  1:
 FoFJK:  IHMeth= 1 ICntrl=       0 DoSepK=T KAlg= 0 I1Cent=           0 FoldK=F
 IRaf=         1 NMat=       1 IRICut=       1 DoRegI=T DoRafI=F ISym2E= 0 IDoP0=0 IntGTp=1.
 FoFCou: FMM=F IPFlag=           0 FMFlag=      100000 FMFlg1=           0
         NFxFlg=           0 DoJE=T BraDBF=F KetDBF=F FulRan=T
         wScrn=  0.000000 ICntrl=       500 IOpCl=  0 I1Cent=           0 NGrid=           0
         NMat0=    1 NMatS0=      1 NMatT0=    0 NMatD0=    1 NMtDS0=    0 NMtDT0=    0
 Symmetry not used in FoFCou.
 Inv3:  Mode=1 IEnd=     2467947.
 Iteration    1 A*A^-1 deviation from unit magnitude is 4.22D-15 for     42.
 Iteration    1 A*A^-1 deviation from orthogonality  is 2.72D-15 for    623    112.
 Iteration    1 A^-1*A deviation from unit magnitude is 4.44D-15 for    125.
 Iteration    1 A^-1*A deviation from orthogonality  is 3.13D-15 for    644    607.
 E= -269.316640251216    
 DIIS: error= 9.59D-04 at cycle   1 NSaved=   1.
 NSaved= 1 IEnMin= 1 EnMin= -269.316640251216     IErMin= 1 ErrMin= 9.59D-04
 ErrMax= 9.59D-04  0.00D+00 EMaxC= 1.00D-01 BMatC= 1.64D-04 BMatP= 1.64D-04
 IDIUse=3 WtCom= 9.90D-01 WtEn= 9.59D-03
 Coeff-Com:  0.100D+01
 Coeff-En:   0.100D+01
 Coeff:      0.100D+01
 Gap=     0.761 Goal=   None    Shift=    0.000
 RMSDP=1.70D-04 MaxDP=3.57D-03              OVMax= 3.68D-03

 Cycle   2  Pass 1  IDiag  1:
 RMSU=  1.70D-04    CP:  1.00D+00
 E= -269.316896887782     Delta-E=       -0.000256636567 Rises=F Damp=F
 DIIS: error= 2.23D-04 at cycle   2 NSaved=   2.
 NSaved= 2 IEnMin= 2 EnMin= -269.316896887782     IErMin= 2 ErrMin= 2.23D-04
 ErrMax= 2.23D-04  0.00D+00 EMaxC= 1.00D-01 BMatC= 6.15D-06 BMatP= 1.64D-04
 IDIUse=3 WtCom= 9.98D-01 WtEn= 2.23D-03
 Coeff-Com: -0.190D+00 0.119D+01
 Coeff-En:   0.000D+00 0.100D+01
 Coeff:     -0.190D+00 0.119D+01
 Gap=     0.505 Goal=   None    Shift=    0.000
 RMSDP=5.01D-05 MaxDP=9.15D-04 DE=-2.57D-04 OVMax= 1.34D-03

 Cycle   3  Pass 1  IDiag  1:
 RMSU=  2.66D-05    CP:  1.00D+00  1.25D+00
 E= -269.316911516254     Delta-E=       -0.000014628471 Rises=F Damp=F
 DIIS: error= 4.03D-05 at cycle   3 NSaved=   3.
 NSaved= 3 IEnMin= 3 EnMin= -269.316911516254     IErMin= 3 ErrMin= 4.03D-05
 ErrMax= 4.03D-05  0.00D+00 EMaxC= 1.00D-01 BMatC= 3.86D-07 BMatP= 6.15D-06
 IDIUse=1 WtCom= 1.00D+00 WtEn= 0.00D+00
 Coeff-Com: -0.413D-01 0.195D+00 0.847D+00
 Coeff:     -0.413D-01 0.195D+00 0.847D+00
 Gap=     0.505 Goal=   None    Shift=    0.000
 RMSDP=1.00D-05 MaxDP=1.45D-04 DE=-1.46D-05 OVMax= 2.00D-04

 Cycle   4  Pass 1  IDiag  1:
 RMSU=  7.95D-06    CP:  1.00D+00  1.28D+00  1.15D+00
 E= -269.316911933746     Delta-E=       -0.000000417493 Rises=F Damp=F
 DIIS: error= 2.49D-05 at cycle   4 NSaved=   4.
 NSaved= 4 IEnMin= 4 EnMin= -269.316911933746     IErMin= 4 ErrMin= 2.49D-05
 ErrMax= 2.49D-05  0.00D+00 EMaxC= 1.00D-01 BMatC= 1.53D-07 BMatP= 3.86D-07
 IDIUse=1 WtCom= 1.00D+00 WtEn= 0.00D+00
 Coeff-Com:  0.141D-01-0.119D+00 0.380D+00 0.725D+00
 Coeff:      0.141D-01-0.119D+00 0.380D+00 0.725D+00
 Gap=     0.505 Goal=   None    Shift=    0.000
 RMSDP=4.46D-06 MaxDP=7.11D-05 DE=-4.17D-07 OVMax= 9.19D-05

 Cycle   5  Pass 1  IDiag  1:
 RMSU=  1.85D-06    CP:  1.00D+00  1.28D+00  1.29D+00  8.73D-01
 E= -269.316912080024     Delta-E=       -0.000000146277 Rises=F Damp=F
 DIIS: error= 3.25D-06 at cycle   5 NSaved=   5.
 NSaved= 5 IEnMin= 5 EnMin= -269.316912080024     IErMin= 5 ErrMin= 3.25D-06
 ErrMax= 3.25D-06  0.00D+00 EMaxC= 1.00D-01 BMatC= 2.83D-09 BMatP= 1.53D-07
 IDIUse=1 WtCom= 1.00D+00 WtEn= 0.00D+00
 Coeff-Com:  0.501D-02-0.380D-01 0.629D-01 0.179D+00 0.791D+00
 Coeff:      0.501D-02-0.380D-01 0.629D-01 0.179D+00 0.791D+00
 Gap=     0.505 Goal=   None    Shift=    0.000
 RMSDP=8.96D-07 MaxDP=1.41D-05 DE=-1.46D-07 OVMax= 1.91D-05

 Cycle   6  Pass 1  IDiag  1:
 RMSU=  5.79D-07    CP:  1.00D+00  1.29D+00  1.31D+00  9.07D-01  1.11D+00
 E= -269.316912083355     Delta-E=       -0.000000003332 Rises=F Damp=F
 DIIS: error= 9.23D-07 at cycle   6 NSaved=   6.
 NSaved= 6 IEnMin= 6 EnMin= -269.316912083355     IErMin= 6 ErrMin= 9.23D-07
 ErrMax= 9.23D-07  0.00D+00 EMaxC= 1.00D-01 BMatC= 3.78D-10 BMatP= 2.83D-09
 IDIUse=1 WtCom= 1.00D+00 WtEn= 0.00D+00
 Coeff-Com: -0.404D-04 0.177D-02-0.250D-01-0.289D-01 0.238D+00 0.814D+00
 Coeff:     -0.404D-04 0.177D-02-0.250D-01-0.289D-01 0.238D+00 0.814D+00
 Gap=     0.505 Goal=   None    Shift=    0.000
 RMSDP=3.44D-07 MaxDP=5.91D-06 DE=-3.33D-09 OVMax= 6.55D-06

 Cycle   7  Pass 1  IDiag  1:
 RMSU=  1.18D-07    CP:  1.00D+00  1.29D+00  1.32D+00  9.25D-01  1.23D+00
                    CP:  9.39D-01
 E= -269.316912083845     Delta-E=       -0.000000000490 Rises=F Damp=F
 DIIS: error= 2.57D-07 at cycle   7 NSaved=   7.
 NSaved= 7 IEnMin= 7 EnMin= -269.316912083845     IErMin= 7 ErrMin= 2.57D-07
 ErrMax= 2.57D-07  0.00D+00 EMaxC= 1.00D-01 BMatC= 1.72D-11 BMatP= 3.78D-10
 IDIUse=1 WtCom= 1.00D+00 WtEn= 0.00D+00
 Coeff-Com: -0.261D-03 0.241D-02-0.820D-02-0.154D-01 0.135D-02 0.170D+00
 Coeff-Com:  0.850D+00
 Coeff:     -0.261D-03 0.241D-02-0.820D-02-0.154D-01 0.135D-02 0.170D+00
 Coeff:      0.850D+00
 Gap=     0.505 Goal=   None    Shift=    0.000
 RMSDP=7.64D-08 MaxDP=1.89D-06 DE=-4.90D-10 OVMax= 2.43D-06

 Cycle   8  Pass 1  IDiag  1:
 RMSU=  4.34D-08    CP:  1.00D+00  1.29D+00  1.32D+00  9.27D-01  1.25D+00
                    CP:  1.00D+00  1.14D+00
 E= -269.316912083868     Delta-E=       -0.000000000023 Rises=F Damp=F
 DIIS: error= 1.53D-07 at cycle   8 NSaved=   8.
 NSaved= 8 IEnMin= 8 EnMin= -269.316912083868     IErMin= 8 ErrMin= 1.53D-07
 ErrMax= 1.53D-07  0.00D+00 EMaxC= 1.00D-01 BMatC= 4.98D-12 BMatP= 1.72D-11
 IDIUse=1 WtCom= 1.00D+00 WtEn= 0.00D+00
 Coeff-Com: -0.101D-03 0.827D-03-0.114D-02-0.383D-02-0.214D-01 0.318D-03
 Coeff-Com:  0.382D+00 0.644D+00
 Coeff:     -0.101D-03 0.827D-03-0.114D-02-0.383D-02-0.214D-01 0.318D-03
 Coeff:      0.382D+00 0.644D+00
 Gap=     0.505 Goal=   None    Shift=    0.000
 RMSDP=2.43D-08 MaxDP=5.56D-07 DE=-2.25D-11 OVMax= 7.50D-07

 Cycle   9  Pass 1  IDiag  1:
 RMSU=  1.42D-08    CP:  1.00D+00  1.29D+00  1.32D+00  9.28D-01  1.25D+00
                    CP:  1.01D+00  1.27D+00  9.00D-01
 E= -269.316912083869     Delta-E=       -0.000000000001 Rises=F Damp=F
 DIIS: error= 3.72D-08 at cycle   9 NSaved=   9.
 NSaved= 9 IEnMin= 9 EnMin= -269.316912083869     IErMin= 9 ErrMin= 3.72D-08
 ErrMax= 3.72D-08  0.00D+00 EMaxC= 1.00D-01 BMatC= 1.97D-13 BMatP= 4.98D-12
 IDIUse=1 WtCom= 1.00D+00 WtEn= 0.00D+00
 Coeff-Com:  0.342D-04-0.331D-03 0.131D-02 0.222D-02-0.383D-02-0.289D-01
 Coeff-Com: -0.830D-01 0.564D-01 0.106D+01
 Coeff:      0.342D-04-0.331D-03 0.131D-02 0.222D-02-0.383D-02-0.289D-01
 Coeff:     -0.830D-01 0.564D-01 0.106D+01
 Gap=     0.505 Goal=   None    Shift=    0.000
 RMSDP=1.34D-08 MaxDP=3.81D-07 DE=-1.48D-12 OVMax= 5.12D-07

 Cycle  10  Pass 1  IDiag  1:
 RMSU=  3.01D-09    CP:  1.00D+00  1.29D+00  1.32D+00  9.28D-01  1.25D+00
                    CP:  1.02D+00  1.35D+00  1.06D+00  1.26D+00
 E= -269.316912083873     Delta-E=       -0.000000000004 Rises=F Damp=F
 DIIS: error= 7.47D-09 at cycle  10 NSaved=  10.
 NSaved=10 IEnMin=10 EnMin= -269.316912083873     IErMin=10 ErrMin= 7.47D-09
 ErrMax= 7.47D-09  0.00D+00 EMaxC= 1.00D-01 BMatC= 1.19D-14 BMatP= 1.97D-13
 IDIUse=1 WtCom= 1.00D+00 WtEn= 0.00D+00
 Coeff-Com:  0.133D-04-0.120D-03 0.385D-03 0.723D-03-0.150D-03-0.696D-02
 Coeff-Com: -0.343D-01-0.156D-01 0.227D+00 0.829D+00
 Coeff:      0.133D-04-0.120D-03 0.385D-03 0.723D-03-0.150D-03-0.696D-02
 Coeff:     -0.343D-01-0.156D-01 0.227D+00 0.829D+00
 Gap=     0.505 Goal=   None    Shift=    0.000
 RMSDP=2.32D-09 MaxDP=5.00D-08 DE=-3.75D-12 OVMax= 7.90D-08

 Error on total polarization charges =  0.03188
 SCF Done:  E(RwB97XD) =  -269.316912084     A.U. after   10 cycles
            NFock= 10  Conv=0.23D-08     -V/T= 2.0096
 KE= 2.667560077553D+02 PE=-1.024082371337D+03 EE= 2.909545478528D+02
 SMD-CDS (non-electrostatic) energy       (kcal/mol) =       2.84
 (included in total energy above)
 Leave Link  502 at Tue Oct 21 19:50:53 2025, MaxMem=  4294967296 cpu:             121.0 elap:              15.2
 (Enter /lrz/sys/applications/gaussian/g16.C.01/x86_64_legacy/exe/l701.exe)
 ... and contract with generalized density number  0.
 Compute integral first derivatives.
 R6Disp: Adding Grimme-D2 dispersion energy 1st derivatives to the gradient.
   1 Symmetry operations used in ECPInt.
 ECPInt:  NShTT=    1485 NPrTT=    5139 LenC2=    1483 LenP2D=    4458.
 LDataN:  DoStor=T MaxTD1= 5 Len=  102
 D1PCM: PCM CHGder 1st derivatives, ID1Alg=3 FixD1E=F DoIter=F DoCFld=F I1PDM=0.
 GePol: Maximum number of non-zero 1st derivatives   =     243
 Leave Link  701 at Tue Oct 21 19:50:54 2025, MaxMem=  4294967296 cpu:               4.4 elap:               0.6
 (Enter /lrz/sys/applications/gaussian/g16.C.01/x86_64_legacy/exe/l702.exe)
 L702 exits ... SP integral derivatives will be done elsewhere.
 Leave Link  702 at Tue Oct 21 19:50:54 2025, MaxMem=  4294967296 cpu:               0.2 elap:               0.0
 (Enter /lrz/sys/applications/gaussian/g16.C.01/x86_64_legacy/exe/l703.exe)
 Integral derivatives from FoFJK, PRISM(SPDF).
 Compute integral first derivatives, UseDBF=F ICtDFT=           0.
 Calling FoFJK, ICntrl=      2127 FMM=F ISym2X=0 I1Cent= 0 IOpClX= 0 NMat=1 NMatS=1 NMatT=0.
 FoFJK:  IHMeth= 1 ICntrl=    2127 DoSepK=T KAlg= 0 I1Cent=           0 FoldK=F
 IRaf=         1 NMat=       1 IRICut=       1 DoRegI=T DoRafI=F ISym2E= 0 IDoP0=0 IntGTp=1.
 FoFCou: FMM=F IPFlag=           0 FMFlag=      100000 FMFlg1=         800
         NFxFlg=           0 DoJE=F BraDBF=F KetDBF=F FulRan=T
         wScrn=  0.000000 ICntrl=      2527 IOpCl=  0 I1Cent=           0 NGrid=           0
         NMat0=    1 NMatS0=      1 NMatT0=    0 NMatD0=    1 NMtDS0=    0 NMtDT0=    0
 Symmetry not used in FoFCou.
 Leave Link  703 at Tue Oct 21 19:50:56 2025, MaxMem=  4294967296 cpu:              17.6 elap:               2.2
 (Enter /lrz/sys/applications/gaussian/g16.C.01/x86_64_legacy/exe/l716.exe)
 Dipole        =-5.91719800D-02 2.09336187D-02-6.06299793D-02
 ***** Axes restored to original set *****
 -------------------------------------------------------------------
 Center     Atomic                   Forces (Hartrees/Bohr)
 Number     Number              X              Y              Z
 -------------------------------------------------------------------
      1        8          -0.000157435    0.000290147    0.000084969
      2        6          -0.000382370   -0.000362226    0.000236995
      3        8           0.000159164    0.000085481   -0.000182272
      4        6           0.000465421    0.000337219   -0.000747651
      5        6           0.000456948   -0.000144017    0.000663700
      6        1           0.000092406   -0.000144878   -0.000148414
      7        1          -0.000067798    0.000095428    0.000097877
      8        1          -0.000062186   -0.000093254    0.000005169
      9        1          -0.000168591   -0.000011822    0.000224707
     10        1          -0.000046114   -0.000114128    0.000153286
     11        1           0.000015100   -0.000141024   -0.000169307
     12        1          -0.000227424    0.000006736   -0.000014385
     13        1          -0.000077120    0.000196338   -0.000204673
 -------------------------------------------------------------------
 Cartesian Forces:  Max     0.000747651 RMS     0.000251522
 Leave Link  716 at Tue Oct 21 19:50:56 2025, MaxMem=  4294967296 cpu:               0.2 elap:               0.0
 (Enter /lrz/sys/applications/gaussian/g16.C.01/x86_64_legacy/exe/l103.exe)

 GradGradGradGradGradGradGradGradGradGradGradGradGradGradGradGradGradGrad
 Berny optimization.
 Using GEDIIS/GDIIS optimizer.
 FormGI is forming the generalized inverse of G from B-inverse, IUseBI=4.
 Internal  Forces:  Max     0.000451064 RMS     0.000118942
 Search for a local minimum.
 Step number   4 out of a maximum of   66
 All quantities printed in internal units (Hartrees-Bohrs-Radians)
 RMS Force = .11894D-03 SwitMx=.10000D-02 MixMth= 2
 Mixed Optimization -- En-DIIS/RFO-DIIS
 Swapping is turned off.
 Update second derivatives using D2CorX and points    1    2    3    4
 DE= -2.67D-05 DEPred=-1.97D-05 R= 1.35D+00
 TightC=F SS=  1.41D+00  RLast= 9.32D-02 DXNew= 7.2598D-01 2.7957D-01
 Trust test= 1.35D+00 RLast= 9.32D-02 DXMaxT set to 4.32D-01
 ITU=  1  1  1  0
     Eigenvalues ---    0.00232   0.00345   0.01393   0.01686   0.03414
     Eigenvalues ---    0.04784   0.05436   0.05578   0.05774   0.06118
     Eigenvalues ---    0.08728   0.09934   0.12513   0.15809   0.16000
     Eigenvalues ---    0.16003   0.16068   0.16637   0.19701   0.21374
     Eigenvalues ---    0.22686   0.29702   0.32037   0.33557   0.34790
     Eigenvalues ---    0.34885   0.35001   0.35187   0.35955   0.45366
     Eigenvalues ---    0.50064   0.54231   0.54738
 En-DIIS/RFO-DIIS/Sim-DIIS IScMMF=       -3 using points:     4    3    2
 RFO step:  Lambda=-6.87465852D-06.
 NNeg= 0 NGDIIS= 3 SimSw=  2.50D-01 Rises=F DC= -2.67D-05 SmlDif=  1.00D-05
 NRisDI= 0 DoIntr=F SqrtH=F CThrHd= 10.0 CDAdj=  3.0
 RMS Error=  0.4067717647D-02 NUsed= 3 OKEnD=T EnDIS=F
 InvSVX:  RCond= 2.58D-05 Info=           0 Equed=N FErr=  5.33D-14 BErr=  4.90D-17
 DidBck=F Rises=F RFO-DIIS coefs:    1.27432   -0.25640   -0.01792
 Iteration  1 RMS(Cart)=  0.00404738 RMS(Int)=  0.00001420
 Iteration  2 RMS(Cart)=  0.00001527 RMS(Int)=  0.00000059
 Iteration  3 RMS(Cart)=  0.00000000 RMS(Int)=  0.00000059
 ITry= 1 IFail=0 DXMaxC= 1.33D-02 DCOld= 1.00D+10 DXMaxT= 4.32D-01 DXLimC= 3.00D+00 Rises=F
 Variable       Old X    -DE/DX   Delta X   Delta X   Delta X     New X
                                 (Linear)    (Quad)   (Total)
    R1        2.65677  -0.00013   0.00000  -0.00021  -0.00021   2.65656
    R2        1.82477  -0.00007   0.00001  -0.00013  -0.00011   1.82465
    R3        2.65778  -0.00017   0.00038  -0.00060  -0.00023   2.65755
    R4        2.87512   0.00045  -0.00080   0.00191   0.00112   2.87623
    R5        2.08596  -0.00004  -0.00012  -0.00006  -0.00018   2.08578
    R6        1.82694  -0.00003  -0.00001  -0.00005  -0.00006   1.82688
    R7        2.87915   0.00031  -0.00116   0.00160   0.00044   2.87958
    R8        2.08191  -0.00021  -0.00006  -0.00048  -0.00054   2.08137
    R9        2.08108  -0.00017  -0.00011  -0.00033  -0.00044   2.08064
   R10        2.08311  -0.00021  -0.00011  -0.00044  -0.00055   2.08256
   R11        2.07860  -0.00021  -0.00031  -0.00032  -0.00064   2.07796
   R12        2.07932  -0.00027  -0.00024  -0.00055  -0.00079   2.07853
    A1        1.87451   0.00023  -0.00017   0.00152   0.00135   1.87586
    A2        1.93967   0.00007  -0.00013   0.00067   0.00054   1.94021
    A3        1.89023  -0.00000  -0.00029   0.00067   0.00038   1.89062
    A4        1.92257   0.00002  -0.00022   0.00046   0.00024   1.92281
    A5        1.97250  -0.00002   0.00035  -0.00029   0.00007   1.97256
    A6        1.82655  -0.00006   0.00050  -0.00148  -0.00098   1.82557
    A7        1.91176   0.00001  -0.00020  -0.00008  -0.00028   1.91148
    A8        1.88585  -0.00003   0.00018  -0.00032  -0.00014   1.88571
    A9        1.99780   0.00002   0.00103  -0.00060   0.00042   1.99822
   A10        1.87963  -0.00008   0.00049  -0.00125  -0.00076   1.87886
   A11        1.87477  -0.00002  -0.00029   0.00003  -0.00026   1.87451
   A12        1.92148   0.00001  -0.00016  -0.00004  -0.00020   1.92128
   A13        1.92318  -0.00000  -0.00000   0.00016   0.00015   1.92334
   A14        1.86132   0.00008  -0.00122   0.00187   0.00066   1.86197
   A15        1.95027  -0.00005   0.00037  -0.00053  -0.00015   1.95012
   A16        1.93020  -0.00007   0.00010  -0.00042  -0.00032   1.92987
   A17        1.94549  -0.00014   0.00085  -0.00115  -0.00030   1.94519
   A18        1.86888   0.00006  -0.00031   0.00042   0.00011   1.86899
   A19        1.88396   0.00009  -0.00090   0.00089  -0.00001   1.88394
   A20        1.88183   0.00012  -0.00019   0.00092   0.00073   1.88256
    D1        1.02251   0.00008   0.00423   0.00363   0.00786   1.03037
    D2       -3.08412   0.00010   0.00439   0.00418   0.00857  -3.07555
    D3       -0.99366   0.00011   0.00383   0.00477   0.00860  -0.98506
    D4        1.12662  -0.00005  -0.00158  -0.00246  -0.00403   1.12259
    D5       -1.00279  -0.00008  -0.00136  -0.00362  -0.00498  -1.00777
    D6       -3.08179  -0.00004  -0.00162  -0.00243  -0.00405  -3.08584
    D7       -1.07744  -0.00001   0.00418  -0.00140   0.00278  -1.07466
    D8        1.06538  -0.00004   0.00503  -0.00279   0.00224   1.06762
    D9        3.06434   0.00000   0.00372  -0.00122   0.00250   3.06684
   D10        1.07948   0.00006   0.00404  -0.00025   0.00379   1.08327
   D11       -3.06089   0.00003   0.00489  -0.00164   0.00325  -3.05763
   D12       -1.06192   0.00007   0.00358  -0.00007   0.00351  -1.05841
   D13        3.10851  -0.00003   0.00475  -0.00232   0.00243   3.11094
   D14       -1.03185  -0.00006   0.00560  -0.00371   0.00189  -1.02996
   D15        0.96711  -0.00002   0.00429  -0.00214   0.00214   0.96926
   D16       -1.08663  -0.00001   0.00797  -0.00028   0.00769  -1.07895
   D17        3.11642  -0.00000   0.00805  -0.00018   0.00786   3.12428
   D18        1.02310  -0.00001   0.00766  -0.00031   0.00735   1.03045
   D19        3.07655   0.00007   0.00672   0.00181   0.00853   3.08508
   D20        0.99641   0.00008   0.00680   0.00191   0.00871   1.00513
   D21       -1.09690   0.00006   0.00642   0.00178   0.00820  -1.08870
   D22        1.02832  -0.00002   0.00831  -0.00055   0.00776   1.03607
   D23       -1.05182  -0.00002   0.00839  -0.00045   0.00794  -1.04388
   D24        3.13805  -0.00003   0.00800  -0.00058   0.00742  -3.13771
         Item               Value     Threshold  Converged?
 Maximum Force            0.000451     0.000450     NO 
 RMS     Force            0.000119     0.000300     YES
 Maximum Displacement     0.013329     0.001800     NO 
 RMS     Displacement     0.004047     0.001200     NO 
 Predicted change in Energy=-3.437496D-06
 Lowest energy point so far.  Saving SCF results.
 GradGradGradGradGradGradGradGradGradGradGradGradGradGradGradGradGradGrad

 Leave Link  103 at Tue Oct 21 19:50:56 2025, MaxMem=  4294967296 cpu:               0.1 elap:               0.0
 (Enter /lrz/sys/applications/gaussian/g16.C.01/x86_64_legacy/exe/l202.exe)
                          Input orientation:                          
 ---------------------------------------------------------------------
 Center     Atomic      Atomic             Coordinates (Angstroms)
 Number     Number       Type             X           Y           Z
 ---------------------------------------------------------------------
      1          8           0       -0.647795   -1.348098   -0.004621
      2          6           0       -0.579361   -0.017109   -0.451866
      3          8           0       -1.222051    0.853922    0.445900
      4          6           0        0.883355    0.336414   -0.680073
      5          6           0        1.754092    0.258934    0.568050
      6          1           0       -1.581788   -1.578474    0.078433
      7          1           0       -1.137903    0.095924   -1.397122
      8          1           0       -0.738201    0.832036    1.282561
      9          1           0        1.273514   -0.340930   -1.456018
     10          1           0        0.914437    1.352573   -1.102816
     11          1           0        1.421487    0.969065    1.342382
     12          1           0        2.797553    0.508750    0.327369
     13          1           0        1.741052   -0.750113    1.005605
 ---------------------------------------------------------------------
                    Distance matrix (angstroms):
                    1          2          3          4          5
     1  O    0.000000
     2  C    1.405789   0.000000
     3  O    2.319834   1.406317   0.000000
     4  C    2.374497   1.522036   2.443024   0.000000
     5  C    2.946110   2.561529   3.037493   1.523811   0.000000
     6  H    0.965564   1.929751   2.486160   3.212329   3.839778
     7  H    2.065058   1.103746   1.994586   2.158119   3.500302
     8  H    2.533376   1.937657   0.966743   2.593649   2.655277
     9  H    2.610051   2.132212   3.357500   1.101412   2.165097
    10  H    3.307601   2.128661   2.685471   1.101025   2.166301
    11  H    3.386088   2.862736   2.793785   2.186358   1.102045
    12  H    3.927916   3.505322   4.036138   2.169976   1.099612
    13  H    2.661716   2.836517   3.415579   2.181214   1.099909
                    6          7          8          9         10
     6  H    0.000000
     7  H    2.275501   0.000000
     8  H    2.823495   2.807548   0.000000
     9  H    3.469698   2.451375   3.594810   0.000000
    10  H    4.027099   2.424435   2.948253   1.766816   0.000000
    11  H    4.136083   3.849382   2.164858   3.093385   2.526494
    12  H    4.857685   4.316493   3.676746   2.495020   2.510696
    13  H    3.547830   3.844120   2.954081   2.538820   3.090311
                   11         12         13
    11  H    0.000000
    12  H    1.770790   0.000000
    13  H    1.780763   1.777902   0.000000
 Stoichiometry    C3H8O2
 Framework group  C1[X(C3H8O2)]
 Deg. of freedom    33
 Full point group                 C1      NOp   1
 RotChk:  IX=0 Diff= 7.55D-03
 Largest Abelian subgroup         C1      NOp   1
 Largest concise Abelian subgroup C1      NOp   1
                         Standard orientation:                         
 ---------------------------------------------------------------------
 Center     Atomic      Atomic             Coordinates (Angstroms)
 Number     Number       Type             X           Y           Z
 ---------------------------------------------------------------------
      1          8           0        0.975476   -1.128134   -0.344260
      2          6           0        0.645234   -0.005669    0.435005
      3          8           0        1.032854    1.186629   -0.202102
      4          6           0       -0.844297   -0.058672    0.743357
      5          6           0       -1.745682   -0.007740   -0.484206
      6          1           0        1.931088   -1.114652   -0.481879
      7          1           0        1.217766   -0.015692    1.378595
      8          1           0        0.519416    1.271376   -1.016836
      9          1           0       -1.034550   -0.981182    1.314223
     10          1           0       -1.071269    0.782271    1.416823
     11          1           0       -1.618539    0.932321   -1.045118
     12          1           0       -2.803419   -0.067670   -0.189679
     13          1           0       -1.538661   -0.842249   -1.170164
 ---------------------------------------------------------------------
 Rotational constants (GHZ):           6.9548553           3.9921663           3.3269811
 Leave Link  202 at Tue Oct 21 19:50:56 2025, MaxMem=  4294967296 cpu:               0.1 elap:               0.0
 (Enter /lrz/sys/applications/gaussian/g16.C.01/x86_64_legacy/exe/l301.exe)
 Standard basis: def2SVP (5D, 7F)
 Ernie: Thresh=  0.10000D-02 Tol=  0.10000D-05 Strict=F.
 There are   115 symmetry adapted cartesian basis functions of A   symmetry.
 There are   110 symmetry adapted basis functions of A   symmetry.
   110 basis functions,   181 primitive gaussians,   115 cartesian basis functions
    21 alpha electrons       21 beta electrons
       nuclear repulsion energy       197.0284796763 Hartrees.
 IExCor= 4639 DFT=T Ex+Corr=wB97XD ExCW=0 ScaHFX=  1.000000
 ScaDFX=  1.000000  1.000000  1.000000  1.000000 ScalE2=  1.000000  1.000000
 IRadAn=      5 IRanWt=     -1 IRanGd=            0 ICorTp=0 IEmpDi=121
 HFx  wShort=  0.000000 wLong=  0.200000 cFull=  0.222036 cShort=  0.000000 cLong=  0.777964
 DFx  wShort=  0.000000 wLong=  0.200000 cFull=  0.000000 cShort=  0.000000 cLong=  1.000000
 NAtoms=   13 NActive=   13 NUniq=   13 SFac= 1.00D+00 NAtFMM=   60 NAOKFM=F Big=F
 Integral buffers will be    131072 words long.
 Raffenetti 2 integral format.
 Two-electron integral symmetry is turned on.
 R6Disp:  Grimme-D2 Dispersion energy=       -0.0056866003 Hartrees.
 Nuclear repulsion after empirical dispersion term =      197.0227930760 Hartrees.
 ------------------------------------------------------------------------------
 Polarizable Continuum Model (PCM)
 =================================
 Model                : PCM.
 Atomic radii         : SMD-Coulomb.
 Polarization charges : Total charges.
 Charge compensation  : None.
 Solution method      : On-the-fly selection.
 Cavity type          : VdW (van der Waals Surface) (Alpha=1.000).
 Cavity algorithm     : GePol (No added spheres)
                        Default sphere list used, NSphG=   13.
                        Lebedev-Laikov grids with approx.  5.0 points / Ang**2.
                        Smoothing algorithm: York/Karplus (Gamma=1.0000).
                        Polarization charges: spherical gaussians, with
                                              point-specific exponents (IZeta= 3).
                        Self-potential: point-specific (ISelfS= 7).
                        Self-field    : sphere-specific E.n sum rule (ISelfD= 2).
 1st derivatives      : Analytical E(r).r(x)/FMM algorithm (CHGder, D1EAlg=3).
                        Cavity 1st derivative terms included.
 Solvent              : Water, Eps=  78.355300 Eps(inf)=   1.777849
 ------------------------------------------------------------------------------
 Spheres list:
 ISph  on   Nord     Re0    Alpha      Xe            Ye            Ze
    1   O      1    1.5200  1.000      0.975476     -1.128134     -0.344260
    2   C      2    1.8500  1.000      0.645234     -0.005669      0.435005
    3   O      3    1.5200  1.000      1.032854      1.186629     -0.202102
    4   C      4    1.8500  1.000     -0.844297     -0.058672      0.743357
    5   C      5    1.8500  1.000     -1.745682     -0.007740     -0.484206
    6   H      6    1.2000  1.000      1.931088     -1.114652     -0.481879
    7   H      7    1.2000  1.000      1.217766     -0.015692      1.378595
    8   H      8    1.2000  1.000      0.519416      1.271376     -1.016836
    9   H      9    1.2000  1.000     -1.034550     -0.981182      1.314223
   10   H     10    1.2000  1.000     -1.071269      0.782271      1.416823
   11   H     11    1.2000  1.000     -1.618539      0.932321     -1.045118
   12   H     12    1.2000  1.000     -2.803419     -0.067670     -0.189679
   13   H     13    1.2000  1.000     -1.538661     -0.842249     -1.170164
 ------------------------------------------------------------------------------
 GePol: Number of generator spheres                  =      13
 GePol: Total number of spheres                      =      13
 GePol: Number of exposed spheres                    =      13 (100.00%)
 GePol: Number of points                             =     903
 GePol: Average weight of points                     =       0.12
 GePol: Minimum weight of points                     =   0.70D-08
 GePol: Maximum weight of points                     =    0.21991
 GePol: Number of points with low weight             =      47
 GePol: Fraction of low-weight points (<1% of avg)   =       5.20%
 GePol: Cavity surface area                          =    109.361 Ang**2
 GePol: Cavity volume                                =     82.015 Ang**3
 ------------------------------------------------------------------------------
 Atomic radii for non-electrostatic terms: SMD-CDS.
 ------------------------------------------------------------------------------
 PCM non-electrostatic energy =         0.0045365183 Hartrees.
 Nuclear repulsion after PCM non-electrostatic terms =      197.0273295943 Hartrees.
 Leave Link  301 at Tue Oct 21 19:50:56 2025, MaxMem=  4294967296 cpu:               0.5 elap:               0.1
 (Enter /lrz/sys/applications/gaussian/g16.C.01/x86_64_legacy/exe/l302.exe)
 NPDir=0 NMtPBC=     1 NCelOv=     1 NCel=       1 NClECP=     1 NCelD=      1
         NCelK=      1 NCelE2=     1 NClLst=     1 CellRange=     0.0.
 One-electron integrals computed using PRISM.
 One-electron integral symmetry used in STVInt
   1 Symmetry operations used in ECPInt.
 ECPInt:  NShTT=    1485 NPrTT=    5139 LenC2=    1483 LenP2D=    4458.
 LDataN:  DoStor=T MaxTD1= 4 Len=   56
 NBasis=   110 RedAO= T EigKep=  2.41D-03  NBF=   110
 NBsUse=   110 1.00D-06 EigRej= -1.00D+00 NBFU=   110
 Precomputing XC quadrature grid using
 IXCGrd= 4 IRadAn=           5 IRanWt=          -1 IRanGd=           0 AccXCQ= 0.00D+00.
 Generated NRdTot=       0 NPtTot=           0 NUsed=           0 NTot=          32
 NSgBfM=   115   115   115   115   115 MxSgAt=    13 MxSgA2=    13.
 Leave Link  302 at Tue Oct 21 19:50:56 2025, MaxMem=  4294967296 cpu:               1.3 elap:               0.2
 (Enter /lrz/sys/applications/gaussian/g16.C.01/x86_64_legacy/exe/l303.exe)
 DipDrv:  MaxL=1.
 Leave Link  303 at Tue Oct 21 19:50:56 2025, MaxMem=  4294967296 cpu:               0.2 elap:               0.0
 (Enter /lrz/sys/applications/gaussian/g16.C.01/x86_64_legacy/exe/l401.exe)
 Initial guess from the checkpoint file:  "g16_C3-w_3.chk"
 B after Tr=     0.000000    0.000000   -0.000000
         Rot=    0.999998    0.001704   -0.000031    0.000638 Ang=   0.21 deg.
 Guess basis will be translated and rotated to current coordinates.
 JPrj=2 DoOrth=T DoCkMO=T.
 Leave Link  401 at Tue Oct 21 19:50:57 2025, MaxMem=  4294967296 cpu:               0.7 elap:               0.1
 (Enter /lrz/sys/applications/gaussian/g16.C.01/x86_64_legacy/exe/l502.exe)
 Integral symmetry usage will be decided dynamically.
 Closed shell SCF:
 Using DIIS extrapolation, IDIIS=  1040.
 NGot=  4294967296 LenX=  4294938204 LenY=  4294924538
 Requested convergence on RMS density matrix=1.00D-08 within 128 cycles.
 Requested convergence on MAX density matrix=1.00D-06.
 Requested convergence on             energy=1.00D-06.
 No special actions if energy rises.
 Fock matrices will be formed incrementally for  20 cycles.

 Cycle   1  Pass 1  IDiag  1:
 FoFJK:  IHMeth= 1 ICntrl=       0 DoSepK=T KAlg= 0 I1Cent=           0 FoldK=F
 IRaf=         1 NMat=       1 IRICut=       1 DoRegI=T DoRafI=F ISym2E= 0 IDoP0=0 IntGTp=1.
 FoFCou: FMM=F IPFlag=           0 FMFlag=      100000 FMFlg1=           0
         NFxFlg=           0 DoJE=T BraDBF=F KetDBF=F FulRan=T
         wScrn=  0.000000 ICntrl=       500 IOpCl=  0 I1Cent=           0 NGrid=           0
         NMat0=    1 NMatS0=      1 NMatT0=    0 NMatD0=    1 NMtDS0=    0 NMtDT0=    0
 Symmetry not used in FoFCou.
 Inv3:  Mode=1 IEnd=     2446227.
 Iteration    1 A*A^-1 deviation from unit magnitude is 5.22D-15 for    501.
 Iteration    1 A*A^-1 deviation from orthogonality  is 2.45D-15 for    733     82.
 Iteration    1 A^-1*A deviation from unit magnitude is 4.44D-15 for    507.
 Iteration    1 A^-1*A deviation from orthogonality  is 3.13D-15 for    649     98.
 E= -269.316890333667    
 DIIS: error= 3.29D-04 at cycle   1 NSaved=   1.
 NSaved= 1 IEnMin= 1 EnMin= -269.316890333667     IErMin= 1 ErrMin= 3.29D-04
 ErrMax= 3.29D-04  0.00D+00 EMaxC= 1.00D-01 BMatC= 1.80D-05 BMatP= 1.80D-05
 IDIUse=3 WtCom= 9.97D-01 WtEn= 3.29D-03
 Coeff-Com:  0.100D+01
 Coeff-En:   0.100D+01
 Coeff:      0.100D+01
 Gap=     0.761 Goal=   None    Shift=    0.000
 RMSDP=5.61D-05 MaxDP=1.37D-03              OVMax= 1.03D-03

 Cycle   2  Pass 1  IDiag  1:
 RMSU=  5.61D-05    CP:  1.00D+00
 E= -269.316916325254     Delta-E=       -0.000025991587 Rises=F Damp=F
 DIIS: error= 6.34D-05 at cycle   2 NSaved=   2.
 NSaved= 2 IEnMin= 2 EnMin= -269.316916325254     IErMin= 2 ErrMin= 6.34D-05
 ErrMax= 6.34D-05  0.00D+00 EMaxC= 1.00D-01 BMatC= 6.17D-07 BMatP= 1.80D-05
 IDIUse=1 WtCom= 1.00D+00 WtEn= 0.00D+00
 Coeff-Com: -0.177D+00 0.118D+01
 Coeff:     -0.177D+00 0.118D+01
 Gap=     0.505 Goal=   None    Shift=    0.000
 RMSDP=1.50D-05 MaxDP=2.89D-04 DE=-2.60D-05 OVMax= 3.64D-04

 Cycle   3  Pass 1  IDiag  1:
 RMSU=  8.43D-06    CP:  1.00D+00  1.22D+00
 E= -269.316917715332     Delta-E=       -0.000001390078 Rises=F Damp=F
 DIIS: error= 1.05D-05 at cycle   3 NSaved=   3.
 NSaved= 3 IEnMin= 3 EnMin= -269.316917715332     IErMin= 3 ErrMin= 1.05D-05
 ErrMax= 1.05D-05  0.00D+00 EMaxC= 1.00D-01 BMatC= 3.06D-08 BMatP= 6.17D-07
 IDIUse=1 WtCom= 1.00D+00 WtEn= 0.00D+00
 Coeff-Com: -0.248D-01 0.104D+00 0.921D+00
 Coeff:     -0.248D-01 0.104D+00 0.921D+00
 Gap=     0.505 Goal=   None    Shift=    0.000
 RMSDP=3.02D-06 MaxDP=5.24D-05 DE=-1.39D-06 OVMax= 6.78D-05

 Cycle   4  Pass 1  IDiag  1:
 RMSU=  2.28D-06    CP:  1.00D+00  1.24D+00  1.18D+00
 E= -269.316917751648     Delta-E=       -0.000000036316 Rises=F Damp=F
 DIIS: error= 9.30D-06 at cycle   4 NSaved=   4.
 NSaved= 4 IEnMin= 4 EnMin= -269.316917751648     IErMin= 4 ErrMin= 9.30D-06
 ErrMax= 9.30D-06  0.00D+00 EMaxC= 1.00D-01 BMatC= 1.75D-08 BMatP= 3.06D-08
 IDIUse=1 WtCom= 1.00D+00 WtEn= 0.00D+00
 Coeff-Com:  0.122D-01-0.113D+00 0.447D+00 0.653D+00
 Coeff:      0.122D-01-0.113D+00 0.447D+00 0.653D+00
 Gap=     0.505 Goal=   None    Shift=    0.000
 RMSDP=1.34D-06 MaxDP=2.60D-05 DE=-3.63D-08 OVMax= 3.07D-05

 Cycle   5  Pass 1  IDiag  1:
 RMSU=  6.29D-07    CP:  1.00D+00  1.25D+00  1.30D+00  8.06D-01
 E= -269.316917766890     Delta-E=       -0.000000015242 Rises=F Damp=F
 DIIS: error= 1.14D-06 at cycle   5 NSaved=   5.
 NSaved= 5 IEnMin= 5 EnMin= -269.316917766890     IErMin= 5 ErrMin= 1.14D-06
 ErrMax= 1.14D-06  0.00D+00 EMaxC= 1.00D-01 BMatC= 3.53D-10 BMatP= 1.75D-08
 IDIUse=1 WtCom= 1.00D+00 WtEn= 0.00D+00
 Coeff-Com:  0.420D-02-0.330D-01 0.389D-01 0.139D+00 0.851D+00
 Coeff:      0.420D-02-0.330D-01 0.389D-01 0.139D+00 0.851D+00
 Gap=     0.505 Goal=   None    Shift=    0.000
 RMSDP=3.51D-07 MaxDP=6.95D-06 DE=-1.52D-08 OVMax= 8.70D-06

 Cycle   6  Pass 1  IDiag  1:
 RMSU=  1.82D-07    CP:  1.00D+00  1.25D+00  1.32D+00  8.78D-01  1.16D+00
 E= -269.316917767397     Delta-E=       -0.000000000507 Rises=F Damp=F
 DIIS: error= 3.55D-07 at cycle   6 NSaved=   6.
 NSaved= 6 IEnMin= 6 EnMin= -269.316917767397     IErMin= 6 ErrMin= 3.55D-07
 ErrMax= 3.55D-07  0.00D+00 EMaxC= 1.00D-01 BMatC= 4.59D-11 BMatP= 3.53D-10
 IDIUse=1 WtCom= 1.00D+00 WtEn= 0.00D+00
 Coeff-Com:  0.313D-03-0.824D-03-0.267D-01-0.150D-01 0.254D+00 0.788D+00
 Coeff:      0.313D-03-0.824D-03-0.267D-01-0.150D-01 0.254D+00 0.788D+00
 Gap=     0.505 Goal=   None    Shift=    0.000
 RMSDP=1.14D-07 MaxDP=2.67D-06 DE=-5.07D-10 OVMax= 3.19D-06

 Cycle   7  Pass 1  IDiag  1:
 RMSU=  5.05D-08    CP:  1.00D+00  1.25D+00  1.33D+00  8.97D-01  1.27D+00
                    CP:  9.41D-01
 E= -269.316917767467     Delta-E=       -0.000000000070 Rises=F Damp=F
 DIIS: error= 1.19D-07 at cycle   7 NSaved=   7.
 NSaved= 7 IEnMin= 7 EnMin= -269.316917767467     IErMin= 7 ErrMin= 1.19D-07
 ErrMax= 1.19D-07  0.00D+00 EMaxC= 1.00D-01 BMatC= 3.20D-12 BMatP= 4.59D-11
 IDIUse=1 WtCom= 1.00D+00 WtEn= 0.00D+00
 Coeff-Com: -0.313D-03 0.296D-02-0.743D-02-0.159D-01-0.459D-01 0.152D+00
 Coeff-Com:  0.914D+00
 Coeff:     -0.313D-03 0.296D-02-0.743D-02-0.159D-01-0.459D-01 0.152D+00
 Coeff:      0.914D+00
 Gap=     0.505 Goal=   None    Shift=    0.000
 RMSDP=3.77D-08 MaxDP=1.09D-06 DE=-7.01D-11 OVMax= 1.44D-06

 Cycle   8  Pass 1  IDiag  1:
 RMSU=  1.63D-08    CP:  1.00D+00  1.25D+00  1.33D+00  9.01D-01  1.31D+00
                    CP:  1.05D+00  1.17D+00
 E= -269.316917767468     Delta-E=       -0.000000000001 Rises=F Damp=F
 DIIS: error= 4.13D-08 at cycle   8 NSaved=   8.
 NSaved= 8 IEnMin= 8 EnMin= -269.316917767468     IErMin= 8 ErrMin= 4.13D-08
 ErrMax= 4.13D-08  0.00D+00 EMaxC= 1.00D-01 BMatC= 4.56D-13 BMatP= 3.20D-12
 IDIUse=1 WtCom= 1.00D+00 WtEn= 0.00D+00
 Coeff-Com: -0.118D-03 0.100D-02-0.812D-03-0.449D-02-0.319D-01 0.835D-02
 Coeff-Com:  0.333D+00 0.695D+00
 Coeff:     -0.118D-03 0.100D-02-0.812D-03-0.449D-02-0.319D-01 0.835D-02
 Coeff:      0.333D+00 0.695D+00
 Gap=     0.505 Goal=   None    Shift=    0.000
 RMSDP=8.89D-09 MaxDP=2.12D-07 DE=-9.66D-13 OVMax= 2.99D-07

 Error on total polarization charges =  0.03187
 SCF Done:  E(RwB97XD) =  -269.316917767     A.U. after    8 cycles
            NFock=  8  Conv=0.89D-08     -V/T= 2.0096
 KE= 2.667569754276D+02 PE=-1.024029640872D+03 EE= 2.909284180824D+02
 SMD-CDS (non-electrostatic) energy       (kcal/mol) =       2.85
 (included in total energy above)
 Leave Link  502 at Tue Oct 21 19:51:09 2025, MaxMem=  4294967296 cpu:             100.3 elap:              12.7
 (Enter /lrz/sys/applications/gaussian/g16.C.01/x86_64_legacy/exe/l701.exe)
 ... and contract with generalized density number  0.
 Compute integral first derivatives.
 R6Disp: Adding Grimme-D2 dispersion energy 1st derivatives to the gradient.
   1 Symmetry operations used in ECPInt.
 ECPInt:  NShTT=    1485 NPrTT=    5139 LenC2=    1483 LenP2D=    4458.
 LDataN:  DoStor=T MaxTD1= 5 Len=  102
 D1PCM: PCM CHGder 1st derivatives, ID1Alg=3 FixD1E=F DoIter=F DoCFld=F I1PDM=0.
 GePol: Maximum number of non-zero 1st derivatives   =     241
 Leave Link  701 at Tue Oct 21 19:51:10 2025, MaxMem=  4294967296 cpu:               4.4 elap:               0.6
 (Enter /lrz/sys/applications/gaussian/g16.C.01/x86_64_legacy/exe/l702.exe)
 L702 exits ... SP integral derivatives will be done elsewhere.
 Leave Link  702 at Tue Oct 21 19:51:10 2025, MaxMem=  4294967296 cpu:               0.2 elap:               0.0
 (Enter /lrz/sys/applications/gaussian/g16.C.01/x86_64_legacy/exe/l703.exe)
 Integral derivatives from FoFJK, PRISM(SPDF).
 Compute integral first derivatives, UseDBF=F ICtDFT=           0.
 Calling FoFJK, ICntrl=      2127 FMM=F ISym2X=0 I1Cent= 0 IOpClX= 0 NMat=1 NMatS=1 NMatT=0.
 FoFJK:  IHMeth= 1 ICntrl=    2127 DoSepK=T KAlg= 0 I1Cent=           0 FoldK=F
 IRaf=         1 NMat=       1 IRICut=       1 DoRegI=T DoRafI=F ISym2E= 0 IDoP0=0 IntGTp=1.
 FoFCou: FMM=F IPFlag=           0 FMFlag=      100000 FMFlg1=         800
         NFxFlg=           0 DoJE=F BraDBF=F KetDBF=F FulRan=T
         wScrn=  0.000000 ICntrl=      2527 IOpCl=  0 I1Cent=           0 NGrid=           0
         NMat0=    1 NMatS0=      1 NMatT0=    0 NMatD0=    1 NMtDS0=    0 NMtDT0=    0
 Symmetry not used in FoFCou.
 Leave Link  703 at Tue Oct 21 19:51:12 2025, MaxMem=  4294967296 cpu:              17.9 elap:               2.3
 (Enter /lrz/sys/applications/gaussian/g16.C.01/x86_64_legacy/exe/l716.exe)
 Dipole        =-5.49953466D-02 1.53039198D-02-5.85811838D-02
 ***** Axes restored to original set *****
 -------------------------------------------------------------------
 Center     Atomic                   Forces (Hartrees/Bohr)
 Number     Number              X              Y              Z
 -------------------------------------------------------------------
      1        8           0.000023886    0.000243680    0.000068142
      2        6          -0.000212518   -0.000272253    0.000052796
      3        8           0.000116074    0.000093502    0.000008315
      4        6           0.000139934    0.000137003   -0.000397984
      5        6           0.000157491   -0.000055337    0.000360318
      6        1           0.000025121   -0.000037035   -0.000116650
      7        1          -0.000024255    0.000029103   -0.000007625
      8        1          -0.000045285   -0.000053928    0.000046284
      9        1          -0.000038566   -0.000062461    0.000066257
     10        1          -0.000049180    0.000009230    0.000093907
     11        1          -0.000030888    0.000003146   -0.000054428
     12        1          -0.000002681   -0.000001987   -0.000046039
     13        1          -0.000059132   -0.000032663   -0.000073293
 -------------------------------------------------------------------
 Cartesian Forces:  Max     0.000397984 RMS     0.000126561
 Leave Link  716 at Tue Oct 21 19:51:12 2025, MaxMem=  4294967296 cpu:               0.2 elap:               0.0
 (Enter /lrz/sys/applications/gaussian/g16.C.01/x86_64_legacy/exe/l103.exe)

 GradGradGradGradGradGradGradGradGradGradGradGradGradGradGradGradGradGrad
 Berny optimization.
 Using GEDIIS/GDIIS optimizer.
 FormGI is forming the generalized inverse of G from B-inverse, IUseBI=4.
 Internal  Forces:  Max     0.000190732 RMS     0.000055775
 Search for a local minimum.
 Step number   5 out of a maximum of   66
 All quantities printed in internal units (Hartrees-Bohrs-Radians)
 RMS Force = .55775D-04 SwitMx=.10000D-02 MixMth= 2
 Mixed Optimization -- En-DIIS/RFO-DIIS
 Swapping is turned off.
 Update second derivatives using D2CorX and points    1    2    3    4    5
 DE= -5.68D-06 DEPred=-3.44D-06 R= 1.65D+00
 TightC=F SS=  1.41D+00  RLast= 3.02D-02 DXNew= 7.2598D-01 9.0748D-02
 Trust test= 1.65D+00 RLast= 3.02D-02 DXMaxT set to 4.32D-01
 ITU=  1  1  1  1  0
     Eigenvalues ---    0.00224   0.00348   0.01038   0.01681   0.03396
     Eigenvalues ---    0.04517   0.05439   0.05580   0.05975   0.06189
     Eigenvalues ---    0.08738   0.09976   0.12522   0.15033   0.15974
     Eigenvalues ---    0.16005   0.16094   0.16742   0.19726   0.21723
     Eigenvalues ---    0.22776   0.29280   0.30587   0.33553   0.34813
     Eigenvalues ---    0.34889   0.35029   0.35188   0.40184   0.45178
     Eigenvalues ---    0.51025   0.54279   0.54768
 En-DIIS/RFO-DIIS/Sim-DIIS IScMMF=       -3 using points:     5    4    3    2
 RFO step:  Lambda=-3.37650149D-06.
 NNeg= 0 NGDIIS= 4 SimSw=  2.50D-01 Rises=F DC= -5.68D-06 SmlDif=  1.00D-05
 NRisDI= 0 DoIntr=F SqrtH=F CThrHd= 10.0 CDAdj=  3.0
 RMS Error=  0.2814148893D-02 NUsed= 4 OKEnD=F EnDIS=F
 InvSVX:  RCond= 5.07D-06 Info=           0 Equed=N FErr=  1.45D-13 BErr=  5.13D-17
 DidBck=F Rises=F RFO-DIIS coefs:    1.88198   -0.86615   -0.11736    0.10153
 Iteration  1 RMS(Cart)=  0.00185775 RMS(Int)=  0.00000832
 Iteration  2 RMS(Cart)=  0.00000928 RMS(Int)=  0.00000116
 Iteration  3 RMS(Cart)=  0.00000000 RMS(Int)=  0.00000116
 ITry= 1 IFail=0 DXMaxC= 6.35D-03 DCOld= 1.00D+10 DXMaxT= 4.32D-01 DXLimC= 3.00D+00 Rises=F
 Variable       Old X    -DE/DX   Delta X   Delta X   Delta X     New X
                                 (Linear)    (Quad)   (Total)
    R1        2.65656  -0.00019  -0.00056  -0.00007  -0.00064   2.65592
    R2        1.82465  -0.00003  -0.00021   0.00012  -0.00009   1.82457
    R3        2.65755   0.00002   0.00005  -0.00005  -0.00000   2.65755
    R4        2.87623   0.00012   0.00143  -0.00068   0.00074   2.87697
    R5        2.08578   0.00002  -0.00010   0.00011   0.00001   2.08579
    R6        1.82688   0.00001  -0.00004   0.00005   0.00001   1.82689
    R7        2.87958   0.00018   0.00116  -0.00046   0.00070   2.88028
    R8        2.08137  -0.00002  -0.00068   0.00047  -0.00021   2.08116
    R9        2.08064  -0.00003  -0.00067   0.00044  -0.00023   2.08041
   R10        2.08256  -0.00002  -0.00073   0.00050  -0.00022   2.08234
   R11        2.07796   0.00001  -0.00076   0.00061  -0.00015   2.07782
   R12        2.07853  -0.00001  -0.00095   0.00070  -0.00025   2.07828
    A1        1.87586   0.00004   0.00111  -0.00037   0.00074   1.87660
    A2        1.94021   0.00004   0.00109  -0.00105   0.00004   1.94025
    A3        1.89062  -0.00005  -0.00058   0.00025  -0.00033   1.89029
    A4        1.92281   0.00003   0.00011   0.00053   0.00064   1.92345
    A5        1.97256  -0.00003   0.00011  -0.00045  -0.00034   1.97223
    A6        1.82557   0.00002  -0.00033   0.00049   0.00016   1.82572
    A7        1.91148  -0.00000  -0.00040   0.00027  -0.00013   1.91135
    A8        1.88571   0.00003   0.00029  -0.00015   0.00014   1.88585
    A9        1.99822  -0.00009  -0.00020  -0.00056  -0.00075   1.99747
   A10        1.87886   0.00000  -0.00097   0.00042  -0.00055   1.87832
   A11        1.87451   0.00001  -0.00054   0.00036  -0.00018   1.87433
   A12        1.92128   0.00002  -0.00016   0.00002  -0.00014   1.92115
   A13        1.92334   0.00003   0.00038  -0.00017   0.00022   1.92356
   A14        1.86197   0.00004   0.00157  -0.00001   0.00156   1.86353
   A15        1.95012  -0.00007  -0.00027  -0.00039  -0.00066   1.94946
   A16        1.92987  -0.00004  -0.00045  -0.00000  -0.00045   1.92942
   A17        1.94519  -0.00009  -0.00092   0.00016  -0.00076   1.94443
   A18        1.86899   0.00006   0.00030   0.00019   0.00050   1.86949
   A19        1.88394   0.00009   0.00053   0.00011   0.00064   1.88458
   A20        1.88256   0.00007   0.00091  -0.00006   0.00085   1.88342
    D1        1.03037   0.00010   0.00614   0.00316   0.00930   1.03967
    D2       -3.07555   0.00005   0.00660   0.00206   0.00867  -3.06688
    D3       -0.98506   0.00004   0.00583   0.00286   0.00869  -0.97637
    D4        1.12259  -0.00009  -0.00377  -0.00223  -0.00600   1.11659
    D5       -1.00777  -0.00003  -0.00391  -0.00145  -0.00536  -1.01313
    D6       -3.08584  -0.00002  -0.00328  -0.00185  -0.00512  -3.09096
    D7       -1.07466   0.00001   0.00012   0.00168   0.00180  -1.07286
    D8        1.06762  -0.00002  -0.00092   0.00163   0.00071   1.06833
    D9        3.06684   0.00003   0.00015   0.00200   0.00216   3.06900
   D10        1.08327  -0.00000   0.00118   0.00021   0.00139   1.08466
   D11       -3.05763  -0.00003   0.00014   0.00016   0.00030  -3.05734
   D12       -1.05841   0.00002   0.00121   0.00053   0.00174  -1.05667
   D13        3.11094   0.00000   0.00058   0.00072   0.00130   3.11224
   D14       -1.02996  -0.00003  -0.00047   0.00068   0.00021  -1.02976
   D15        0.96926   0.00002   0.00061   0.00104   0.00165   0.97091
   D16       -1.07895  -0.00001   0.00378  -0.00143   0.00234  -1.07660
   D17        3.12428  -0.00001   0.00387  -0.00142   0.00245   3.12673
   D18        1.03045  -0.00001   0.00362  -0.00145   0.00217   1.03263
   D19        3.08508   0.00004   0.00529  -0.00160   0.00369   3.08878
   D20        1.00513   0.00004   0.00538  -0.00158   0.00380   1.00893
   D21       -1.08870   0.00004   0.00513  -0.00161   0.00352  -1.08518
   D22        1.03607  -0.00004   0.00323  -0.00149   0.00174   1.03781
   D23       -1.04388  -0.00004   0.00332  -0.00148   0.00184  -1.04204
   D24       -3.13771  -0.00004   0.00307  -0.00150   0.00157  -3.13614
         Item               Value     Threshold  Converged?
 Maximum Force            0.000191     0.000450     YES
 RMS     Force            0.000056     0.000300     YES
 Maximum Displacement     0.006354     0.001800     NO 
 RMS     Displacement     0.001859     0.001200     NO 
 Predicted change in Energy=-1.659376D-06
 Lowest energy point so far.  Saving SCF results.
 GradGradGradGradGradGradGradGradGradGradGradGradGradGradGradGradGradGrad

 Leave Link  103 at Tue Oct 21 19:51:12 2025, MaxMem=  4294967296 cpu:               0.2 elap:               0.0
 (Enter /lrz/sys/applications/gaussian/g16.C.01/x86_64_legacy/exe/l202.exe)
                          Input orientation:                          
 ---------------------------------------------------------------------
 Center     Atomic      Atomic             Coordinates (Angstroms)
 Number     Number       Type             X           Y           Z
 ---------------------------------------------------------------------
      1          8           0       -0.647442   -1.346304   -0.001259
      2          6           0       -0.579394   -0.016546   -0.451152
      3          8           0       -1.221208    0.856369    0.445409
      4          6           0        0.883697    0.336384   -0.680489
      5          6           0        1.754507    0.258636    0.568020
      6          1           0       -1.581156   -1.579870    0.075235
      7          1           0       -1.138124    0.095144   -1.396464
      8          1           0       -0.739873    0.832130    1.283461
      9          1           0        1.272801   -0.342334   -1.455603
     10          1           0        0.914743    1.352424   -1.103204
     11          1           0        1.420290    0.967581    1.342576
     12          1           0        2.797455    0.510296    0.327394
     13          1           0        1.742097   -0.751017    1.003860
 ---------------------------------------------------------------------
                    Distance matrix (angstroms):
                    1          2          3          4          5
     1  O    0.000000
     2  C    1.405450   0.000000
     3  O    2.319587   1.406317   0.000000
     4  C    2.374274   1.522430   2.443084   0.000000
     5  C    2.944362   2.561549   3.037631   1.524181   0.000000
     6  H    0.965519   1.929921   2.490351   3.212266   3.840520
     7  H    2.065221   1.103752   1.994708   2.158374   3.500463
     8  H    2.530735   1.937754   0.966749   2.595929   2.657571
     9  H    2.609675   2.132062   3.357204   1.101301   2.165238
    10  H    3.307240   2.128778   2.684503   1.100904   2.166694
    11  H    3.381636   2.860892   2.791915   2.186122   1.101926
    12  H    3.927122   3.505254   4.035263   2.169917   1.099533
    13  H    2.659798   2.836517   3.417124   2.180899   1.099778
                    6          7          8          9         10
     6  H    0.000000
     7  H    2.273290   0.000000
     8  H    2.825829   2.807802   0.000000
     9  H    3.466992   2.451009   3.596206   0.000000
    10  H    4.026981   2.425080   2.950361   1.767653   0.000000
    11  H    4.135739   3.848242   2.165213   3.093127   2.526959
    12  H    4.858458   4.316575   3.678360   2.496123   2.510059
    13  H    3.548711   3.843594   2.957145   2.536971   3.090097
                   11         12         13
    11  H    0.000000
    12  H    1.770956   0.000000
    13  H    1.780973   1.778285   0.000000
 Stoichiometry    C3H8O2
 Framework group  C1[X(C3H8O2)]
 Deg. of freedom    33
 Full point group                 C1      NOp   1
 RotChk:  IX=0 Diff= 3.41D-03
 Largest Abelian subgroup         C1      NOp   1
 Largest concise Abelian subgroup C1      NOp   1
                         Standard orientation:                         
 ---------------------------------------------------------------------
 Center     Atomic      Atomic             Coordinates (Angstroms)
 Number     Number       Type             X           Y           Z
 ---------------------------------------------------------------------
      1          8           0        0.973820   -1.128266   -0.344116
      2          6           0        0.645458   -0.005523    0.434934
      3          8           0        1.033398    1.186255   -0.202948
      4          6           0       -0.844384   -0.057105    0.743968
      5          6           0       -1.745445   -0.007912   -0.484362
      6          1           0        1.930259   -1.120891   -0.476020
      7          1           0        1.218225   -0.015440    1.378390
      8          1           0        0.523137    1.268561   -1.019932
      9          1           0       -1.034547   -0.979037    1.315582
     10          1           0       -1.070499    0.785421    1.415542
     11          1           0       -1.615279    0.930114   -1.047749
     12          1           0       -2.803222   -0.064150   -0.189542
     13          1           0       -1.539599   -0.845250   -1.167006
 ---------------------------------------------------------------------
 Rotational constants (GHZ):           6.9539183           3.9931676           3.3280679
 Leave Link  202 at Tue Oct 21 19:51:12 2025, MaxMem=  4294967296 cpu:               0.0 elap:               0.0
 (Enter /lrz/sys/applications/gaussian/g16.C.01/x86_64_legacy/exe/l301.exe)
 Standard basis: def2SVP (5D, 7F)
 Ernie: Thresh=  0.10000D-02 Tol=  0.10000D-05 Strict=F.
 There are   115 symmetry adapted cartesian basis functions of A   symmetry.
 There are   110 symmetry adapted basis functions of A   symmetry.
   110 basis functions,   181 primitive gaussians,   115 cartesian basis functions
    21 alpha electrons       21 beta electrons
       nuclear repulsion energy       197.0361413789 Hartrees.
 IExCor= 4639 DFT=T Ex+Corr=wB97XD ExCW=0 ScaHFX=  1.000000
 ScaDFX=  1.000000  1.000000  1.000000  1.000000 ScalE2=  1.000000  1.000000
 IRadAn=      5 IRanWt=     -1 IRanGd=            0 ICorTp=0 IEmpDi=121
 HFx  wShort=  0.000000 wLong=  0.200000 cFull=  0.222036 cShort=  0.000000 cLong=  0.777964
 DFx  wShort=  0.000000 wLong=  0.200000 cFull=  0.000000 cShort=  0.000000 cLong=  1.000000
 NAtoms=   13 NActive=   13 NUniq=   13 SFac= 1.00D+00 NAtFMM=   60 NAOKFM=F Big=F
 Integral buffers will be    131072 words long.
 Raffenetti 2 integral format.
 Two-electron integral symmetry is turned on.
 R6Disp:  Grimme-D2 Dispersion energy=       -0.0056871482 Hartrees.
 Nuclear repulsion after empirical dispersion term =      197.0304542307 Hartrees.
 ------------------------------------------------------------------------------
 Polarizable Continuum Model (PCM)
 =================================
 Model                : PCM.
 Atomic radii         : SMD-Coulomb.
 Polarization charges : Total charges.
 Charge compensation  : None.
 Solution method      : On-the-fly selection.
 Cavity type          : VdW (van der Waals Surface) (Alpha=1.000).
 Cavity algorithm     : GePol (No added spheres)
                        Default sphere list used, NSphG=   13.
                        Lebedev-Laikov grids with approx.  5.0 points / Ang**2.
                        Smoothing algorithm: York/Karplus (Gamma=1.0000).
                        Polarization charges: spherical gaussians, with
                                              point-specific exponents (IZeta= 3).
                        Self-potential: point-specific (ISelfS= 7).
                        Self-field    : sphere-specific E.n sum rule (ISelfD= 2).
 1st derivatives      : Analytical E(r).r(x)/FMM algorithm (CHGder, D1EAlg=3).
                        Cavity 1st derivative terms included.
 Solvent              : Water, Eps=  78.355300 Eps(inf)=   1.777849
 ------------------------------------------------------------------------------
 Spheres list:
 ISph  on   Nord     Re0    Alpha      Xe            Ye            Ze
    1   O      1    1.5200  1.000      0.973820     -1.128266     -0.344116
    2   C      2    1.8500  1.000      0.645458     -0.005523      0.434934
    3   O      3    1.5200  1.000      1.033398      1.186255     -0.202948
    4   C      4    1.8500  1.000     -0.844384     -0.057105      0.743968
    5   C      5    1.8500  1.000     -1.745445     -0.007912     -0.484362
    6   H      6    1.2000  1.000      1.930259     -1.120891     -0.476020
    7   H      7    1.2000  1.000      1.218225     -0.015440      1.378390
    8   H      8    1.2000  1.000      0.523137      1.268561     -1.019932
    9   H      9    1.2000  1.000     -1.034547     -0.979037      1.315582
   10   H     10    1.2000  1.000     -1.070499      0.785421      1.415542
   11   H     11    1.2000  1.000     -1.615279      0.930114     -1.047749
   12   H     12    1.2000  1.000     -2.803222     -0.064150     -0.189542
   13   H     13    1.2000  1.000     -1.539599     -0.845250     -1.167006
 ------------------------------------------------------------------------------
 GePol: Number of generator spheres                  =      13
 GePol: Total number of spheres                      =      13
 GePol: Number of exposed spheres                    =      13 (100.00%)
 GePol: Number of points                             =     903
 GePol: Average weight of points                     =       0.12
 GePol: Minimum weight of points                     =   0.12D-08
 GePol: Maximum weight of points                     =    0.21991
 GePol: Number of points with low weight             =      48
 GePol: Fraction of low-weight points (<1% of avg)   =       5.32%
 GePol: Cavity surface area                          =    109.383 Ang**2
 GePol: Cavity volume                                =     82.033 Ang**3
 ------------------------------------------------------------------------------
 Atomic radii for non-electrostatic terms: SMD-CDS.
 ------------------------------------------------------------------------------
 PCM non-electrostatic energy =         0.0045414500 Hartrees.
 Nuclear repulsion after PCM non-electrostatic terms =      197.0349956807 Hartrees.
 Leave Link  301 at Tue Oct 21 19:51:12 2025, MaxMem=  4294967296 cpu:               0.5 elap:               0.1
 (Enter /lrz/sys/applications/gaussian/g16.C.01/x86_64_legacy/exe/l302.exe)
 NPDir=0 NMtPBC=     1 NCelOv=     1 NCel=       1 NClECP=     1 NCelD=      1
         NCelK=      1 NCelE2=     1 NClLst=     1 CellRange=     0.0.
 One-electron integrals computed using PRISM.
 One-electron integral symmetry used in STVInt
   1 Symmetry operations used in ECPInt.
 ECPInt:  NShTT=    1485 NPrTT=    5139 LenC2=    1483 LenP2D=    4458.
 LDataN:  DoStor=T MaxTD1= 4 Len=   56
 NBasis=   110 RedAO= T EigKep=  2.41D-03  NBF=   110
 NBsUse=   110 1.00D-06 EigRej= -1.00D+00 NBFU=   110
 Precomputing XC quadrature grid using
 IXCGrd= 4 IRadAn=           5 IRanWt=          -1 IRanGd=           0 AccXCQ= 0.00D+00.
 Generated NRdTot=       0 NPtTot=           0 NUsed=           0 NTot=          32
 NSgBfM=   115   115   115   115   115 MxSgAt=    13 MxSgA2=    13.
 Leave Link  302 at Tue Oct 21 19:51:13 2025, MaxMem=  4294967296 cpu:               1.7 elap:               0.2
 (Enter /lrz/sys/applications/gaussian/g16.C.01/x86_64_legacy/exe/l303.exe)
 DipDrv:  MaxL=1.
 Leave Link  303 at Tue Oct 21 19:51:13 2025, MaxMem=  4294967296 cpu:               0.2 elap:               0.0
 (Enter /lrz/sys/applications/gaussian/g16.C.01/x86_64_legacy/exe/l401.exe)
 Initial guess from the checkpoint file:  "g16_C3-w_3.chk"
 B after Tr=     0.000000   -0.000000    0.000000
         Rot=    1.000000    0.000624    0.000011    0.000338 Ang=   0.08 deg.
 Guess basis will be translated and rotated to current coordinates.
 JPrj=2 DoOrth=T DoCkMO=T.
 Leave Link  401 at Tue Oct 21 19:51:13 2025, MaxMem=  4294967296 cpu:               0.6 elap:               0.1
 (Enter /lrz/sys/applications/gaussian/g16.C.01/x86_64_legacy/exe/l502.exe)
 Integral symmetry usage will be decided dynamically.
 Closed shell SCF:
 Using DIIS extrapolation, IDIIS=  1040.
 NGot=  4294967296 LenX=  4294938204 LenY=  4294924538
 Requested convergence on RMS density matrix=1.00D-08 within 128 cycles.
 Requested convergence on MAX density matrix=1.00D-06.
 Requested convergence on             energy=1.00D-06.
 No special actions if energy rises.
 Fock matrices will be formed incrementally for  20 cycles.

 Cycle   1  Pass 1  IDiag  1:
 FoFJK:  IHMeth= 1 ICntrl=       0 DoSepK=T KAlg= 0 I1Cent=           0 FoldK=F
 IRaf=         1 NMat=       1 IRICut=       1 DoRegI=T DoRafI=F ISym2E= 0 IDoP0=0 IntGTp=1.
 FoFCou: FMM=F IPFlag=           0 FMFlag=      100000 FMFlg1=           0
         NFxFlg=           0 DoJE=T BraDBF=F KetDBF=F FulRan=T
         wScrn=  0.000000 ICntrl=       500 IOpCl=  0 I1Cent=           0 NGrid=           0
         NMat0=    1 NMatS0=      1 NMatT0=    0 NMatD0=    1 NMtDS0=    0 NMtDT0=    0
 Symmetry not used in FoFCou.
 Inv3:  Mode=1 IEnd=     2446227.
 Iteration    1 A*A^-1 deviation from unit magnitude is 4.88D-15 for    356.
 Iteration    1 A*A^-1 deviation from orthogonality  is 2.76D-15 for    508    244.
 Iteration    1 A^-1*A deviation from unit magnitude is 4.88D-15 for    356.
 Iteration    1 A^-1*A deviation from orthogonality  is 2.56D-15 for    755    369.
 E= -269.316906691777    
 DIIS: error= 3.05D-04 at cycle   1 NSaved=   1.
 NSaved= 1 IEnMin= 1 EnMin= -269.316906691777     IErMin= 1 ErrMin= 3.05D-04
 ErrMax= 3.05D-04  0.00D+00 EMaxC= 1.00D-01 BMatC= 1.03D-05 BMatP= 1.03D-05
 IDIUse=3 WtCom= 9.97D-01 WtEn= 3.05D-03
 Coeff-Com:  0.100D+01
 Coeff-En:   0.100D+01
 Coeff:      0.100D+01
 Gap=     0.761 Goal=   None    Shift=    0.000
 RMSDP=4.66D-05 MaxDP=1.34D-03              OVMax= 9.03D-04

 Cycle   2  Pass 1  IDiag  1:
 RMSU=  4.66D-05    CP:  1.00D+00
 E= -269.316919644918     Delta-E=       -0.000012953141 Rises=F Damp=F
 DIIS: error= 3.98D-05 at cycle   2 NSaved=   2.
 NSaved= 2 IEnMin= 2 EnMin= -269.316919644918     IErMin= 2 ErrMin= 3.98D-05
 ErrMax= 3.98D-05  0.00D+00 EMaxC= 1.00D-01 BMatC= 3.18D-07 BMatP= 1.03D-05
 IDIUse=1 WtCom= 1.00D+00 WtEn= 0.00D+00
 Coeff-Com: -0.152D+00 0.115D+01
 Coeff:     -0.152D+00 0.115D+01
 Gap=     0.505 Goal=   None    Shift=    0.000
 RMSDP=1.02D-05 MaxDP=2.75D-04 DE=-1.30D-05 OVMax= 3.11D-04

 Cycle   3  Pass 1  IDiag  1:
 RMSU=  5.88D-06    CP:  1.00D+00  1.18D+00
 E= -269.316920223559     Delta-E=       -0.000000578641 Rises=F Damp=F
 DIIS: error= 1.23D-05 at cycle   3 NSaved=   3.
 NSaved= 3 IEnMin= 3 EnMin= -269.316920223559     IErMin= 3 ErrMin= 1.23D-05
 ErrMax= 1.23D-05  0.00D+00 EMaxC= 1.00D-01 BMatC= 3.84D-08 BMatP= 3.18D-07
 IDIUse=1 WtCom= 1.00D+00 WtEn= 0.00D+00
 Coeff-Com: -0.487D-01 0.300D+00 0.749D+00
 Coeff:     -0.487D-01 0.300D+00 0.749D+00
 Gap=     0.505 Goal=   None    Shift=    0.000
 RMSDP=2.25D-06 MaxDP=5.80D-05 DE=-5.79D-07 OVMax= 5.98D-05

 Cycle   4  Pass 1  IDiag  1:
 RMSU=  2.05D-06    CP:  1.00D+00  1.20D+00  1.02D+00
 E= -269.316920255728     Delta-E=       -0.000000032169 Rises=F Damp=F
 DIIS: error= 6.20D-06 at cycle   4 NSaved=   4.
 NSaved= 4 IEnMin= 4 EnMin= -269.316920255728     IErMin= 4 ErrMin= 6.20D-06
 ErrMax= 6.20D-06  0.00D+00 EMaxC= 1.00D-01 BMatC= 1.05D-08 BMatP= 3.84D-08
 IDIUse=1 WtCom= 1.00D+00 WtEn= 0.00D+00
 Coeff-Com:  0.976D-02-0.988D-01 0.316D+00 0.773D+00
 Coeff:      0.976D-02-0.988D-01 0.316D+00 0.773D+00
 Gap=     0.505 Goal=   None    Shift=    0.000
 RMSDP=1.13D-06 MaxDP=2.15D-05 DE=-3.22D-08 OVMax= 3.63D-05

 Cycle   5  Pass 1  IDiag  1:
 RMSU=  5.16D-07    CP:  1.00D+00  1.21D+00  1.18D+00  9.02D-01
 E= -269.316920266151     Delta-E=       -0.000000010423 Rises=F Damp=F
 DIIS: error= 9.63D-07 at cycle   5 NSaved=   5.
 NSaved= 5 IEnMin= 5 EnMin= -269.316920266151     IErMin= 5 ErrMin= 9.63D-07
 ErrMax= 9.63D-07  0.00D+00 EMaxC= 1.00D-01 BMatC= 2.66D-10 BMatP= 1.05D-08
 IDIUse=1 WtCom= 1.00D+00 WtEn= 0.00D+00
 Coeff-Com:  0.465D-02-0.400D-01 0.265D-01 0.157D+00 0.852D+00
 Coeff:      0.465D-02-0.400D-01 0.265D-01 0.157D+00 0.852D+00
 Gap=     0.505 Goal=   None    Shift=    0.000
 RMSDP=3.02D-07 MaxDP=7.79D-06 DE=-1.04D-08 OVMax= 9.82D-06

 Cycle   6  Pass 1  IDiag  1:
 RMSU=  1.79D-07    CP:  1.00D+00  1.21D+00  1.21D+00  9.63D-01  1.20D+00
 E= -269.316920266595     Delta-E=       -0.000000000444 Rises=F Damp=F
 DIIS: error= 4.19D-07 at cycle   6 NSaved=   6.
 NSaved= 6 IEnMin= 6 EnMin= -269.316920266595     IErMin= 6 ErrMin= 4.19D-07
 ErrMax= 4.19D-07  0.00D+00 EMaxC= 1.00D-01 BMatC= 4.56D-11 BMatP= 2.66D-10
 IDIUse=1 WtCom= 1.00D+00 WtEn= 0.00D+00
 Coeff-Com:  0.564D-03-0.302D-02-0.266D-01-0.349D-01 0.275D+00 0.789D+00
 Coeff:      0.564D-03-0.302D-02-0.266D-01-0.349D-01 0.275D+00 0.789D+00
 Gap=     0.505 Goal=   None    Shift=    0.000
 RMSDP=1.15D-07 MaxDP=3.22D-06 DE=-4.44D-10 OVMax= 3.87D-06

 Cycle   7  Pass 1  IDiag  1:
 RMSU=  4.64D-08    CP:  1.00D+00  1.21D+00  1.21D+00  9.81D-01  1.36D+00
                    CP:  9.69D-01
 E= -269.316920266664     Delta-E=       -0.000000000069 Rises=F Damp=F
 DIIS: error= 1.31D-07 at cycle   7 NSaved=   7.
 NSaved= 7 IEnMin= 7 EnMin= -269.316920266664     IErMin= 7 ErrMin= 1.31D-07
 ErrMax= 1.31D-07  0.00D+00 EMaxC= 1.00D-01 BMatC= 3.66D-12 BMatP= 4.56D-11
 IDIUse=1 WtCom= 1.00D+00 WtEn= 0.00D+00
 Coeff-Com: -0.348D-03 0.373D-02-0.730D-02-0.234D-01-0.446D-01 0.176D+00
 Coeff-Com:  0.896D+00
 Coeff:     -0.348D-03 0.373D-02-0.730D-02-0.234D-01-0.446D-01 0.176D+00
 Coeff:      0.896D+00
 Gap=     0.505 Goal=   None    Shift=    0.000
 RMSDP=3.86D-08 MaxDP=1.14D-06 DE=-6.89D-11 OVMax= 1.51D-06

 Cycle   8  Pass 1  IDiag  1:
 RMSU=  1.62D-08    CP:  1.00D+00  1.21D+00  1.21D+00  9.84D-01  1.41D+00
                    CP:  1.08D+00  1.09D+00
 E= -269.316920266666     Delta-E=       -0.000000000002 Rises=F Damp=F
 DIIS: error= 4.89D-08 at cycle   8 NSaved=   8.
 NSaved= 8 IEnMin= 8 EnMin= -269.316920266666     IErMin= 8 ErrMin= 4.89D-08
 ErrMax= 4.89D-08  0.00D+00 EMaxC= 1.00D-01 BMatC= 6.92D-13 BMatP= 3.66D-12
 IDIUse=1 WtCom= 1.00D+00 WtEn= 0.00D+00
 Coeff-Com: -0.175D-03 0.171D-02-0.781D-03-0.671D-02-0.402D-01 0.144D-01
 Coeff-Com:  0.386D+00 0.645D+00
 Coeff:     -0.175D-03 0.171D-02-0.781D-03-0.671D-02-0.402D-01 0.144D-01
 Coeff:      0.386D+00 0.645D+00
 Gap=     0.505 Goal=   None    Shift=    0.000
 RMSDP=8.85D-09 MaxDP=1.84D-07 DE=-2.39D-12 OVMax= 2.75D-07

 Error on total polarization charges =  0.03186
 SCF Done:  E(RwB97XD) =  -269.316920267     A.U. after    8 cycles
            NFock=  8  Conv=0.89D-08     -V/T= 2.0096
 KE= 2.667571546974D+02 PE=-1.024046831060D+03 EE= 2.909377604150D+02
 SMD-CDS (non-electrostatic) energy       (kcal/mol) =       2.85
 (included in total energy above)
 Leave Link  502 at Tue Oct 21 19:51:26 2025, MaxMem=  4294967296 cpu:             101.9 elap:              12.8
 (Enter /lrz/sys/applications/gaussian/g16.C.01/x86_64_legacy/exe/l701.exe)
 ... and contract with generalized density number  0.
 Compute integral first derivatives.
 R6Disp: Adding Grimme-D2 dispersion energy 1st derivatives to the gradient.
   1 Symmetry operations used in ECPInt.
 ECPInt:  NShTT=    1485 NPrTT=    5139 LenC2=    1483 LenP2D=    4458.
 LDataN:  DoStor=T MaxTD1= 5 Len=  102
 D1PCM: PCM CHGder 1st derivatives, ID1Alg=3 FixD1E=F DoIter=F DoCFld=F I1PDM=0.
 GePol: Maximum number of non-zero 1st derivatives   =     241
 Leave Link  701 at Tue Oct 21 19:51:26 2025, MaxMem=  4294967296 cpu:               4.3 elap:               0.6
 (Enter /lrz/sys/applications/gaussian/g16.C.01/x86_64_legacy/exe/l702.exe)
 L702 exits ... SP integral derivatives will be done elsewhere.
 Leave Link  702 at Tue Oct 21 19:51:26 2025, MaxMem=  4294967296 cpu:               0.2 elap:               0.0
 (Enter /lrz/sys/applications/gaussian/g16.C.01/x86_64_legacy/exe/l703.exe)
 Integral derivatives from FoFJK, PRISM(SPDF).
 Compute integral first derivatives, UseDBF=F ICtDFT=           0.
 Calling FoFJK, ICntrl=      2127 FMM=F ISym2X=0 I1Cent= 0 IOpClX= 0 NMat=1 NMatS=1 NMatT=0.
 FoFJK:  IHMeth= 1 ICntrl=    2127 DoSepK=T KAlg= 0 I1Cent=           0 FoldK=F
 IRaf=         1 NMat=       1 IRICut=       1 DoRegI=T DoRafI=F ISym2E= 0 IDoP0=0 IntGTp=1.
 FoFCou: FMM=F IPFlag=           0 FMFlag=      100000 FMFlg1=         800
         NFxFlg=           0 DoJE=F BraDBF=F KetDBF=F FulRan=T
         wScrn=  0.000000 ICntrl=      2527 IOpCl=  0 I1Cent=           0 NGrid=           0
         NMat0=    1 NMatS0=      1 NMatT0=    0 NMatD0=    1 NMtDS0=    0 NMtDT0=    0
 Symmetry not used in FoFCou.
 Leave Link  703 at Tue Oct 21 19:51:28 2025, MaxMem=  4294967296 cpu:              17.9 elap:               2.3
 (Enter /lrz/sys/applications/gaussian/g16.C.01/x86_64_legacy/exe/l716.exe)
 Dipole        =-4.93612243D-02 8.06228679D-03-5.59360566D-02
 ***** Axes restored to original set *****
 -------------------------------------------------------------------
 Center     Atomic                   Forces (Hartrees/Bohr)
 Number     Number              X              Y              Z
 -------------------------------------------------------------------
      1        8          -0.000011182   -0.000009937    0.000008955
      2        6           0.000085157   -0.000058671    0.000017410
      3        8          -0.000022352    0.000131502    0.000031977
      4        6          -0.000060588   -0.000009743   -0.000043822
      5        6          -0.000022744    0.000018744    0.000012393
      6        1          -0.000016648    0.000000528   -0.000056795
      7        1          -0.000031787    0.000004869    0.000015427
      8        1          -0.000015735   -0.000044318    0.000004286
      9        1           0.000035478   -0.000003493   -0.000036615
     10        1           0.000007231    0.000037704    0.000012536
     11        1          -0.000006101    0.000026789    0.000021929
     12        1           0.000061761   -0.000027824    0.000001369
     13        1          -0.000002489   -0.000066150    0.000010952
 -------------------------------------------------------------------
 Cartesian Forces:  Max     0.000131502 RMS     0.000038697
 Leave Link  716 at Tue Oct 21 19:51:28 2025, MaxMem=  4294967296 cpu:               0.2 elap:               0.0
 (Enter /lrz/sys/applications/gaussian/g16.C.01/x86_64_legacy/exe/l103.exe)

 GradGradGradGradGradGradGradGradGradGradGradGradGradGradGradGradGradGrad
 Berny optimization.
 Using GEDIIS/GDIIS optimizer.
 FormGI is forming the generalized inverse of G from B-inverse, IUseBI=4.
 Internal  Forces:  Max     0.000091098 RMS     0.000024190
 Search for a local minimum.
 Step number   6 out of a maximum of   66
 All quantities printed in internal units (Hartrees-Bohrs-Radians)
 RMS Force = .24190D-04 SwitMx=.10000D-02 MixMth= 2
 Mixed Optimization -- En-DIIS/RFO-DIIS
 Swapping is turned off.
 Update second derivatives using D2CorX and points    1    2    3    4    5
                                                      6
 DE= -2.50D-06 DEPred=-1.66D-06 R= 1.51D+00
 TightC=F SS=  1.41D+00  RLast= 2.05D-02 DXNew= 7.2598D-01 6.1526D-02
 Trust test= 1.51D+00 RLast= 2.05D-02 DXMaxT set to 4.32D-01
 ITU=  1  1  1  1  1  0
     Eigenvalues ---    0.00239   0.00353   0.00669   0.01674   0.03440
     Eigenvalues ---    0.04495   0.05452   0.05594   0.06164   0.06225
     Eigenvalues ---    0.08773   0.10087   0.12521   0.15069   0.15994
     Eigenvalues ---    0.16030   0.16230   0.16679   0.19649   0.21619
     Eigenvalues ---    0.22949   0.29729   0.31059   0.33556   0.34820
     Eigenvalues ---    0.34891   0.35030   0.35222   0.40531   0.45788
     Eigenvalues ---    0.50585   0.54274   0.54694
 En-DIIS/RFO-DIIS/Sim-DIIS IScMMF=       -3 using points:     6    5    4    3    2
 RFO step:  Lambda=-7.33847170D-07.
 NNeg= 0 NGDIIS= 5 SimSw=  2.50D-01 Rises=F DC= -2.50D-06 SmlDif=  1.00D-05
 NRisDI= 0 DoIntr=F SqrtH=F CThrHd= 10.0 CDAdj=  3.0
 RMS Error=  0.1298319334D-02 NUsed= 5 OKEnD=F EnDIS=F
 InvSVX:  RCond= 7.48D-07 Info=           0 Equed=N FErr=  1.90D-13 BErr=  3.37D-17
 DidBck=F Rises=F RFO-DIIS coefs:    1.54136   -0.51502   -0.09142    0.05419    0.01089
 Iteration  1 RMS(Cart)=  0.00124784 RMS(Int)=  0.00000221
 Iteration  2 RMS(Cart)=  0.00000224 RMS(Int)=  0.00000011
 Iteration  3 RMS(Cart)=  0.00000000 RMS(Int)=  0.00000011
 ITry= 1 IFail=0 DXMaxC= 5.53D-03 DCOld= 1.00D+10 DXMaxT= 4.32D-01 DXLimC= 3.00D+00 Rises=F
 Variable       Old X    -DE/DX   Delta X   Delta X   Delta X     New X
                                 (Linear)    (Quad)   (Total)
    R1        2.65592   0.00002  -0.00038   0.00028  -0.00010   2.65582
    R2        1.82457   0.00001  -0.00006   0.00005  -0.00001   1.82456
    R3        2.65755   0.00009  -0.00008   0.00033   0.00025   2.65780
    R4        2.87697   0.00001   0.00065  -0.00041   0.00024   2.87722
    R5        2.08579   0.00000   0.00003  -0.00005  -0.00002   2.08577
    R6        1.82689  -0.00001   0.00001  -0.00003  -0.00002   1.82687
    R7        2.88028   0.00005   0.00072  -0.00045   0.00027   2.88056
    R8        2.08116   0.00004  -0.00013   0.00018   0.00005   2.08121
    R9        2.08041   0.00003  -0.00013   0.00013   0.00001   2.08041
   R10        2.08234   0.00004  -0.00013   0.00016   0.00004   2.08237
   R11        2.07782   0.00005  -0.00003   0.00012   0.00008   2.07790
   R12        2.07828   0.00005  -0.00011   0.00017   0.00005   2.07833
    A1        1.87660  -0.00001   0.00047  -0.00030   0.00017   1.87677
    A2        1.94025   0.00002   0.00011   0.00024   0.00035   1.94060
    A3        1.89029   0.00002  -0.00016   0.00039   0.00023   1.89052
    A4        1.92345  -0.00003   0.00040  -0.00066  -0.00026   1.92319
    A5        1.97223  -0.00001  -0.00026   0.00030   0.00004   1.97227
    A6        1.82572  -0.00001  -0.00003  -0.00026  -0.00029   1.82544
    A7        1.91135   0.00001  -0.00004  -0.00007  -0.00011   1.91124
    A8        1.88585  -0.00003   0.00006  -0.00025  -0.00020   1.88565
    A9        1.99747  -0.00001  -0.00068   0.00053  -0.00015   1.99732
   A10        1.87832   0.00002  -0.00045   0.00059   0.00014   1.87845
   A11        1.87433   0.00001  -0.00005  -0.00000  -0.00006   1.87427
   A12        1.92115  -0.00000  -0.00004   0.00003  -0.00001   1.92113
   A13        1.92356  -0.00001   0.00014  -0.00030  -0.00016   1.92339
   A14        1.86353  -0.00000   0.00122  -0.00093   0.00028   1.86382
   A15        1.94946  -0.00002  -0.00046   0.00024  -0.00022   1.94924
   A16        1.92942   0.00002  -0.00029   0.00029   0.00001   1.92943
   A17        1.94443  -0.00000  -0.00067   0.00049  -0.00017   1.94426
   A18        1.86949   0.00000   0.00036  -0.00023   0.00013   1.86962
   A19        1.88458   0.00001   0.00060  -0.00035   0.00024   1.88483
   A20        1.88342  -0.00001   0.00054  -0.00051   0.00003   1.88345
    D1        1.03967   0.00001   0.00417   0.00002   0.00419   1.04386
    D2       -3.06688   0.00003   0.00380   0.00084   0.00464  -3.06225
    D3       -0.97637   0.00003   0.00390   0.00060   0.00449  -0.97188
    D4        1.11659  -0.00000  -0.00299   0.00004  -0.00295   1.11365
    D5       -1.01313  -0.00004  -0.00267  -0.00087  -0.00354  -1.01667
    D6       -3.09096  -0.00003  -0.00247  -0.00078  -0.00325  -3.09421
    D7       -1.07286  -0.00002  -0.00011  -0.00050  -0.00061  -1.07347
    D8        1.06833  -0.00002  -0.00096   0.00033  -0.00063   1.06771
    D9        3.06900  -0.00001   0.00021  -0.00046  -0.00026   3.06874
   D10        1.08466   0.00001  -0.00026   0.00030   0.00004   1.08470
   D11       -3.05734   0.00001  -0.00111   0.00113   0.00002  -3.05731
   D12       -1.05667   0.00002   0.00005   0.00034   0.00039  -1.05628
   D13        3.11224  -0.00001  -0.00048   0.00011  -0.00037   3.11187
   D14       -1.02976  -0.00000  -0.00133   0.00094  -0.00038  -1.03014
   D15        0.97091   0.00000  -0.00016   0.00015  -0.00002   0.97090
   D16       -1.07660  -0.00000  -0.00064  -0.00015  -0.00079  -1.07740
   D17        3.12673  -0.00001  -0.00061  -0.00021  -0.00082   3.12591
   D18        1.03263   0.00000  -0.00066  -0.00009  -0.00075   1.03187
   D19        3.08878  -0.00002   0.00046  -0.00131  -0.00086   3.08792
   D20        1.00893  -0.00002   0.00050  -0.00138  -0.00088   1.00804
   D21       -1.08518  -0.00001   0.00044  -0.00126  -0.00081  -1.08599
   D22        1.03781  -0.00001  -0.00109  -0.00001  -0.00110   1.03671
   D23       -1.04204  -0.00001  -0.00105  -0.00007  -0.00112  -1.04317
   D24       -3.13614  -0.00000  -0.00111   0.00005  -0.00106  -3.13720
         Item               Value     Threshold  Converged?
 Maximum Force            0.000091     0.000450     YES
 RMS     Force            0.000024     0.000300     YES
 Maximum Displacement     0.005530     0.001800     NO 
 RMS     Displacement     0.001248     0.001200     NO 
 Predicted change in Energy=-3.654146D-07
 Lowest energy point so far.  Saving SCF results.
 GradGradGradGradGradGradGradGradGradGradGradGradGradGradGradGradGradGrad

 Leave Link  103 at Tue Oct 21 19:51:28 2025, MaxMem=  4294967296 cpu:               0.1 elap:               0.0
 (Enter /lrz/sys/applications/gaussian/g16.C.01/x86_64_legacy/exe/l202.exe)
                          Input orientation:                          
 ---------------------------------------------------------------------
 Center     Atomic      Atomic             Coordinates (Angstroms)
 Number     Number       Type             X           Y           Z
 ---------------------------------------------------------------------
      1          8           0       -0.647808   -1.346084   -0.000563
      2          6           0       -0.579355   -0.016418   -0.450505
      3          8           0       -1.220889    0.857194    0.445782
      4          6           0        0.883830    0.336220   -0.680546
      5          6           0        1.754935    0.259041    0.567967
      6          1           0       -1.581531   -1.580756    0.072309
      7          1           0       -1.138344    0.095173   -1.395664
      8          1           0       -0.741096    0.830869    1.284641
      9          1           0        1.272746   -0.342974   -1.455380
     10          1           0        0.914821    1.352150   -1.103538
     11          1           0        1.421277    0.969132    1.341740
     12          1           0        2.798081    0.509596    0.326850
     13          1           0        1.741722   -0.750251    1.004692
 ---------------------------------------------------------------------
                    Distance matrix (angstroms):
                    1          2          3          4          5
     1  O    0.000000
     2  C    1.405399   0.000000
     3  O    2.319931   1.406448   0.000000
     4  C    2.374540   1.522558   2.443332   0.000000
     5  C    2.944967   2.561655   3.037803   1.524325   0.000000
     6  H    0.965515   1.929985   2.492618   3.212412   3.842204
     7  H    2.064983   1.103742   1.994596   2.158399   3.500538
     8  H    2.529739   1.937728   0.966736   2.597504   2.659094
     9  H    2.609837   2.132296   3.357534   1.101329   2.165378
    10  H    3.307390   2.128848   2.684517   1.100907   2.166705
    11  H    3.382767   2.861115   2.792188   2.186108   1.101945
    12  H    3.927454   3.505430   4.035726   2.170083   1.099576
    13  H    2.659964   2.836108   3.416625   2.180923   1.099806
                    6          7          8          9         10
     6  H    0.000000
     7  H    2.271585   0.000000
     8  H    2.827015   2.807684   0.000000
     9  H    3.465953   2.451304   3.597385   0.000000
    10  H    4.026950   2.425039   2.952490   1.767865   0.000000
    11  H    4.138869   3.848226   2.167541   3.093148   2.526378
    12  H    4.859564   4.316739   3.680537   2.495970   2.510493
    13  H    3.550083   3.843336   2.956805   2.537275   3.090063
                   11         12         13
    11  H    0.000000
    12  H    1.771091   0.000000
    13  H    1.781169   1.778364   0.000000
 Stoichiometry    C3H8O2
 Framework group  C1[X(C3H8O2)]
 Deg. of freedom    33
 Full point group                 C1      NOp   1
 RotChk:  IX=0 Diff= 5.18D-04
 Largest Abelian subgroup         C1      NOp   1
 Largest concise Abelian subgroup C1      NOp   1
                         Standard orientation:                         
 ---------------------------------------------------------------------
 Center     Atomic      Atomic             Coordinates (Angstroms)
 Number     Number       Type             X           Y           Z
 ---------------------------------------------------------------------
      1          8           0        0.974299   -1.127921   -0.344749
      2          6           0        0.645405   -0.005626    0.434628
      3          8           0        1.033018    1.186892   -0.202358
      4          6           0       -0.844478   -0.057815    0.743995
      5          6           0       -1.745742   -0.007776   -0.484332
      6          1           0        1.931205   -1.122439   -0.473276
      7          1           0        1.218275   -0.015830    1.378006
      8          1           0        0.524804    1.268034   -1.020719
      9          1           0       -1.034448   -0.980270    1.314884
     10          1           0       -1.070636    0.784328    1.416041
     11          1           0       -1.616250    0.931191   -1.046341
     12          1           0       -2.803495   -0.065341   -0.189523
     13          1           0       -1.539103   -0.844145   -1.167969
 ---------------------------------------------------------------------
 Rotational constants (GHZ):           6.9527133           3.9924908           3.3271655
 Leave Link  202 at Tue Oct 21 19:51:28 2025, MaxMem=  4294967296 cpu:               0.1 elap:               0.0
 (Enter /lrz/sys/applications/gaussian/g16.C.01/x86_64_legacy/exe/l301.exe)
 Standard basis: def2SVP (5D, 7F)
 Ernie: Thresh=  0.10000D-02 Tol=  0.10000D-05 Strict=F.
 There are   115 symmetry adapted cartesian basis functions of A   symmetry.
 There are   110 symmetry adapted basis functions of A   symmetry.
   110 basis functions,   181 primitive gaussians,   115 cartesian basis functions
    21 alpha electrons       21 beta electrons
       nuclear repulsion energy       197.0212142941 Hartrees.
 IExCor= 4639 DFT=T Ex+Corr=wB97XD ExCW=0 ScaHFX=  1.000000
 ScaDFX=  1.000000  1.000000  1.000000  1.000000 ScalE2=  1.000000  1.000000
 IRadAn=      5 IRanWt=     -1 IRanGd=            0 ICorTp=0 IEmpDi=121
 HFx  wShort=  0.000000 wLong=  0.200000 cFull=  0.222036 cShort=  0.000000 cLong=  0.777964
 DFx  wShort=  0.000000 wLong=  0.200000 cFull=  0.000000 cShort=  0.000000 cLong=  1.000000
 NAtoms=   13 NActive=   13 NUniq=   13 SFac= 1.00D+00 NAtFMM=   60 NAOKFM=F Big=F
 Integral buffers will be    131072 words long.
 Raffenetti 2 integral format.
 Two-electron integral symmetry is turned on.
 R6Disp:  Grimme-D2 Dispersion energy=       -0.0056875987 Hartrees.
 Nuclear repulsion after empirical dispersion term =      197.0155266954 Hartrees.
 ------------------------------------------------------------------------------
 Polarizable Continuum Model (PCM)
 =================================
 Model                : PCM.
 Atomic radii         : SMD-Coulomb.
 Polarization charges : Total charges.
 Charge compensation  : None.
 Solution method      : On-the-fly selection.
 Cavity type          : VdW (van der Waals Surface) (Alpha=1.000).
 Cavity algorithm     : GePol (No added spheres)
                        Default sphere list used, NSphG=   13.
                        Lebedev-Laikov grids with approx.  5.0 points / Ang**2.
                        Smoothing algorithm: York/Karplus (Gamma=1.0000).
                        Polarization charges: spherical gaussians, with
                                              point-specific exponents (IZeta= 3).
                        Self-potential: point-specific (ISelfS= 7).
                        Self-field    : sphere-specific E.n sum rule (ISelfD= 2).
 1st derivatives      : Analytical E(r).r(x)/FMM algorithm (CHGder, D1EAlg=3).
                        Cavity 1st derivative terms included.
 Solvent              : Water, Eps=  78.355300 Eps(inf)=   1.777849
 ------------------------------------------------------------------------------
 Spheres list:
 ISph  on   Nord     Re0    Alpha      Xe            Ye            Ze
    1   O      1    1.5200  1.000      0.974299     -1.127921     -0.344749
    2   C      2    1.8500  1.000      0.645405     -0.005626      0.434628
    3   O      3    1.5200  1.000      1.033018      1.186892     -0.202358
    4   C      4    1.8500  1.000     -0.844478     -0.057815      0.743995
    5   C      5    1.8500  1.000     -1.745742     -0.007776     -0.484332
    6   H      6    1.2000  1.000      1.931205     -1.122439     -0.473276
    7   H      7    1.2000  1.000      1.218275     -0.015830      1.378006
    8   H      8    1.2000  1.000      0.524804      1.268034     -1.020719
    9   H      9    1.2000  1.000     -1.034448     -0.980270      1.314884
   10   H     10    1.2000  1.000     -1.070636      0.784328      1.416041
   11   H     11    1.2000  1.000     -1.616250      0.931191     -1.046341
   12   H     12    1.2000  1.000     -2.803495     -0.065341     -0.189523
   13   H     13    1.2000  1.000     -1.539103     -0.844145     -1.167969
 ------------------------------------------------------------------------------
 GePol: Number of generator spheres                  =      13
 GePol: Total number of spheres                      =      13
 GePol: Number of exposed spheres                    =      13 (100.00%)
 GePol: Number of points                             =     903
 GePol: Average weight of points                     =       0.12
 GePol: Minimum weight of points                     =   0.16D-08
 GePol: Maximum weight of points                     =    0.21991
 GePol: Number of points with low weight             =      48
 GePol: Fraction of low-weight points (<1% of avg)   =       5.32%
 GePol: Cavity surface area                          =    109.398 Ang**2
 GePol: Cavity volume                                =     82.039 Ang**3
 ------------------------------------------------------------------------------
 Atomic radii for non-electrostatic terms: SMD-CDS.
 ------------------------------------------------------------------------------
 PCM non-electrostatic energy =         0.0045420163 Hartrees.
 Nuclear repulsion after PCM non-electrostatic terms =      197.0200687117 Hartrees.
 Leave Link  301 at Tue Oct 21 19:51:29 2025, MaxMem=  4294967296 cpu:               0.5 elap:               0.1
 (Enter /lrz/sys/applications/gaussian/g16.C.01/x86_64_legacy/exe/l302.exe)
 NPDir=0 NMtPBC=     1 NCelOv=     1 NCel=       1 NClECP=     1 NCelD=      1
         NCelK=      1 NCelE2=     1 NClLst=     1 CellRange=     0.0.
 One-electron integrals computed using PRISM.
 One-electron integral symmetry used in STVInt
   1 Symmetry operations used in ECPInt.
 ECPInt:  NShTT=    1485 NPrTT=    5139 LenC2=    1483 LenP2D=    4458.
 LDataN:  DoStor=T MaxTD1= 4 Len=   56
 NBasis=   110 RedAO= T EigKep=  2.41D-03  NBF=   110
 NBsUse=   110 1.00D-06 EigRej= -1.00D+00 NBFU=   110
 Precomputing XC quadrature grid using
 IXCGrd= 4 IRadAn=           5 IRanWt=          -1 IRanGd=           0 AccXCQ= 0.00D+00.
 Generated NRdTot=       0 NPtTot=           0 NUsed=           0 NTot=          32
 NSgBfM=   115   115   115   115   115 MxSgAt=    13 MxSgA2=    13.
 Leave Link  302 at Tue Oct 21 19:51:29 2025, MaxMem=  4294967296 cpu:               1.3 elap:               0.2
 (Enter /lrz/sys/applications/gaussian/g16.C.01/x86_64_legacy/exe/l303.exe)
 DipDrv:  MaxL=1.
 Leave Link  303 at Tue Oct 21 19:51:29 2025, MaxMem=  4294967296 cpu:               0.2 elap:               0.0
 (Enter /lrz/sys/applications/gaussian/g16.C.01/x86_64_legacy/exe/l401.exe)
 Initial guess from the checkpoint file:  "g16_C3-w_3.chk"
 B after Tr=    -0.000000    0.000000    0.000000
         Rot=    1.000000   -0.000237    0.000026   -0.000093 Ang=  -0.03 deg.
 Guess basis will be translated and rotated to current coordinates.
 JPrj=2 DoOrth=T DoCkMO=T.
 Leave Link  401 at Tue Oct 21 19:51:29 2025, MaxMem=  4294967296 cpu:               0.7 elap:               0.1
 (Enter /lrz/sys/applications/gaussian/g16.C.01/x86_64_legacy/exe/l502.exe)
 Integral symmetry usage will be decided dynamically.
 Closed shell SCF:
 Using DIIS extrapolation, IDIIS=  1040.
 NGot=  4294967296 LenX=  4294938204 LenY=  4294924538
 Requested convergence on RMS density matrix=1.00D-08 within 128 cycles.
 Requested convergence on MAX density matrix=1.00D-06.
 Requested convergence on             energy=1.00D-06.
 No special actions if energy rises.
 Fock matrices will be formed incrementally for  20 cycles.

 Cycle   1  Pass 1  IDiag  1:
 FoFJK:  IHMeth= 1 ICntrl=       0 DoSepK=T KAlg= 0 I1Cent=           0 FoldK=F
 IRaf=         1 NMat=       1 IRICut=       1 DoRegI=T DoRafI=F ISym2E= 0 IDoP0=0 IntGTp=1.
 FoFCou: FMM=F IPFlag=           0 FMFlag=      100000 FMFlg1=           0
         NFxFlg=           0 DoJE=T BraDBF=F KetDBF=F FulRan=T
         wScrn=  0.000000 ICntrl=       500 IOpCl=  0 I1Cent=           0 NGrid=           0
         NMat0=    1 NMatS0=      1 NMatT0=    0 NMatD0=    1 NMtDS0=    0 NMtDT0=    0
 Symmetry not used in FoFCou.
 Inv3:  Mode=1 IEnd=     2446227.
 Iteration    1 A*A^-1 deviation from unit magnitude is 4.88D-15 for    246.
 Iteration    1 A*A^-1 deviation from orthogonality  is 2.67D-15 for    723    368.
 Iteration    1 A^-1*A deviation from unit magnitude is 4.66D-15 for    114.
 Iteration    1 A^-1*A deviation from orthogonality  is 2.92D-15 for    644    608.
 E= -269.316916906391    
 DIIS: error= 1.73D-04 at cycle   1 NSaved=   1.
 NSaved= 1 IEnMin= 1 EnMin= -269.316916906391     IErMin= 1 ErrMin= 1.73D-04
 ErrMax= 1.73D-04  0.00D+00 EMaxC= 1.00D-01 BMatC= 2.85D-06 BMatP= 2.85D-06
 IDIUse=3 WtCom= 9.98D-01 WtEn= 1.73D-03
 Coeff-Com:  0.100D+01
 Coeff-En:   0.100D+01
 Coeff:      0.100D+01
 Gap=     0.762 Goal=   None    Shift=    0.000
 RMSDP=2.61D-05 MaxDP=7.62D-04              OVMax= 5.05D-04

 Cycle   2  Pass 1  IDiag  1:
 RMSU=  2.61D-05    CP:  1.00D+00
 E= -269.316920514981     Delta-E=       -0.000003608590 Rises=F Damp=F
 DIIS: error= 2.24D-05 at cycle   2 NSaved=   2.
 NSaved= 2 IEnMin= 2 EnMin= -269.316920514981     IErMin= 2 ErrMin= 2.24D-05
 ErrMax= 2.24D-05  0.00D+00 EMaxC= 1.00D-01 BMatC= 8.43D-08 BMatP= 2.85D-06
 IDIUse=1 WtCom= 1.00D+00 WtEn= 0.00D+00
 Coeff-Com: -0.153D+00 0.115D+01
 Coeff:     -0.153D+00 0.115D+01
 Gap=     0.505 Goal=   None    Shift=    0.000
 RMSDP=5.58D-06 MaxDP=1.61D-04 DE=-3.61D-06 OVMax= 1.74D-04

 Cycle   3  Pass 1  IDiag  1:
 RMSU=  2.87D-06    CP:  1.00D+00  1.18D+00
 E= -269.316920679876     Delta-E=       -0.000000164895 Rises=F Damp=F
 DIIS: error= 4.68D-06 at cycle   3 NSaved=   3.
 NSaved= 3 IEnMin= 3 EnMin= -269.316920679876     IErMin= 3 ErrMin= 4.68D-06
 ErrMax= 4.68D-06  0.00D+00 EMaxC= 1.00D-01 BMatC= 6.92D-09 BMatP= 8.43D-08
 IDIUse=1 WtCom= 1.00D+00 WtEn= 0.00D+00
 Coeff-Com: -0.350D-01 0.202D+00 0.833D+00
 Coeff:     -0.350D-01 0.202D+00 0.833D+00
 Gap=     0.505 Goal=   None    Shift=    0.000
 RMSDP=1.16D-06 MaxDP=2.75D-05 DE=-1.65D-07 OVMax= 3.30D-05

 Cycle   4  Pass 1  IDiag  1:
 RMSU=  9.83D-07    CP:  1.00D+00  1.20D+00  1.09D+00
 E= -269.316920686589     Delta-E=       -0.000000006713 Rises=F Damp=F
 DIIS: error= 3.24D-06 at cycle   4 NSaved=   4.
 NSaved= 4 IEnMin= 4 EnMin= -269.316920686589     IErMin= 4 ErrMin= 3.24D-06
 ErrMax= 3.24D-06  0.00D+00 EMaxC= 1.00D-01 BMatC= 2.96D-09 BMatP= 6.92D-09
 IDIUse=1 WtCom= 1.00D+00 WtEn= 0.00D+00
 Coeff-Com:  0.115D-01-0.114D+00 0.386D+00 0.716D+00
 Coeff:      0.115D-01-0.114D+00 0.386D+00 0.716D+00
 Gap=     0.505 Goal=   None    Shift=    0.000
 RMSDP=5.53D-07 MaxDP=1.22D-05 DE=-6.71D-09 OVMax= 1.79D-05

 Cycle   5  Pass 1  IDiag  1:
 RMSU=  2.69D-07    CP:  1.00D+00  1.21D+00  1.24D+00  8.44D-01
 E= -269.316920689416     Delta-E=       -0.000000002827 Rises=F Damp=F
 DIIS: error= 5.34D-07 at cycle   5 NSaved=   5.
 NSaved= 5 IEnMin= 5 EnMin= -269.316920689416     IErMin= 5 ErrMin= 5.34D-07
 ErrMax= 5.34D-07  0.00D+00 EMaxC= 1.00D-01 BMatC= 6.27D-11 BMatP= 2.96D-09
 IDIUse=1 WtCom= 1.00D+00 WtEn= 0.00D+00
 Coeff-Com:  0.419D-02-0.353D-01 0.218D-01 0.126D+00 0.884D+00
 Coeff:      0.419D-02-0.353D-01 0.218D-01 0.126D+00 0.884D+00
 Gap=     0.505 Goal=   None    Shift=    0.000
 RMSDP=1.59D-07 MaxDP=4.13D-06 DE=-2.83D-09 OVMax= 5.59D-06

 Cycle   6  Pass 1  IDiag  1:
 RMSU=  8.54D-08    CP:  1.00D+00  1.21D+00  1.27D+00  9.09D-01  1.21D+00
 E= -269.316920689531     Delta-E=       -0.000000000114 Rises=F Damp=F
 DIIS: error= 1.90D-07 at cycle   6 NSaved=   6.
 NSaved= 6 IEnMin= 6 EnMin= -269.316920689531     IErMin= 6 ErrMin= 1.90D-07
 ErrMax= 1.90D-07  0.00D+00 EMaxC= 1.00D-01 BMatC= 1.06D-11 BMatP= 6.27D-11
 IDIUse=1 WtCom= 1.00D+00 WtEn= 0.00D+00
 Coeff-Com:  0.257D-03-0.120D-03-0.335D-01-0.347D-01 0.272D+00 0.797D+00
 Coeff:      0.257D-03-0.120D-03-0.335D-01-0.347D-01 0.272D+00 0.797D+00
 Gap=     0.505 Goal=   None    Shift=    0.000
 RMSDP=5.79D-08 MaxDP=1.52D-06 DE=-1.14D-10 OVMax= 2.03D-06

 Cycle   7  Pass 1  IDiag  1:
 RMSU=  2.13D-08    CP:  1.00D+00  1.21D+00  1.27D+00  9.29D-01  1.37D+00
                    CP:  9.48D-01
 E= -269.316920689544     Delta-E=       -0.000000000013 Rises=F Damp=F
 DIIS: error= 6.03D-08 at cycle   7 NSaved=   7.
 NSaved= 7 IEnMin= 7 EnMin= -269.316920689544     IErMin= 7 ErrMin= 6.03D-08
 ErrMax= 6.03D-08  0.00D+00 EMaxC= 1.00D-01 BMatC= 9.91D-13 BMatP= 1.06D-11
 IDIUse=1 WtCom= 1.00D+00 WtEn= 0.00D+00
 Coeff-Com: -0.352D-03 0.374D-02-0.914D-02-0.211D-01-0.413D-01 0.200D+00
 Coeff-Com:  0.868D+00
 Coeff:     -0.352D-03 0.374D-02-0.914D-02-0.211D-01-0.413D-01 0.200D+00
 Coeff:      0.868D+00
 Gap=     0.505 Goal=   None    Shift=    0.000
 RMSDP=1.90D-08 MaxDP=5.13D-07 DE=-1.28D-11 OVMax= 7.58D-07

 Cycle   8  Pass 1  IDiag  1:
 RMSU=  7.84D-09    CP:  1.00D+00  1.21D+00  1.27D+00  9.33D-01  1.42D+00
                    CP:  1.06D+00  1.06D+00
 E= -269.316920689549     Delta-E=       -0.000000000006 Rises=F Damp=F
 DIIS: error= 2.99D-08 at cycle   8 NSaved=   8.
 NSaved= 8 IEnMin= 8 EnMin= -269.316920689549     IErMin= 8 ErrMin= 2.99D-08
 ErrMax= 2.99D-08  0.00D+00 EMaxC= 1.00D-01 BMatC= 1.70D-13 BMatP= 9.91D-13
 IDIUse=1 WtCom= 1.00D+00 WtEn= 0.00D+00
 Coeff-Com: -0.151D-03 0.145D-02-0.791D-03-0.554D-02-0.391D-01 0.210D-01
 Coeff-Com:  0.368D+00 0.655D+00
 Coeff:     -0.151D-03 0.145D-02-0.791D-03-0.554D-02-0.391D-01 0.210D-01
 Coeff:      0.368D+00 0.655D+00
 Gap=     0.505 Goal=   None    Shift=    0.000
 RMSDP=4.50D-09 MaxDP=9.66D-08 DE=-5.68D-12 OVMax= 1.49D-07

 Error on total polarization charges =  0.03186
 SCF Done:  E(RwB97XD) =  -269.316920690     A.U. after    8 cycles
            NFock=  8  Conv=0.45D-08     -V/T= 2.0096
 KE= 2.667563848977D+02 PE=-1.024016987067D+03 EE= 2.909236127686D+02
 SMD-CDS (non-electrostatic) energy       (kcal/mol) =       2.85
 (included in total energy above)
 Leave Link  502 at Tue Oct 21 19:51:41 2025, MaxMem=  4294967296 cpu:              97.0 elap:              12.2
 (Enter /lrz/sys/applications/gaussian/g16.C.01/x86_64_legacy/exe/l701.exe)
 ... and contract with generalized density number  0.
 Compute integral first derivatives.
 R6Disp: Adding Grimme-D2 dispersion energy 1st derivatives to the gradient.
   1 Symmetry operations used in ECPInt.
 ECPInt:  NShTT=    1485 NPrTT=    5139 LenC2=    1483 LenP2D=    4458.
 LDataN:  DoStor=T MaxTD1= 5 Len=  102
 D1PCM: PCM CHGder 1st derivatives, ID1Alg=3 FixD1E=F DoIter=F DoCFld=F I1PDM=0.
 GePol: Maximum number of non-zero 1st derivatives   =     241
 Leave Link  701 at Tue Oct 21 19:51:42 2025, MaxMem=  4294967296 cpu:               4.2 elap:               0.5
 (Enter /lrz/sys/applications/gaussian/g16.C.01/x86_64_legacy/exe/l702.exe)
 L702 exits ... SP integral derivatives will be done elsewhere.
 Leave Link  702 at Tue Oct 21 19:51:42 2025, MaxMem=  4294967296 cpu:               0.3 elap:               0.1
 (Enter /lrz/sys/applications/gaussian/g16.C.01/x86_64_legacy/exe/l703.exe)
 Integral derivatives from FoFJK, PRISM(SPDF).
 Compute integral first derivatives, UseDBF=F ICtDFT=           0.
 Calling FoFJK, ICntrl=      2127 FMM=F ISym2X=0 I1Cent= 0 IOpClX= 0 NMat=1 NMatS=1 NMatT=0.
 FoFJK:  IHMeth= 1 ICntrl=    2127 DoSepK=T KAlg= 0 I1Cent=           0 FoldK=F
 IRaf=         1 NMat=       1 IRICut=       1 DoRegI=T DoRafI=F ISym2E= 0 IDoP0=0 IntGTp=1.
 FoFCou: FMM=F IPFlag=           0 FMFlag=      100000 FMFlg1=         800
         NFxFlg=           0 DoJE=F BraDBF=F KetDBF=F FulRan=T
         wScrn=  0.000000 ICntrl=      2527 IOpCl=  0 I1Cent=           0 NGrid=           0
         NMat0=    1 NMatS0=      1 NMatT0=    0 NMatD0=    1 NMtDS0=    0 NMtDT0=    0
 Symmetry not used in FoFCou.
 Leave Link  703 at Tue Oct 21 19:51:44 2025, MaxMem=  4294967296 cpu:              17.7 elap:               2.2
 (Enter /lrz/sys/applications/gaussian/g16.C.01/x86_64_legacy/exe/l716.exe)
 Dipole        =-4.68960597D-02 4.76179875D-03-5.47173530D-02
 ***** Axes restored to original set *****
 -------------------------------------------------------------------
 Center     Atomic                   Forces (Hartrees/Bohr)
 Number     Number              X              Y              Z
 -------------------------------------------------------------------
      1        8           0.000006741    0.000005000    0.000035149
      2        6           0.000044228    0.000020312   -0.000086337
      3        8           0.000033283    0.000008065    0.000009115
      4        6          -0.000074551   -0.000027768    0.000086681
      5        6          -0.000049465    0.000025765   -0.000053104
      6        1          -0.000015993    0.000012902   -0.000025941
      7        1          -0.000009753    0.000015986   -0.000001229
      8        1          -0.000002246   -0.000019066    0.000017888
      9        1           0.000012507    0.000015359   -0.000028851
     10        1           0.000011026    0.000024547   -0.000005037
     11        1           0.000004421   -0.000001361    0.000020733
     12        1           0.000035284   -0.000033401    0.000010389
     13        1           0.000004516   -0.000046340    0.000020542
 -------------------------------------------------------------------
 Cartesian Forces:  Max     0.000086681 RMS     0.000032729
 Leave Link  716 at Tue Oct 21 19:51:44 2025, MaxMem=  4294967296 cpu:               0.2 elap:               0.0
 (Enter /lrz/sys/applications/gaussian/g16.C.01/x86_64_legacy/exe/l103.exe)

 GradGradGradGradGradGradGradGradGradGradGradGradGradGradGradGradGradGrad
 Berny optimization.
 Using GEDIIS/GDIIS optimizer.
 FormGI is forming the generalized inverse of G from B-inverse, IUseBI=4.
 Internal  Forces:  Max     0.000067206 RMS     0.000015728
 Search for a local minimum.
 Step number   7 out of a maximum of   66
 All quantities printed in internal units (Hartrees-Bohrs-Radians)
 RMS Force = .15728D-04 SwitMx=.10000D-02 MixMth= 2
 Mixed Optimization -- En-DIIS/RFO-DIIS
 Swapping is turned off.
 Update second derivatives using D2CorX and points    1    2    3    4    5
                                                      6    7
 DE= -4.23D-07 DEPred=-3.65D-07 R= 1.16D+00
 Trust test= 1.16D+00 RLast= 1.00D-02 DXMaxT set to 4.32D-01
 ITU=  0  1  1  1  1  1  0
     Eigenvalues ---    0.00234   0.00349   0.00433   0.01664   0.03432
     Eigenvalues ---    0.04693   0.05450   0.05593   0.06208   0.07127
     Eigenvalues ---    0.08806   0.10129   0.12524   0.15574   0.15997
     Eigenvalues ---    0.16055   0.16086   0.16685   0.19670   0.21751
     Eigenvalues ---    0.22935   0.30261   0.33216   0.33584   0.34821
     Eigenvalues ---    0.34889   0.35067   0.35432   0.36770   0.45801
     Eigenvalues ---    0.50987   0.54303   0.54821
 En-DIIS/RFO-DIIS/Sim-DIIS IScMMF=       -3 using points:     7    6    5    4    3    2
 RFO step:  Lambda=-2.25190560D-07.
 NNeg= 0 NGDIIS= 6 SimSw=  2.50D-01 Rises=F DC= -4.23D-07 SmlDif=  1.00D-05
 NRisDI= 0 DoIntr=F SqrtH=F CThrHd= 10.0 CDAdj=  3.0
 RMS Error=  0.8621909996D-03 NUsed= 6 OKEnD=F EnDIS=F
 InvSVX:  RCond= 2.96D-07 Info=           0 Equed=N FErr=  5.53D-13 BErr=  6.34D-17
 DidBck=F Rises=F RFO-DIIS coefs:    1.53356   -0.19481   -0.78173    0.43472    0.04845
                  RFO-DIIS coefs:   -0.04018
 Iteration  1 RMS(Cart)=  0.00105998 RMS(Int)=  0.00000111
 Iteration  2 RMS(Cart)=  0.00000104 RMS(Int)=  0.00000045
 Iteration  3 RMS(Cart)=  0.00000000 RMS(Int)=  0.00000045
 ITry= 1 IFail=0 DXMaxC= 3.33D-03 DCOld= 1.00D+10 DXMaxT= 4.32D-01 DXLimC= 3.00D+00 Rises=F
 Variable       Old X    -DE/DX   Delta X   Delta X   Delta X     New X
                                 (Linear)    (Quad)   (Total)
    R1        2.65582   0.00001  -0.00003   0.00005   0.00002   2.65584
    R2        1.82456   0.00001   0.00006  -0.00005   0.00001   1.82457
    R3        2.65780  -0.00001   0.00013  -0.00007   0.00006   2.65786
    R4        2.87722  -0.00007  -0.00028   0.00005  -0.00024   2.87698
    R5        2.08577   0.00001   0.00005  -0.00005   0.00000   2.08577
    R6        1.82687   0.00001   0.00001  -0.00000   0.00001   1.82688
    R7        2.88056  -0.00001  -0.00011   0.00011  -0.00000   2.88056
    R8        2.08121   0.00002   0.00028  -0.00021   0.00007   2.08128
    R9        2.08041   0.00002   0.00023  -0.00015   0.00008   2.08049
   R10        2.08237   0.00002   0.00028  -0.00022   0.00006   2.08243
   R11        2.07790   0.00003   0.00036  -0.00026   0.00010   2.07799
   R12        2.07833   0.00004   0.00040  -0.00026   0.00014   2.07847
    A1        1.87677  -0.00001  -0.00022   0.00018  -0.00004   1.87673
    A2        1.94060  -0.00002  -0.00028   0.00009  -0.00019   1.94041
    A3        1.89052   0.00001   0.00021  -0.00014   0.00007   1.89059
    A4        1.92319   0.00000   0.00001   0.00008   0.00009   1.92328
    A5        1.97227  -0.00002  -0.00015  -0.00008  -0.00023   1.97204
    A6        1.82544   0.00001   0.00012  -0.00007   0.00005   1.82549
    A7        1.91124   0.00001   0.00008   0.00014   0.00023   1.91146
    A8        1.88565  -0.00000  -0.00016   0.00004  -0.00012   1.88553
    A9        1.99732  -0.00000  -0.00030   0.00036   0.00005   1.99737
   A10        1.87845   0.00000   0.00034  -0.00023   0.00011   1.87856
   A11        1.87427   0.00001   0.00015  -0.00010   0.00005   1.87432
   A12        1.92113   0.00000   0.00003   0.00004   0.00006   1.92120
   A13        1.92339  -0.00000  -0.00018   0.00010  -0.00008   1.92332
   A14        1.86382  -0.00001   0.00000  -0.00022  -0.00022   1.86360
   A15        1.94924   0.00000  -0.00022   0.00024   0.00002   1.94925
   A16        1.92943   0.00002   0.00006   0.00011   0.00017   1.92960
   A17        1.94426   0.00002   0.00004   0.00004   0.00008   1.94434
   A18        1.86962  -0.00001   0.00011  -0.00008   0.00003   1.86965
   A19        1.88483  -0.00001   0.00015  -0.00016  -0.00001   1.88481
   A20        1.88345  -0.00002  -0.00012  -0.00017  -0.00029   1.88316
    D1        1.04386   0.00002   0.00219  -0.00011   0.00208   1.04594
    D2       -3.06225  -0.00001   0.00196  -0.00025   0.00171  -3.06053
    D3       -0.97188   0.00001   0.00220  -0.00012   0.00208  -0.96979
    D4        1.11365  -0.00002  -0.00172  -0.00034  -0.00207   1.11158
    D5       -1.01667  -0.00000  -0.00168  -0.00016  -0.00184  -1.01851
    D6       -3.09421  -0.00001  -0.00178  -0.00025  -0.00203  -3.09624
    D7       -1.07347   0.00001  -0.00005   0.00021   0.00016  -1.07331
    D8        1.06771   0.00002   0.00003   0.00033   0.00036   1.06806
    D9        3.06874   0.00001   0.00027  -0.00009   0.00019   3.06893
   D10        1.08470  -0.00001  -0.00036   0.00016  -0.00020   1.08450
   D11       -3.05731  -0.00001  -0.00028   0.00028   0.00000  -3.05731
   D12       -1.05628  -0.00002  -0.00003  -0.00013  -0.00017  -1.05645
   D13        3.11187  -0.00000  -0.00024   0.00012  -0.00013   3.11174
   D14       -1.03014   0.00000  -0.00016   0.00023   0.00007  -1.03007
   D15        0.97090  -0.00001   0.00008  -0.00018  -0.00010   0.97080
   D16       -1.07740  -0.00000  -0.00190  -0.00010  -0.00200  -1.07940
   D17        3.12591  -0.00001  -0.00193  -0.00023  -0.00216   3.12375
   D18        1.03187  -0.00000  -0.00184  -0.00011  -0.00195   1.02992
   D19        3.08792  -0.00001  -0.00215  -0.00009  -0.00223   3.08569
   D20        1.00804  -0.00001  -0.00218  -0.00021  -0.00239   1.00565
   D21       -1.08599  -0.00001  -0.00209  -0.00010  -0.00218  -1.08818
   D22        1.03671  -0.00000  -0.00206   0.00010  -0.00196   1.03475
   D23       -1.04317  -0.00001  -0.00209  -0.00003  -0.00212  -1.04529
   D24       -3.13720   0.00000  -0.00200   0.00009  -0.00191  -3.13911
         Item               Value     Threshold  Converged?
 Maximum Force            0.000067     0.000450     YES
 RMS     Force            0.000016     0.000300     YES
 Maximum Displacement     0.003328     0.001800     NO 
 RMS     Displacement     0.001060     0.001200     YES
 Predicted change in Energy=-8.732158D-08
 Lowest energy point so far.  Saving SCF results.
 GradGradGradGradGradGradGradGradGradGradGradGradGradGradGradGradGradGrad

 Leave Link  103 at Tue Oct 21 19:51:44 2025, MaxMem=  4294967296 cpu:               0.1 elap:               0.0
 (Enter /lrz/sys/applications/gaussian/g16.C.01/x86_64_legacy/exe/l202.exe)
                          Input orientation:                          
 ---------------------------------------------------------------------
 Center     Atomic      Atomic             Coordinates (Angstroms)
 Number     Number       Type             X           Y           Z
 ---------------------------------------------------------------------
      1          8           0       -0.647690   -1.345981   -0.000258
      2          6           0       -0.579295   -0.016393   -0.450481
      3          8           0       -1.220579    0.857239    0.446018
      4          6           0        0.883732    0.336347   -0.680542
      5          6           0        1.754922    0.259344    0.567922
      6          1           0       -1.581405   -1.581165    0.071117
      7          1           0       -1.138542    0.095148   -1.395493
      8          1           0       -0.741540    0.829450    1.285268
      9          1           0        1.272770   -0.342681   -1.455508
     10          1           0        0.914675    1.352305   -1.103579
     11          1           0        1.422483    0.970893    1.340924
     12          1           0        2.798535    0.507838    0.326465
     13          1           0        1.740326   -0.749450    1.005932
 ---------------------------------------------------------------------
                    Distance matrix (angstroms):
                    1          2          3          4          5
     1  O    0.000000
     2  C    1.405411   0.000000
     3  O    2.319814   1.406481   0.000000
     4  C    2.374504   1.522433   2.443070   0.000000
     5  C    2.944901   2.561591   3.037424   1.524324   0.000000
     6  H    0.965520   1.929974   2.493303   3.212281   3.842573
     7  H    2.065059   1.103742   1.994662   2.158455   3.500586
     8  H    2.528613   1.937679   0.966742   2.597897   2.659310
     9  H    2.610082   2.132296   3.357439   1.101364   2.165450
    10  H    3.307423   2.128807   2.684335   1.100949   2.166679
    11  H    3.384124   2.861989   2.792767   2.186144   1.101975
    12  H    3.926813   3.505453   4.036044   2.170240   1.099627
    13  H    2.659114   2.835340   3.414954   2.181033   1.099878
                    6          7          8          9         10
     6  H    0.000000
     7  H    2.270924   0.000000
     8  H    2.826765   2.807720   0.000000
     9  H    3.465651   2.451474   3.597664   0.000000
    10  H    4.026857   2.425152   2.953475   1.767785   0.000000
    11  H    4.141105   3.848864   2.169354   3.093206   2.525656
    12  H    4.859322   4.316947   3.681694   2.495350   2.511390
    13  H    3.549581   3.842925   2.954761   2.538258   3.090164
                   11         12         13
    11  H    0.000000
    12  H    1.771176   0.000000
    13  H    1.781243   1.778273   0.000000
 Stoichiometry    C3H8O2
 Framework group  C1[X(C3H8O2)]
 Deg. of freedom    33
 Full point group                 C1      NOp   1
 RotChk:  IX=0 Diff= 3.23D-04
 Largest Abelian subgroup         C1      NOp   1
 Largest concise Abelian subgroup C1      NOp   1
                         Standard orientation:                         
 ---------------------------------------------------------------------
 Center     Atomic      Atomic             Coordinates (Angstroms)
 Number     Number       Type             X           Y           Z
 ---------------------------------------------------------------------
      1          8           0        0.974465   -1.127636   -0.345001
      2          6           0        0.645393   -0.005621    0.434726
      3          8           0        1.032576    1.187055   -0.202298
      4          6           0       -0.844372   -0.057992    0.744017
      5          6           0       -1.745667   -0.007849   -0.484282
      6          1           0        1.931566   -1.122828   -0.472140
      7          1           0        1.218446   -0.015777    1.377993
      8          1           0        0.525441    1.267084   -1.021444
      9          1           0       -1.034364   -0.980451    1.314959
     10          1           0       -1.070694    0.784059    1.416189
     11          1           0       -1.617765    0.932109   -1.045057
     12          1           0       -2.803425   -0.067772   -0.189771
     13          1           0       -1.537651   -0.843002   -1.169103
 ---------------------------------------------------------------------
 Rotational constants (GHZ):           6.9528140           3.9927468           3.3275470
 Leave Link  202 at Tue Oct 21 19:51:44 2025, MaxMem=  4294967296 cpu:               0.0 elap:               0.0
 (Enter /lrz/sys/applications/gaussian/g16.C.01/x86_64_legacy/exe/l301.exe)
 Standard basis: def2SVP (5D, 7F)
 Ernie: Thresh=  0.10000D-02 Tol=  0.10000D-05 Strict=F.
 There are   115 symmetry adapted cartesian basis functions of A   symmetry.
 There are   110 symmetry adapted basis functions of A   symmetry.
   110 basis functions,   181 primitive gaussians,   115 cartesian basis functions
    21 alpha electrons       21 beta electrons
       nuclear repulsion energy       197.0241469314 Hartrees.
 IExCor= 4639 DFT=T Ex+Corr=wB97XD ExCW=0 ScaHFX=  1.000000
 ScaDFX=  1.000000  1.000000  1.000000  1.000000 ScalE2=  1.000000  1.000000
 IRadAn=      5 IRanWt=     -1 IRanGd=            0 ICorTp=0 IEmpDi=121
 HFx  wShort=  0.000000 wLong=  0.200000 cFull=  0.222036 cShort=  0.000000 cLong=  0.777964
 DFx  wShort=  0.000000 wLong=  0.200000 cFull=  0.000000 cShort=  0.000000 cLong=  1.000000
 NAtoms=   13 NActive=   13 NUniq=   13 SFac= 1.00D+00 NAtFMM=   60 NAOKFM=F Big=F
 Integral buffers will be    131072 words long.
 Raffenetti 2 integral format.
 Two-electron integral symmetry is turned on.
 R6Disp:  Grimme-D2 Dispersion energy=       -0.0056878165 Hartrees.
 Nuclear repulsion after empirical dispersion term =      197.0184591149 Hartrees.
 ------------------------------------------------------------------------------
 Polarizable Continuum Model (PCM)
 =================================
 Model                : PCM.
 Atomic radii         : SMD-Coulomb.
 Polarization charges : Total charges.
 Charge compensation  : None.
 Solution method      : On-the-fly selection.
 Cavity type          : VdW (van der Waals Surface) (Alpha=1.000).
 Cavity algorithm     : GePol (No added spheres)
                        Default sphere list used, NSphG=   13.
                        Lebedev-Laikov grids with approx.  5.0 points / Ang**2.
                        Smoothing algorithm: York/Karplus (Gamma=1.0000).
                        Polarization charges: spherical gaussians, with
                                              point-specific exponents (IZeta= 3).
                        Self-potential: point-specific (ISelfS= 7).
                        Self-field    : sphere-specific E.n sum rule (ISelfD= 2).
 1st derivatives      : Analytical E(r).r(x)/FMM algorithm (CHGder, D1EAlg=3).
                        Cavity 1st derivative terms included.
 Solvent              : Water, Eps=  78.355300 Eps(inf)=   1.777849
 ------------------------------------------------------------------------------
 Spheres list:
 ISph  on   Nord     Re0    Alpha      Xe            Ye            Ze
    1   O      1    1.5200  1.000      0.974465     -1.127636     -0.345001
    2   C      2    1.8500  1.000      0.645393     -0.005621      0.434726
    3   O      3    1.5200  1.000      1.032576      1.187055     -0.202298
    4   C      4    1.8500  1.000     -0.844372     -0.057992      0.744017
    5   C      5    1.8500  1.000     -1.745667     -0.007849     -0.484282
    6   H      6    1.2000  1.000      1.931566     -1.122828     -0.472140
    7   H      7    1.2000  1.000      1.218446     -0.015777      1.377993
    8   H      8    1.2000  1.000      0.525441      1.267084     -1.021444
    9   H      9    1.2000  1.000     -1.034364     -0.980451      1.314959
   10   H     10    1.2000  1.000     -1.070694      0.784059      1.416189
   11   H     11    1.2000  1.000     -1.617765      0.932109     -1.045057
   12   H     12    1.2000  1.000     -2.803425     -0.067772     -0.189771
   13   H     13    1.2000  1.000     -1.537651     -0.843002     -1.169103
 ------------------------------------------------------------------------------
 GePol: Number of generator spheres                  =      13
 GePol: Total number of spheres                      =      13
 GePol: Number of exposed spheres                    =      13 (100.00%)
 GePol: Number of points                             =     903
 GePol: Average weight of points                     =       0.12
 GePol: Minimum weight of points                     =   0.12D-09
 GePol: Maximum weight of points                     =    0.21991
 GePol: Number of points with low weight             =      49
 GePol: Fraction of low-weight points (<1% of avg)   =       5.43%
 GePol: Cavity surface area                          =    109.401 Ang**2
 GePol: Cavity volume                                =     82.039 Ang**3
 ------------------------------------------------------------------------------
 Atomic radii for non-electrostatic terms: SMD-CDS.
 ------------------------------------------------------------------------------
 PCM non-electrostatic energy =         0.0045417934 Hartrees.
 Nuclear repulsion after PCM non-electrostatic terms =      197.0230009083 Hartrees.
 Leave Link  301 at Tue Oct 21 19:51:44 2025, MaxMem=  4294967296 cpu:               0.5 elap:               0.1
 (Enter /lrz/sys/applications/gaussian/g16.C.01/x86_64_legacy/exe/l302.exe)
 NPDir=0 NMtPBC=     1 NCelOv=     1 NCel=       1 NClECP=     1 NCelD=      1
         NCelK=      1 NCelE2=     1 NClLst=     1 CellRange=     0.0.
 One-electron integrals computed using PRISM.
 One-electron integral symmetry used in STVInt
   1 Symmetry operations used in ECPInt.
 ECPInt:  NShTT=    1485 NPrTT=    5139 LenC2=    1483 LenP2D=    4458.
 LDataN:  DoStor=T MaxTD1= 4 Len=   56
 NBasis=   110 RedAO= T EigKep=  2.41D-03  NBF=   110
 NBsUse=   110 1.00D-06 EigRej= -1.00D+00 NBFU=   110
 Precomputing XC quadrature grid using
 IXCGrd= 4 IRadAn=           5 IRanWt=          -1 IRanGd=           0 AccXCQ= 0.00D+00.
 Generated NRdTot=       0 NPtTot=           0 NUsed=           0 NTot=          32
 NSgBfM=   115   115   115   115   115 MxSgAt=    13 MxSgA2=    13.
 Leave Link  302 at Tue Oct 21 19:51:44 2025, MaxMem=  4294967296 cpu:               1.2 elap:               0.2
 (Enter /lrz/sys/applications/gaussian/g16.C.01/x86_64_legacy/exe/l303.exe)
 DipDrv:  MaxL=1.
 Leave Link  303 at Tue Oct 21 19:51:44 2025, MaxMem=  4294967296 cpu:               0.2 elap:               0.0
 (Enter /lrz/sys/applications/gaussian/g16.C.01/x86_64_legacy/exe/l401.exe)
 Initial guess from the checkpoint file:  "g16_C3-w_3.chk"
 B after Tr=     0.000000    0.000000   -0.000000
         Rot=    1.000000   -0.000064    0.000003   -0.000091 Ang=  -0.01 deg.
 Guess basis will be translated and rotated to current coordinates.
 JPrj=2 DoOrth=T DoCkMO=T.
 Leave Link  401 at Tue Oct 21 19:51:45 2025, MaxMem=  4294967296 cpu:               0.7 elap:               0.1
 (Enter /lrz/sys/applications/gaussian/g16.C.01/x86_64_legacy/exe/l502.exe)
 Integral symmetry usage will be decided dynamically.
 Closed shell SCF:
 Using DIIS extrapolation, IDIIS=  1040.
 NGot=  4294967296 LenX=  4294938204 LenY=  4294924538
 Requested convergence on RMS density matrix=1.00D-08 within 128 cycles.
 Requested convergence on MAX density matrix=1.00D-06.
 Requested convergence on             energy=1.00D-06.
 No special actions if energy rises.
 Fock matrices will be formed incrementally for  20 cycles.

 Cycle   1  Pass 1  IDiag  1:
 FoFJK:  IHMeth= 1 ICntrl=       0 DoSepK=T KAlg= 0 I1Cent=           0 FoldK=F
 IRaf=         1 NMat=       1 IRICut=       1 DoRegI=T DoRafI=F ISym2E= 0 IDoP0=0 IntGTp=1.
 FoFCou: FMM=F IPFlag=           0 FMFlag=      100000 FMFlg1=           0
         NFxFlg=           0 DoJE=T BraDBF=F KetDBF=F FulRan=T
         wScrn=  0.000000 ICntrl=       500 IOpCl=  0 I1Cent=           0 NGrid=           0
         NMat0=    1 NMatS0=      1 NMatT0=    0 NMatD0=    1 NMtDS0=    0 NMtDT0=    0
 Symmetry not used in FoFCou.
 Inv3:  Mode=1 IEnd=     2446227.
 Iteration    1 A*A^-1 deviation from unit magnitude is 4.66D-15 for    233.
 Iteration    1 A*A^-1 deviation from orthogonality  is 5.23D-15 for    857    550.
 Iteration    1 A^-1*A deviation from unit magnitude is 4.66D-15 for     28.
 Iteration    1 A^-1*A deviation from orthogonality  is 2.00D-15 for    548    214.
 E= -269.316919275624    
 DIIS: error= 6.98D-05 at cycle   1 NSaved=   1.
 NSaved= 1 IEnMin= 1 EnMin= -269.316919275624     IErMin= 1 ErrMin= 6.98D-05
 ErrMax= 6.98D-05  0.00D+00 EMaxC= 1.00D-01 BMatC= 1.08D-06 BMatP= 1.08D-06
 IDIUse=1 WtCom= 1.00D+00 WtEn= 0.00D+00
 Coeff-Com:  0.100D+01
 Coeff:      0.100D+01
 Gap=     0.762 Goal=   None    Shift=    0.000
 RMSDP=1.50D-05 MaxDP=3.16D-04              OVMax= 2.57D-04

 Cycle   2  Pass 1  IDiag  1:
 RMSU=  1.50D-05    CP:  1.00D+00
 E= -269.316920802910     Delta-E=       -0.000001527285 Rises=F Damp=F
 DIIS: error= 1.33D-05 at cycle   2 NSaved=   2.
 NSaved= 2 IEnMin= 2 EnMin= -269.316920802910     IErMin= 2 ErrMin= 1.33D-05
 ErrMax= 1.33D-05  0.00D+00 EMaxC= 1.00D-01 BMatC= 3.57D-08 BMatP= 1.08D-06
 IDIUse=1 WtCom= 1.00D+00 WtEn= 0.00D+00
 Coeff-Com: -0.173D+00 0.117D+01
 Coeff:     -0.173D+00 0.117D+01
 Gap=     0.505 Goal=   None    Shift=    0.000
 RMSDP=3.65D-06 MaxDP=6.61D-05 DE=-1.53D-06 OVMax= 9.09D-05

 Cycle   3  Pass 1  IDiag  1:
 RMSU=  1.84D-06    CP:  1.00D+00  1.21D+00
 E= -269.316920883728     Delta-E=       -0.000000080818 Rises=F Damp=F
 DIIS: error= 2.54D-06 at cycle   3 NSaved=   3.
 NSaved= 3 IEnMin= 3 EnMin= -269.316920883728     IErMin= 3 ErrMin= 2.54D-06
 ErrMax= 2.54D-06  0.00D+00 EMaxC= 1.00D-01 BMatC= 1.73D-09 BMatP= 3.57D-08
 IDIUse=1 WtCom= 1.00D+00 WtEn= 0.00D+00
 Coeff-Com: -0.207D-01 0.794D-01 0.941D+00
 Coeff:     -0.207D-01 0.794D-01 0.941D+00
 Gap=     0.505 Goal=   None    Shift=    0.000
 RMSDP=7.58D-07 MaxDP=1.11D-05 DE=-8.08D-08 OVMax= 1.78D-05

 Cycle   4  Pass 1  IDiag  1:
 RMSU=  5.39D-07    CP:  1.00D+00  1.23D+00  1.22D+00
 E= -269.316920885966     Delta-E=       -0.000000002238 Rises=F Damp=F
 DIIS: error= 2.36D-06 at cycle   4 NSaved=   4.
 NSaved= 4 IEnMin= 4 EnMin= -269.316920885966     IErMin= 4 ErrMin= 2.36D-06
 ErrMax= 2.36D-06  0.00D+00 EMaxC= 1.00D-01 BMatC= 1.02D-09 BMatP= 1.73D-09
 IDIUse=1 WtCom= 1.00D+00 WtEn= 0.00D+00
 Coeff-Com:  0.133D-01-0.121D+00 0.459D+00 0.649D+00
 Coeff:      0.133D-01-0.121D+00 0.459D+00 0.649D+00
 Gap=     0.505 Goal=   None    Shift=    0.000
 RMSDP=3.08D-07 MaxDP=5.80D-06 DE=-2.24D-09 OVMax= 8.50D-06

 Cycle   5  Pass 1  IDiag  1:
 RMSU=  1.59D-07    CP:  1.00D+00  1.24D+00  1.34D+00  7.87D-01
 E= -269.316920886878     Delta-E=       -0.000000000912 Rises=F Damp=F
 DIIS: error= 2.79D-07 at cycle   5 NSaved=   5.
 NSaved= 5 IEnMin= 5 EnMin= -269.316920886878     IErMin= 5 ErrMin= 2.79D-07
 ErrMax= 2.79D-07  0.00D+00 EMaxC= 1.00D-01 BMatC= 2.33D-11 BMatP= 1.02D-09
 IDIUse=1 WtCom= 1.00D+00 WtEn= 0.00D+00
 Coeff-Com:  0.441D-02-0.350D-01 0.431D-01 0.145D+00 0.842D+00
 Coeff:      0.441D-02-0.350D-01 0.431D-01 0.145D+00 0.842D+00
 Gap=     0.505 Goal=   None    Shift=    0.000
 RMSDP=8.89D-08 MaxDP=1.53D-06 DE=-9.12D-10 OVMax= 2.46D-06

 Cycle   6  Pass 1  IDiag  1:
 RMSU=  4.74D-08    CP:  1.00D+00  1.24D+00  1.37D+00  8.53D-01  1.15D+00
 E= -269.316920886911     Delta-E=       -0.000000000032 Rises=F Damp=F
 DIIS: error= 1.20D-07 at cycle   6 NSaved=   6.
 NSaved= 6 IEnMin= 6 EnMin= -269.316920886911     IErMin= 6 ErrMin= 1.20D-07
 ErrMax= 1.20D-07  0.00D+00 EMaxC= 1.00D-01 BMatC= 3.03D-12 BMatP= 2.33D-11
 IDIUse=1 WtCom= 1.00D+00 WtEn= 0.00D+00
 Coeff-Com:  0.985D-04 0.100D-02-0.328D-01-0.215D-01 0.247D+00 0.806D+00
 Coeff:      0.985D-04 0.100D-02-0.328D-01-0.215D-01 0.247D+00 0.806D+00
 Gap=     0.505 Goal=   None    Shift=    0.000
 RMSDP=3.12D-08 MaxDP=6.33D-07 DE=-3.22D-11 OVMax= 9.49D-07

 Cycle   7  Pass 1  IDiag  1:
 RMSU=  1.23D-08    CP:  1.00D+00  1.24D+00  1.38D+00  8.73D-01  1.28D+00
                    CP:  9.60D-01
 E= -269.316920886918     Delta-E=       -0.000000000008 Rises=F Damp=F
 DIIS: error= 2.74D-08 at cycle   7 NSaved=   7.
 NSaved= 7 IEnMin= 7 EnMin= -269.316920886918     IErMin= 7 ErrMin= 2.74D-08
 ErrMax= 2.74D-08  0.00D+00 EMaxC= 1.00D-01 BMatC= 1.48D-13 BMatP= 3.03D-12
 IDIUse=1 WtCom= 1.00D+00 WtEn= 0.00D+00
 Coeff-Com: -0.334D-03 0.309D-02-0.641D-02-0.150D-01-0.550D-01 0.105D+00
 Coeff-Com:  0.968D+00
 Coeff:     -0.334D-03 0.309D-02-0.641D-02-0.150D-01-0.550D-01 0.105D+00
 Coeff:      0.968D+00
 Gap=     0.505 Goal=   None    Shift=    0.000
 RMSDP=9.83D-09 MaxDP=2.36D-07 DE=-7.50D-12 OVMax= 3.84D-07

 Error on total polarization charges =  0.03186
 SCF Done:  E(RwB97XD) =  -269.316920887     A.U. after    7 cycles
            NFock=  7  Conv=0.98D-08     -V/T= 2.0096
 KE= 2.667562437736D+02 PE=-1.024023156981D+03 EE= 2.909269914121D+02
 SMD-CDS (non-electrostatic) energy       (kcal/mol) =       2.85
 (included in total energy above)
 Leave Link  502 at Tue Oct 21 19:51:55 2025, MaxMem=  4294967296 cpu:              84.4 elap:              10.6
 (Enter /lrz/sys/applications/gaussian/g16.C.01/x86_64_legacy/exe/l701.exe)
 ... and contract with generalized density number  0.
 Compute integral first derivatives.
 R6Disp: Adding Grimme-D2 dispersion energy 1st derivatives to the gradient.
   1 Symmetry operations used in ECPInt.
 ECPInt:  NShTT=    1485 NPrTT=    5139 LenC2=    1483 LenP2D=    4458.
 LDataN:  DoStor=T MaxTD1= 5 Len=  102
 D1PCM: PCM CHGder 1st derivatives, ID1Alg=3 FixD1E=F DoIter=F DoCFld=F I1PDM=0.
 GePol: Maximum number of non-zero 1st derivatives   =     241
 Leave Link  701 at Tue Oct 21 19:51:56 2025, MaxMem=  4294967296 cpu:               4.2 elap:               0.5
 (Enter /lrz/sys/applications/gaussian/g16.C.01/x86_64_legacy/exe/l702.exe)
 L702 exits ... SP integral derivatives will be done elsewhere.
 Leave Link  702 at Tue Oct 21 19:51:56 2025, MaxMem=  4294967296 cpu:               0.2 elap:               0.0
 (Enter /lrz/sys/applications/gaussian/g16.C.01/x86_64_legacy/exe/l703.exe)
 Integral derivatives from FoFJK, PRISM(SPDF).
 Compute integral first derivatives, UseDBF=F ICtDFT=           0.
 Calling FoFJK, ICntrl=      2127 FMM=F ISym2X=0 I1Cent= 0 IOpClX= 0 NMat=1 NMatS=1 NMatT=0.
 FoFJK:  IHMeth= 1 ICntrl=    2127 DoSepK=T KAlg= 0 I1Cent=           0 FoldK=F
 IRaf=         1 NMat=       1 IRICut=       1 DoRegI=T DoRafI=F ISym2E= 0 IDoP0=0 IntGTp=1.
 FoFCou: FMM=F IPFlag=           0 FMFlag=      100000 FMFlg1=         800
         NFxFlg=           0 DoJE=F BraDBF=F KetDBF=F FulRan=T
         wScrn=  0.000000 ICntrl=      2527 IOpCl=  0 I1Cent=           0 NGrid=           0
         NMat0=    1 NMatS0=      1 NMatT0=    0 NMatD0=    1 NMtDS0=    0 NMtDT0=    0
 Symmetry not used in FoFCou.
 Leave Link  703 at Tue Oct 21 19:51:58 2025, MaxMem=  4294967296 cpu:              17.7 elap:               2.2
 (Enter /lrz/sys/applications/gaussian/g16.C.01/x86_64_legacy/exe/l716.exe)
 Dipole        =-4.55639853D-02 2.98784672D-03-5.39554111D-02
 ***** Axes restored to original set *****
 -------------------------------------------------------------------
 Center     Atomic                   Forces (Hartrees/Bohr)
 Number     Number              X              Y              Z
 -------------------------------------------------------------------
      1        8          -0.000008111    0.000006341   -0.000019919
      2        6           0.000000288    0.000009746    0.000003181
      3        8           0.000000153    0.000009333    0.000006509
      4        6           0.000016395   -0.000002825    0.000013039
      5        6          -0.000011014   -0.000003959   -0.000004098
      6        1          -0.000007249    0.000012023   -0.000010349
      7        1           0.000006316    0.000014629   -0.000000746
      8        1           0.000000300   -0.000004305    0.000005678
      9        1           0.000001116    0.000009485   -0.000003694
     10        1           0.000006148    0.000003649    0.000007018
     11        1           0.000004908   -0.000022367    0.000004729
     12        1          -0.000003508   -0.000019577    0.000002345
     13        1          -0.000005742   -0.000012173   -0.000003694
 -------------------------------------------------------------------
 Cartesian Forces:  Max     0.000022367 RMS     0.000009192
 Leave Link  716 at Tue Oct 21 19:51:58 2025, MaxMem=  4294967296 cpu:               0.2 elap:               0.0
 (Enter /lrz/sys/applications/gaussian/g16.C.01/x86_64_legacy/exe/l103.exe)

 GradGradGradGradGradGradGradGradGradGradGradGradGradGradGradGradGradGrad
 Berny optimization.
 Using GEDIIS/GDIIS optimizer.
 FormGI is forming the generalized inverse of G from B-inverse, IUseBI=4.
 Internal  Forces:  Max     0.000018517 RMS     0.000003750
 Search for a local minimum.
 Step number   8 out of a maximum of   66
 All quantities printed in internal units (Hartrees-Bohrs-Radians)
 RMS Force = .37496D-05 SwitMx=.10000D-02 MixMth= 2
 Mixed Optimization -- En-DIIS/RFO-DIIS
 Swapping is turned off.
 Update second derivatives using D2CorX and points    1    2    3    4    5
                                                      6    7    8
 DE= -1.97D-07 DEPred=-8.73D-08 R= 2.26D+00
 Trust test= 2.26D+00 RLast= 8.00D-03 DXMaxT set to 4.32D-01
 ITU=  0  0  1  1  1  1  1  0
     Eigenvalues ---    0.00224   0.00309   0.00457   0.01644   0.03410
     Eigenvalues ---    0.04439   0.05442   0.05555   0.06228   0.07344
     Eigenvalues ---    0.08812   0.10096   0.12542   0.14987   0.16001
     Eigenvalues ---    0.16029   0.16085   0.16698   0.19746   0.21717
     Eigenvalues ---    0.22749   0.29999   0.31303   0.33590   0.34818
     Eigenvalues ---    0.34893   0.35033   0.35162   0.39457   0.45828
     Eigenvalues ---    0.51075   0.54305   0.54755
 En-DIIS/RFO-DIIS/Sim-DIIS IScMMF=       -3 using points:     8    7    6    5    4    3    2
 RFO step:  Lambda=-2.87114218D-09.
 NNeg= 0 NGDIIS= 7 SimSw=  2.50D-01 Rises=F DC= -1.97D-07 SmlDif=  1.00D-05
 NRisDI= 0 DoIntr=F SqrtH=F CThrHd= 10.0 CDAdj=  3.0
 RMS Error=  0.1182078921D-03 NUsed= 7 OKEnD=F EnDIS=F
 InvSVX:  RCond= 2.55D-08 Info=           0 Equed=N FErr=  3.26D-13 BErr=  3.72D-17
 DIIS inversion failure, remove point   7.
 InvSVX:  RCond= 6.19D-08 Info=           0 Equed=N FErr=  8.50D-14 BErr=  6.63D-17
 DIIS inversion failure, remove point   6.
 InvSVX:  RCond= 1.35D-07 Info=           0 Equed=N FErr=  1.91D-14 BErr=  8.89D-17
 RFO-DIIS uses    5 points instead of    7
 DidBck=F Rises=F RFO-DIIS coefs:    1.04402   -0.05762   -0.00469    0.00689    0.01139
                  RFO-DIIS coefs:    0.00000    0.00000
 Iteration  1 RMS(Cart)=  0.00010926 RMS(Int)=  0.00000001
 Iteration  2 RMS(Cart)=  0.00000001 RMS(Int)=  0.00000000
 ITry= 1 IFail=0 DXMaxC= 3.82D-04 DCOld= 1.00D+10 DXMaxT= 4.32D-01 DXLimC= 3.00D+00 Rises=F
 Variable       Old X    -DE/DX   Delta X   Delta X   Delta X     New X
                                 (Linear)    (Quad)   (Total)
    R1        2.65584  -0.00000   0.00002  -0.00002  -0.00000   2.65584
    R2        1.82457  -0.00000   0.00000  -0.00001  -0.00000   1.82457
    R3        2.65786   0.00001   0.00000   0.00001   0.00001   2.65787
    R4        2.87698  -0.00000  -0.00004   0.00003  -0.00001   2.87698
    R5        2.08577  -0.00000   0.00000  -0.00001  -0.00001   2.08576
    R6        1.82688   0.00000   0.00000  -0.00000   0.00000   1.82688
    R7        2.88056  -0.00002  -0.00002  -0.00004  -0.00006   2.88050
    R8        2.08128  -0.00000   0.00001  -0.00001   0.00000   2.08128
    R9        2.08049  -0.00000   0.00001  -0.00001   0.00000   2.08049
   R10        2.08243  -0.00001   0.00001  -0.00003  -0.00002   2.08241
   R11        2.07799  -0.00001   0.00001  -0.00002  -0.00001   2.07798
   R12        2.07847  -0.00000   0.00002  -0.00002  -0.00000   2.07847
    A1        1.87673  -0.00000  -0.00003   0.00002  -0.00001   1.87672
    A2        1.94041  -0.00000  -0.00002   0.00003   0.00001   1.94041
    A3        1.89059  -0.00000   0.00000  -0.00001  -0.00001   1.89058
    A4        1.92328  -0.00000  -0.00001  -0.00002  -0.00003   1.92325
    A5        1.97204   0.00001  -0.00001   0.00004   0.00004   1.97207
    A6        1.82549   0.00000   0.00001  -0.00000   0.00001   1.82550
    A7        1.91146  -0.00000   0.00002  -0.00004  -0.00002   1.91144
    A8        1.88553   0.00000  -0.00000   0.00002   0.00002   1.88554
    A9        1.99737  -0.00001   0.00001  -0.00004  -0.00002   1.99735
   A10        1.87856   0.00000   0.00002  -0.00000   0.00002   1.87858
   A11        1.87432  -0.00000   0.00001  -0.00001  -0.00000   1.87431
   A12        1.92120   0.00000   0.00001   0.00000   0.00001   1.92121
   A13        1.92332   0.00000  -0.00001   0.00004   0.00003   1.92335
   A14        1.86360  -0.00000  -0.00005   0.00001  -0.00004   1.86356
   A15        1.94925   0.00000   0.00002   0.00002   0.00003   1.94929
   A16        1.92960  -0.00001   0.00002  -0.00005  -0.00003   1.92957
   A17        1.94434   0.00000   0.00002  -0.00002   0.00000   1.94434
   A18        1.86965   0.00000  -0.00001   0.00004   0.00003   1.86968
   A19        1.88481  -0.00000  -0.00002  -0.00000  -0.00002   1.88479
   A20        1.88316   0.00000  -0.00004   0.00002  -0.00002   1.88314
    D1        1.04594  -0.00000  -0.00022  -0.00011  -0.00034   1.04560
    D2       -3.06053   0.00000  -0.00024  -0.00005  -0.00029  -3.06083
    D3       -0.96979  -0.00000  -0.00023  -0.00011  -0.00034  -0.97013
    D4        1.11158  -0.00000   0.00010  -0.00009   0.00002   1.11160
    D5       -1.01851  -0.00000   0.00012  -0.00012  -0.00000  -1.01851
    D6       -3.09624  -0.00000   0.00009  -0.00010  -0.00000  -3.09624
    D7       -1.07331  -0.00000  -0.00005   0.00001  -0.00004  -1.07335
    D8        1.06806  -0.00000  -0.00001  -0.00001  -0.00003   1.06803
    D9        3.06893  -0.00000  -0.00006  -0.00000  -0.00006   3.06887
   D10        1.08450   0.00000  -0.00008   0.00006  -0.00001   1.08448
   D11       -3.05731   0.00000  -0.00004   0.00004  -0.00000  -3.05731
   D12       -1.05645  -0.00000  -0.00008   0.00005  -0.00003  -1.05648
   D13        3.11174   0.00000  -0.00005   0.00006   0.00001   3.11175
   D14       -1.03007   0.00000  -0.00002   0.00004   0.00002  -1.03005
   D15        0.97080   0.00000  -0.00006   0.00005  -0.00001   0.97079
   D16       -1.07940   0.00000  -0.00021   0.00000  -0.00020  -1.07960
   D17        3.12375  -0.00000  -0.00022  -0.00002  -0.00024   3.12351
   D18        1.02992   0.00000  -0.00020  -0.00000  -0.00020   1.02972
   D19        3.08569  -0.00000  -0.00025   0.00003  -0.00022   3.08547
   D20        1.00565  -0.00000  -0.00026   0.00000  -0.00026   1.00539
   D21       -1.08818  -0.00000  -0.00024   0.00002  -0.00022  -1.08839
   D22        1.03475  -0.00000  -0.00019  -0.00001  -0.00020   1.03455
   D23       -1.04529  -0.00000  -0.00020  -0.00004  -0.00024  -1.04553
   D24       -3.13911  -0.00000  -0.00018  -0.00002  -0.00020  -3.13931
         Item               Value     Threshold  Converged?
 Maximum Force            0.000019     0.000450     YES
 RMS     Force            0.000004     0.000300     YES
 Maximum Displacement     0.000382     0.001800     YES
 RMS     Displacement     0.000109     0.001200     YES
 Predicted change in Energy=-3.093114D-09
 Optimization completed.
    -- Stationary point found.
                           ----------------------------
                           !   Optimized Parameters   !
                           ! (Angstroms and Degrees)  !
 --------------------------                            --------------------------
 ! Name  Definition              Value          Derivative Info.                !
 --------------------------------------------------------------------------------
 ! R1    R(1,2)                  1.4054         -DE/DX =    0.0                 !
 ! R2    R(1,6)                  0.9655         -DE/DX =    0.0                 !
 ! R3    R(2,3)                  1.4065         -DE/DX =    0.0                 !
 ! R4    R(2,4)                  1.5224         -DE/DX =    0.0                 !
 ! R5    R(2,7)                  1.1037         -DE/DX =    0.0                 !
 ! R6    R(3,8)                  0.9667         -DE/DX =    0.0                 !
 ! R7    R(4,5)                  1.5243         -DE/DX =    0.0                 !
 ! R8    R(4,9)                  1.1014         -DE/DX =    0.0                 !
 ! R9    R(4,10)                 1.1009         -DE/DX =    0.0                 !
 ! R10   R(5,11)                 1.102          -DE/DX =    0.0                 !
 ! R11   R(5,12)                 1.0996         -DE/DX =    0.0                 !
 ! R12   R(5,13)                 1.0999         -DE/DX =    0.0                 !
 ! A1    A(2,1,6)              107.5288         -DE/DX =    0.0                 !
 ! A2    A(1,2,3)              111.1772         -DE/DX =    0.0                 !
 ! A3    A(1,2,4)              108.3229         -DE/DX =    0.0                 !
 ! A4    A(1,2,7)              110.1957         -DE/DX =    0.0                 !
 ! A5    A(3,2,4)              112.9895         -DE/DX =    0.0                 !
 ! A6    A(3,2,7)              104.5927         -DE/DX =    0.0                 !
 ! A7    A(4,2,7)              109.5188         -DE/DX =    0.0                 !
 ! A8    A(2,3,8)              108.0327         -DE/DX =    0.0                 !
 ! A9    A(2,4,5)              114.4408         -DE/DX =    0.0                 !
 ! A10   A(2,4,9)              107.6337         -DE/DX =    0.0                 !
 ! A11   A(2,4,10)             107.3905         -DE/DX =    0.0                 !
 ! A12   A(5,4,9)              110.0766         -DE/DX =    0.0                 !
 ! A13   A(5,4,10)             110.1979         -DE/DX =    0.0                 !
 ! A14   A(9,4,10)             106.7764         -DE/DX =    0.0                 !
 ! A15   A(4,5,11)             111.6841         -DE/DX =    0.0                 !
 ! A16   A(4,5,12)             110.5579         -DE/DX =    0.0                 !
 ! A17   A(4,5,13)             111.4023         -DE/DX =    0.0                 !
 ! A18   A(11,5,12)            107.1229         -DE/DX =    0.0                 !
 ! A19   A(11,5,13)            107.9917         -DE/DX =    0.0                 !
 ! A20   A(12,5,13)            107.8969         -DE/DX =    0.0                 !
 ! D1    D(6,1,2,3)             59.9279         -DE/DX =    0.0                 !
 ! D2    D(6,1,2,4)           -175.3557         -DE/DX =    0.0                 !
 ! D3    D(6,1,2,7)            -55.5651         -DE/DX =    0.0                 !
 ! D4    D(1,2,3,8)             63.6888         -DE/DX =    0.0                 !
 ! D5    D(4,2,3,8)            -58.3565         -DE/DX =    0.0                 !
 ! D6    D(7,2,3,8)           -177.4013         -DE/DX =    0.0                 !
 ! D7    D(1,2,4,5)            -61.4963         -DE/DX =    0.0                 !
 ! D8    D(1,2,4,9)             61.1955         -DE/DX =    0.0                 !
 ! D9    D(1,2,4,10)           175.8365         -DE/DX =    0.0                 !
 ! D10   D(3,2,4,5)             62.1371         -DE/DX =    0.0                 !
 ! D11   D(3,2,4,9)           -175.1711         -DE/DX =    0.0                 !
 ! D12   D(3,2,4,10)           -60.5301         -DE/DX =    0.0                 !
 ! D13   D(7,2,4,5)            178.2897         -DE/DX =    0.0                 !
 ! D14   D(7,2,4,9)            -59.0185         -DE/DX =    0.0                 !
 ! D15   D(7,2,4,10)            55.6226         -DE/DX =    0.0                 !
 ! D16   D(2,4,5,11)           -61.845          -DE/DX =    0.0                 !
 ! D17   D(2,4,5,12)           178.9775         -DE/DX =    0.0                 !
 ! D18   D(2,4,5,13)            59.01           -DE/DX =    0.0                 !
 ! D19   D(9,4,5,11)           176.7971         -DE/DX =    0.0                 !
 ! D20   D(9,4,5,12)            57.6196         -DE/DX =    0.0                 !
 ! D21   D(9,4,5,13)           -62.3479         -DE/DX =    0.0                 !
 ! D22   D(10,4,5,11)           59.287          -DE/DX =    0.0                 !
 ! D23   D(10,4,5,12)          -59.8905         -DE/DX =    0.0                 !
 ! D24   D(10,4,5,13)         -179.858          -DE/DX =    0.0                 !
 --------------------------------------------------------------------------------
 Lowest energy point so far.  Saving SCF results.
 Largest change from initial coordinates is atom   13       0.197 Angstoms.
 GradGradGradGradGradGradGradGradGradGradGradGradGradGradGradGradGradGrad

 Leave Link  103 at Tue Oct 21 19:51:58 2025, MaxMem=  4294967296 cpu:               0.2 elap:               0.0
 (Enter /lrz/sys/applications/gaussian/g16.C.01/x86_64_legacy/exe/l202.exe)
                          Input orientation:                          
 ---------------------------------------------------------------------
 Center     Atomic      Atomic             Coordinates (Angstroms)
 Number     Number       Type             X           Y           Z
 ---------------------------------------------------------------------
      1          8           0       -0.647690   -1.345981   -0.000258
      2          6           0       -0.579295   -0.016393   -0.450481
      3          8           0       -1.220579    0.857239    0.446018
      4          6           0        0.883732    0.336347   -0.680542
      5          6           0        1.754922    0.259344    0.567922
      6          1           0       -1.581405   -1.581165    0.071117
      7          1           0       -1.138542    0.095148   -1.395493
      8          1           0       -0.741540    0.829450    1.285268
      9          1           0        1.272770   -0.342681   -1.455508
     10          1           0        0.914675    1.352305   -1.103579
     11          1           0        1.422483    0.970893    1.340924
     12          1           0        2.798535    0.507838    0.326465
     13          1           0        1.740326   -0.749450    1.005932
 ---------------------------------------------------------------------
                    Distance matrix (angstroms):
                    1          2          3          4          5
     1  O    0.000000
     2  C    1.405411   0.000000
     3  O    2.319814   1.406481   0.000000
     4  C    2.374504   1.522433   2.443070   0.000000
     5  C    2.944901   2.561591   3.037424   1.524324   0.000000
     6  H    0.965520   1.929974   2.493303   3.212281   3.842573
     7  H    2.065059   1.103742   1.994662   2.158455   3.500586
     8  H    2.528613   1.937679   0.966742   2.597897   2.659310
     9  H    2.610082   2.132296   3.357439   1.101364   2.165450
    10  H    3.307423   2.128807   2.684335   1.100949   2.166679
    11  H    3.384124   2.861989   2.792767   2.186144   1.101975
    12  H    3.926813   3.505453   4.036044   2.170240   1.099627
    13  H    2.659114   2.835340   3.414954   2.181033   1.099878
                    6          7          8          9         10
     6  H    0.000000
     7  H    2.270924   0.000000
     8  H    2.826765   2.807720   0.000000
     9  H    3.465651   2.451474   3.597664   0.000000
    10  H    4.026857   2.425152   2.953475   1.767785   0.000000
    11  H    4.141105   3.848864   2.169354   3.093206   2.525656
    12  H    4.859322   4.316947   3.681694   2.495350   2.511390
    13  H    3.549581   3.842925   2.954761   2.538258   3.090164
                   11         12         13
    11  H    0.000000
    12  H    1.771176   0.000000
    13  H    1.781243   1.778273   0.000000
 Stoichiometry    C3H8O2
 Framework group  C1[X(C3H8O2)]
 Deg. of freedom    33
 Full point group                 C1      NOp   1
 RotChk:  IX=0 Diff= 2.14D-15
 Largest Abelian subgroup         C1      NOp   1
 Largest concise Abelian subgroup C1      NOp   1
                         Standard orientation:                         
 ---------------------------------------------------------------------
 Center     Atomic      Atomic             Coordinates (Angstroms)
 Number     Number       Type             X           Y           Z
 ---------------------------------------------------------------------
      1          8           0        0.974465   -1.127636   -0.345001
      2          6           0        0.645393   -0.005621    0.434726
      3          8           0        1.032576    1.187055   -0.202298
      4          6           0       -0.844372   -0.057992    0.744017
      5          6           0       -1.745667   -0.007849   -0.484282
      6          1           0        1.931566   -1.122828   -0.472140
      7          1           0        1.218446   -0.015777    1.377993
      8          1           0        0.525441    1.267084   -1.021444
      9          1           0       -1.034364   -0.980451    1.314959
     10          1           0       -1.070694    0.784059    1.416189
     11          1           0       -1.617765    0.932109   -1.045057
     12          1           0       -2.803425   -0.067772   -0.189771
     13          1           0       -1.537651   -0.843002   -1.169103
 ---------------------------------------------------------------------
 Rotational constants (GHZ):           6.9528140           3.9927468           3.3275470
 Leave Link  202 at Tue Oct 21 19:51:58 2025, MaxMem=  4294967296 cpu:               0.0 elap:               0.0
 (Enter /lrz/sys/applications/gaussian/g16.C.01/x86_64_legacy/exe/l601.exe)
 Copying SCF densities to generalized density rwf, IOpCl= 0 IROHF=0.

 **********************************************************************

            Population analysis using the SCF Density.

 **********************************************************************

 Orbital symmetries:
       Occupied  (A) (A) (A) (A) (A) (A) (A) (A) (A) (A) (A) (A)
                 (A) (A) (A) (A) (A) (A) (A) (A) (A)
       Virtual   (A) (A) (A) (A) (A) (A) (A) (A) (A) (A) (A) (A)
                 (A) (A) (A) (A) (A) (A) (A) (A) (A) (A) (A) (A)
                 (A) (A) (A) (A) (A) (A) (A) (A) (A) (A) (A) (A)
                 (A) (A) (A) (A) (A) (A) (A) (A) (A) (A) (A) (A)
                 (A) (A) (A) (A) (A) (A) (A) (A) (A) (A) (A) (A)
                 (A) (A) (A) (A) (A) (A) (A) (A) (A) (A) (A) (A)
                 (A) (A) (A) (A) (A) (A) (A) (A) (A) (A) (A) (A)
                 (A) (A) (A) (A) (A)
 The electronic state is 1-A.
 Alpha  occ. eigenvalues --  -19.25687 -19.25683 -10.38398 -10.28660 -10.28337
 Alpha  occ. eigenvalues --   -1.15010  -1.07755  -0.86115  -0.76148  -0.67329
 Alpha  occ. eigenvalues --   -0.63994  -0.56197  -0.54050  -0.51780  -0.49300
 Alpha  occ. eigenvalues --   -0.46239  -0.43913  -0.41934  -0.40109  -0.39062
 Alpha  occ. eigenvalues --   -0.36266
 Alpha virt. eigenvalues --    0.14224   0.17065   0.19185   0.20207   0.21661
 Alpha virt. eigenvalues --    0.23116   0.23850   0.26903   0.29312   0.31455
 Alpha virt. eigenvalues --    0.33275   0.38077   0.51293   0.52677   0.53182
 Alpha virt. eigenvalues --    0.58234   0.60940   0.65193   0.67221   0.71818
 Alpha virt. eigenvalues --    0.72188   0.73287   0.74402   0.75470   0.77727
 Alpha virt. eigenvalues --    0.78562   0.80125   0.80568   0.81092   0.82756
 Alpha virt. eigenvalues --    0.92984   1.03800   1.08485   1.09668   1.13335
 Alpha virt. eigenvalues --    1.13998   1.18294   1.30589   1.32063   1.37410
 Alpha virt. eigenvalues --    1.43781   1.45923   1.53675   1.56058   1.60533
 Alpha virt. eigenvalues --    1.63794   1.63937   1.69436   1.74617   1.82083
 Alpha virt. eigenvalues --    1.83486   1.85652   1.88598   1.89062   1.90742
 Alpha virt. eigenvalues --    1.94422   1.96679   1.97345   1.99914   2.02933
 Alpha virt. eigenvalues --    2.07372   2.13128   2.21399   2.22712   2.28931
 Alpha virt. eigenvalues --    2.32293   2.34546   2.42090   2.45266   2.50127
 Alpha virt. eigenvalues --    2.63116   2.64514   2.67548   2.83667   2.85918
 Alpha virt. eigenvalues --    2.91954   2.96580   3.03468   3.05987   3.06196
 Alpha virt. eigenvalues --    3.08446   3.11136   3.16592   3.23981   3.25181
 Alpha virt. eigenvalues --    3.45163   3.50784   3.86187   3.86864
          Condensed to atoms (all electrons):
               1          2          3          4          5          6
     1  O    7.859325   0.332914  -0.066255  -0.077914  -0.004843   0.324408
     2  C    0.332914   4.436129   0.315700   0.351956  -0.029832  -0.014441
     3  O   -0.066255   0.315700   7.867932  -0.036388  -0.009975   0.006146
     4  C   -0.077914   0.351956  -0.036388   4.879797   0.362156   0.010060
     5  C   -0.004843  -0.029832  -0.009975   0.362156   4.640474  -0.000211
     6  H    0.324408  -0.014441   0.006146   0.010060  -0.000211   0.468939
     7  H   -0.029111   0.411928  -0.040061  -0.050710   0.009513  -0.007227
     8  H    0.005426  -0.019762   0.333121  -0.017886   0.009822  -0.000620
     9  H    0.003950  -0.011792   0.004981   0.360132  -0.024187  -0.000469
    10  H    0.004450  -0.012705   0.001674   0.369997  -0.024645  -0.000474
    11  H   -0.000579  -0.006990   0.006421  -0.023472   0.390098  -0.000159
    12  H   -0.000008   0.006285   0.000087  -0.014546   0.393725   0.000023
    13  H    0.014314  -0.004613  -0.000565  -0.035009   0.398491  -0.000668
               7          8          9         10         11         12
     1  O   -0.029111   0.005426   0.003950   0.004450  -0.000579  -0.000008
     2  C    0.411928  -0.019762  -0.011792  -0.012705  -0.006990   0.006285
     3  O   -0.040061   0.333121   0.004981   0.001674   0.006421   0.000087
     4  C   -0.050710  -0.017886   0.360132   0.369997  -0.023472  -0.014546
     5  C    0.009513   0.009822  -0.024187  -0.024645   0.390098   0.393725
     6  H   -0.007227  -0.000620  -0.000469  -0.000474  -0.000159   0.000023
     7  H    0.670706   0.008790  -0.004808  -0.005030  -0.000032  -0.000209
     8  H    0.008790   0.468518  -0.000114  -0.000555   0.004136  -0.000292
     9  H   -0.004808  -0.000114   0.650259  -0.018445   0.008077  -0.006377
    10  H   -0.005030  -0.000555  -0.018445   0.644184  -0.007310  -0.005845
    11  H   -0.000032   0.004136   0.008077  -0.007310   0.631577  -0.020436
    12  H   -0.000209  -0.000292  -0.006377  -0.005845  -0.020436   0.615300
    13  H    0.000446   0.000339  -0.006984   0.007570  -0.025243  -0.021346
              13
     1  O    0.014314
     2  C   -0.004613
     3  O   -0.000565
     4  C   -0.035009
     5  C    0.398491
     6  H   -0.000668
     7  H    0.000446
     8  H    0.000339
     9  H   -0.006984
    10  H    0.007570
    11  H   -0.025243
    12  H   -0.021346
    13  H    0.630874
 Mulliken charges:
               1
     1  O   -0.366076
     2  C    0.245222
     3  O   -0.382818
     4  C   -0.078174
     5  C   -0.110586
     6  H    0.214693
     7  H    0.035806
     8  H    0.209077
     9  H    0.045776
    10  H    0.047135
    11  H    0.043912
    12  H    0.053639
    13  H    0.042394
 Sum of Mulliken charges =  -0.00000
 Mulliken charges with hydrogens summed into heavy atoms:
               1
     1  O   -0.151382
     2  C    0.281028
     3  O   -0.173741
     4  C    0.014737
     5  C    0.029358
 Electronic spatial extent (au):  <R**2>=            445.9711
 Charge=             -0.0000 electrons
 Dipole moment (field-independent basis, Debye):
    X=             -0.1158    Y=              0.0076    Z=             -0.1371  Tot=              0.1797
 Quadrupole moment (field-independent basis, Debye-Ang):
   XX=            -28.1193   YY=            -34.7310   ZZ=            -28.9820
   XY=             -3.6523   XZ=             -0.5545   YZ=             -2.1009
 Traceless Quadrupole moment (field-independent basis, Debye-Ang):
   XX=              2.4914   YY=             -4.1202   ZZ=              1.6288
   XY=             -3.6523   XZ=             -0.5545   YZ=             -2.1009
 Octapole moment (field-independent basis, Debye-Ang**2):
  XXX=             17.4017  YYY=              0.6511  ZZZ=             -3.4211  XYY=             -0.0167
  XXY=             -9.2258  XXZ=             -1.3597  XZZ=              5.2537  YZZ=              2.9175
  YYZ=             -3.0728  XYZ=              0.5709
 Hexadecapole moment (field-independent basis, Debye-Ang**3):
 XXXX=           -279.1668 YYYY=           -146.8001 ZZZZ=           -100.6857 XXXY=            -20.4740
 XXXZ=             -9.7009 YYYX=             -6.7621 YYYZ=             -4.7673 ZZZX=             -3.7668
 ZZZY=             -3.2540 XXYY=            -74.0812 XXZZ=            -67.0015 YYZZ=            -35.3258
 XXYZ=              3.3939 YYXZ=             -3.4542 ZZXY=              0.1300
 N-N= 1.970230009083D+02 E-N=-1.024023157477D+03  KE= 2.667562437736D+02
 No NMR shielding tensors so no spin-rotation constants.
 Leave Link  601 at Tue Oct 21 19:51:58 2025, MaxMem=  4294967296 cpu:               0.7 elap:               0.1
 (Enter /lrz/sys/applications/gaussian/g16.C.01/x86_64_legacy/exe/l9999.exe)
 Unable to Open any file for archive entry.
 1\1\GINC-CM4R13C06S02\FOpt\RwB97XD\def2SVP\C3H8O2\GO29TIZ2\21-Oct-2025
 \0\\#p opt freq wb97xd scrf=(smd,solvent=water) def2svp\\g16_C3-w_3\\0
 ,1\O,-0.6476904912,-1.3459806416,-0.0002584927\C,-0.5792951122,-0.0163
 933989,-0.4504813362\O,-1.2205788935,0.857238627,0.4460179494\C,0.8837
 32188,0.3363473467,-0.6805419223\C,1.754922264,0.2593437176,0.56792234
 56\H,-1.5814053022,-1.5811648426,0.0711168722\H,-1.1385424762,0.095148
 1319,-1.3954932088\H,-0.7415398568,0.8294500252,1.2852676671\H,1.27276
 97833,-0.3426814531,-1.4555079189\H,0.9146754012,1.3523048016,-1.10357
 94931\H,1.4224828307,0.970893339,1.3409235688\H,2.7985351117,0.5078377
 057,0.3264654039\H,1.7403259529,-0.7494503586,1.0059317651\\Version=EM
 64L-G16RevC.01\State=1-A\HF=-269.3169209\RMSD=9.827e-09\RMSF=9.192e-06
 \Dipole=0.0439164,-0.0013535,0.0553689\Quadrupole=0.4239084,-2.1590658
 ,1.7351574,3.591361,0.1912763,0.5130297\PG=C01 [X(C3H8O2)]\\@
 The archive entry for this job was punched.


 THOSE WHO ARE UNABLE TO LEARN FROM PAST MEETINGS
 ARE CONDEMNED TO REPEAT THEM.
 Leave Link 9999 at Tue Oct 21 19:51:58 2025, MaxMem=  4294967296 cpu:               0.2 elap:               0.0
 Job cpu time:       0 days  0 hours 18 minutes 26.4 seconds.
 Elapsed time:       0 days  0 hours  2 minutes 20.8 seconds.
 File lengths (MBytes):  RWF=    272 Int=      0 D2E=      0 Chk=      8 Scr=     32
 Normal termination of Gaussian 16 at Tue Oct 21 19:51:58 2025.
 (Enter /lrz/sys/applications/gaussian/g16.C.01/x86_64_legacy/exe/l1.exe)
 Link1:  Proceeding to internal job step number  2.
 --------------------------------------------------------------------
 #P Geom=AllCheck Guess=TCheck SCRF=Check GenChk RwB97XD/def2SVP Freq
 --------------------------------------------------------------------
 1/10=4,29=7,30=1,38=1,40=1/1,3;
 2/12=2,40=1/2;
 3/5=43,7=101,11=2,14=-4,25=1,30=1,70=2,71=2,74=-58,116=1,140=1/1,2,3;
 4/5=101/1;
 5/5=2,38=6,98=1/2;
 8/6=4,10=90,11=11/1;
 11/6=1,8=1,9=11,15=111,16=1/1,2,10;
 10/6=1/2;
 6/7=2,8=2,9=2,10=2,28=1/1;
 7/8=1,10=1,25=1/1,2,3,16;
 1/10=4,30=1/3;
 99//99;
 Leave Link    1 at Tue Oct 21 19:51:58 2025, MaxMem=  4294967296 cpu:               0.2 elap:               0.0
 (Enter /lrz/sys/applications/gaussian/g16.C.01/x86_64_legacy/exe/l101.exe)
 Structure from the checkpoint file:  "g16_C3-w_3.chk"
 ----------
 g16_C3-w_3
 ----------
 Charge =  0 Multiplicity = 1
 Redundant internal coordinates found in file.  (old form).
 O,0,-0.6476904912,-1.3459806416,-0.0002584927
 C,0,-0.5792951122,-0.0163933989,-0.4504813362
 O,0,-1.2205788935,0.857238627,0.4460179494
 C,0,0.883732188,0.3363473467,-0.6805419223
 C,0,1.754922264,0.2593437176,0.5679223456
 H,0,-1.5814053022,-1.5811648426,0.0711168722
 H,0,-1.1385424762,0.0951481319,-1.3954932088
 H,0,-0.7415398568,0.8294500252,1.2852676671
 H,0,1.2727697833,-0.3426814531,-1.4555079189
 H,0,0.9146754012,1.3523048016,-1.1035794931
 H,0,1.4224828307,0.970893339,1.3409235688
 H,0,2.7985351117,0.5078377057,0.3264654039
 H,0,1.7403259529,-0.7494503586,1.0059317651
 Recover connectivity data from disk.
 ITRead=  0  0  0  0  0  0  0  0  0  0  0  0  0
 MicOpt= -1 -1 -1 -1 -1 -1 -1 -1 -1 -1 -1 -1 -1
 NAtoms=     13 NQM=       13 NQMF=       0 NMMI=      0 NMMIF=      0
                NMic=       0 NMicF=      0.
                    Isotopes and Nuclear Properties:
 (Nuclear quadrupole moments (NQMom) in fm**2, nuclear magnetic moments (NMagM)
  in nuclear magnetons)

  Atom         1           2           3           4           5           6           7           8           9          10
 IAtWgt=          16          12          16          12          12           1           1           1           1           1
 AtmWgt=  15.9949146  12.0000000  15.9949146  12.0000000  12.0000000   1.0078250   1.0078250   1.0078250   1.0078250   1.0078250
 NucSpn=           0           0           0           0           0           1           1           1           1           1
 AtZEff=   5.6000000   3.6000000   5.6000000   3.6000000   3.6000000   1.0000000   1.0000000   1.0000000   1.0000000   1.0000000
 NQMom=    0.0000000   0.0000000   0.0000000   0.0000000   0.0000000   0.0000000   0.0000000   0.0000000   0.0000000   0.0000000
 NMagM=    0.0000000   0.0000000   0.0000000   0.0000000   0.0000000   2.7928460   2.7928460   2.7928460   2.7928460   2.7928460
 AtZNuc=   8.0000000   6.0000000   8.0000000   6.0000000   6.0000000   1.0000000   1.0000000   1.0000000   1.0000000   1.0000000

  Atom        11          12          13
 IAtWgt=           1           1           1
 AtmWgt=   1.0078250   1.0078250   1.0078250
 NucSpn=           1           1           1
 AtZEff=   1.0000000   1.0000000   1.0000000
 NQMom=    0.0000000   0.0000000   0.0000000
 NMagM=    2.7928460   2.7928460   2.7928460
 AtZNuc=   1.0000000   1.0000000   1.0000000
 Leave Link  101 at Tue Oct 21 19:51:59 2025, MaxMem=  4294967296 cpu:               3.0 elap:               0.4
 (Enter /lrz/sys/applications/gaussian/g16.C.01/x86_64_legacy/exe/l103.exe)

 GradGradGradGradGradGradGradGradGradGradGradGradGradGradGradGradGradGrad
 Berny optimization.
 Initialization pass.
                           ----------------------------
                           !    Initial Parameters    !
                           ! (Angstroms and Degrees)  !
 --------------------------                            --------------------------
 ! Name  Definition              Value          Derivative Info.                !
 --------------------------------------------------------------------------------
 ! R1    R(1,2)                  1.4054         calculate D2E/DX2 analytically  !
 ! R2    R(1,6)                  0.9655         calculate D2E/DX2 analytically  !
 ! R3    R(2,3)                  1.4065         calculate D2E/DX2 analytically  !
 ! R4    R(2,4)                  1.5224         calculate D2E/DX2 analytically  !
 ! R5    R(2,7)                  1.1037         calculate D2E/DX2 analytically  !
 ! R6    R(3,8)                  0.9667         calculate D2E/DX2 analytically  !
 ! R7    R(4,5)                  1.5243         calculate D2E/DX2 analytically  !
 ! R8    R(4,9)                  1.1014         calculate D2E/DX2 analytically  !
 ! R9    R(4,10)                 1.1009         calculate D2E/DX2 analytically  !
 ! R10   R(5,11)                 1.102          calculate D2E/DX2 analytically  !
 ! R11   R(5,12)                 1.0996         calculate D2E/DX2 analytically  !
 ! R12   R(5,13)                 1.0999         calculate D2E/DX2 analytically  !
 ! A1    A(2,1,6)              107.5288         calculate D2E/DX2 analytically  !
 ! A2    A(1,2,3)              111.1772         calculate D2E/DX2 analytically  !
 ! A3    A(1,2,4)              108.3229         calculate D2E/DX2 analytically  !
 ! A4    A(1,2,7)              110.1957         calculate D2E/DX2 analytically  !
 ! A5    A(3,2,4)              112.9895         calculate D2E/DX2 analytically  !
 ! A6    A(3,2,7)              104.5927         calculate D2E/DX2 analytically  !
 ! A7    A(4,2,7)              109.5188         calculate D2E/DX2 analytically  !
 ! A8    A(2,3,8)              108.0327         calculate D2E/DX2 analytically  !
 ! A9    A(2,4,5)              114.4408         calculate D2E/DX2 analytically  !
 ! A10   A(2,4,9)              107.6337         calculate D2E/DX2 analytically  !
 ! A11   A(2,4,10)             107.3905         calculate D2E/DX2 analytically  !
 ! A12   A(5,4,9)              110.0766         calculate D2E/DX2 analytically  !
 ! A13   A(5,4,10)             110.1979         calculate D2E/DX2 analytically  !
 ! A14   A(9,4,10)             106.7764         calculate D2E/DX2 analytically  !
 ! A15   A(4,5,11)             111.6841         calculate D2E/DX2 analytically  !
 ! A16   A(4,5,12)             110.5579         calculate D2E/DX2 analytically  !
 ! A17   A(4,5,13)             111.4023         calculate D2E/DX2 analytically  !
 ! A18   A(11,5,12)            107.1229         calculate D2E/DX2 analytically  !
 ! A19   A(11,5,13)            107.9917         calculate D2E/DX2 analytically  !
 ! A20   A(12,5,13)            107.8969         calculate D2E/DX2 analytically  !
 ! D1    D(6,1,2,3)             59.9279         calculate D2E/DX2 analytically  !
 ! D2    D(6,1,2,4)           -175.3557         calculate D2E/DX2 analytically  !
 ! D3    D(6,1,2,7)            -55.5651         calculate D2E/DX2 analytically  !
 ! D4    D(1,2,3,8)             63.6888         calculate D2E/DX2 analytically  !
 ! D5    D(4,2,3,8)            -58.3565         calculate D2E/DX2 analytically  !
 ! D6    D(7,2,3,8)           -177.4013         calculate D2E/DX2 analytically  !
 ! D7    D(1,2,4,5)            -61.4963         calculate D2E/DX2 analytically  !
 ! D8    D(1,2,4,9)             61.1955         calculate D2E/DX2 analytically  !
 ! D9    D(1,2,4,10)           175.8365         calculate D2E/DX2 analytically  !
 ! D10   D(3,2,4,5)             62.1371         calculate D2E/DX2 analytically  !
 ! D11   D(3,2,4,9)           -175.1711         calculate D2E/DX2 analytically  !
 ! D12   D(3,2,4,10)           -60.5301         calculate D2E/DX2 analytically  !
 ! D13   D(7,2,4,5)            178.2897         calculate D2E/DX2 analytically  !
 ! D14   D(7,2,4,9)            -59.0185         calculate D2E/DX2 analytically  !
 ! D15   D(7,2,4,10)            55.6226         calculate D2E/DX2 analytically  !
 ! D16   D(2,4,5,11)           -61.845          calculate D2E/DX2 analytically  !
 ! D17   D(2,4,5,12)           178.9775         calculate D2E/DX2 analytically  !
 ! D18   D(2,4,5,13)            59.01           calculate D2E/DX2 analytically  !
 ! D19   D(9,4,5,11)           176.7971         calculate D2E/DX2 analytically  !
 ! D20   D(9,4,5,12)            57.6196         calculate D2E/DX2 analytically  !
 ! D21   D(9,4,5,13)           -62.3479         calculate D2E/DX2 analytically  !
 ! D22   D(10,4,5,11)           59.287          calculate D2E/DX2 analytically  !
 ! D23   D(10,4,5,12)          -59.8905         calculate D2E/DX2 analytically  !
 ! D24   D(10,4,5,13)         -179.858          calculate D2E/DX2 analytically  !
 --------------------------------------------------------------------------------
 Trust Radius=3.00D-01 FncErr=1.00D-07 GrdErr=1.00D-07 EigMax=2.50D+02 EigMin=1.00D-04
 Number of steps in this run=      2 maximum allowed number of steps=      2.
 GradGradGradGradGradGradGradGradGradGradGradGradGradGradGradGradGradGrad

 Leave Link  103 at Tue Oct 21 19:51:59 2025, MaxMem=  4294967296 cpu:               0.1 elap:               0.0
 (Enter /lrz/sys/applications/gaussian/g16.C.01/x86_64_legacy/exe/l202.exe)
                          Input orientation:                          
 ---------------------------------------------------------------------
 Center     Atomic      Atomic             Coordinates (Angstroms)
 Number     Number       Type             X           Y           Z
 ---------------------------------------------------------------------
      1          8           0       -0.647690   -1.345981   -0.000258
      2          6           0       -0.579295   -0.016393   -0.450481
      3          8           0       -1.220579    0.857239    0.446018
      4          6           0        0.883732    0.336347   -0.680542
      5          6           0        1.754922    0.259344    0.567922
      6          1           0       -1.581405   -1.581165    0.071117
      7          1           0       -1.138542    0.095148   -1.395493
      8          1           0       -0.741540    0.829450    1.285268
      9          1           0        1.272770   -0.342681   -1.455508
     10          1           0        0.914675    1.352305   -1.103579
     11          1           0        1.422483    0.970893    1.340924
     12          1           0        2.798535    0.507838    0.326465
     13          1           0        1.740326   -0.749450    1.005932
 ---------------------------------------------------------------------
                    Distance matrix (angstroms):
                    1          2          3          4          5
     1  O    0.000000
     2  C    1.405411   0.000000
     3  O    2.319814   1.406481   0.000000
     4  C    2.374504   1.522433   2.443070   0.000000
     5  C    2.944901   2.561591   3.037424   1.524324   0.000000
     6  H    0.965520   1.929974   2.493303   3.212281   3.842573
     7  H    2.065059   1.103742   1.994662   2.158455   3.500586
     8  H    2.528613   1.937679   0.966742   2.597897   2.659310
     9  H    2.610082   2.132296   3.357439   1.101364   2.165450
    10  H    3.307423   2.128807   2.684335   1.100949   2.166679
    11  H    3.384124   2.861989   2.792767   2.186144   1.101975
    12  H    3.926813   3.505453   4.036044   2.170240   1.099627
    13  H    2.659114   2.835340   3.414954   2.181033   1.099878
                    6          7          8          9         10
     6  H    0.000000
     7  H    2.270924   0.000000
     8  H    2.826765   2.807720   0.000000
     9  H    3.465651   2.451474   3.597664   0.000000
    10  H    4.026857   2.425152   2.953475   1.767785   0.000000
    11  H    4.141105   3.848864   2.169354   3.093206   2.525656
    12  H    4.859322   4.316947   3.681694   2.495350   2.511390
    13  H    3.549581   3.842925   2.954761   2.538258   3.090164
                   11         12         13
    11  H    0.000000
    12  H    1.771176   0.000000
    13  H    1.781243   1.778273   0.000000
 Stoichiometry    C3H8O2
 Framework group  C1[X(C3H8O2)]
 Deg. of freedom    33
 Full point group                 C1      NOp   1
 RotChk:  IX=0 Diff= 9.13D-16
 Largest Abelian subgroup         C1      NOp   1
 Largest concise Abelian subgroup C1      NOp   1
                         Standard orientation:                         
 ---------------------------------------------------------------------
 Center     Atomic      Atomic             Coordinates (Angstroms)
 Number     Number       Type             X           Y           Z
 ---------------------------------------------------------------------
      1          8           0        0.974465   -1.127636   -0.345001
      2          6           0        0.645393   -0.005621    0.434726
      3          8           0        1.032576    1.187055   -0.202298
      4          6           0       -0.844372   -0.057992    0.744017
      5          6           0       -1.745667   -0.007849   -0.484282
      6          1           0        1.931566   -1.122828   -0.472140
      7          1           0        1.218446   -0.015777    1.377993
      8          1           0        0.525441    1.267084   -1.021444
      9          1           0       -1.034364   -0.980451    1.314959
     10          1           0       -1.070694    0.784059    1.416189
     11          1           0       -1.617765    0.932109   -1.045057
     12          1           0       -2.803425   -0.067772   -0.189771
     13          1           0       -1.537651   -0.843002   -1.169103
 ---------------------------------------------------------------------
 Rotational constants (GHZ):           6.9528140           3.9927468           3.3275470
 Leave Link  202 at Tue Oct 21 19:51:59 2025, MaxMem=  4294967296 cpu:               0.1 elap:               0.0
 (Enter /lrz/sys/applications/gaussian/g16.C.01/x86_64_legacy/exe/l301.exe)
 Standard basis: def2SVP (5D, 7F)
 Ernie: Thresh=  0.10000D-02 Tol=  0.10000D-05 Strict=F.
 There are   115 symmetry adapted cartesian basis functions of A   symmetry.
 There are   110 symmetry adapted basis functions of A   symmetry.
   110 basis functions,   181 primitive gaussians,   115 cartesian basis functions
    21 alpha electrons       21 beta electrons
       nuclear repulsion energy       197.0241469314 Hartrees.
 IExCor= 4639 DFT=T Ex+Corr=wB97XD ExCW=0 ScaHFX=  1.000000
 ScaDFX=  1.000000  1.000000  1.000000  1.000000 ScalE2=  1.000000  1.000000
 IRadAn=      5 IRanWt=     -1 IRanGd=            0 ICorTp=0 IEmpDi=121
 HFx  wShort=  0.000000 wLong=  0.200000 cFull=  0.222036 cShort=  0.000000 cLong=  0.777964
 DFx  wShort=  0.000000 wLong=  0.200000 cFull=  0.000000 cShort=  0.000000 cLong=  1.000000
 NAtoms=   13 NActive=   13 NUniq=   13 SFac= 1.00D+00 NAtFMM=   60 NAOKFM=F Big=F
 Integral buffers will be    131072 words long.
 Raffenetti 2 integral format.
 Two-electron integral symmetry is turned on.
 R6Disp:  Grimme-D2 Dispersion energy=       -0.0056878165 Hartrees.
 Nuclear repulsion after empirical dispersion term =      197.0184591149 Hartrees.
 Force inversion solution in PCM.
 ------------------------------------------------------------------------------
 Polarizable Continuum Model (PCM)
 =================================
 Model                : PCM.
 Atomic radii         : SMD-Coulomb.
 Polarization charges : Total charges.
 Charge compensation  : None.
 Solution method      : Matrix inversion.
 Cavity type          : VdW (van der Waals Surface) (Alpha=1.000).
 Cavity algorithm     : GePol (No added spheres)
                        Default sphere list used, NSphG=   13.
                        Lebedev-Laikov grids with approx.  5.0 points / Ang**2.
                        Smoothing algorithm: York/Karplus (Gamma=1.0000).
                        Polarization charges: spherical gaussians, with
                                              point-specific exponents (IZeta= 3).
                        Self-potential: point-specific (ISelfS= 7).
                        Self-field    : sphere-specific E.n sum rule (ISelfD= 2).
 1st derivatives      : Analytical E(r).r(x)/FMM algorithm (CHGder, D1EAlg=3).
                        Cavity 1st derivative terms included.
 2nd derivatives      : Analytical E(r).r(xy)/FMM algorithm (CHGder, D2EAlg=3).
                        Cavity 2nd derivative terms included.
 Solvent              : Water, Eps=  78.355300 Eps(inf)=   1.777849
 ------------------------------------------------------------------------------
 Spheres list:
 ISph  on   Nord     Re0    Alpha      Xe            Ye            Ze
    1   O      1    1.5200  1.000      0.974465     -1.127636     -0.345001
    2   C      2    1.8500  1.000      0.645393     -0.005621      0.434726
    3   O      3    1.5200  1.000      1.032576      1.187055     -0.202298
    4   C      4    1.8500  1.000     -0.844372     -0.057992      0.744017
    5   C      5    1.8500  1.000     -1.745667     -0.007849     -0.484282
    6   H      6    1.2000  1.000      1.931566     -1.122828     -0.472140
    7   H      7    1.2000  1.000      1.218446     -0.015777      1.377993
    8   H      8    1.2000  1.000      0.525441      1.267084     -1.021444
    9   H      9    1.2000  1.000     -1.034364     -0.980451      1.314959
   10   H     10    1.2000  1.000     -1.070694      0.784059      1.416189
   11   H     11    1.2000  1.000     -1.617765      0.932109     -1.045057
   12   H     12    1.2000  1.000     -2.803425     -0.067772     -0.189771
   13   H     13    1.2000  1.000     -1.537651     -0.843002     -1.169103
 ------------------------------------------------------------------------------
 GePol: Number of generator spheres                  =      13
 GePol: Total number of spheres                      =      13
 GePol: Number of exposed spheres                    =      13 (100.00%)
 GePol: Number of points                             =     903
 GePol: Average weight of points                     =       0.12
 GePol: Minimum weight of points                     =   0.12D-09
 GePol: Maximum weight of points                     =    0.21991
 GePol: Number of points with low weight             =      49
 GePol: Fraction of low-weight points (<1% of avg)   =       5.43%
 GePol: Cavity surface area                          =    109.401 Ang**2
 GePol: Cavity volume                                =     82.039 Ang**3
 ------------------------------------------------------------------------------
 Atomic radii for non-electrostatic terms: SMD-CDS.
 ------------------------------------------------------------------------------
 PCM non-electrostatic energy =         0.0045417934 Hartrees.
 Nuclear repulsion after PCM non-electrostatic terms =      197.0230009083 Hartrees.
 Leave Link  301 at Tue Oct 21 19:51:59 2025, MaxMem=  4294967296 cpu:               0.5 elap:               0.1
 (Enter /lrz/sys/applications/gaussian/g16.C.01/x86_64_legacy/exe/l302.exe)
 NPDir=0 NMtPBC=     1 NCelOv=     1 NCel=       1 NClECP=     1 NCelD=      1
         NCelK=      1 NCelE2=     1 NClLst=     1 CellRange=     0.0.
 One-electron integrals computed using PRISM.
 One-electron integral symmetry used in STVInt
   1 Symmetry operations used in ECPInt.
 ECPInt:  NShTT=    1485 NPrTT=    5139 LenC2=    1483 LenP2D=    4458.
 LDataN:  DoStor=T MaxTD1= 4 Len=   56
 NBasis=   110 RedAO= T EigKep=  2.41D-03  NBF=   110
 NBsUse=   110 1.00D-06 EigRej= -1.00D+00 NBFU=   110
 Precomputing XC quadrature grid using
 IXCGrd= 4 IRadAn=           5 IRanWt=          -1 IRanGd=           0 AccXCQ= 0.00D+00.
 Generated NRdTot=       0 NPtTot=           0 NUsed=           0 NTot=          32
 NSgBfM=   115   115   115   115   115 MxSgAt=    13 MxSgA2=    13.
 Leave Link  302 at Tue Oct 21 19:51:59 2025, MaxMem=  4294967296 cpu:               1.2 elap:               0.2
 (Enter /lrz/sys/applications/gaussian/g16.C.01/x86_64_legacy/exe/l303.exe)
 DipDrv:  MaxL=1.
 Leave Link  303 at Tue Oct 21 19:51:59 2025, MaxMem=  4294967296 cpu:               0.2 elap:               0.0
 (Enter /lrz/sys/applications/gaussian/g16.C.01/x86_64_legacy/exe/l401.exe)
 Initial guess from the checkpoint file:  "g16_C3-w_3.chk"
 B after Tr=    -0.000000   -0.000000   -0.000000
         Rot=    1.000000    0.000000    0.000000   -0.000000 Ang=   0.00 deg.
 Guess basis will be translated and rotated to current coordinates.
 JPrj=2 DoOrth=T DoCkMO=T.
 Leave Link  401 at Tue Oct 21 19:51:59 2025, MaxMem=  4294967296 cpu:               0.7 elap:               0.1
 (Enter /lrz/sys/applications/gaussian/g16.C.01/x86_64_legacy/exe/l502.exe)
 Integral symmetry usage will be decided dynamically.
 Closed shell SCF:
 Using DIIS extrapolation, IDIIS=  1040.
 NGot=  4294967296 LenX=  4294938204 LenY=  4294924538
 Requested convergence on RMS density matrix=1.00D-08 within 128 cycles.
 Requested convergence on MAX density matrix=1.00D-06.
 Requested convergence on             energy=1.00D-06.
 No special actions if energy rises.
 Fock matrices will be formed incrementally for  20 cycles.

 Cycle   1  Pass 1  IDiag  1:
 FoFJK:  IHMeth= 1 ICntrl=       0 DoSepK=T KAlg= 0 I1Cent=           0 FoldK=F
 IRaf=         1 NMat=       1 IRICut=       1 DoRegI=T DoRafI=F ISym2E= 0 IDoP0=0 IntGTp=1.
 FoFCou: FMM=F IPFlag=           0 FMFlag=      100000 FMFlg1=           0
         NFxFlg=           0 DoJE=T BraDBF=F KetDBF=F FulRan=T
         wScrn=  0.000000 ICntrl=       500 IOpCl=  0 I1Cent=           0 NGrid=           0
         NMat0=    1 NMatS0=      1 NMatT0=    0 NMatD0=    1 NMtDS0=    0 NMtDT0=    0
 Symmetry not used in FoFCou.
 Inv3:  Mode=1 IEnd=     2446227.
 Iteration    1 A*A^-1 deviation from unit magnitude is 4.00D-15 for    233.
 Iteration    1 A*A^-1 deviation from orthogonality  is 4.54D-15 for    857    550.
 Iteration    1 A^-1*A deviation from unit magnitude is 3.77D-15 for     28.
 Iteration    1 A^-1*A deviation from orthogonality  is 2.09D-15 for    754     76.
 E= -269.316920886914    
 DIIS: error= 8.74D-09 at cycle   1 NSaved=   1.
 NSaved= 1 IEnMin= 1 EnMin= -269.316920886914     IErMin= 1 ErrMin= 8.74D-09
 ErrMax= 8.74D-09  0.00D+00 EMaxC= 1.00D-01 BMatC= 6.04D-15 BMatP= 6.04D-15
 IDIUse=1 WtCom= 1.00D+00 WtEn= 0.00D+00
 Coeff-Com:  0.100D+01
 Coeff:      0.100D+01
 Gap=     0.505 Goal=   None    Shift=    0.000
 RMSDP=1.97D-09 MaxDP=3.67D-08              OVMax= 7.36D-08

 Error on total polarization charges =  0.03186
 SCF Done:  E(RwB97XD) =  -269.316920887     A.U. after    1 cycles
            NFock=  1  Conv=0.20D-08     -V/T= 2.0096
 KE= 2.667562432222D+02 PE=-1.024023156926D+03 EE= 2.909269919086D+02
 SMD-CDS (non-electrostatic) energy       (kcal/mol) =       2.85
 (included in total energy above)
 Leave Link  502 at Tue Oct 21 19:52:02 2025, MaxMem=  4294967296 cpu:              25.2 elap:               3.2
 (Enter /lrz/sys/applications/gaussian/g16.C.01/x86_64_legacy/exe/l801.exe)
 DoSCS=F DFT=T ScalE2(SS,OS)=  1.000000  1.000000
 Range of M.O.s used for correlation:     1   110
 NBasis=   110 NAE=    21 NBE=    21 NFC=     0 NFV=     0
 NROrb=    110 NOA=    21 NOB=    21 NVA=    89 NVB=    89
 Leave Link  801 at Tue Oct 21 19:52:02 2025, MaxMem=  4294967296 cpu:               0.2 elap:               0.0
 (Enter /lrz/sys/applications/gaussian/g16.C.01/x86_64_legacy/exe/l1101.exe)
 Using compressed storage, NAtomX=    13.
 Will process     14 centers per pass.
   1 Symmetry operations used in ECPInt.
 ECPInt:  NShTT=    1485 NPrTT=    5139 LenC2=    1483 LenP2D=    4458.
 LDataN:  DoStor=T MaxTD1= 5 Len=  102
 R6Disp: Adding Grimme-D2 dispersion energy 1st derivatives to the gradient.
 Leave Link 1101 at Tue Oct 21 19:52:03 2025, MaxMem=  4294967296 cpu:               0.9 elap:               0.1
 (Enter /lrz/sys/applications/gaussian/g16.C.01/x86_64_legacy/exe/l1102.exe)
 Symmetrizing basis deriv contribution to polar:
 IMax=3 JMax=2 DiffMx= 0.00D+00
 Leave Link 1102 at Tue Oct 21 19:52:03 2025, MaxMem=  4294967296 cpu:               0.2 elap:               0.0
 (Enter /lrz/sys/applications/gaussian/g16.C.01/x86_64_legacy/exe/l1110.exe)
 Forming Gx(P) for the SCF density, NAtomX=    13.
 Integral derivatives from FoFJK, PRISM(SPDF).
 Do as many integral derivatives as possible in FoFJK.
 G2DrvN: MDV=    4294965821.
 G2DrvN: will do    14 centers at a time, making    1 passes.
 Calling FoFCou, ICntrl=  3107 FMM=F I1Cent=   0 AccDes= 0.00D+00.
 FoFJK:  IHMeth= 1 ICntrl=    3107 DoSepK=T KAlg= 0 I1Cent=           0 FoldK=F
 IRaf=         1 NMat=       1 IRICut=       1 DoRegI=T DoRafI=F ISym2E= 0 IDoP0=0 IntGTp=1.
 FoFCou: FMM=F IPFlag=           0 FMFlag=      100000 FMFlg1=           0
         NFxFlg=           0 DoJE=F BraDBF=F KetDBF=F FulRan=T
         wScrn=  0.000000 ICntrl=      3507 IOpCl=  0 I1Cent=           0 NGrid=           0
         NMat0=    1 NMatS0=      1 NMatT0=    0 NMatD0=    1 NMtDS0=    0 NMtDT0=    0
 Symmetry not used in FoFCou.
 NEqPCM:  Using equilibrium solvation (IEInf=0, Eps=  78.3553, EpsInf=   1.7778)
 G2PCM: DoFxE=T DoFxN=T DoGrad=T DoDP/DQ/DG/TGxP=FFFF NFrqRd=   0 IEInf=0 SqF1=F DoCFld=F IF1Alg=4.
 GePol: Maximum number of non-zero 1st derivatives   =     241
 End of G2Drv F.D. properties file   721 does not exist.
 End of G2Drv F.D. properties file   722 does not exist.
 End of G2Drv F.D. properties file   788 does not exist.
 Leave Link 1110 at Tue Oct 21 19:52:22 2025, MaxMem=  4294967296 cpu:             155.8 elap:              19.5
 (Enter /lrz/sys/applications/gaussian/g16.C.01/x86_64_legacy/exe/l1002.exe)
 Minotr:  Closed shell wavefunction.
          IDoAtm=1111111111111
 NEqPCM:  Using equilibrium solvation (IEInf=0, Eps=  78.3553, EpsInf=   1.7778)
          Direct CPHF calculation.
          Differentiating once with respect to electric field.
                with respect to dipole field.
          Differentiating once with respect to nuclear coordinates.
          Requested convergence is 1.0D-08 RMS, and 1.0D-07 maximum.
          Secondary convergence is 1.0D-12 RMS, and 1.0D-12 maximum.
          NewPWx=T KeepS1=F KeepF1=F KeepIn=T MapXYZ=F SortEE=F KeepMc=T.
         3854 words used for storage of precomputed grid.
 Keep R1 ints in memory in canonical form, NReq=45462276.
 FoFCou: FMM=F IPFlag=           0 FMFlag=           0 FMFlg1=           0
         NFxFlg=           0 DoJE=F BraDBF=F KetDBF=F FulRan=T
         wScrn=  0.000000 ICntrl=       600 IOpCl=  0 I1Cent=           0 NGrid=           0
         NMat0=    1 NMatS0=   6105 NMatT0=    0 NMatD0=    1 NMtDS0=    0 NMtDT0=    0
 Symmetry not used in FoFCou.
 Two-electron integral symmetry not used.
          MDV=    4294967296 using IRadAn=       1.
          Solving linear equations simultaneously, MaxMat=       0.
          There are    42 degrees of freedom in the 1st order CPHF.  IDoFFX=6 NUNeed=     3.
     39 vectors produced by pass  0 Test12= 4.45D-15 2.38D-09 XBig12= 1.28D+01 1.10D+00.
 AX will form    39 AO Fock derivatives at one time.
     39 vectors produced by pass  1 Test12= 4.45D-15 2.38D-09 XBig12= 6.46D-01 1.26D-01.
     39 vectors produced by pass  2 Test12= 4.45D-15 2.38D-09 XBig12= 1.36D-02 1.71D-02.
     39 vectors produced by pass  3 Test12= 4.45D-15 2.38D-09 XBig12= 7.56D-05 1.38D-03.
     39 vectors produced by pass  4 Test12= 4.45D-15 2.38D-09 XBig12= 3.66D-07 8.98D-05.
     39 vectors produced by pass  5 Test12= 4.45D-15 2.38D-09 XBig12= 1.58D-09 5.58D-06.
     18 vectors produced by pass  6 Test12= 4.45D-15 2.38D-09 XBig12= 6.34D-12 2.96D-07.
      3 vectors produced by pass  7 Test12= 4.45D-15 2.38D-09 XBig12= 2.46D-14 1.82D-08.
 InvSVY:  IOpt=1 It=  1 EMax= 2.66D-15
 Solved reduced A of dimension   255 with    42 vectors.
 FullF1:  Do perturbations      1 to       3.
 Isotropic polarizability for W=    0.000000       52.09 Bohr**3.
 End of Minotr F.D. properties file   721 does not exist.
 End of Minotr F.D. properties file   722 does not exist.
 End of Minotr F.D. properties file   788 does not exist.
 Leave Link 1002 at Tue Oct 21 19:52:42 2025, MaxMem=  4294967296 cpu:             154.6 elap:              19.4
 (Enter /lrz/sys/applications/gaussian/g16.C.01/x86_64_legacy/exe/l601.exe)
 Copying SCF densities to generalized density rwf, IOpCl= 0 IROHF=0.

 **********************************************************************

            Population analysis using the SCF Density.

 **********************************************************************

 Orbital symmetries:
       Occupied  (A) (A) (A) (A) (A) (A) (A) (A) (A) (A) (A) (A)
                 (A) (A) (A) (A) (A) (A) (A) (A) (A)
       Virtual   (A) (A) (A) (A) (A) (A) (A) (A) (A) (A) (A) (A)
                 (A) (A) (A) (A) (A) (A) (A) (A) (A) (A) (A) (A)
                 (A) (A) (A) (A) (A) (A) (A) (A) (A) (A) (A) (A)
                 (A) (A) (A) (A) (A) (A) (A) (A) (A) (A) (A) (A)
                 (A) (A) (A) (A) (A) (A) (A) (A) (A) (A) (A) (A)
                 (A) (A) (A) (A) (A) (A) (A) (A) (A) (A) (A) (A)
                 (A) (A) (A) (A) (A) (A) (A) (A) (A) (A) (A) (A)
                 (A) (A) (A) (A) (A)
 The electronic state is 1-A.
 Alpha  occ. eigenvalues --  -19.25687 -19.25683 -10.38398 -10.28660 -10.28337
 Alpha  occ. eigenvalues --   -1.15010  -1.07755  -0.86115  -0.76148  -0.67329
 Alpha  occ. eigenvalues --   -0.63994  -0.56197  -0.54050  -0.51780  -0.49300
 Alpha  occ. eigenvalues --   -0.46239  -0.43913  -0.41934  -0.40109  -0.39062
 Alpha  occ. eigenvalues --   -0.36266
 Alpha virt. eigenvalues --    0.14224   0.17065   0.19185   0.20207   0.21661
 Alpha virt. eigenvalues --    0.23116   0.23850   0.26903   0.29312   0.31455
 Alpha virt. eigenvalues --    0.33275   0.38077   0.51293   0.52677   0.53182
 Alpha virt. eigenvalues --    0.58234   0.60940   0.65193   0.67221   0.71818
 Alpha virt. eigenvalues --    0.72188   0.73287   0.74402   0.75470   0.77727
 Alpha virt. eigenvalues --    0.78562   0.80125   0.80568   0.81092   0.82756
 Alpha virt. eigenvalues --    0.92984   1.03800   1.08485   1.09668   1.13335
 Alpha virt. eigenvalues --    1.13998   1.18294   1.30589   1.32063   1.37410
 Alpha virt. eigenvalues --    1.43781   1.45923   1.53675   1.56058   1.60533
 Alpha virt. eigenvalues --    1.63794   1.63937   1.69436   1.74617   1.82083
 Alpha virt. eigenvalues --    1.83486   1.85652   1.88598   1.89062   1.90742
 Alpha virt. eigenvalues --    1.94422   1.96679   1.97345   1.99914   2.02933
 Alpha virt. eigenvalues --    2.07372   2.13128   2.21399   2.22712   2.28931
 Alpha virt. eigenvalues --    2.32293   2.34546   2.42090   2.45266   2.50127
 Alpha virt. eigenvalues --    2.63116   2.64514   2.67548   2.83667   2.85918
 Alpha virt. eigenvalues --    2.91954   2.96580   3.03468   3.05987   3.06196
 Alpha virt. eigenvalues --    3.08446   3.11136   3.16592   3.23981   3.25181
 Alpha virt. eigenvalues --    3.45163   3.50784   3.86187   3.86864
          Condensed to atoms (all electrons):
               1          2          3          4          5          6
     1  O    7.859325   0.332914  -0.066255  -0.077914  -0.004843   0.324408
     2  C    0.332914   4.436129   0.315700   0.351956  -0.029832  -0.014441
     3  O   -0.066255   0.315700   7.867932  -0.036388  -0.009975   0.006146
     4  C   -0.077914   0.351956  -0.036388   4.879797   0.362156   0.010060
     5  C   -0.004843  -0.029832  -0.009975   0.362156   4.640474  -0.000211
     6  H    0.324408  -0.014441   0.006146   0.010060  -0.000211   0.468939
     7  H   -0.029111   0.411928  -0.040061  -0.050710   0.009513  -0.007227
     8  H    0.005426  -0.019762   0.333121  -0.017886   0.009822  -0.000620
     9  H    0.003950  -0.011792   0.004981   0.360132  -0.024187  -0.000469
    10  H    0.004450  -0.012705   0.001674   0.369997  -0.024645  -0.000474
    11  H   -0.000579  -0.006990   0.006421  -0.023472   0.390098  -0.000159
    12  H   -0.000008   0.006285   0.000087  -0.014546   0.393725   0.000023
    13  H    0.014314  -0.004613  -0.000565  -0.035009   0.398491  -0.000668
               7          8          9         10         11         12
     1  O   -0.029111   0.005426   0.003950   0.004450  -0.000579  -0.000008
     2  C    0.411928  -0.019762  -0.011792  -0.012705  -0.006990   0.006285
     3  O   -0.040061   0.333121   0.004981   0.001674   0.006421   0.000087
     4  C   -0.050710  -0.017886   0.360132   0.369997  -0.023472  -0.014546
     5  C    0.009513   0.009822  -0.024187  -0.024645   0.390098   0.393725
     6  H   -0.007227  -0.000620  -0.000469  -0.000474  -0.000159   0.000023
     7  H    0.670706   0.008790  -0.004808  -0.005030  -0.000032  -0.000209
     8  H    0.008790   0.468518  -0.000114  -0.000555   0.004136  -0.000292
     9  H   -0.004808  -0.000114   0.650259  -0.018445   0.008077  -0.006377
    10  H   -0.005030  -0.000555  -0.018445   0.644184  -0.007310  -0.005845
    11  H   -0.000032   0.004136   0.008077  -0.007310   0.631577  -0.020436
    12  H   -0.000209  -0.000292  -0.006377  -0.005845  -0.020436   0.615300
    13  H    0.000446   0.000339  -0.006984   0.007570  -0.025243  -0.021346
              13
     1  O    0.014314
     2  C   -0.004613
     3  O   -0.000565
     4  C   -0.035009
     5  C    0.398491
     6  H   -0.000668
     7  H    0.000446
     8  H    0.000339
     9  H   -0.006984
    10  H    0.007570
    11  H   -0.025243
    12  H   -0.021346
    13  H    0.630874
 Mulliken charges:
               1
     1  O   -0.366076
     2  C    0.245222
     3  O   -0.382818
     4  C   -0.078174
     5  C   -0.110586
     6  H    0.214693
     7  H    0.035806
     8  H    0.209077
     9  H    0.045776
    10  H    0.047135
    11  H    0.043912
    12  H    0.053639
    13  H    0.042394
 Sum of Mulliken charges =  -0.00000
 Mulliken charges with hydrogens summed into heavy atoms:
               1
     1  O   -0.151382
     2  C    0.281028
     3  O   -0.173741
     4  C    0.014737
     5  C    0.029358
 APT charges:
               1
     1  O   -0.943522
     2  C    1.263991
     3  O   -0.939751
     4  C    0.026692
     5  C    0.019230
     6  H    0.368558
     7  H   -0.100165
     8  H    0.381828
     9  H   -0.026770
    10  H   -0.024849
    11  H   -0.015261
    12  H   -0.006803
    13  H   -0.003179
 Sum of APT charges =   0.00000
 APT charges with hydrogens summed into heavy atoms:
               1
     1  O   -0.574964
     2  C    1.163826
     3  O   -0.557923
     4  C   -0.024927
     5  C   -0.006012
 Electronic spatial extent (au):  <R**2>=            445.9711
 Charge=             -0.0000 electrons
 Dipole moment (field-independent basis, Debye):
    X=             -0.1158    Y=              0.0076    Z=             -0.1371  Tot=              0.1797
 Quadrupole moment (field-independent basis, Debye-Ang):
   XX=            -28.1193   YY=            -34.7310   ZZ=            -28.9820
   XY=             -3.6523   XZ=             -0.5545   YZ=             -2.1009
 Traceless Quadrupole moment (field-independent basis, Debye-Ang):
   XX=              2.4914   YY=             -4.1202   ZZ=              1.6288
   XY=             -3.6523   XZ=             -0.5545   YZ=             -2.1009
 Octapole moment (field-independent basis, Debye-Ang**2):
  XXX=             17.4017  YYY=              0.6511  ZZZ=             -3.4211  XYY=             -0.0167
  XXY=             -9.2258  XXZ=             -1.3597  XZZ=              5.2537  YZZ=              2.9175
  YYZ=             -3.0728  XYZ=              0.5709
 Hexadecapole moment (field-independent basis, Debye-Ang**3):
 XXXX=           -279.1669 YYYY=           -146.8001 ZZZZ=           -100.6857 XXXY=            -20.4740
 XXXZ=             -9.7009 YYYX=             -6.7621 YYYZ=             -4.7673 ZZZX=             -3.7668
 ZZZY=             -3.2540 XXYY=            -74.0812 XXZZ=            -67.0015 YYZZ=            -35.3258
 XXYZ=              3.3939 YYXZ=             -3.4542 ZZXY=              0.1300
 N-N= 1.970230009083D+02 E-N=-1.024023156479D+03  KE= 2.667562432222D+02
  Exact polarizability:      53.302      -0.924      50.732       1.337      -0.712      52.237
 Approx polarizability:      40.965      -0.121      41.075       0.702      -0.236      40.379
 No NMR shielding tensors so no spin-rotation constants.
 Leave Link  601 at Tue Oct 21 19:52:42 2025, MaxMem=  4294967296 cpu:               0.7 elap:               0.1
 (Enter /lrz/sys/applications/gaussian/g16.C.01/x86_64_legacy/exe/l701.exe)
 ... and contract with generalized density number  0.
 Compute integral second derivatives.
 R6Disp: Adding Grimme-D2 dispersion energy 2nd derivatives to the Hessian.
   1 Symmetry operations used in ECPInt.
 ECPInt:  NShTT=    1485 NPrTT=    5139 LenC2=    1483 LenP2D=    4458.
 LDataN:  DoStor=T MaxTD1= 6 Len=  172
 D2PCM: PCM CHGder 2nd derivatives, FixD1E=F FixD2E=F DoIter=F DoCFld=F I1PDM=0
 GePol: Maximum number of non-zero 2nd derivatives   =     241
 Leave Link  701 at Tue Oct 21 19:52:45 2025, MaxMem=  4294967296 cpu:              26.4 elap:               3.3
 (Enter /lrz/sys/applications/gaussian/g16.C.01/x86_64_legacy/exe/l702.exe)
 L702 exits ... SP integral derivatives will be done elsewhere.
 Leave Link  702 at Tue Oct 21 19:52:45 2025, MaxMem=  4294967296 cpu:               0.2 elap:               0.0
 (Enter /lrz/sys/applications/gaussian/g16.C.01/x86_64_legacy/exe/l703.exe)
 Integral derivatives from FoFJK, PRISM(SPDF).
 Compute integral second derivatives, UseDBF=F ICtDFT=           0.
 Calling FoFJK, ICntrl=    100127 FMM=F ISym2X=0 I1Cent= 0 IOpClX= 0 NMat=1 NMatS=1 NMatT=0.
 FoFJK:  IHMeth= 1 ICntrl=  100127 DoSepK=T KAlg= 0 I1Cent=           0 FoldK=F
 IRaf=         1 NMat=       1 IRICut=       1 DoRegI=T DoRafI=F ISym2E= 0 IDoP0=0 IntGTp=1.
 FoFCou: FMM=F IPFlag=           0 FMFlag=      100000 FMFlg1=         800
         NFxFlg=           0 DoJE=F BraDBF=F KetDBF=F FulRan=T
         wScrn=  0.000000 ICntrl=    100527 IOpCl=  0 I1Cent=           0 NGrid=           0
         NMat0=    1 NMatS0=      1 NMatT0=    0 NMatD0=    1 NMtDS0=    0 NMtDT0=    0
 Symmetry not used in FoFCou.
 Leave Link  703 at Tue Oct 21 19:53:11 2025, MaxMem=  4294967296 cpu:             208.0 elap:              26.0
 (Enter /lrz/sys/applications/gaussian/g16.C.01/x86_64_legacy/exe/l716.exe)
 Dipole        =-4.55640026D-02 2.98797473D-03-5.39554956D-02
 Polarizability= 5.33017201D+01-9.24176613D-01 5.07315439D+01
                 1.33673390D+00-7.11704143D-01 5.22369128D+01
 Full mass-weighted force constant matrix:
 Low frequencies ---  -23.7173   -0.0007   -0.0006    0.0012   19.0294   30.3868
 Low frequencies ---  115.0485  231.2312  253.9613
 Diagonal vibrational polarizability:
       33.2903852      39.4835748      41.6060263
 Harmonic frequencies (cm**-1), IR intensities (KM/Mole), Raman scattering
 activities (A**4/AMU), depolarization ratios for plane and unpolarized
 incident light, reduced masses (AMU), force constants (mDyne/A),
 and normal coordinates:
                      1                      2                      3
                      A                      A                      A
 Frequencies --    114.8045               231.2257               253.9207
 Red. masses --      2.3073                 1.1815                 2.5205
 Frc consts  --      0.0179                 0.0372                 0.0957
 IR Inten    --      0.5344                 0.0671                 3.4540
  Atom  AN      X      Y      Z        X      Y      Z        X      Y      Z
     1   8     0.10  -0.05   0.10     0.04  -0.00  -0.00    -0.16  -0.01  -0.02
     2   6     0.00  -0.01   0.00     0.00  -0.02   0.00     0.01  -0.00   0.04
     3   8    -0.12  -0.03  -0.11    -0.08   0.00  -0.00    -0.11   0.00  -0.02
     4   6     0.00  -0.11   0.00     0.01  -0.04   0.01     0.04   0.03   0.10
     5   6     0.02   0.19   0.00     0.03   0.04  -0.00     0.26  -0.02  -0.05
     6   1     0.10   0.05   0.07     0.04   0.05  -0.02    -0.18  -0.04  -0.21
     7   1     0.01   0.13   0.00     0.02   0.01  -0.00     0.15  -0.02  -0.05
     8   1    -0.17  -0.13  -0.09    -0.10  -0.04   0.00    -0.46   0.14   0.20
     9   1     0.03  -0.26  -0.23    -0.04  -0.04  -0.01    -0.01   0.04   0.11
    10   1    -0.02  -0.28   0.20     0.03  -0.04   0.02     0.00   0.07   0.04
    11   1    -0.09   0.40   0.33     0.48  -0.17  -0.25     0.28   0.02   0.01
    12   1     0.02  -0.04  -0.04     0.00   0.64   0.01     0.20  -0.13  -0.30
    13   1     0.13   0.45  -0.28    -0.36  -0.24   0.22     0.50   0.03  -0.04
                      4                      5                      6
                      A                      A                      A
 Frequencies --    339.1586               363.9429               420.4062
 Red. masses --      1.1414                 1.1650                 2.1980
 Frc consts  --      0.0774                 0.0909                 0.2289
 IR Inten    --    138.1280               237.6383                 5.9422
  Atom  AN      X      Y      Z        X      Y      Z        X      Y      Z
     1   8    -0.04   0.04   0.01    -0.04   0.03  -0.05     0.14  -0.01  -0.08
     2   6    -0.02   0.02   0.03    -0.00   0.00  -0.01    -0.01  -0.12   0.01
     3   8     0.02  -0.02  -0.01    -0.04   0.03   0.00    -0.14  -0.07   0.05
     4   6    -0.02  -0.04   0.03     0.01  -0.02   0.03    -0.02   0.14   0.03
     5   6     0.03  -0.01  -0.00     0.04  -0.00   0.01     0.00   0.04   0.01
     6   1    -0.11   0.38  -0.49     0.06  -0.48   0.63     0.14   0.20  -0.09
     7   1    -0.02   0.05   0.04     0.02  -0.01  -0.03    -0.02  -0.13   0.02
     8   1     0.51  -0.39  -0.36     0.40  -0.30  -0.30     0.11  -0.32  -0.12
     9   1     0.01  -0.08  -0.02     0.03  -0.04   0.01    -0.27   0.38   0.33
    10   1    -0.07  -0.08   0.08    -0.00  -0.03   0.04     0.22   0.42  -0.24
    11   1     0.11  -0.00   0.03     0.09   0.01   0.04    -0.13   0.06   0.02
    12   1     0.01   0.01  -0.07     0.03  -0.00  -0.04     0.00  -0.15  -0.03
    13   1     0.06  -0.00  -0.00     0.07   0.01   0.01     0.17   0.07   0.01
                      7                      8                      9
                      A                      A                      A
 Frequencies --    540.3370               674.9290               794.5465
 Red. masses --      4.0011                 2.7305                 1.1814
 Frc consts  --      0.6883                 0.7328                 0.4394
 IR Inten    --    122.9651                45.2327                 3.9137
  Atom  AN      X      Y      Z        X      Y      Z        X      Y      Z
     1   8     0.08   0.22  -0.11    -0.08   0.15  -0.00    -0.02   0.02   0.01
     2   6    -0.11   0.01   0.09     0.14  -0.01   0.20     0.01   0.01   0.00
     3   8     0.14  -0.22  -0.14    -0.06  -0.11  -0.01     0.02   0.01  -0.01
     4   6    -0.16  -0.02   0.14     0.14   0.01  -0.12    -0.00  -0.10  -0.00
     5   6     0.02  -0.01   0.02    -0.03   0.00  -0.07    -0.00  -0.04  -0.01
     6   1     0.15   0.18   0.48    -0.08  -0.11   0.00    -0.02  -0.02  -0.01
     7   1    -0.14  -0.02   0.10     0.17  -0.03   0.19     0.01   0.05   0.01
     8   1    -0.40   0.06   0.22    -0.27  -0.48   0.09    -0.01   0.06   0.01
     9   1    -0.12  -0.06   0.08     0.02   0.00  -0.17    -0.03   0.19   0.46
    10   1    -0.21  -0.06   0.18    -0.00  -0.02  -0.13     0.01   0.24  -0.44
    11   1     0.19  -0.01   0.05    -0.34   0.01  -0.13     0.21   0.16   0.39
    12   1    -0.06   0.04  -0.25     0.10  -0.02   0.38    -0.01   0.19  -0.00
    13   1     0.18  -0.01   0.08    -0.33  -0.02  -0.13    -0.22   0.20  -0.36
                     10                     11                     12
                      A                      A                      A
 Frequencies --    858.0998              1015.4311              1069.1427
 Red. masses --      2.6548                 1.4677                 1.5080
 Frc consts  --      1.1518                 0.8916                 1.0156
 IR Inten    --     26.6117                18.3997                33.0302
  Atom  AN      X      Y      Z        X      Y      Z        X      Y      Z
     1   8     0.03  -0.04  -0.03     0.02  -0.04  -0.03     0.03  -0.07  -0.04
     2   6     0.23   0.00   0.08     0.02   0.00   0.03    -0.00   0.04   0.01
     3   8     0.02   0.08  -0.03     0.02   0.05  -0.03    -0.02  -0.02   0.03
     4   6    -0.11  -0.01   0.16    -0.12  -0.01   0.01    -0.00   0.15   0.01
     5   6    -0.16   0.01  -0.11     0.12   0.00   0.02     0.00  -0.09  -0.01
     6   1     0.00  -0.32  -0.23     0.02  -0.03  -0.03     0.04   0.07   0.03
     7   1     0.46  -0.00  -0.06     0.12   0.01  -0.04    -0.00  -0.08   0.01
     8   1    -0.09  -0.18   0.01     0.02   0.02  -0.03    -0.06  -0.16   0.04
     9   1    -0.22  -0.01   0.13    -0.48  -0.01  -0.11     0.53  -0.05  -0.14
    10   1    -0.18  -0.02   0.16    -0.46   0.00  -0.12    -0.51  -0.08   0.14
    11   1     0.01  -0.03  -0.13    -0.22   0.05   0.02     0.16   0.09   0.32
    12   1    -0.27   0.01  -0.48     0.27  -0.03   0.54    -0.01   0.22   0.01
    13   1     0.05   0.02  -0.06    -0.22  -0.07   0.00    -0.17   0.12  -0.31
                     13                     14                     15
                      A                      A                      A
 Frequencies --   1080.0238              1204.6939              1229.7556
 Red. masses --      1.9516                 1.7623                 1.2288
 Frc consts  --      1.3412                 1.5069                 1.0949
 IR Inten    --     29.6624               180.7317                 7.4979
  Atom  AN      X      Y      Z        X      Y      Z        X      Y      Z
     1   8    -0.01  -0.00   0.01     0.01   0.09   0.06    -0.05   0.01   0.03
     2   6    -0.07  -0.01  -0.04     0.07   0.00  -0.09     0.03  -0.08  -0.00
     3   8    -0.00  -0.02   0.01    -0.07  -0.14   0.05     0.01   0.04  -0.02
     4   6     0.09  -0.01   0.19    -0.02   0.04  -0.01     0.02   0.02  -0.04
     5   6     0.00   0.01  -0.18    -0.01  -0.02   0.02    -0.03  -0.03   0.04
     6   1     0.02   0.32   0.23    -0.03  -0.26  -0.17     0.01   0.59   0.40
     7   1     0.19   0.00  -0.19     0.39   0.23  -0.27     0.40  -0.30  -0.23
     8   1     0.18   0.26  -0.08     0.34   0.56  -0.12    -0.01  -0.02  -0.02
     9   1     0.12  -0.02   0.20    -0.14  -0.02  -0.16    -0.25  -0.01  -0.19
    10   1     0.12  -0.00   0.20    -0.23  -0.01  -0.03    -0.02  -0.01  -0.02
    11   1    -0.37   0.03  -0.24     0.09   0.00   0.09     0.15  -0.01   0.11
    12   1     0.11  -0.01   0.22    -0.02   0.03  -0.02    -0.06   0.04  -0.09
    13   1    -0.39  -0.03  -0.26     0.02   0.03  -0.03     0.07   0.05  -0.03
                     16                     17                     18
                      A                      A                      A
 Frequencies --   1260.6712              1309.5139              1357.6204
 Red. masses --      1.3948                 1.8597                 1.7562
 Frc consts  --      1.3060                 1.8789                 1.9072
 IR Inten    --     95.2363               137.7023                72.9860
  Atom  AN      X      Y      Z        X      Y      Z        X      Y      Z
     1   8     0.01   0.05   0.04    -0.00  -0.09  -0.10    -0.01  -0.05  -0.03
     2   6    -0.01  -0.08  -0.02    -0.02   0.04   0.19    -0.00   0.19  -0.10
     3   8     0.01   0.04  -0.02    -0.02  -0.00  -0.04     0.02  -0.06   0.09
     4   6    -0.02   0.08   0.03     0.07   0.02  -0.03     0.01  -0.02   0.02
     5   6     0.02  -0.10  -0.03    -0.04  -0.03   0.01     0.02  -0.03   0.02
     6   1    -0.02  -0.25  -0.18     0.03   0.14   0.12     0.02   0.14   0.12
     7   1    -0.21  -0.08   0.10    -0.06   0.52   0.23     0.13   0.42  -0.18
     8   1    -0.04  -0.03  -0.00     0.26   0.53  -0.15    -0.22  -0.50   0.18
     9   1    -0.34  -0.04  -0.26    -0.31   0.04  -0.12    -0.43  -0.03  -0.17
    10   1     0.50  -0.06   0.38     0.17  -0.06   0.10     0.27   0.05   0.02
    11   1     0.04   0.07   0.26     0.15  -0.03   0.07    -0.09  -0.02   0.01
    12   1     0.03   0.17   0.06    -0.06   0.03  -0.05    -0.03   0.09  -0.13
    13   1    -0.17   0.06  -0.28     0.06   0.07  -0.09    -0.08   0.06  -0.12
                     19                     20                     21
                      A                      A                      A
 Frequencies --   1371.0641              1409.7855              1445.3628
 Red. masses --      1.2831                 1.5121                 1.1150
 Frc consts  --      1.4211                 1.7707                 1.3724
 IR Inten    --      9.7809                 2.9011                 6.6878
  Atom  AN      X      Y      Z        X      Y      Z        X      Y      Z
     1   8     0.00  -0.01  -0.01     0.01   0.01   0.01    -0.00  -0.00   0.00
     2   6    -0.00   0.03   0.03    -0.03   0.01  -0.05     0.02   0.02  -0.02
     3   8     0.00  -0.01   0.01     0.01  -0.00   0.01    -0.01  -0.01   0.01
     4   6    -0.11  -0.00  -0.04     0.14  -0.00   0.06    -0.01   0.00  -0.08
     5   6    -0.03  -0.00  -0.09    -0.11  -0.00  -0.08     0.02  -0.00   0.02
     6   1     0.01   0.03   0.03    -0.00  -0.07  -0.05    -0.00   0.04   0.03
     7   1     0.32   0.08  -0.16    -0.23  -0.07   0.06     0.01  -0.08  -0.01
     8   1    -0.01  -0.03   0.02    -0.07  -0.12   0.04     0.00  -0.00   0.00
     9   1     0.27   0.00   0.10    -0.40   0.06  -0.02    -0.13   0.40   0.54
    10   1     0.41   0.00   0.13    -0.39  -0.07  -0.03    -0.08  -0.46   0.49
    11   1     0.21   0.19   0.31     0.36   0.04   0.10    -0.01  -0.09  -0.13
    12   1     0.13   0.01   0.45     0.04   0.04   0.43     0.03   0.02   0.04
    13   1     0.25  -0.20   0.26     0.46  -0.01   0.10     0.02   0.11  -0.12
                     22                     23                     24
                      A                      A                      A
 Frequencies --   1451.0853              1463.6756              1467.9093
 Red. masses --      1.4619                 1.0691                 1.1798
 Frc consts  --      1.8136                 1.3495                 1.4978
 IR Inten    --     59.1052                 0.4756                82.9001
  Atom  AN      X      Y      Z        X      Y      Z        X      Y      Z
     1   8    -0.04   0.02  -0.00    -0.00   0.01   0.00     0.01   0.01   0.00
     2   6     0.10  -0.14  -0.08    -0.01  -0.05   0.00    -0.07  -0.08   0.01
     3   8     0.01   0.02   0.02     0.01   0.01  -0.00     0.03   0.03   0.01
     4   6    -0.02   0.02   0.01    -0.01  -0.01  -0.00    -0.02   0.02  -0.00
     5   6     0.01   0.02  -0.03     0.00  -0.04   0.01    -0.02   0.02   0.04
     6   1    -0.01   0.26   0.18    -0.00   0.00   0.00    -0.00  -0.10  -0.07
     7   1    -0.28   0.74   0.18     0.05   0.21  -0.03     0.23   0.35  -0.16
     8   1    -0.07  -0.10   0.05    -0.00  -0.02  -0.00    -0.09  -0.15   0.06
     9   1     0.07   0.04   0.09     0.11  -0.03   0.03     0.13  -0.04  -0.04
    10   1    -0.17  -0.07   0.07    -0.03   0.02  -0.06     0.03   0.04  -0.02
    11   1     0.01   0.13   0.17    -0.44  -0.06  -0.15     0.38  -0.28  -0.37
    12   1     0.01  -0.11  -0.03    -0.01   0.65   0.09     0.06  -0.27   0.23
    13   1    -0.12  -0.18   0.17     0.49   0.17  -0.08    -0.00   0.32  -0.34
                     25                     26                     27
                      A                      A                      A
 Frequencies --   1489.0500              3052.5328              3067.4307
 Red. masses --      1.5645                 1.0386                 1.0822
 Frc consts  --      2.0438                 5.7022                 5.9993
 IR Inten    --    141.6802                39.0763                42.5974
  Atom  AN      X      Y      Z        X      Y      Z        X      Y      Z
     1   8    -0.03  -0.01  -0.00    -0.00  -0.00  -0.00     0.00  -0.00  -0.00
     2   6     0.17   0.06  -0.05     0.00  -0.00   0.00    -0.04   0.00  -0.06
     3   8    -0.04  -0.04   0.00     0.00   0.00  -0.00     0.00   0.00   0.00
     4   6    -0.09  -0.01   0.04    -0.00   0.00   0.00    -0.01  -0.00   0.03
     5   6    -0.01  -0.00   0.01     0.03  -0.01   0.04     0.00  -0.00  -0.00
     6   1    -0.00   0.27   0.19    -0.00  -0.00  -0.00     0.00  -0.00   0.00
     7   1    -0.41  -0.23   0.31    -0.02   0.00  -0.04     0.46  -0.01   0.75
     8   1     0.08   0.16  -0.05     0.00   0.00  -0.00    -0.01  -0.00  -0.01
     9   1     0.10  -0.13  -0.08     0.01   0.02  -0.01     0.05   0.28  -0.17
    10   1     0.19   0.15  -0.05     0.01  -0.03  -0.02     0.06  -0.25  -0.19
    11   1     0.18  -0.20  -0.28     0.09   0.58  -0.34     0.00   0.01  -0.00
    12   1     0.08  -0.03   0.32    -0.48  -0.03   0.14    -0.03  -0.00   0.01
    13   1     0.14   0.25  -0.26     0.11  -0.41  -0.32     0.00  -0.00  -0.00
                     28                     29                     30
                      A                      A                      A
 Frequencies --   3081.1787              3131.5912              3145.5610
 Red. masses --      1.0700                 1.1046                 1.1038
 Frc consts  --      5.9849                 6.3826                 6.4345
 IR Inten    --     77.3163                 5.8435                54.2931
  Atom  AN      X      Y      Z        X      Y      Z        X      Y      Z
     1   8    -0.00   0.00  -0.00    -0.00   0.00   0.00    -0.00   0.00   0.00
     2   6     0.02  -0.00   0.03    -0.00  -0.00  -0.00     0.00  -0.00   0.00
     3   8    -0.00  -0.00  -0.00     0.00   0.00  -0.00    -0.00   0.00   0.00
     4   6    -0.02  -0.01   0.06     0.00  -0.08  -0.01     0.00  -0.05  -0.00
     5   6     0.00   0.00  -0.01     0.01   0.05  -0.00    -0.04  -0.07   0.02
     6   1    -0.00   0.00  -0.00     0.00   0.00  -0.00     0.00   0.00   0.00
     7   1    -0.24   0.01  -0.38     0.01   0.00   0.01    -0.00   0.00  -0.00
     8   1     0.01   0.00   0.00    -0.00  -0.00   0.00     0.00   0.00  -0.00
     9   1     0.11   0.55  -0.33     0.10   0.48  -0.30     0.06   0.30  -0.19
    10   1     0.13  -0.47  -0.36    -0.14   0.48   0.39    -0.07   0.24   0.19
    11   1    -0.01  -0.06   0.03    -0.04  -0.30   0.18     0.07   0.53  -0.32
    12   1    -0.02  -0.00   0.01    -0.16  -0.00   0.05     0.51   0.02  -0.14
    13   1    -0.01   0.04   0.03     0.07  -0.24  -0.20    -0.07   0.23   0.20
                     31                     32                     33
                      A                      A                      A
 Frequencies --   3160.2721              3844.5717              3863.2906
 Red. masses --      1.1049                 1.0661                 1.0667
 Frc consts  --      6.5017                 9.2841                 9.3799
 IR Inten    --     32.4706               102.1860               125.7425
  Atom  AN      X      Y      Z        X      Y      Z        X      Y      Z
     1   8    -0.00  -0.00  -0.00    -0.00  -0.00   0.00    -0.06   0.00   0.01
     2   6     0.00   0.00   0.00    -0.00  -0.00  -0.00    -0.00  -0.00  -0.00
     3   8    -0.00  -0.00   0.00    -0.03   0.01  -0.05     0.00  -0.00   0.00
     4   6    -0.00   0.02   0.00    -0.00  -0.00   0.00     0.00  -0.00  -0.00
     5   6    -0.06   0.05   0.05     0.00  -0.00   0.00     0.00   0.00   0.00
     6   1    -0.00  -0.00  -0.00     0.05   0.00  -0.01     0.99  -0.00  -0.14
     7   1    -0.00  -0.00  -0.01     0.01  -0.00   0.01     0.00  -0.00  -0.00
     8   1     0.00   0.00   0.00     0.52  -0.09   0.85    -0.02   0.01  -0.04
     9   1    -0.01  -0.07   0.04    -0.00  -0.00   0.00     0.00  -0.00  -0.00
    10   1     0.03  -0.12  -0.09    -0.00   0.00   0.00     0.00  -0.00  -0.00
    11   1    -0.02  -0.06   0.05    -0.00   0.00  -0.00    -0.00  -0.00   0.00
    12   1     0.63   0.04  -0.18     0.00   0.00  -0.00     0.00  -0.00   0.00
    13   1     0.13  -0.55  -0.44    -0.00  -0.00  -0.00     0.00  -0.00  -0.00

 -------------------
 - Thermochemistry -
 -------------------
 Temperature   298.150 Kelvin.  Pressure   1.00000 Atm.
 Atom     1 has atomic number  8 and mass  15.99491
 Atom     2 has atomic number  6 and mass  12.00000
 Atom     3 has atomic number  8 and mass  15.99491
 Atom     4 has atomic number  6 and mass  12.00000
 Atom     5 has atomic number  6 and mass  12.00000
 Atom     6 has atomic number  1 and mass   1.00783
 Atom     7 has atomic number  1 and mass   1.00783
 Atom     8 has atomic number  1 and mass   1.00783
 Atom     9 has atomic number  1 and mass   1.00783
 Atom    10 has atomic number  1 and mass   1.00783
 Atom    11 has atomic number  1 and mass   1.00783
 Atom    12 has atomic number  1 and mass   1.00783
 Atom    13 has atomic number  1 and mass   1.00783
 Molecular mass:    76.05243 amu.
 Principal axes and moments of inertia in atomic units:
                           1         2         3
     Eigenvalues --   259.56989 452.00492 542.36385
           X            0.99955  -0.02419   0.01768
           Y            0.02485   0.99898  -0.03777
           Z           -0.01675   0.03819   0.99913
 This molecule is an asymmetric top.
 Rotational symmetry number  1.
 Rotational temperatures (Kelvin)      0.33368     0.19162     0.15970
 Rotational constants (GHZ):           6.95281     3.99275     3.32755
 Zero-point vibrational energy     302431.4 (Joules/Mol)
                                   72.28284 (Kcal/Mol)
 Warning -- explicit consideration of   7 degrees of freedom as
           vibrations may cause significant error
 Vibrational temperatures:    165.18   332.68   365.34   487.97   523.63
          (Kelvin)            604.87   777.42   971.07  1143.18  1234.61
                             1460.98  1538.26  1553.91  1733.29  1769.34
                             1813.82  1884.10  1953.31  1972.66  2028.37
                             2079.55  2087.79  2105.90  2111.99  2142.41
                             4391.91  4413.35  4433.13  4505.66  4525.76
                             4546.93  5531.48  5558.41
 
 Zero-point correction=                           0.115190 (Hartree/Particle)
 Thermal correction to Energy=                    0.121394
 Thermal correction to Enthalpy=                  0.122338
 Thermal correction to Gibbs Free Energy=         0.086087
 Sum of electronic and zero-point Energies=           -269.201731
 Sum of electronic and thermal Energies=              -269.195527
 Sum of electronic and thermal Enthalpies=            -269.194583
 Sum of electronic and thermal Free Energies=         -269.230834
 
                     E (Thermal)             CV                S
                      KCal/Mol        Cal/Mol-Kelvin    Cal/Mol-Kelvin
 Total                   76.176             21.710             76.297
 Electronic               0.000              0.000              0.000
 Translational            0.889              2.981             38.902
 Rotational               0.889              2.981             25.657
 Vibrational             74.398             15.748             11.739
 Vibration     1          0.608              1.937              3.186
 Vibration     2          0.653              1.793              1.869
 Vibration     3          0.665              1.756              1.703
 Vibration     4          0.719              1.597              1.216
 Vibration     5          0.737              1.546              1.105
 Vibration     6          0.783              1.426              0.891
 Vibration     7          0.895              1.161              0.565
                       Q            Log10(Q)             Ln(Q)
 Total Bot       0.252917D-39        -39.597023        -91.175514
 Total V=0       0.243597D+14         13.386673         30.823953
 Vib (Bot)       0.107440D-51        -51.968836       -119.662667
 Vib (Bot)    1  0.178214D+01          0.250943          0.577817
 Vib (Bot)    2  0.851343D+00         -0.069896         -0.160941
 Vib (Bot)    3  0.767194D+00         -0.115095         -0.265015
 Vib (Bot)    4  0.547778D+00         -0.261396         -0.601886
 Vib (Bot)    5  0.502297D+00         -0.299039         -0.688564
 Vib (Bot)    6  0.417536D+00         -0.379306         -0.873385
 Vib (Bot)    7  0.293121D+00         -0.532953         -1.227170
 Vib (V=0)       0.103481D+02          1.014859          2.336800
 Vib (V=0)    1  0.235096D+01          0.371244          0.854822
 Vib (V=0)    2  0.148731D+01          0.172402          0.396970
 Vib (V=0)    3  0.141574D+01          0.150985          0.347655
 Vib (V=0)    4  0.124166D+01          0.094003          0.216450
 Vib (V=0)    5  0.120873D+01          0.082330          0.189573
 Vib (V=0)    6  0.115141D+01          0.061230          0.140988
 Vib (V=0)    7  0.107959D+01          0.033257          0.076578
 Electronic      0.100000D+01          0.000000          0.000000
 Translational   0.260689D+08          7.416124         17.076255
 Rotational      0.903004D+05          4.955690         11.410897
 
                                                              g16_C3-w_3
                                                             IR Spectrum
 
     33                    333333                                                111111111 111  11 1                                 
     88                    111000                                                444444333 222  00 0    8 7   6    5   433  22   1   
     64                    643865                                                866541751 630  86 1    5 9   7    4   263  53   1   
     35                    062173                                                984150180 105  09 5    8 5   5    0   049  41   5   
 
     XX                    XXXXXX                                                XXXXXXXXX XXX  XX X    X X   X    X   XXX  XX   X   
     XX                    XX XXX                                                XX X   XX X X  XX X    X     X    X    XX           
     XX                    XX XXX                                                XX X   XX X X   X            X    X    XX           
     XX                     X XX                                                 XX X   XX X X                X    X    XX           
     XX                     X X                                                  XX X   XX X X                     X    XX           
     XX                       X                                                  XX     XX X X                     X    XX           
     XX                       X                                                  XX      X X X                     X    XX           
     XX                                                                          X       X X X                     X    XX           
     XX                                                                          X       X   X                     X    XX           
     X                                                                           X       X   X                     X    XX           
     X                                                                           X       X   X                          XX           
                                                                                 X       X   X                          XX           
                                                                                             X                          X            
                                                                                             X                          X            
                                                                                             X                          X            
                                                                                                                        X            
                                                                                                                        X            
                                                                                                                        X            
                                                                                                                        X            
                                                                                                                        X            
 
 ***** Axes restored to original set *****
 -------------------------------------------------------------------
 Center     Atomic                   Forces (Hartrees/Bohr)
 Number     Number              X              Y              Z
 -------------------------------------------------------------------
      1        8          -0.000008115    0.000006336   -0.000019916
      2        6           0.000000280    0.000009742    0.000003193
      3        8           0.000000160    0.000009338    0.000006514
      4        6           0.000016404   -0.000002819    0.000013043
      5        6          -0.000011016   -0.000003958   -0.000004095
      6        1          -0.000007242    0.000012025   -0.000010353
      7        1           0.000006315    0.000014631   -0.000000751
      8        1           0.000000294   -0.000004308    0.000005669
      9        1           0.000001116    0.000009482   -0.000003697
     10        1           0.000006147    0.000003650    0.000007018
     11        1           0.000004907   -0.000022372    0.000004727
     12        1          -0.000003508   -0.000019575    0.000002345
     13        1          -0.000005741   -0.000012172   -0.000003697
 -------------------------------------------------------------------
 Cartesian Forces:  Max     0.000022372 RMS     0.000009193
 Force constants in Cartesian coordinates: 
                1             2             3             4             5 
      1  0.607847D+00
      2  0.113285D+00  0.459329D+00
      3 -0.383711D-01 -0.133314D+00  0.111590D+00
      4 -0.107759D+00  0.410507D-02 -0.697283D-02  0.609133D+00
      5 -0.265990D-01 -0.284270D+00  0.942393D-01 -0.157171D-01  0.600672D+00
      6  0.700507D-02  0.102895D+00 -0.114335D+00  0.309116D-01 -0.982833D-02
      7  0.720520D-02  0.179685D-01  0.372205D-02 -0.150993D+00  0.709575D-01
      8  0.255834D-01 -0.724880D-01 -0.276457D-01  0.883750D-01 -0.155568D+00
      9 -0.165988D-02 -0.134035D-01  0.167155D-01  0.866995D-01 -0.107545D+00
     10 -0.458949D-02 -0.794139D-02  0.274199D-02 -0.201093D+00 -0.327596D-01
     11 -0.430291D-01 -0.238277D-01  0.108847D-01 -0.280361D-01 -0.814317D-01
     12  0.176951D-01  0.102691D-01 -0.802313D-03  0.106518D-02  0.293622D-02
     13  0.812644D-03  0.101501D-02 -0.398651D-03 -0.253965D-01  0.977655D-03
     14 -0.126135D-05  0.590721D-03 -0.494207D-03 -0.368087D-02  0.835899D-03
     15  0.325409D-03  0.758132D-03 -0.156243D-03 -0.471769D-02 -0.232797D-02
     16 -0.502025D+00 -0.125903D+00  0.363851D-01 -0.190009D-02  0.743521D-03
     17 -0.784045D-01 -0.605873D-01  0.173699D-01 -0.434076D-01 -0.197261D-01
     18  0.192978D-01  0.182961D-01 -0.118342D-01  0.160761D-01  0.436896D-02
     19  0.725110D-02  0.666118D-03  0.238524D-02 -0.130606D+00  0.774505D-02
     20  0.158187D-01 -0.229664D-01  0.374232D-01  0.873510D-02 -0.496815D-01
     21 -0.442662D-02  0.121932D-01 -0.696873D-02 -0.110474D+00  0.184080D-01
     22 -0.534716D-03  0.108230D-02 -0.498116D-03  0.105977D-01  0.112871D-03
     23 -0.882757D-03  0.354182D-02  0.185119D-02 -0.116289D-01 -0.442585D-02
     24 -0.532595D-03  0.265769D-02  0.344110D-02 -0.135499D-01 -0.218076D-02
     25  0.127123D-02 -0.461232D-04 -0.685468D-03 -0.632222D-02  0.215775D-01
     26 -0.499900D-03  0.661664D-03  0.299078D-03 -0.403808D-02  0.257253D-02
     27 -0.290870D-03  0.198231D-03  0.548816D-03 -0.259623D-03 -0.382604D-02
     28 -0.817258D-02 -0.376478D-02  0.187497D-02  0.204500D-02 -0.282649D-01
     29 -0.324878D-02 -0.578166D-03  0.395680D-03  0.468135D-02 -0.738307D-02
     30  0.116107D-02  0.165265D-03  0.881429D-03 -0.911204D-03  0.476412D-02
     31 -0.206282D-04  0.244243D-03  0.350423D-04  0.626797D-03 -0.922758D-03
     32 -0.267670D-03  0.178231D-04  0.113846D-03  0.866014D-03 -0.342846D-03
     33 -0.357965D-03 -0.420391D-04  0.185114D-03  0.209382D-02 -0.507679D-03
     34 -0.136769D-03 -0.143311D-03  0.214527D-03  0.782657D-03  0.101250D-02
     35 -0.400507D-03  0.320870D-03 -0.279049D-03  0.657961D-03 -0.242859D-03
     36  0.213578D-03 -0.124650D-03  0.315329D-03 -0.128270D-02  0.762973D-03
     37 -0.114962D-02 -0.567408D-03 -0.432803D-03  0.883364D-03  0.113670D-02
     38 -0.135379D-02  0.255529D-03 -0.844207D-03 -0.911757D-03 -0.100823D-02
     39 -0.589618D-04 -0.548837D-03  0.418670D-03  0.132212D-02  0.735855D-03
                6             7             8             9            10 
      6  0.695047D+00
      7  0.536975D-01  0.319716D+00
      8 -0.942275D-01 -0.147164D+00  0.244449D+00
      9 -0.217591D+00  0.113069D+00  0.135844D+00  0.626178D+00
     10  0.113929D-01 -0.198555D-01  0.576235D-02  0.130650D-01  0.501487D+00
     11  0.548781D-02  0.304381D-01 -0.244186D-03 -0.150274D-01 -0.193414D-01
     12 -0.906426D-01  0.342113D-01 -0.398981D-02 -0.105296D-01 -0.237265D-01
     13 -0.314495D-01  0.212827D-02 -0.130574D-02 -0.940094D-03 -0.122781D+00
     14 -0.818248D-02 -0.535402D-03 -0.218948D-03  0.166683D-03  0.394363D-02
     15  0.863086D-02  0.464429D-03 -0.689341D-03 -0.695264D-03 -0.596175D-01
     16 -0.838120D-03  0.231771D-03  0.305760D-02 -0.101283D-03  0.140418D-02
     17  0.582613D-02  0.744316D-03  0.502882D-02  0.137585D-03  0.782068D-03
     18 -0.358047D-02 -0.995983D-03  0.914051D-03  0.730533D-03 -0.437322D-03
     19 -0.119721D+00  0.918906D-02  0.348403D-02  0.202576D-01 -0.154361D-01
     20  0.200650D-01 -0.706920D-02 -0.159671D-02 -0.272441D-01 -0.460346D-02
     21 -0.230801D+00 -0.808017D-02 -0.825587D-02 -0.308457D-01  0.361785D-02
     22  0.211428D-01 -0.159061D+00  0.218042D-01 -0.234317D+00  0.122604D-03
     23 -0.296515D-01  0.346245D-01 -0.228183D-01  0.256787D-01  0.511352D-03
     24 -0.313939D-01 -0.198014D+00 -0.291581D-02 -0.387543D+00 -0.111479D-02
     25  0.206265D-01 -0.936376D-02 -0.508012D-04  0.453868D-02 -0.829361D-01
     26  0.673063D-02 -0.137721D-02  0.120889D-02  0.452043D-03  0.620070D-01
     27 -0.500162D-02  0.174603D-02 -0.643297D-04  0.697465D-03  0.682875D-01
     28  0.109510D-01  0.145517D-02  0.301011D-03 -0.112936D-02 -0.491087D-01
     29  0.822338D-03  0.294912D-03  0.149231D-02 -0.188249D-03 -0.978249D-02
     30 -0.400674D-02 -0.241639D-03 -0.123661D-03  0.402924D-03  0.420787D-02
     31 -0.436836D-04 -0.318206D-03  0.501478D-03  0.231047D-03  0.754790D-02
     32 -0.929652D-03  0.580304D-03  0.260028D-03  0.576864D-03 -0.230758D-02
     33 -0.531407D-03  0.508325D-03  0.893843D-03  0.154071D-02  0.910398D-02
     34 -0.427873D-02 -0.153360D-03 -0.141881D-03  0.186685D-03 -0.153110D-01
     35  0.137655D-03  0.210192D-03  0.393207D-03  0.688301D-03  0.283176D-02
     36 -0.626400D-02  0.140636D-03  0.283453D-03  0.764855D-03 -0.289694D-01
     37  0.603807D-03 -0.180255D-03 -0.206447D-03  0.100114D-03  0.549482D-03
     38  0.854825D-03  0.327753D-03  0.101955D-03 -0.136217D-03  0.897673D-03
     39  0.469543D-03 -0.226670D-03 -0.231621D-04  0.174211D-03  0.144832D-02
               11            12            13            14            15 
     11  0.624342D+00
     12  0.945629D-02  0.554338D+00
     13  0.455136D-02 -0.621373D-01  0.558111D+00
     14 -0.830618D-01  0.667921D-02  0.537336D-02  0.585080D+00
     15  0.694740D-02 -0.176364D+00 -0.420447D-01  0.654349D-03  0.520797D+00
     16 -0.367028D-03  0.573504D-03  0.419629D-03  0.182658D-04  0.850796D-04
     17 -0.537399D-02  0.260319D-02  0.643118D-03  0.111722D-03  0.168009D-03
     18  0.341566D-02 -0.897551D-04 -0.206536D-03  0.216230D-03 -0.249047D-04
     19  0.220422D-02 -0.260367D-01 -0.461416D-02 -0.167808D-02  0.321462D-02
     20  0.252529D-02 -0.641226D-02 -0.143436D-02  0.462966D-03  0.787447D-03
     21 -0.140884D-03  0.599733D-02  0.121584D-02  0.275340D-03  0.654103D-03
     22 -0.217626D-03  0.242247D-02  0.706748D-03  0.252112D-02  0.883186D-03
     23  0.175569D-03  0.582868D-03  0.117365D-02 -0.720445D-04  0.411175D-03
     24  0.198951D-02  0.128867D-02  0.177072D-04  0.119593D-03  0.503526D-03
     25  0.579911D-01  0.671165D-01  0.638763D-02 -0.132703D-01 -0.150078D-01
     26 -0.153989D+00 -0.118730D+00 -0.135085D-02  0.202159D-02  0.298727D-02
     27 -0.116431D+00 -0.177758D+00  0.920239D-02 -0.162749D-01 -0.180029D-01
     28 -0.466123D-02  0.345188D-02 -0.148024D-03  0.183413D-01 -0.743504D-02
     29 -0.281820D+00  0.946132D-01 -0.309362D-03  0.118507D-02 -0.104883D-02
     30  0.925652D-01 -0.846282D-01  0.850081D-03  0.250542D-01 -0.105520D-01
     31 -0.140225D-01 -0.132418D-01 -0.729381D-01  0.551233D-01  0.584069D-01
     32  0.219498D-02  0.295493D-02  0.556996D-01 -0.163495D+00 -0.122100D+00
     33 -0.170506D-01 -0.175820D-01  0.588054D-01 -0.120979D+00 -0.176239D+00
     34 -0.372507D-02  0.536783D-02 -0.295995D+00 -0.602153D-01  0.617031D-01
     35 -0.617116D-03 -0.582770D-03 -0.604260D-01 -0.603216D-01  0.150585D-01
     36 -0.714623D-02  0.643297D-02  0.641701D-01  0.154608D-01 -0.598940D-01
     37  0.182152D-01 -0.676141D-02 -0.466934D-01 -0.593980D-02  0.373998D-02
     38  0.112761D-02 -0.380220D-03 -0.460745D-02 -0.283119D+00  0.983943D-01
     39  0.250495D-01 -0.966041D-02  0.291525D-02  0.973039D-01 -0.886574D-01
               16            17            18            19            20 
     16  0.500850D+00
     17  0.120819D+00  0.795125D-01
     18 -0.353400D-01 -0.256642D-01  0.136874D-01
     19  0.952596D-03  0.513352D-03  0.111875D-02  0.132480D+00
     20  0.181017D-02  0.127175D-02 -0.141912D-02 -0.152479D-01  0.701062D-01
     21 -0.591398D-03 -0.657541D-04  0.726257D-03  0.117095D+00 -0.193559D-01
     22 -0.191737D-03 -0.211915D-03 -0.257145D-03  0.208931D-04  0.206565D-02
     23 -0.458099D-03 -0.416928D-03 -0.479444D-04  0.208479D-02 -0.810869D-03
     24 -0.121397D-03 -0.491820D-03 -0.266374D-03  0.308544D-02 -0.336835D-02
     25  0.159019D-03  0.657792D-04 -0.381906D-03  0.687196D-03  0.176778D-03
     26  0.158101D-03  0.206635D-03 -0.286607D-04  0.434540D-03  0.285680D-03
     27 -0.126597D-03  0.987409D-04  0.177323D-03  0.160601D-03  0.517179D-03
     28 -0.501150D-04 -0.138841D-02  0.901582D-03  0.847806D-03  0.841313D-04
     29  0.146513D-03 -0.216593D-03  0.421080D-03 -0.309797D-03  0.408751D-03
     30 -0.107951D-03  0.329723D-03  0.270281D-03  0.108803D-03 -0.543020D-03
     31 -0.573722D-04 -0.413480D-04  0.443738D-04  0.189130D-03  0.222595D-03
     32 -0.305020D-04  0.131928D-04 -0.335746D-04 -0.190359D-03 -0.411158D-04
     33 -0.165310D-05 -0.666229D-04 -0.322137D-04 -0.134207D-03  0.491724D-04
     34  0.936644D-04  0.318890D-04  0.380139D-04 -0.115466D-02 -0.305933D-03
     35 -0.137998D-04  0.736352D-04 -0.167509D-03  0.509494D-04  0.753372D-05
     36  0.835283D-04  0.117104D-04  0.622108D-04 -0.154343D-02 -0.353014D-03
     37  0.113724D-03 -0.145993D-03  0.142296D-03  0.193153D-03 -0.252211D-03
     38  0.193124D-04  0.102610D-03 -0.271042D-03  0.243134D-03  0.284928D-04
     39  0.101195D-03 -0.256583D-03  0.173908D-03  0.901482D-05 -0.146236D-03
               21            22            23            24            25 
     21  0.261723D+00
     22  0.219129D-02  0.149093D+00
     23 -0.288279D-02 -0.247497D-01  0.249534D-01
     24 -0.135177D-02  0.211011D+00  0.400065D-02  0.414695D+00
     25 -0.526653D-03 -0.228611D-04 -0.887677D-04 -0.917157D-03  0.905536D-01
     26 -0.684171D-04 -0.116068D-03 -0.665090D-04  0.583463D-04 -0.650782D-01
     27  0.402725D-03 -0.572175D-03 -0.485657D-04  0.464096D-03 -0.703635D-01
     28 -0.429577D-03 -0.154451D-03 -0.183679D-03  0.105018D-03  0.126376D-03
     29 -0.175399D-03  0.401318D-04 -0.521677D-04 -0.671137D-04 -0.179115D-02
     30  0.287468D-03 -0.145308D-03  0.104336D-03  0.423249D-04 -0.187160D-02
     31  0.128584D-03 -0.121577D-02 -0.557547D-03  0.280435D-03 -0.188797D-02
     32  0.717532D-04 -0.135395D-02  0.237386D-03  0.453593D-04  0.527627D-03
     33  0.609530D-04 -0.141362D-02 -0.840214D-04  0.196735D-03 -0.390845D-02
     34  0.181933D-03  0.659012D-03 -0.244494D-04 -0.200423D-03  0.837326D-03
     35  0.306126D-04 -0.853403D-03 -0.811695D-04  0.332514D-04 -0.339576D-03
     36  0.115459D-03 -0.453603D-03  0.103855D-03  0.482638D-05  0.590893D-03
     37  0.980795D-04 -0.194419D-04  0.179662D-03 -0.490259D-04  0.510473D-03
     38 -0.339096D-04 -0.123616D-03 -0.164329D-03  0.119448D-03  0.326146D-03
     39  0.000000D+00  0.587439D-05 -0.180127D-04 -0.816890D-04  0.790018D-03
               26            27            28            29            30 
     26  0.159757D+00
     27  0.127612D+00  0.191810D+00
     28  0.104678D-01 -0.510918D-02  0.536660D-01
     29 -0.147195D-01  0.738991D-02  0.971622D-02  0.299424D+00
     30 -0.195357D-01  0.871701D-02 -0.522816D-03 -0.102633D+00  0.907778D-01
     31  0.154912D-03 -0.330610D-02  0.667876D-03  0.177996D-03  0.772376D-03
     32  0.131659D-02  0.472854D-03 -0.651945D-03  0.659869D-03  0.380215D-04
     33  0.485025D-03 -0.397139D-02  0.518196D-03  0.263251D-03  0.792969D-03
     34 -0.258397D-03  0.744177D-04  0.498185D-03  0.369433D-03  0.284629D-03
     35  0.740959D-04  0.132232D-03  0.218458D-03  0.346946D-03 -0.459477D-03
     36 -0.265532D-03  0.119018D-02  0.653145D-03  0.163044D-03  0.104922D-02
     37 -0.503688D-03  0.557016D-03 -0.167256D-02  0.150308D-04 -0.358431D-02
     38  0.670442D-03  0.223392D-03 -0.214024D-03  0.125248D-02  0.273666D-03
     39  0.345511D-05  0.726181D-03 -0.382982D-02  0.437985D-04 -0.403451D-02
               31            32            33            34            35 
     31  0.750273D-01
     32 -0.597291D-01  0.168866D+00
     33 -0.609911D-01  0.132631D+00  0.190597D+00
     34 -0.729091D-02 -0.246386D-02  0.746373D-03  0.315478D+00
     35  0.203801D-01  0.517717D-02 -0.406566D-02  0.647805D-01  0.590038D-01
     36  0.193817D-01  0.630090D-02 -0.461294D-02 -0.634030D-01 -0.161694D-01
     37 -0.330081D-03  0.932147D-02 -0.496912D-02  0.169301D-02 -0.270966D-01
     38 -0.153134D-02 -0.148646D-01  0.847272D-02  0.108391D-02 -0.413454D-02
     39 -0.169779D-02 -0.201422D-01  0.959563D-02 -0.915355D-03  0.564333D-02
               36            37            38            39 
     36  0.640623D-01
     37  0.104186D-01  0.461022D-01
     38  0.972086D-03  0.584405D-02  0.299752D+00
     39 -0.322641D-02  0.136810D-03 -0.107645D+00  0.941019D-01
 FormGI is forming the generalized inverse of G from B-inverse, IUseBI=4.
 Leave Link  716 at Tue Oct 21 19:53:11 2025, MaxMem=  4294967296 cpu:               0.3 elap:               0.1
 (Enter /lrz/sys/applications/gaussian/g16.C.01/x86_64_legacy/exe/l103.exe)

 GradGradGradGradGradGradGradGradGradGradGradGradGradGradGradGradGradGrad
 Berny optimization.
 Red2BG is reusing G-inverse.
 Internal  Forces:  Max     0.000018522 RMS     0.000003750
 Search for a local minimum.
 Step number   1 out of a maximum of    2
 All quantities printed in internal units (Hartrees-Bohrs-Radians)
 Second derivative matrix not updated -- analytic derivatives used.
 ITU=  0
     Eigenvalues ---    0.00237   0.00351   0.00470   0.00488   0.03483
     Eigenvalues ---    0.03719   0.04409   0.04467   0.06206   0.07036
     Eigenvalues ---    0.08023   0.10012   0.10228   0.11916   0.13720
     Eigenvalues ---    0.15487   0.16243   0.16783   0.19326   0.22428
     Eigenvalues ---    0.23864   0.30292   0.32817   0.33230   0.34068
     Eigenvalues ---    0.34166   0.34395   0.34673   0.34811   0.44129
     Eigenvalues ---    0.53112   0.53716   0.54019
 Angle between quadratic step and forces=  73.34 degrees.
 Linear search not attempted -- first point.
 Iteration  1 RMS(Cart)=  0.00015419 RMS(Int)=  0.00000003
 Iteration  2 RMS(Cart)=  0.00000003 RMS(Int)=  0.00000000
 ITry= 1 IFail=0 DXMaxC= 6.31D-04 DCOld= 1.00D+10 DXMaxT= 3.00D-01 DXLimC= 3.00D+00 Rises=F
 Variable       Old X    -DE/DX   Delta X   Delta X   Delta X     New X
                                 (Linear)    (Quad)   (Total)
    R1        2.65584  -0.00000   0.00000  -0.00001  -0.00001   2.65584
    R2        1.82457  -0.00000   0.00000  -0.00000  -0.00000   1.82457
    R3        2.65786   0.00001   0.00000   0.00000   0.00000   2.65787
    R4        2.87698  -0.00000   0.00000   0.00000   0.00000   2.87698
    R5        2.08577  -0.00000   0.00000  -0.00001  -0.00001   2.08577
    R6        1.82688   0.00000   0.00000   0.00000   0.00000   1.82688
    R7        2.88056  -0.00002   0.00000  -0.00007  -0.00007   2.88049
    R8        2.08128  -0.00000   0.00000  -0.00000  -0.00000   2.08128
    R9        2.08049  -0.00000   0.00000   0.00000   0.00000   2.08049
   R10        2.08243  -0.00001   0.00000  -0.00002  -0.00002   2.08241
   R11        2.07799  -0.00001   0.00000  -0.00001  -0.00001   2.07798
   R12        2.07847  -0.00000   0.00000  -0.00000  -0.00000   2.07846
    A1        1.87673  -0.00000   0.00000  -0.00002  -0.00002   1.87672
    A2        1.94041  -0.00000   0.00000  -0.00000  -0.00000   1.94041
    A3        1.89059  -0.00000   0.00000  -0.00001  -0.00001   1.89058
    A4        1.92328  -0.00000   0.00000  -0.00001  -0.00001   1.92326
    A5        1.97204   0.00001   0.00000   0.00004   0.00004   1.97208
    A6        1.82549   0.00000   0.00000   0.00001   0.00001   1.82550
    A7        1.91146  -0.00000   0.00000  -0.00003  -0.00003   1.91143
    A8        1.88553   0.00000   0.00000   0.00001   0.00001   1.88554
    A9        1.99737  -0.00001   0.00000  -0.00000  -0.00000   1.99737
   A10        1.87856   0.00000   0.00000   0.00001   0.00001   1.87858
   A11        1.87432  -0.00000   0.00000  -0.00002  -0.00002   1.87430
   A12        1.92120   0.00000   0.00000   0.00001   0.00001   1.92121
   A13        1.92332   0.00000   0.00000   0.00004   0.00004   1.92336
   A14        1.86360  -0.00000   0.00000  -0.00005  -0.00005   1.86355
   A15        1.94925   0.00000   0.00000   0.00003   0.00003   1.94929
   A16        1.92960  -0.00001   0.00000  -0.00003  -0.00003   1.92957
   A17        1.94434   0.00000   0.00000  -0.00000  -0.00000   1.94434
   A18        1.86965   0.00000   0.00000   0.00005   0.00005   1.86970
   A19        1.88481  -0.00000   0.00000  -0.00003  -0.00003   1.88478
   A20        1.88316   0.00000   0.00000  -0.00002  -0.00002   1.88314
    D1        1.04594  -0.00000   0.00000  -0.00058  -0.00058   1.04536
    D2       -3.06053   0.00000   0.00000  -0.00053  -0.00053  -3.06106
    D3       -0.96979  -0.00000   0.00000  -0.00058  -0.00058  -0.97038
    D4        1.11158  -0.00000   0.00000  -0.00025  -0.00025   1.11132
    D5       -1.01851  -0.00000   0.00000  -0.00027  -0.00027  -1.01879
    D6       -3.09624  -0.00000   0.00000  -0.00026  -0.00026  -3.09650
    D7       -1.07331  -0.00000   0.00000  -0.00001  -0.00001  -1.07332
    D8        1.06806  -0.00000   0.00000   0.00002   0.00002   1.06808
    D9        3.06893  -0.00000   0.00000  -0.00004  -0.00004   3.06889
   D10        1.08450   0.00000   0.00000   0.00001   0.00001   1.08451
   D11       -3.05731   0.00000   0.00000   0.00004   0.00004  -3.05727
   D12       -1.05645  -0.00000   0.00000  -0.00002  -0.00002  -1.05647
   D13        3.11174   0.00000   0.00000   0.00003   0.00003   3.11178
   D14       -1.03007   0.00000   0.00000   0.00006   0.00006  -1.03001
   D15        0.97080   0.00000   0.00000   0.00000   0.00000   0.97080
   D16       -1.07940   0.00000   0.00000  -0.00014  -0.00014  -1.07954
   D17        3.12375  -0.00000   0.00000  -0.00020  -0.00020   3.12354
   D18        1.02992   0.00000   0.00000  -0.00016  -0.00016   1.02976
   D19        3.08569  -0.00000   0.00000  -0.00017  -0.00017   3.08552
   D20        1.00565  -0.00000   0.00000  -0.00023  -0.00023   1.00542
   D21       -1.08818  -0.00000   0.00000  -0.00018  -0.00018  -1.08836
   D22        1.03475  -0.00000   0.00000  -0.00014  -0.00014   1.03461
   D23       -1.04529  -0.00000   0.00000  -0.00021  -0.00021  -1.04549
   D24       -3.13911  -0.00000   0.00000  -0.00016  -0.00016  -3.13927
         Item               Value     Threshold  Converged?
 Maximum Force            0.000019     0.000450     YES
 RMS     Force            0.000004     0.000300     YES
 Maximum Displacement     0.000631     0.001800     YES
 RMS     Displacement     0.000154     0.001200     YES
 Predicted change in Energy=-4.895965D-09
 Optimization completed.
    -- Stationary point found.
                           ----------------------------
                           !   Optimized Parameters   !
                           ! (Angstroms and Degrees)  !
 --------------------------                            --------------------------
 ! Name  Definition              Value          Derivative Info.                !
 --------------------------------------------------------------------------------
 ! R1    R(1,2)                  1.4054         -DE/DX =    0.0                 !
 ! R2    R(1,6)                  0.9655         -DE/DX =    0.0                 !
 ! R3    R(2,3)                  1.4065         -DE/DX =    0.0                 !
 ! R4    R(2,4)                  1.5224         -DE/DX =    0.0                 !
 ! R5    R(2,7)                  1.1037         -DE/DX =    0.0                 !
 ! R6    R(3,8)                  0.9667         -DE/DX =    0.0                 !
 ! R7    R(4,5)                  1.5243         -DE/DX =    0.0                 !
 ! R8    R(4,9)                  1.1014         -DE/DX =    0.0                 !
 ! R9    R(4,10)                 1.1009         -DE/DX =    0.0                 !
 ! R10   R(5,11)                 1.102          -DE/DX =    0.0                 !
 ! R11   R(5,12)                 1.0996         -DE/DX =    0.0                 !
 ! R12   R(5,13)                 1.0999         -DE/DX =    0.0                 !
 ! A1    A(2,1,6)              107.5288         -DE/DX =    0.0                 !
 ! A2    A(1,2,3)              111.1772         -DE/DX =    0.0                 !
 ! A3    A(1,2,4)              108.3229         -DE/DX =    0.0                 !
 ! A4    A(1,2,7)              110.1957         -DE/DX =    0.0                 !
 ! A5    A(3,2,4)              112.9895         -DE/DX =    0.0                 !
 ! A6    A(3,2,7)              104.5927         -DE/DX =    0.0                 !
 ! A7    A(4,2,7)              109.5188         -DE/DX =    0.0                 !
 ! A8    A(2,3,8)              108.0327         -DE/DX =    0.0                 !
 ! A9    A(2,4,5)              114.4408         -DE/DX =    0.0                 !
 ! A10   A(2,4,9)              107.6337         -DE/DX =    0.0                 !
 ! A11   A(2,4,10)             107.3905         -DE/DX =    0.0                 !
 ! A12   A(5,4,9)              110.0766         -DE/DX =    0.0                 !
 ! A13   A(5,4,10)             110.1979         -DE/DX =    0.0                 !
 ! A14   A(9,4,10)             106.7764         -DE/DX =    0.0                 !
 ! A15   A(4,5,11)             111.6841         -DE/DX =    0.0                 !
 ! A16   A(4,5,12)             110.5579         -DE/DX =    0.0                 !
 ! A17   A(4,5,13)             111.4023         -DE/DX =    0.0                 !
 ! A18   A(11,5,12)            107.1229         -DE/DX =    0.0                 !
 ! A19   A(11,5,13)            107.9917         -DE/DX =    0.0                 !
 ! A20   A(12,5,13)            107.8969         -DE/DX =    0.0                 !
 ! D1    D(6,1,2,3)             59.9279         -DE/DX =    0.0                 !
 ! D2    D(6,1,2,4)           -175.3557         -DE/DX =    0.0                 !
 ! D3    D(6,1,2,7)            -55.5651         -DE/DX =    0.0                 !
 ! D4    D(1,2,3,8)             63.6888         -DE/DX =    0.0                 !
 ! D5    D(4,2,3,8)            -58.3565         -DE/DX =    0.0                 !
 ! D6    D(7,2,3,8)           -177.4013         -DE/DX =    0.0                 !
 ! D7    D(1,2,4,5)            -61.4963         -DE/DX =    0.0                 !
 ! D8    D(1,2,4,9)             61.1955         -DE/DX =    0.0                 !
 ! D9    D(1,2,4,10)           175.8365         -DE/DX =    0.0                 !
 ! D10   D(3,2,4,5)             62.1371         -DE/DX =    0.0                 !
 ! D11   D(3,2,4,9)           -175.1711         -DE/DX =    0.0                 !
 ! D12   D(3,2,4,10)           -60.5301         -DE/DX =    0.0                 !
 ! D13   D(7,2,4,5)            178.2897         -DE/DX =    0.0                 !
 ! D14   D(7,2,4,9)            -59.0185         -DE/DX =    0.0                 !
 ! D15   D(7,2,4,10)            55.6226         -DE/DX =    0.0                 !
 ! D16   D(2,4,5,11)           -61.845          -DE/DX =    0.0                 !
 ! D17   D(2,4,5,12)           178.9775         -DE/DX =    0.0                 !
 ! D18   D(2,4,5,13)            59.01           -DE/DX =    0.0                 !
 ! D19   D(9,4,5,11)           176.7971         -DE/DX =    0.0                 !
 ! D20   D(9,4,5,12)            57.6196         -DE/DX =    0.0                 !
 ! D21   D(9,4,5,13)           -62.3479         -DE/DX =    0.0                 !
 ! D22   D(10,4,5,11)           59.287          -DE/DX =    0.0                 !
 ! D23   D(10,4,5,12)          -59.8905         -DE/DX =    0.0                 !
 ! D24   D(10,4,5,13)         -179.858          -DE/DX =    0.0                 !
 --------------------------------------------------------------------------------
 GradGradGradGradGradGradGradGradGradGradGradGradGradGradGradGradGradGrad

 Leave Link  103 at Tue Oct 21 19:53:11 2025, MaxMem=  4294967296 cpu:               0.5 elap:               0.1
 (Enter /lrz/sys/applications/gaussian/g16.C.01/x86_64_legacy/exe/l9999.exe)

 ----------------------------------------------------------------------

 Electric dipole moment (input orientation):
 (Debye = 10**-18 statcoulomb cm , SI units = C m)
                  (au)            (Debye)         (10**-30 SI)
   Tot        0.706838D-01      0.179660D+00      0.599282D+00
   x          0.439164D-01      0.111624D+00      0.372338D+00
   y         -0.135337D-02     -0.343994D-02     -0.114744D-01
   z          0.553690D-01      0.140734D+00      0.469438D+00

 Dipole polarizability, Alpha (input orientation).
 (esu units = cm**3 , SI units = C**2 m**2 J**-1)
 Alpha(0;0):
               (au)            (10**-24 esu)      (10**-40 SI)
   iso        0.520901D+02      0.771895D+01      0.858849D+01
   aniso      0.380070D+01      0.563206D+00      0.626651D+00
   xx         0.527795D+02      0.782112D+01      0.870217D+01
   yx         0.104928D+01      0.155487D+00      0.173003D+00
   yy         0.508309D+02      0.753237D+01      0.838089D+01
   zx         0.146550D+01      0.217164D+00      0.241628D+00
   zy         0.611384D+00      0.905977D-01      0.100804D+00
   zz         0.526597D+02      0.780337D+01      0.868242D+01

 ----------------------------------------------------------------------

 Dipole orientation:
     8         -0.97568184         -2.55118592         -0.71213557
     6         -0.32904325         -0.05457463         -1.34639828
     8         -2.32014253          1.62036481         -0.80386545
     6          2.11178335          0.62199025          0.01802448
     6          1.93493828          0.53265885          2.89175829
     1         -2.44497517         -3.00471599         -1.69424513
     1         -0.04616108          0.11492244         -3.40593364
     1         -2.59655587          1.60426748          1.00190876
     1          3.58914923         -0.68406040         -0.64780801
     1          2.66709572          2.52656048         -0.60862102
     1          0.54409260          1.90079469          3.61995760
     1          3.76681536          1.00656700          3.75064840
     1          1.38634219         -1.35762956          3.55950011

 Electric dipole moment (dipole orientation):
 (Debye = 10**-18 statcoulomb cm , SI units = C m)
                  (au)            (Debye)         (10**-30 SI)
   Tot        0.706838D-01      0.179660D+00      0.599282D+00
   x          0.000000D+00      0.000000D+00      0.000000D+00
   y          0.000000D+00      0.000000D+00      0.000000D+00
   z          0.706838D-01      0.179660D+00      0.599282D+00

 Dipole polarizability, Alpha (dipole orientation).
 (esu units = cm**3 , SI units = C**2 m**2 J**-1)
 Alpha(0;0):
               (au)            (10**-24 esu)      (10**-40 SI)
   iso        0.520901D+02      0.771895D+01      0.858849D+01
   aniso      0.380070D+01      0.563206D+00      0.626651D+00
   xx         0.513122D+02      0.760369D+01      0.846024D+01
   yx         0.446669D+00      0.661895D-01      0.736457D-01
   yy         0.508695D+02      0.753808D+01      0.838724D+01
   zx         0.391387D+00      0.579976D-01      0.645310D-01
   zy         0.119085D+01      0.176465D+00      0.196344D+00
   zz         0.540885D+02      0.801509D+01      0.891799D+01

 ----------------------------------------------------------------------
 Unable to Open any file for archive entry.
 1\1\GINC-CM4R13C06S02\Freq\RwB97XD\def2SVP\C3H8O2\GO29TIZ2\21-Oct-2025
 \0\\#P Geom=AllCheck Guess=TCheck SCRF=Check GenChk RwB97XD/def2SVP Fr
 eq\\g16_C3-w_3\\0,1\O,-0.6476904912,-1.3459806416,-0.0002584927\C,-0.5
 792951122,-0.0163933989,-0.4504813362\O,-1.2205788935,0.857238627,0.44
 60179494\C,0.883732188,0.3363473467,-0.6805419223\C,1.754922264,0.2593
 437176,0.5679223456\H,-1.5814053022,-1.5811648426,0.0711168722\H,-1.13
 85424762,0.0951481319,-1.3954932088\H,-0.7415398568,0.8294500252,1.285
 2676671\H,1.2727697833,-0.3426814531,-1.4555079189\H,0.9146754012,1.35
 23048016,-1.1035794931\H,1.4224828307,0.970893339,1.3409235688\H,2.798
 5351117,0.5078377057,0.3264654039\H,1.7403259529,-0.7494503586,1.00593
 17651\\Version=EM64L-G16RevC.01\State=1-A\HF=-269.3169209\RMSD=1.974e-
 09\RMSF=9.193e-06\ZeroPoint=0.11519\Thermal=0.1213936\ETot=-269.195527
 3\HTot=-269.1945831\GTot=-269.2308344\Dipole=0.0439164,-0.0013534,0.05
 5369\DipoleDeriv=-0.6385334,-0.1930437,0.1013152,-0.1456293,-1.3867602
 ,0.0644245,0.0745153,0.2070938,-0.8052728,1.0016707,-0.0388922,-0.2924
 934,-0.0156666,1.6881194,0.0814602,-0.2860357,0.0847524,1.1021832,-0.8
 487502,0.1300682,0.2862535,0.0444376,-1.0399466,-0.2196946,0.3496381,-
 0.3459307,-0.9305547,-0.0942157,-0.0503913,0.0931436,-0.0547945,0.0863
 69,-0.0061367,0.0039335,-0.0056305,0.0879222,-0.0526828,-0.0167991,-0.
 0047921,-0.0203874,0.0714649,0.0108045,0.006669,0.0167746,0.038909,0.2
 953082,0.0292204,-0.0026966,0.0573158,0.3856682,0.0363869,-0.0073009,0
 .0382644,0.4246988,-0.0999157,0.0275622,-0.1420749,-0.0092427,-0.03169
 45,0.0258955,-0.0813503,0.0355564,-0.168886,0.3929381,0.0458568,-0.098
 1814,0.0700901,0.3997175,0.0303703,-0.0649082,0.001033,0.3528278,0.012
 5072,0.0351217,0.0368377,0.0595761,-0.0072792,-0.1408795,0.0263918,-0.
 1060505,-0.0855373,0.0359835,0.0147107,-0.0389768,-0.010752,-0.1284877
 ,0.1185475,-0.0335204,0.0821288,0.0179575,0.0579808,0.0776557,0.062348
 7,0.0533029,-0.0160855,-0.1208564,0.0193094,-0.1027823,-0.0876778,-0.1
 608561,-0.052743,0.0087036,-0.0524531,0.0911837,0.011759,0.0263525,0.0
 154857,0.0492644,0.0985654,-0.0083263,-0.009387,0.024203,-0.1122691,0.
 1079189,-0.0336939,0.0793048,0.0041658\Polar=52.7795166,1.0492789,50.8
 309268,1.4654983,0.6113836,52.6597333\Quadrupole=0.423908,-2.1590656,1
 .7351576,3.5913608,0.1912764,0.5130297\PG=C01 [X(C3H8O2)]\NImag=0\\0.6
 0784728,0.11328505,0.45932889,-0.03837109,-0.13331371,0.11159033,-0.10
 775858,0.00410507,-0.00697283,0.60913282,-0.02659896,-0.28426972,0.094
 23930,-0.01571712,0.60067165,0.00700507,0.10289505,-0.11433478,0.03091
 158,-0.00982833,0.69504721,0.00720520,0.01796853,0.00372205,-0.1509927
 4,0.07095753,0.05369746,0.31971571,0.02558343,-0.07248804,-0.02764570,
 0.08837500,-0.15556823,-0.09422746,-0.14716427,0.24444923,-0.00165988,
 -0.01340348,0.01671549,0.08669954,-0.10754464,-0.21759060,0.11306852,0
 .13584379,0.62617796,-0.00458949,-0.00794139,0.00274199,-0.20109269,-0
 .03275956,0.01139290,-0.01985553,0.00576235,0.01306504,0.50148653,-0.0
 4302905,-0.02382768,0.01088471,-0.02803615,-0.08143168,0.00548781,0.03
 043809,-0.00024419,-0.01502736,-0.01934135,0.62434246,0.01769509,0.010
 26906,-0.00080231,0.00106518,0.00293622,-0.09064262,0.03421128,-0.0039
 8981,-0.01052958,-0.02372655,0.00945629,0.55433806,0.00081264,0.001015
 01,-0.00039865,-0.02539647,0.00097766,-0.03144954,0.00212827,-0.001305
 74,-0.00094009,-0.12278112,0.00455136,-0.06213726,0.55811141,-0.000001
 26,0.00059072,-0.00049421,-0.00368087,0.00083590,-0.00818248,-0.000535
 40,-0.00021895,0.00016668,0.00394363,-0.08306175,0.00667921,0.00537336
 ,0.58508040,0.00032541,0.00075813,-0.00015624,-0.00471769,-0.00232797,
 0.00863086,0.00046443,-0.00068934,-0.00069526,-0.05961748,0.00694740,-
 0.17636387,-0.04204466,0.00065435,0.52079695,-0.50202508,-0.12590331,0
 .03638512,-0.00190009,0.00074352,-0.00083812,0.00023177,0.00305760,-0.
 00010128,0.00140418,-0.00036703,0.00057350,0.00041963,0.00001827,0.000
 08508,0.50084982,-0.07840450,-0.06058728,0.01736990,-0.04340762,-0.019
 72609,0.00582613,0.00074432,0.00502882,0.00013758,0.00078207,-0.005373
 99,0.00260319,0.00064312,0.00011172,0.00016801,0.12081925,0.07951252,0
 .01929777,0.01829608,-0.01183421,0.01607613,0.00436896,-0.00358047,-0.
 00099598,0.00091405,0.00073053,-0.00043732,0.00341566,-0.00008976,-0.0
 0020654,0.00021623,-0.00002490,-0.03534002,-0.02566421,0.01368741,0.00
 725110,0.00066612,0.00238524,-0.13060556,0.00774505,-0.11972097,0.0091
 8906,0.00348403,0.02025756,-0.01543610,0.00220422,-0.02603671,-0.00461
 416,-0.00167808,0.00321462,0.00095260,0.00051335,0.00111875,0.13247955
 ,0.01581870,-0.02296643,0.03742317,0.00873510,-0.04968151,0.02006496,-
 0.00706920,-0.00159671,-0.02724405,-0.00460346,0.00252529,-0.00641226,
 -0.00143436,0.00046297,0.00078745,0.00181017,0.00127175,-0.00141912,-0
 .01524795,0.07010618,-0.00442662,0.01219321,-0.00696873,-0.11047443,0.
 01840800,-0.23080148,-0.00808017,-0.00825587,-0.03084571,0.00361785,-0
 .00014088,0.00599733,0.00121584,0.00027534,0.00065410,-0.00059140,-0.0
 0006575,0.00072626,0.11709528,-0.01935588,0.26172309,-0.00053472,0.001
 08230,-0.00049812,0.01059770,0.00011287,0.02114275,-0.15906133,0.02180
 424,-0.23431656,0.00012260,-0.00021763,0.00242247,0.00070675,0.0025211
 2,0.00088319,-0.00019174,-0.00021191,-0.00025714,0.00002089,0.00206565
 ,0.00219129,0.14909335,-0.00088276,0.00354182,0.00185119,-0.01162889,-
 0.00442585,-0.02965147,0.03462446,-0.02281834,0.02567873,0.00051135,0.
 00017557,0.00058287,0.00117365,-0.00007204,0.00041117,-0.00045810,-0.0
 0041693,-0.00004794,0.00208479,-0.00081087,-0.00288279,-0.02474973,0.0
 2495342,-0.00053259,0.00265769,0.00344110,-0.01354989,-0.00218076,-0.0
 3139389,-0.19801428,-0.00291581,-0.38754298,-0.00111479,0.00198951,0.0
 0128867,0.00001771,0.00011959,0.00050353,-0.00012140,-0.00049182,-0.00
 026637,0.00308544,-0.00336835,-0.00135177,0.21101095,0.00400065,0.4146
 9542,0.00127123,-0.00004612,-0.00068547,-0.00632222,0.02157746,0.02062
 648,-0.00936376,-0.00005080,0.00453868,-0.08293606,0.05799109,0.067116
 47,0.00638763,-0.01327027,-0.01500784,0.00015902,0.00006578,-0.0003819
 1,0.00068720,0.00017678,-0.00052665,-0.00002286,-0.00008877,-0.0009171
 6,0.09055361,-0.00049990,0.00066166,0.00029908,-0.00403808,0.00257253,
 0.00673063,-0.00137721,0.00120889,0.00045204,0.06200700,-0.15398937,-0
 .11872993,-0.00135085,0.00202159,0.00298727,0.00015810,0.00020664,-0.0
 0002866,0.00043454,0.00028568,-0.00006842,-0.00011607,-0.00006651,0.00
 005835,-0.06507820,0.15975724,-0.00029087,0.00019823,0.00054882,-0.000
 25962,-0.00382604,-0.00500162,0.00174603,-0.00006433,0.00069746,0.0682
 8755,-0.11643111,-0.17775823,0.00920239,-0.01627488,-0.01800292,-0.000
 12660,0.00009874,0.00017732,0.00016060,0.00051718,0.00040273,-0.000572
 18,-0.00004857,0.00046410,-0.07036345,0.12761239,0.19181037,-0.0081725
 8,-0.00376478,0.00187497,0.00204500,-0.02826489,0.01095100,0.00145517,
 0.00030101,-0.00112936,-0.04910872,-0.00466123,0.00345188,-0.00014802,
 0.01834129,-0.00743504,-0.00005012,-0.00138841,0.00090158,0.00084781,0
 .00008413,-0.00042958,-0.00015445,-0.00018368,0.00010502,0.00012638,0.
 01046785,-0.00510918,0.05366604,-0.00324878,-0.00057817,0.00039568,0.0
 0468135,-0.00738307,0.00082234,0.00029491,0.00149231,-0.00018825,-0.00
 978249,-0.28182012,0.09461321,-0.00030936,0.00118507,-0.00104883,0.000
 14651,-0.00021659,0.00042108,-0.00030980,0.00040875,-0.00017540,0.0000
 4013,-0.00005217,-0.00006711,-0.00179115,-0.01471948,0.00738991,0.0097
 1622,0.29942417,0.00116107,0.00016527,0.00088143,-0.00091120,0.0047641
 2,-0.00400674,-0.00024164,-0.00012366,0.00040292,0.00420787,0.09256523
 ,-0.08462823,0.00085008,0.02505420,-0.01055196,-0.00010795,0.00032972,
 0.00027028,0.00010880,-0.00054302,0.00028747,-0.00014531,0.00010434,0.
 00004232,-0.00187160,-0.01953568,0.00871701,-0.00052282,-0.10263272,0.
 09077783,-0.00002063,0.00024424,0.00003504,0.00062680,-0.00092276,-0.0
 0004368,-0.00031821,0.00050148,0.00023105,0.00754790,-0.01402247,-0.01
 324179,-0.07293806,0.05512333,0.05840687,-0.00005737,-0.00004135,0.000
 04437,0.00018913,0.00022260,0.00012858,-0.00121577,-0.00055755,0.00028
 044,-0.00188797,0.00015491,-0.00330610,0.00066788,0.00017800,0.0007723
 8,0.07502729,-0.00026767,0.00001782,0.00011385,0.00086601,-0.00034285,
 -0.00092965,0.00058030,0.00026003,0.00057686,-0.00230758,0.00219498,0.
 00295493,0.05569959,-0.16349457,-0.12210046,-0.00003050,0.00001319,-0.
 00003357,-0.00019036,-0.00004112,0.00007175,-0.00135395,0.00023739,0.0
 0004536,0.00052763,0.00131659,0.00047285,-0.00065194,0.00065987,0.0000
 3802,-0.05972914,0.16886612,-0.00035797,-0.00004204,0.00018511,0.00209
 382,-0.00050768,-0.00053141,0.00050833,0.00089384,0.00154071,0.0091039
 8,-0.01705057,-0.01758200,0.05880538,-0.12097882,-0.17623896,-0.000001
 65,-0.00006662,-0.00003221,-0.00013421,0.00004917,0.00006095,-0.001413
 62,-0.00008402,0.00019674,-0.00390845,0.00048503,-0.00397139,0.0005182
 0,0.00026325,0.00079297,-0.06099107,0.13263140,0.19059681,-0.00013677,
 -0.00014331,0.00021453,0.00078266,0.00101250,-0.00427873,-0.00015336,-
 0.00014188,0.00018669,-0.01531100,-0.00372507,0.00536783,-0.29599509,-
 0.06021530,0.06170314,0.00009366,0.00003189,0.00003801,-0.00115466,-0.
 00030593,0.00018193,0.00065901,-0.00002445,-0.00020042,0.00083733,-0.0
 0025840,0.00007442,0.00049818,0.00036943,0.00028463,-0.00729091,-0.002
 46386,0.00074637,0.31547793,-0.00040051,0.00032087,-0.00027905,0.00065
 796,-0.00024286,0.00013765,0.00021019,0.00039321,0.00068830,0.00283176
 ,-0.00061712,-0.00058277,-0.06042598,-0.06032160,0.01505850,-0.0000138
 0,0.00007364,-0.00016751,0.00005095,0.00000753,0.00003061,-0.00085340,
 -0.00008117,0.00003325,-0.00033958,0.00007410,0.00013223,0.00021846,0.
 00034695,-0.00045948,0.02038006,0.00517717,-0.00406566,0.06478047,0.05
 900383,0.00021358,-0.00012465,0.00031533,-0.00128270,0.00076297,-0.006
 26400,0.00014064,0.00028345,0.00076485,-0.02896936,-0.00714623,0.00643
 297,0.06417009,0.01546083,-0.05989396,0.00008353,0.00001171,0.00006221
 ,-0.00154343,-0.00035301,0.00011546,-0.00045360,0.00010385,0.00000483,
 0.00059089,-0.00026553,0.00119018,0.00065314,0.00016304,0.00104922,0.0
 1938171,0.00630090,-0.00461294,-0.06340304,-0.01616942,0.06406228,-0.0
 0114962,-0.00056741,-0.00043280,0.00088336,0.00113670,0.00060381,-0.00
 018026,-0.00020645,0.00010011,0.00054948,0.01821522,-0.00676141,-0.046
 69340,-0.00593980,0.00373998,0.00011372,-0.00014599,0.00014230,0.00019
 315,-0.00025221,0.00009808,-0.00001944,0.00017966,-0.00004903,0.000510
 47,-0.00050369,0.00055702,-0.00167256,0.00001503,-0.00358431,-0.000330
 08,0.00932147,-0.00496912,0.00169301,-0.02709657,0.01041855,0.04610216
 ,-0.00135379,0.00025553,-0.00084421,-0.00091176,-0.00100823,0.00085482
 ,0.00032775,0.00010196,-0.00013622,0.00089767,0.00112761,-0.00038022,-
 0.00460745,-0.28311945,0.09839432,0.00001931,0.00010261,-0.00027104,0.
 00024313,0.00002849,-0.00003391,-0.00012362,-0.00016433,0.00011945,0.0
 0032615,0.00067044,0.00022339,-0.00021402,0.00125248,0.00027367,-0.001
 53134,-0.01486463,0.00847272,0.00108391,-0.00413454,0.00097209,0.00584
 405,0.29975205,-0.00005896,-0.00054884,0.00041867,0.00132212,0.0007358
 6,0.00046954,-0.00022667,-0.00002316,0.00017421,0.00144832,0.02504954,
 -0.00966041,0.00291525,0.09730395,-0.08865735,0.00010119,-0.00025658,0
 .00017391,0.00000901,-0.00014624,0.00000031,0.00000587,-0.00001801,-0.
 00008169,0.00079002,0.00000346,0.00072618,-0.00382982,0.00004380,-0.00
 403451,-0.00169779,-0.02014224,0.00959563,-0.00091535,0.00564333,-0.00
 322641,0.00013681,-0.10764485,0.09410194\\0.00000811,-0.00000634,0.000
 01992,-0.00000028,-0.00000974,-0.00000319,-0.00000016,-0.00000934,-0.0
 0000651,-0.00001640,0.00000282,-0.00001304,0.00001102,0.00000396,0.000
 00410,0.00000724,-0.00001202,0.00001035,-0.00000632,-0.00001463,0.0000
 0075,-0.00000029,0.00000431,-0.00000567,-0.00000112,-0.00000948,0.0000
 0370,-0.00000615,-0.00000365,-0.00000702,-0.00000491,0.00002237,-0.000
 00473,0.00000351,0.00001958,-0.00000234,0.00000574,0.00001217,0.000003
 70\\\@
 The archive entry for this job was punched.


 IT IS NOT EASY TO DESCRIBE
     THE SEA WITH THE MOUTH

                   -- KOKYU
 Job cpu time:       0 days  0 hours  9 minutes 39.3 seconds.
 Elapsed time:       0 days  0 hours  1 minutes 12.9 seconds.
 File lengths (MBytes):  RWF=   1312 Int=      0 D2E=      0 Chk=     12 Scr=     32
 Normal termination of Gaussian 16 at Tue Oct 21 19:53:11 2025.
